<?xml version="1.0"?> 
<VTKFile type="UnstructuredGrid"> 
   <UnstructuredGrid> 
      <Piece NumberOfPoints="6000"  NumberOfCells="1500">  
          <Points>  
             <DataArray type="Float64" NumberOfComponents="3" format="ascii">   
-500.0   0.0   0.0
-450.0   0.0   0.0
-500.0   30.0   0.0
-500.0   0.0   16.666666666666668
-450.0   0.0   0.0
-450.0   30.0   0.0
-500.0   30.0   0.0
-450.0   30.0   16.666666666666668
-500.0   0.0   16.666666666666668
-500.0   30.0   16.666666666666668
-450.0   30.0   16.666666666666668
-500.0   30.0   0.0
-500.0   0.0   16.666666666666668
-450.0   30.0   16.666666666666668
-450.0   0.0   16.666666666666668
-450.0   0.0   0.0
-500.0   0.0   16.666666666666668
-450.0   30.0   16.666666666666668
-450.0   0.0   0.0
-500.0   30.0   0.0
-500.0   0.0   16.666666666666668
-450.0   0.0   16.666666666666668
-500.0   30.0   16.666666666666668
-500.0   0.0   33.333333333333336
-450.0   0.0   16.666666666666668
-450.0   30.0   16.666666666666668
-500.0   30.0   16.666666666666668
-450.0   30.0   33.333333333333336
-500.0   0.0   33.333333333333336
-500.0   30.0   33.333333333333336
-450.0   30.0   33.333333333333336
-500.0   30.0   16.666666666666668
-500.0   0.0   33.333333333333336
-450.0   30.0   33.333333333333336
-450.0   0.0   33.333333333333336
-450.0   0.0   16.666666666666668
-500.0   0.0   33.333333333333336
-450.0   30.0   33.333333333333336
-450.0   0.0   16.666666666666668
-500.0   30.0   16.666666666666668
-500.0   0.0   33.333333333333336
-450.0   0.0   33.333333333333336
-500.0   30.0   33.333333333333336
-500.0   0.0   50.0
-450.0   0.0   33.333333333333336
-450.0   30.0   33.333333333333336
-500.0   30.0   33.333333333333336
-450.0   30.0   50.0
-500.0   0.0   50.0
-500.0   30.0   50.0
-450.0   30.0   50.0
-500.0   30.0   33.333333333333336
-500.0   0.0   50.0
-450.0   30.0   50.0
-450.0   0.0   50.0
-450.0   0.0   33.333333333333336
-500.0   0.0   50.0
-450.0   30.0   50.0
-450.0   0.0   33.333333333333336
-500.0   30.0   33.333333333333336
-500.0   30.0   0.0
-450.0   30.0   0.0
-500.0   60.0   0.0
-500.0   30.0   16.666666666666668
-450.0   30.0   0.0
-450.0   60.0   0.0
-500.0   60.0   0.0
-450.0   60.0   16.666666666666668
-500.0   30.0   16.666666666666668
-500.0   60.0   16.666666666666668
-450.0   60.0   16.666666666666668
-500.0   60.0   0.0
-500.0   30.0   16.666666666666668
-450.0   60.0   16.666666666666668
-450.0   30.0   16.666666666666668
-450.0   30.0   0.0
-500.0   30.0   16.666666666666668
-450.0   60.0   16.666666666666668
-450.0   30.0   0.0
-500.0   60.0   0.0
-500.0   30.0   16.666666666666668
-450.0   30.0   16.666666666666668
-500.0   60.0   16.666666666666668
-500.0   30.0   33.333333333333336
-450.0   30.0   16.666666666666668
-450.0   60.0   16.666666666666668
-500.0   60.0   16.666666666666668
-450.0   60.0   33.333333333333336
-500.0   30.0   33.333333333333336
-500.0   60.0   33.333333333333336
-450.0   60.0   33.333333333333336
-500.0   60.0   16.666666666666668
-500.0   30.0   33.333333333333336
-450.0   60.0   33.333333333333336
-450.0   30.0   33.333333333333336
-450.0   30.0   16.666666666666668
-500.0   30.0   33.333333333333336
-450.0   60.0   33.333333333333336
-450.0   30.0   16.666666666666668
-500.0   60.0   16.666666666666668
-500.0   30.0   33.333333333333336
-450.0   30.0   33.333333333333336
-500.0   60.0   33.333333333333336
-500.0   30.0   50.0
-450.0   30.0   33.333333333333336
-450.0   60.0   33.333333333333336
-500.0   60.0   33.333333333333336
-450.0   60.0   50.0
-500.0   30.0   50.0
-500.0   60.0   50.0
-450.0   60.0   50.0
-500.0   60.0   33.333333333333336
-500.0   30.0   50.0
-450.0   60.0   50.0
-450.0   30.0   50.0
-450.0   30.0   33.333333333333336
-500.0   30.0   50.0
-450.0   60.0   50.0
-450.0   30.0   33.333333333333336
-500.0   60.0   33.333333333333336
-500.0   60.0   0.0
-450.0   60.0   0.0
-500.0   90.0   0.0
-500.0   60.0   16.666666666666668
-450.0   60.0   0.0
-450.0   90.0   0.0
-500.0   90.0   0.0
-450.0   90.0   16.666666666666668
-500.0   60.0   16.666666666666668
-500.0   90.0   16.666666666666668
-450.0   90.0   16.666666666666668
-500.0   90.0   0.0
-500.0   60.0   16.666666666666668
-450.0   90.0   16.666666666666668
-450.0   60.0   16.666666666666668
-450.0   60.0   0.0
-500.0   60.0   16.666666666666668
-450.0   90.0   16.666666666666668
-450.0   60.0   0.0
-500.0   90.0   0.0
-500.0   60.0   16.666666666666668
-450.0   60.0   16.666666666666668
-500.0   90.0   16.666666666666668
-500.0   60.0   33.333333333333336
-450.0   60.0   16.666666666666668
-450.0   90.0   16.666666666666668
-500.0   90.0   16.666666666666668
-450.0   90.0   33.333333333333336
-500.0   60.0   33.333333333333336
-500.0   90.0   33.333333333333336
-450.0   90.0   33.333333333333336
-500.0   90.0   16.666666666666668
-500.0   60.0   33.333333333333336
-450.0   90.0   33.333333333333336
-450.0   60.0   33.333333333333336
-450.0   60.0   16.666666666666668
-500.0   60.0   33.333333333333336
-450.0   90.0   33.333333333333336
-450.0   60.0   16.666666666666668
-500.0   90.0   16.666666666666668
-500.0   60.0   33.333333333333336
-450.0   60.0   33.333333333333336
-500.0   90.0   33.333333333333336
-500.0   60.0   50.0
-450.0   60.0   33.333333333333336
-450.0   90.0   33.333333333333336
-500.0   90.0   33.333333333333336
-450.0   90.0   50.0
-500.0   60.0   50.0
-500.0   90.0   50.0
-450.0   90.0   50.0
-500.0   90.0   33.333333333333336
-500.0   60.0   50.0
-450.0   90.0   50.0
-450.0   60.0   50.0
-450.0   60.0   33.333333333333336
-500.0   60.0   50.0
-450.0   90.0   50.0
-450.0   60.0   33.333333333333336
-500.0   90.0   33.333333333333336
-500.0   90.0   0.0
-450.0   90.0   0.0
-500.0   120.0   0.0
-500.0   90.0   16.666666666666668
-450.0   90.0   0.0
-450.0   120.0   0.0
-500.0   120.0   0.0
-450.0   120.0   16.666666666666668
-500.0   90.0   16.666666666666668
-500.0   120.0   16.666666666666668
-450.0   120.0   16.666666666666668
-500.0   120.0   0.0
-500.0   90.0   16.666666666666668
-450.0   120.0   16.666666666666668
-450.0   90.0   16.666666666666668
-450.0   90.0   0.0
-500.0   90.0   16.666666666666668
-450.0   120.0   16.666666666666668
-450.0   90.0   0.0
-500.0   120.0   0.0
-500.0   90.0   16.666666666666668
-450.0   90.0   16.666666666666668
-500.0   120.0   16.666666666666668
-500.0   90.0   33.333333333333336
-450.0   90.0   16.666666666666668
-450.0   120.0   16.666666666666668
-500.0   120.0   16.666666666666668
-450.0   120.0   33.333333333333336
-500.0   90.0   33.333333333333336
-500.0   120.0   33.333333333333336
-450.0   120.0   33.333333333333336
-500.0   120.0   16.666666666666668
-500.0   90.0   33.333333333333336
-450.0   120.0   33.333333333333336
-450.0   90.0   33.333333333333336
-450.0   90.0   16.666666666666668
-500.0   90.0   33.333333333333336
-450.0   120.0   33.333333333333336
-450.0   90.0   16.666666666666668
-500.0   120.0   16.666666666666668
-500.0   90.0   33.333333333333336
-450.0   90.0   33.333333333333336
-500.0   120.0   33.333333333333336
-500.0   90.0   50.0
-450.0   90.0   33.333333333333336
-450.0   120.0   33.333333333333336
-500.0   120.0   33.333333333333336
-450.0   120.0   50.0
-500.0   90.0   50.0
-500.0   120.0   50.0
-450.0   120.0   50.0
-500.0   120.0   33.333333333333336
-500.0   90.0   50.0
-450.0   120.0   50.0
-450.0   90.0   50.0
-450.0   90.0   33.333333333333336
-500.0   90.0   50.0
-450.0   120.0   50.0
-450.0   90.0   33.333333333333336
-500.0   120.0   33.333333333333336
-500.0   120.0   0.0
-450.0   120.0   0.0
-500.0   150.0   0.0
-500.0   120.0   16.666666666666668
-450.0   120.0   0.0
-450.0   150.0   0.0
-500.0   150.0   0.0
-450.0   150.0   16.666666666666668
-500.0   120.0   16.666666666666668
-500.0   150.0   16.666666666666668
-450.0   150.0   16.666666666666668
-500.0   150.0   0.0
-500.0   120.0   16.666666666666668
-450.0   150.0   16.666666666666668
-450.0   120.0   16.666666666666668
-450.0   120.0   0.0
-500.0   120.0   16.666666666666668
-450.0   150.0   16.666666666666668
-450.0   120.0   0.0
-500.0   150.0   0.0
-500.0   120.0   16.666666666666668
-450.0   120.0   16.666666666666668
-500.0   150.0   16.666666666666668
-500.0   120.0   33.333333333333336
-450.0   120.0   16.666666666666668
-450.0   150.0   16.666666666666668
-500.0   150.0   16.666666666666668
-450.0   150.0   33.333333333333336
-500.0   120.0   33.333333333333336
-500.0   150.0   33.333333333333336
-450.0   150.0   33.333333333333336
-500.0   150.0   16.666666666666668
-500.0   120.0   33.333333333333336
-450.0   150.0   33.333333333333336
-450.0   120.0   33.333333333333336
-450.0   120.0   16.666666666666668
-500.0   120.0   33.333333333333336
-450.0   150.0   33.333333333333336
-450.0   120.0   16.666666666666668
-500.0   150.0   16.666666666666668
-500.0   120.0   33.333333333333336
-450.0   120.0   33.333333333333336
-500.0   150.0   33.333333333333336
-500.0   120.0   50.0
-450.0   120.0   33.333333333333336
-450.0   150.0   33.333333333333336
-500.0   150.0   33.333333333333336
-450.0   150.0   50.0
-500.0   120.0   50.0
-500.0   150.0   50.0
-450.0   150.0   50.0
-500.0   150.0   33.333333333333336
-500.0   120.0   50.0
-450.0   150.0   50.0
-450.0   120.0   50.0
-450.0   120.0   33.333333333333336
-500.0   120.0   50.0
-450.0   150.0   50.0
-450.0   120.0   33.333333333333336
-500.0   150.0   33.333333333333336
-450.0   0.0   0.0
-400.0   0.0   0.0
-450.0   30.0   0.0
-450.0   0.0   16.666666666666668
-400.0   0.0   0.0
-400.0   30.0   0.0
-450.0   30.0   0.0
-400.0   30.0   16.666666666666668
-450.0   0.0   16.666666666666668
-450.0   30.0   16.666666666666668
-400.0   30.0   16.666666666666668
-450.0   30.0   0.0
-450.0   0.0   16.666666666666668
-400.0   30.0   16.666666666666668
-400.0   0.0   16.666666666666668
-400.0   0.0   0.0
-450.0   0.0   16.666666666666668
-400.0   30.0   16.666666666666668
-400.0   0.0   0.0
-450.0   30.0   0.0
-450.0   0.0   16.666666666666668
-400.0   0.0   16.666666666666668
-450.0   30.0   16.666666666666668
-450.0   0.0   33.333333333333336
-400.0   0.0   16.666666666666668
-400.0   30.0   16.666666666666668
-450.0   30.0   16.666666666666668
-400.0   30.0   33.333333333333336
-450.0   0.0   33.333333333333336
-450.0   30.0   33.333333333333336
-400.0   30.0   33.333333333333336
-450.0   30.0   16.666666666666668
-450.0   0.0   33.333333333333336
-400.0   30.0   33.333333333333336
-400.0   0.0   33.333333333333336
-400.0   0.0   16.666666666666668
-450.0   0.0   33.333333333333336
-400.0   30.0   33.333333333333336
-400.0   0.0   16.666666666666668
-450.0   30.0   16.666666666666668
-450.0   0.0   33.333333333333336
-400.0   0.0   33.333333333333336
-450.0   30.0   33.333333333333336
-450.0   0.0   50.0
-400.0   0.0   33.333333333333336
-400.0   30.0   33.333333333333336
-450.0   30.0   33.333333333333336
-400.0   30.0   50.0
-450.0   0.0   50.0
-450.0   30.0   50.0
-400.0   30.0   50.0
-450.0   30.0   33.333333333333336
-450.0   0.0   50.0
-400.0   30.0   50.0
-400.0   0.0   50.0
-400.0   0.0   33.333333333333336
-450.0   0.0   50.0
-400.0   30.0   50.0
-400.0   0.0   33.333333333333336
-450.0   30.0   33.333333333333336
-450.0   30.0   0.0
-400.0   30.0   0.0
-450.0   60.0   0.0
-450.0   30.0   16.666666666666668
-400.0   30.0   0.0
-400.0   60.0   0.0
-450.0   60.0   0.0
-400.0   60.0   16.666666666666668
-450.0   30.0   16.666666666666668
-450.0   60.0   16.666666666666668
-400.0   60.0   16.666666666666668
-450.0   60.0   0.0
-450.0   30.0   16.666666666666668
-400.0   60.0   16.666666666666668
-400.0   30.0   16.666666666666668
-400.0   30.0   0.0
-450.0   30.0   16.666666666666668
-400.0   60.0   16.666666666666668
-400.0   30.0   0.0
-450.0   60.0   0.0
-450.0   30.0   16.666666666666668
-400.0   30.0   16.666666666666668
-450.0   60.0   16.666666666666668
-450.0   30.0   33.333333333333336
-400.0   30.0   16.666666666666668
-400.0   60.0   16.666666666666668
-450.0   60.0   16.666666666666668
-400.0   60.0   33.333333333333336
-450.0   30.0   33.333333333333336
-450.0   60.0   33.333333333333336
-400.0   60.0   33.333333333333336
-450.0   60.0   16.666666666666668
-450.0   30.0   33.333333333333336
-400.0   60.0   33.333333333333336
-400.0   30.0   33.333333333333336
-400.0   30.0   16.666666666666668
-450.0   30.0   33.333333333333336
-400.0   60.0   33.333333333333336
-400.0   30.0   16.666666666666668
-450.0   60.0   16.666666666666668
-450.0   30.0   33.333333333333336
-400.0   30.0   33.333333333333336
-450.0   60.0   33.333333333333336
-450.0   30.0   50.0
-400.0   30.0   33.333333333333336
-400.0   60.0   33.333333333333336
-450.0   60.0   33.333333333333336
-400.0   60.0   50.0
-450.0   30.0   50.0
-450.0   60.0   50.0
-400.0   60.0   50.0
-450.0   60.0   33.333333333333336
-450.0   30.0   50.0
-400.0   60.0   50.0
-400.0   30.0   50.0
-400.0   30.0   33.333333333333336
-450.0   30.0   50.0
-400.0   60.0   50.0
-400.0   30.0   33.333333333333336
-450.0   60.0   33.333333333333336
-450.0   60.0   0.0
-400.0   60.0   0.0
-450.0   90.0   0.0
-450.0   60.0   16.666666666666668
-400.0   60.0   0.0
-400.0   90.0   0.0
-450.0   90.0   0.0
-400.0   90.0   16.666666666666668
-450.0   60.0   16.666666666666668
-450.0   90.0   16.666666666666668
-400.0   90.0   16.666666666666668
-450.0   90.0   0.0
-450.0   60.0   16.666666666666668
-400.0   90.0   16.666666666666668
-400.0   60.0   16.666666666666668
-400.0   60.0   0.0
-450.0   60.0   16.666666666666668
-400.0   90.0   16.666666666666668
-400.0   60.0   0.0
-450.0   90.0   0.0
-450.0   60.0   16.666666666666668
-400.0   60.0   16.666666666666668
-450.0   90.0   16.666666666666668
-450.0   60.0   33.333333333333336
-400.0   60.0   16.666666666666668
-400.0   90.0   16.666666666666668
-450.0   90.0   16.666666666666668
-400.0   90.0   33.333333333333336
-450.0   60.0   33.333333333333336
-450.0   90.0   33.333333333333336
-400.0   90.0   33.333333333333336
-450.0   90.0   16.666666666666668
-450.0   60.0   33.333333333333336
-400.0   90.0   33.333333333333336
-400.0   60.0   33.333333333333336
-400.0   60.0   16.666666666666668
-450.0   60.0   33.333333333333336
-400.0   90.0   33.333333333333336
-400.0   60.0   16.666666666666668
-450.0   90.0   16.666666666666668
-450.0   60.0   33.333333333333336
-400.0   60.0   33.333333333333336
-450.0   90.0   33.333333333333336
-450.0   60.0   50.0
-400.0   60.0   33.333333333333336
-400.0   90.0   33.333333333333336
-450.0   90.0   33.333333333333336
-400.0   90.0   50.0
-450.0   60.0   50.0
-450.0   90.0   50.0
-400.0   90.0   50.0
-450.0   90.0   33.333333333333336
-450.0   60.0   50.0
-400.0   90.0   50.0
-400.0   60.0   50.0
-400.0   60.0   33.333333333333336
-450.0   60.0   50.0
-400.0   90.0   50.0
-400.0   60.0   33.333333333333336
-450.0   90.0   33.333333333333336
-450.0   90.0   0.0
-400.0   90.0   0.0
-450.0   120.0   0.0
-450.0   90.0   16.666666666666668
-400.0   90.0   0.0
-400.0   120.0   0.0
-450.0   120.0   0.0
-400.0   120.0   16.666666666666668
-450.0   90.0   16.666666666666668
-450.0   120.0   16.666666666666668
-400.0   120.0   16.666666666666668
-450.0   120.0   0.0
-450.0   90.0   16.666666666666668
-400.0   120.0   16.666666666666668
-400.0   90.0   16.666666666666668
-400.0   90.0   0.0
-450.0   90.0   16.666666666666668
-400.0   120.0   16.666666666666668
-400.0   90.0   0.0
-450.0   120.0   0.0
-450.0   90.0   16.666666666666668
-400.0   90.0   16.666666666666668
-450.0   120.0   16.666666666666668
-450.0   90.0   33.333333333333336
-400.0   90.0   16.666666666666668
-400.0   120.0   16.666666666666668
-450.0   120.0   16.666666666666668
-400.0   120.0   33.333333333333336
-450.0   90.0   33.333333333333336
-450.0   120.0   33.333333333333336
-400.0   120.0   33.333333333333336
-450.0   120.0   16.666666666666668
-450.0   90.0   33.333333333333336
-400.0   120.0   33.333333333333336
-400.0   90.0   33.333333333333336
-400.0   90.0   16.666666666666668
-450.0   90.0   33.333333333333336
-400.0   120.0   33.333333333333336
-400.0   90.0   16.666666666666668
-450.0   120.0   16.666666666666668
-450.0   90.0   33.333333333333336
-400.0   90.0   33.333333333333336
-450.0   120.0   33.333333333333336
-450.0   90.0   50.0
-400.0   90.0   33.333333333333336
-400.0   120.0   33.333333333333336
-450.0   120.0   33.333333333333336
-400.0   120.0   50.0
-450.0   90.0   50.0
-450.0   120.0   50.0
-400.0   120.0   50.0
-450.0   120.0   33.333333333333336
-450.0   90.0   50.0
-400.0   120.0   50.0
-400.0   90.0   50.0
-400.0   90.0   33.333333333333336
-450.0   90.0   50.0
-400.0   120.0   50.0
-400.0   90.0   33.333333333333336
-450.0   120.0   33.333333333333336
-450.0   120.0   0.0
-400.0   120.0   0.0
-450.0   150.0   0.0
-450.0   120.0   16.666666666666668
-400.0   120.0   0.0
-400.0   150.0   0.0
-450.0   150.0   0.0
-400.0   150.0   16.666666666666668
-450.0   120.0   16.666666666666668
-450.0   150.0   16.666666666666668
-400.0   150.0   16.666666666666668
-450.0   150.0   0.0
-450.0   120.0   16.666666666666668
-400.0   150.0   16.666666666666668
-400.0   120.0   16.666666666666668
-400.0   120.0   0.0
-450.0   120.0   16.666666666666668
-400.0   150.0   16.666666666666668
-400.0   120.0   0.0
-450.0   150.0   0.0
-450.0   120.0   16.666666666666668
-400.0   120.0   16.666666666666668
-450.0   150.0   16.666666666666668
-450.0   120.0   33.333333333333336
-400.0   120.0   16.666666666666668
-400.0   150.0   16.666666666666668
-450.0   150.0   16.666666666666668
-400.0   150.0   33.333333333333336
-450.0   120.0   33.333333333333336
-450.0   150.0   33.333333333333336
-400.0   150.0   33.333333333333336
-450.0   150.0   16.666666666666668
-450.0   120.0   33.333333333333336
-400.0   150.0   33.333333333333336
-400.0   120.0   33.333333333333336
-400.0   120.0   16.666666666666668
-450.0   120.0   33.333333333333336
-400.0   150.0   33.333333333333336
-400.0   120.0   16.666666666666668
-450.0   150.0   16.666666666666668
-450.0   120.0   33.333333333333336
-400.0   120.0   33.333333333333336
-450.0   150.0   33.333333333333336
-450.0   120.0   50.0
-400.0   120.0   33.333333333333336
-400.0   150.0   33.333333333333336
-450.0   150.0   33.333333333333336
-400.0   150.0   50.0
-450.0   120.0   50.0
-450.0   150.0   50.0
-400.0   150.0   50.0
-450.0   150.0   33.333333333333336
-450.0   120.0   50.0
-400.0   150.0   50.0
-400.0   120.0   50.0
-400.0   120.0   33.333333333333336
-450.0   120.0   50.0
-400.0   150.0   50.0
-400.0   120.0   33.333333333333336
-450.0   150.0   33.333333333333336
-400.0   0.0   0.0
-350.0   0.0   0.0
-400.0   30.0   0.0
-400.0   0.0   16.666666666666668
-350.0   0.0   0.0
-350.0   30.0   0.0
-400.0   30.0   0.0
-350.0   30.0   16.666666666666668
-400.0   0.0   16.666666666666668
-400.0   30.0   16.666666666666668
-350.0   30.0   16.666666666666668
-400.0   30.0   0.0
-400.0   0.0   16.666666666666668
-350.0   30.0   16.666666666666668
-350.0   0.0   16.666666666666668
-350.0   0.0   0.0
-400.0   0.0   16.666666666666668
-350.0   30.0   16.666666666666668
-350.0   0.0   0.0
-400.0   30.0   0.0
-400.0   0.0   16.666666666666668
-350.0   0.0   16.666666666666668
-400.0   30.0   16.666666666666668
-400.0   0.0   33.333333333333336
-350.0   0.0   16.666666666666668
-350.0   30.0   16.666666666666668
-400.0   30.0   16.666666666666668
-350.0   30.0   33.333333333333336
-400.0   0.0   33.333333333333336
-400.0   30.0   33.333333333333336
-350.0   30.0   33.333333333333336
-400.0   30.0   16.666666666666668
-400.0   0.0   33.333333333333336
-350.0   30.0   33.333333333333336
-350.0   0.0   33.333333333333336
-350.0   0.0   16.666666666666668
-400.0   0.0   33.333333333333336
-350.0   30.0   33.333333333333336
-350.0   0.0   16.666666666666668
-400.0   30.0   16.666666666666668
-400.0   0.0   33.333333333333336
-350.0   0.0   33.333333333333336
-400.0   30.0   33.333333333333336
-400.0   0.0   50.0
-350.0   0.0   33.333333333333336
-350.0   30.0   33.333333333333336
-400.0   30.0   33.333333333333336
-350.0   30.0   50.0
-400.0   0.0   50.0
-400.0   30.0   50.0
-350.0   30.0   50.0
-400.0   30.0   33.333333333333336
-400.0   0.0   50.0
-350.0   30.0   50.0
-350.0   0.0   50.0
-350.0   0.0   33.333333333333336
-400.0   0.0   50.0
-350.0   30.0   50.0
-350.0   0.0   33.333333333333336
-400.0   30.0   33.333333333333336
-400.0   30.0   0.0
-350.0   30.0   0.0
-400.0   60.0   0.0
-400.0   30.0   16.666666666666668
-350.0   30.0   0.0
-350.0   60.0   0.0
-400.0   60.0   0.0
-350.0   60.0   16.666666666666668
-400.0   30.0   16.666666666666668
-400.0   60.0   16.666666666666668
-350.0   60.0   16.666666666666668
-400.0   60.0   0.0
-400.0   30.0   16.666666666666668
-350.0   60.0   16.666666666666668
-350.0   30.0   16.666666666666668
-350.0   30.0   0.0
-400.0   30.0   16.666666666666668
-350.0   60.0   16.666666666666668
-350.0   30.0   0.0
-400.0   60.0   0.0
-400.0   30.0   16.666666666666668
-350.0   30.0   16.666666666666668
-400.0   60.0   16.666666666666668
-400.0   30.0   33.333333333333336
-350.0   30.0   16.666666666666668
-350.0   60.0   16.666666666666668
-400.0   60.0   16.666666666666668
-350.0   60.0   33.333333333333336
-400.0   30.0   33.333333333333336
-400.0   60.0   33.333333333333336
-350.0   60.0   33.333333333333336
-400.0   60.0   16.666666666666668
-400.0   30.0   33.333333333333336
-350.0   60.0   33.333333333333336
-350.0   30.0   33.333333333333336
-350.0   30.0   16.666666666666668
-400.0   30.0   33.333333333333336
-350.0   60.0   33.333333333333336
-350.0   30.0   16.666666666666668
-400.0   60.0   16.666666666666668
-400.0   30.0   33.333333333333336
-350.0   30.0   33.333333333333336
-400.0   60.0   33.333333333333336
-400.0   30.0   50.0
-350.0   30.0   33.333333333333336
-350.0   60.0   33.333333333333336
-400.0   60.0   33.333333333333336
-350.0   60.0   50.0
-400.0   30.0   50.0
-400.0   60.0   50.0
-350.0   60.0   50.0
-400.0   60.0   33.333333333333336
-400.0   30.0   50.0
-350.0   60.0   50.0
-350.0   30.0   50.0
-350.0   30.0   33.333333333333336
-400.0   30.0   50.0
-350.0   60.0   50.0
-350.0   30.0   33.333333333333336
-400.0   60.0   33.333333333333336
-400.0   60.0   0.0
-350.0   60.0   0.0
-400.0   90.0   0.0
-400.0   60.0   16.666666666666668
-350.0   60.0   0.0
-350.0   90.0   0.0
-400.0   90.0   0.0
-350.0   90.0   16.666666666666668
-400.0   60.0   16.666666666666668
-400.0   90.0   16.666666666666668
-350.0   90.0   16.666666666666668
-400.0   90.0   0.0
-400.0   60.0   16.666666666666668
-350.0   90.0   16.666666666666668
-350.0   60.0   16.666666666666668
-350.0   60.0   0.0
-400.0   60.0   16.666666666666668
-350.0   90.0   16.666666666666668
-350.0   60.0   0.0
-400.0   90.0   0.0
-400.0   60.0   16.666666666666668
-350.0   60.0   16.666666666666668
-400.0   90.0   16.666666666666668
-400.0   60.0   33.333333333333336
-350.0   60.0   16.666666666666668
-350.0   90.0   16.666666666666668
-400.0   90.0   16.666666666666668
-350.0   90.0   33.333333333333336
-400.0   60.0   33.333333333333336
-400.0   90.0   33.333333333333336
-350.0   90.0   33.333333333333336
-400.0   90.0   16.666666666666668
-400.0   60.0   33.333333333333336
-350.0   90.0   33.333333333333336
-350.0   60.0   33.333333333333336
-350.0   60.0   16.666666666666668
-400.0   60.0   33.333333333333336
-350.0   90.0   33.333333333333336
-350.0   60.0   16.666666666666668
-400.0   90.0   16.666666666666668
-400.0   60.0   33.333333333333336
-350.0   60.0   33.333333333333336
-400.0   90.0   33.333333333333336
-400.0   60.0   50.0
-350.0   60.0   33.333333333333336
-350.0   90.0   33.333333333333336
-400.0   90.0   33.333333333333336
-350.0   90.0   50.0
-400.0   60.0   50.0
-400.0   90.0   50.0
-350.0   90.0   50.0
-400.0   90.0   33.333333333333336
-400.0   60.0   50.0
-350.0   90.0   50.0
-350.0   60.0   50.0
-350.0   60.0   33.333333333333336
-400.0   60.0   50.0
-350.0   90.0   50.0
-350.0   60.0   33.333333333333336
-400.0   90.0   33.333333333333336
-400.0   90.0   0.0
-350.0   90.0   0.0
-400.0   120.0   0.0
-400.0   90.0   16.666666666666668
-350.0   90.0   0.0
-350.0   120.0   0.0
-400.0   120.0   0.0
-350.0   120.0   16.666666666666668
-400.0   90.0   16.666666666666668
-400.0   120.0   16.666666666666668
-350.0   120.0   16.666666666666668
-400.0   120.0   0.0
-400.0   90.0   16.666666666666668
-350.0   120.0   16.666666666666668
-350.0   90.0   16.666666666666668
-350.0   90.0   0.0
-400.0   90.0   16.666666666666668
-350.0   120.0   16.666666666666668
-350.0   90.0   0.0
-400.0   120.0   0.0
-400.0   90.0   16.666666666666668
-350.0   90.0   16.666666666666668
-400.0   120.0   16.666666666666668
-400.0   90.0   33.333333333333336
-350.0   90.0   16.666666666666668
-350.0   120.0   16.666666666666668
-400.0   120.0   16.666666666666668
-350.0   120.0   33.333333333333336
-400.0   90.0   33.333333333333336
-400.0   120.0   33.333333333333336
-350.0   120.0   33.333333333333336
-400.0   120.0   16.666666666666668
-400.0   90.0   33.333333333333336
-350.0   120.0   33.333333333333336
-350.0   90.0   33.333333333333336
-350.0   90.0   16.666666666666668
-400.0   90.0   33.333333333333336
-350.0   120.0   33.333333333333336
-350.0   90.0   16.666666666666668
-400.0   120.0   16.666666666666668
-400.0   90.0   33.333333333333336
-350.0   90.0   33.333333333333336
-400.0   120.0   33.333333333333336
-400.0   90.0   50.0
-350.0   90.0   33.333333333333336
-350.0   120.0   33.333333333333336
-400.0   120.0   33.333333333333336
-350.0   120.0   50.0
-400.0   90.0   50.0
-400.0   120.0   50.0
-350.0   120.0   50.0
-400.0   120.0   33.333333333333336
-400.0   90.0   50.0
-350.0   120.0   50.0
-350.0   90.0   50.0
-350.0   90.0   33.333333333333336
-400.0   90.0   50.0
-350.0   120.0   50.0
-350.0   90.0   33.333333333333336
-400.0   120.0   33.333333333333336
-400.0   120.0   0.0
-350.0   120.0   0.0
-400.0   150.0   0.0
-400.0   120.0   16.666666666666668
-350.0   120.0   0.0
-350.0   150.0   0.0
-400.0   150.0   0.0
-350.0   150.0   16.666666666666668
-400.0   120.0   16.666666666666668
-400.0   150.0   16.666666666666668
-350.0   150.0   16.666666666666668
-400.0   150.0   0.0
-400.0   120.0   16.666666666666668
-350.0   150.0   16.666666666666668
-350.0   120.0   16.666666666666668
-350.0   120.0   0.0
-400.0   120.0   16.666666666666668
-350.0   150.0   16.666666666666668
-350.0   120.0   0.0
-400.0   150.0   0.0
-400.0   120.0   16.666666666666668
-350.0   120.0   16.666666666666668
-400.0   150.0   16.666666666666668
-400.0   120.0   33.333333333333336
-350.0   120.0   16.666666666666668
-350.0   150.0   16.666666666666668
-400.0   150.0   16.666666666666668
-350.0   150.0   33.333333333333336
-400.0   120.0   33.333333333333336
-400.0   150.0   33.333333333333336
-350.0   150.0   33.333333333333336
-400.0   150.0   16.666666666666668
-400.0   120.0   33.333333333333336
-350.0   150.0   33.333333333333336
-350.0   120.0   33.333333333333336
-350.0   120.0   16.666666666666668
-400.0   120.0   33.333333333333336
-350.0   150.0   33.333333333333336
-350.0   120.0   16.666666666666668
-400.0   150.0   16.666666666666668
-400.0   120.0   33.333333333333336
-350.0   120.0   33.333333333333336
-400.0   150.0   33.333333333333336
-400.0   120.0   50.0
-350.0   120.0   33.333333333333336
-350.0   150.0   33.333333333333336
-400.0   150.0   33.333333333333336
-350.0   150.0   50.0
-400.0   120.0   50.0
-400.0   150.0   50.0
-350.0   150.0   50.0
-400.0   150.0   33.333333333333336
-400.0   120.0   50.0
-350.0   150.0   50.0
-350.0   120.0   50.0
-350.0   120.0   33.333333333333336
-400.0   120.0   50.0
-350.0   150.0   50.0
-350.0   120.0   33.333333333333336
-400.0   150.0   33.333333333333336
-350.0   0.0   0.0
-300.0   0.0   0.0
-350.0   30.0   0.0
-350.0   0.0   16.666666666666668
-300.0   0.0   0.0
-300.0   30.0   0.0
-350.0   30.0   0.0
-300.0   30.0   16.666666666666668
-350.0   0.0   16.666666666666668
-350.0   30.0   16.666666666666668
-300.0   30.0   16.666666666666668
-350.0   30.0   0.0
-350.0   0.0   16.666666666666668
-300.0   30.0   16.666666666666668
-300.0   0.0   16.666666666666668
-300.0   0.0   0.0
-350.0   0.0   16.666666666666668
-300.0   30.0   16.666666666666668
-300.0   0.0   0.0
-350.0   30.0   0.0
-350.0   0.0   16.666666666666668
-300.0   0.0   16.666666666666668
-350.0   30.0   16.666666666666668
-350.0   0.0   33.333333333333336
-300.0   0.0   16.666666666666668
-300.0   30.0   16.666666666666668
-350.0   30.0   16.666666666666668
-300.0   30.0   33.333333333333336
-350.0   0.0   33.333333333333336
-350.0   30.0   33.333333333333336
-300.0   30.0   33.333333333333336
-350.0   30.0   16.666666666666668
-350.0   0.0   33.333333333333336
-300.0   30.0   33.333333333333336
-300.0   0.0   33.333333333333336
-300.0   0.0   16.666666666666668
-350.0   0.0   33.333333333333336
-300.0   30.0   33.333333333333336
-300.0   0.0   16.666666666666668
-350.0   30.0   16.666666666666668
-350.0   0.0   33.333333333333336
-300.0   0.0   33.333333333333336
-350.0   30.0   33.333333333333336
-350.0   0.0   50.0
-300.0   0.0   33.333333333333336
-300.0   30.0   33.333333333333336
-350.0   30.0   33.333333333333336
-300.0   30.0   50.0
-350.0   0.0   50.0
-350.0   30.0   50.0
-300.0   30.0   50.0
-350.0   30.0   33.333333333333336
-350.0   0.0   50.0
-300.0   30.0   50.0
-300.0   0.0   50.0
-300.0   0.0   33.333333333333336
-350.0   0.0   50.0
-300.0   30.0   50.0
-300.0   0.0   33.333333333333336
-350.0   30.0   33.333333333333336
-350.0   30.0   0.0
-300.0   30.0   0.0
-350.0   60.0   0.0
-350.0   30.0   16.666666666666668
-300.0   30.0   0.0
-300.0   60.0   0.0
-350.0   60.0   0.0
-300.0   60.0   16.666666666666668
-350.0   30.0   16.666666666666668
-350.0   60.0   16.666666666666668
-300.0   60.0   16.666666666666668
-350.0   60.0   0.0
-350.0   30.0   16.666666666666668
-300.0   60.0   16.666666666666668
-300.0   30.0   16.666666666666668
-300.0   30.0   0.0
-350.0   30.0   16.666666666666668
-300.0   60.0   16.666666666666668
-300.0   30.0   0.0
-350.0   60.0   0.0
-350.0   30.0   16.666666666666668
-300.0   30.0   16.666666666666668
-350.0   60.0   16.666666666666668
-350.0   30.0   33.333333333333336
-300.0   30.0   16.666666666666668
-300.0   60.0   16.666666666666668
-350.0   60.0   16.666666666666668
-300.0   60.0   33.333333333333336
-350.0   30.0   33.333333333333336
-350.0   60.0   33.333333333333336
-300.0   60.0   33.333333333333336
-350.0   60.0   16.666666666666668
-350.0   30.0   33.333333333333336
-300.0   60.0   33.333333333333336
-300.0   30.0   33.333333333333336
-300.0   30.0   16.666666666666668
-350.0   30.0   33.333333333333336
-300.0   60.0   33.333333333333336
-300.0   30.0   16.666666666666668
-350.0   60.0   16.666666666666668
-350.0   30.0   33.333333333333336
-300.0   30.0   33.333333333333336
-350.0   60.0   33.333333333333336
-350.0   30.0   50.0
-300.0   30.0   33.333333333333336
-300.0   60.0   33.333333333333336
-350.0   60.0   33.333333333333336
-300.0   60.0   50.0
-350.0   30.0   50.0
-350.0   60.0   50.0
-300.0   60.0   50.0
-350.0   60.0   33.333333333333336
-350.0   30.0   50.0
-300.0   60.0   50.0
-300.0   30.0   50.0
-300.0   30.0   33.333333333333336
-350.0   30.0   50.0
-300.0   60.0   50.0
-300.0   30.0   33.333333333333336
-350.0   60.0   33.333333333333336
-350.0   60.0   0.0
-300.0   60.0   0.0
-350.0   90.0   0.0
-350.0   60.0   16.666666666666668
-300.0   60.0   0.0
-300.0   90.0   0.0
-350.0   90.0   0.0
-300.0   90.0   16.666666666666668
-350.0   60.0   16.666666666666668
-350.0   90.0   16.666666666666668
-300.0   90.0   16.666666666666668
-350.0   90.0   0.0
-350.0   60.0   16.666666666666668
-300.0   90.0   16.666666666666668
-300.0   60.0   16.666666666666668
-300.0   60.0   0.0
-350.0   60.0   16.666666666666668
-300.0   90.0   16.666666666666668
-300.0   60.0   0.0
-350.0   90.0   0.0
-350.0   60.0   16.666666666666668
-300.0   60.0   16.666666666666668
-350.0   90.0   16.666666666666668
-350.0   60.0   33.333333333333336
-300.0   60.0   16.666666666666668
-300.0   90.0   16.666666666666668
-350.0   90.0   16.666666666666668
-300.0   90.0   33.333333333333336
-350.0   60.0   33.333333333333336
-350.0   90.0   33.333333333333336
-300.0   90.0   33.333333333333336
-350.0   90.0   16.666666666666668
-350.0   60.0   33.333333333333336
-300.0   90.0   33.333333333333336
-300.0   60.0   33.333333333333336
-300.0   60.0   16.666666666666668
-350.0   60.0   33.333333333333336
-300.0   90.0   33.333333333333336
-300.0   60.0   16.666666666666668
-350.0   90.0   16.666666666666668
-350.0   60.0   33.333333333333336
-300.0   60.0   33.333333333333336
-350.0   90.0   33.333333333333336
-350.0   60.0   50.0
-300.0   60.0   33.333333333333336
-300.0   90.0   33.333333333333336
-350.0   90.0   33.333333333333336
-300.0   90.0   50.0
-350.0   60.0   50.0
-350.0   90.0   50.0
-300.0   90.0   50.0
-350.0   90.0   33.333333333333336
-350.0   60.0   50.0
-300.0   90.0   50.0
-300.0   60.0   50.0
-300.0   60.0   33.333333333333336
-350.0   60.0   50.0
-300.0   90.0   50.0
-300.0   60.0   33.333333333333336
-350.0   90.0   33.333333333333336
-350.0   90.0   0.0
-300.0   90.0   0.0
-350.0   120.0   0.0
-350.0   90.0   16.666666666666668
-300.0   90.0   0.0
-300.0   120.0   0.0
-350.0   120.0   0.0
-300.0   120.0   16.666666666666668
-350.0   90.0   16.666666666666668
-350.0   120.0   16.666666666666668
-300.0   120.0   16.666666666666668
-350.0   120.0   0.0
-350.0   90.0   16.666666666666668
-300.0   120.0   16.666666666666668
-300.0   90.0   16.666666666666668
-300.0   90.0   0.0
-350.0   90.0   16.666666666666668
-300.0   120.0   16.666666666666668
-300.0   90.0   0.0
-350.0   120.0   0.0
-350.0   90.0   16.666666666666668
-300.0   90.0   16.666666666666668
-350.0   120.0   16.666666666666668
-350.0   90.0   33.333333333333336
-300.0   90.0   16.666666666666668
-300.0   120.0   16.666666666666668
-350.0   120.0   16.666666666666668
-300.0   120.0   33.333333333333336
-350.0   90.0   33.333333333333336
-350.0   120.0   33.333333333333336
-300.0   120.0   33.333333333333336
-350.0   120.0   16.666666666666668
-350.0   90.0   33.333333333333336
-300.0   120.0   33.333333333333336
-300.0   90.0   33.333333333333336
-300.0   90.0   16.666666666666668
-350.0   90.0   33.333333333333336
-300.0   120.0   33.333333333333336
-300.0   90.0   16.666666666666668
-350.0   120.0   16.666666666666668
-350.0   90.0   33.333333333333336
-300.0   90.0   33.333333333333336
-350.0   120.0   33.333333333333336
-350.0   90.0   50.0
-300.0   90.0   33.333333333333336
-300.0   120.0   33.333333333333336
-350.0   120.0   33.333333333333336
-300.0   120.0   50.0
-350.0   90.0   50.0
-350.0   120.0   50.0
-300.0   120.0   50.0
-350.0   120.0   33.333333333333336
-350.0   90.0   50.0
-300.0   120.0   50.0
-300.0   90.0   50.0
-300.0   90.0   33.333333333333336
-350.0   90.0   50.0
-300.0   120.0   50.0
-300.0   90.0   33.333333333333336
-350.0   120.0   33.333333333333336
-350.0   120.0   0.0
-300.0   120.0   0.0
-350.0   150.0   0.0
-350.0   120.0   16.666666666666668
-300.0   120.0   0.0
-300.0   150.0   0.0
-350.0   150.0   0.0
-300.0   150.0   16.666666666666668
-350.0   120.0   16.666666666666668
-350.0   150.0   16.666666666666668
-300.0   150.0   16.666666666666668
-350.0   150.0   0.0
-350.0   120.0   16.666666666666668
-300.0   150.0   16.666666666666668
-300.0   120.0   16.666666666666668
-300.0   120.0   0.0
-350.0   120.0   16.666666666666668
-300.0   150.0   16.666666666666668
-300.0   120.0   0.0
-350.0   150.0   0.0
-350.0   120.0   16.666666666666668
-300.0   120.0   16.666666666666668
-350.0   150.0   16.666666666666668
-350.0   120.0   33.333333333333336
-300.0   120.0   16.666666666666668
-300.0   150.0   16.666666666666668
-350.0   150.0   16.666666666666668
-300.0   150.0   33.333333333333336
-350.0   120.0   33.333333333333336
-350.0   150.0   33.333333333333336
-300.0   150.0   33.333333333333336
-350.0   150.0   16.666666666666668
-350.0   120.0   33.333333333333336
-300.0   150.0   33.333333333333336
-300.0   120.0   33.333333333333336
-300.0   120.0   16.666666666666668
-350.0   120.0   33.333333333333336
-300.0   150.0   33.333333333333336
-300.0   120.0   16.666666666666668
-350.0   150.0   16.666666666666668
-350.0   120.0   33.333333333333336
-300.0   120.0   33.333333333333336
-350.0   150.0   33.333333333333336
-350.0   120.0   50.0
-300.0   120.0   33.333333333333336
-300.0   150.0   33.333333333333336
-350.0   150.0   33.333333333333336
-300.0   150.0   50.0
-350.0   120.0   50.0
-350.0   150.0   50.0
-300.0   150.0   50.0
-350.0   150.0   33.333333333333336
-350.0   120.0   50.0
-300.0   150.0   50.0
-300.0   120.0   50.0
-300.0   120.0   33.333333333333336
-350.0   120.0   50.0
-300.0   150.0   50.0
-300.0   120.0   33.333333333333336
-350.0   150.0   33.333333333333336
-300.0   0.0   0.0
-250.0   0.0   0.0
-300.0   30.0   0.0
-300.0   0.0   16.666666666666668
-250.0   0.0   0.0
-250.0   30.0   0.0
-300.0   30.0   0.0
-250.0   30.0   16.666666666666668
-300.0   0.0   16.666666666666668
-300.0   30.0   16.666666666666668
-250.0   30.0   16.666666666666668
-300.0   30.0   0.0
-300.0   0.0   16.666666666666668
-250.0   30.0   16.666666666666668
-250.0   0.0   16.666666666666668
-250.0   0.0   0.0
-300.0   0.0   16.666666666666668
-250.0   30.0   16.666666666666668
-250.0   0.0   0.0
-300.0   30.0   0.0
-300.0   0.0   16.666666666666668
-250.0   0.0   16.666666666666668
-300.0   30.0   16.666666666666668
-300.0   0.0   33.333333333333336
-250.0   0.0   16.666666666666668
-250.0   30.0   16.666666666666668
-300.0   30.0   16.666666666666668
-250.0   30.0   33.333333333333336
-300.0   0.0   33.333333333333336
-300.0   30.0   33.333333333333336
-250.0   30.0   33.333333333333336
-300.0   30.0   16.666666666666668
-300.0   0.0   33.333333333333336
-250.0   30.0   33.333333333333336
-250.0   0.0   33.333333333333336
-250.0   0.0   16.666666666666668
-300.0   0.0   33.333333333333336
-250.0   30.0   33.333333333333336
-250.0   0.0   16.666666666666668
-300.0   30.0   16.666666666666668
-300.0   0.0   33.333333333333336
-250.0   0.0   33.333333333333336
-300.0   30.0   33.333333333333336
-300.0   0.0   50.0
-250.0   0.0   33.333333333333336
-250.0   30.0   33.333333333333336
-300.0   30.0   33.333333333333336
-250.0   30.0   50.0
-300.0   0.0   50.0
-300.0   30.0   50.0
-250.0   30.0   50.0
-300.0   30.0   33.333333333333336
-300.0   0.0   50.0
-250.0   30.0   50.0
-250.0   0.0   50.0
-250.0   0.0   33.333333333333336
-300.0   0.0   50.0
-250.0   30.0   50.0
-250.0   0.0   33.333333333333336
-300.0   30.0   33.333333333333336
-300.0   30.0   0.0
-250.0   30.0   0.0
-300.0   60.0   0.0
-300.0   30.0   16.666666666666668
-250.0   30.0   0.0
-250.0   60.0   0.0
-300.0   60.0   0.0
-250.0   60.0   16.666666666666668
-300.0   30.0   16.666666666666668
-300.0   60.0   16.666666666666668
-250.0   60.0   16.666666666666668
-300.0   60.0   0.0
-300.0   30.0   16.666666666666668
-250.0   60.0   16.666666666666668
-250.0   30.0   16.666666666666668
-250.0   30.0   0.0
-300.0   30.0   16.666666666666668
-250.0   60.0   16.666666666666668
-250.0   30.0   0.0
-300.0   60.0   0.0
-300.0   30.0   16.666666666666668
-250.0   30.0   16.666666666666668
-300.0   60.0   16.666666666666668
-300.0   30.0   33.333333333333336
-250.0   30.0   16.666666666666668
-250.0   60.0   16.666666666666668
-300.0   60.0   16.666666666666668
-250.0   60.0   33.333333333333336
-300.0   30.0   33.333333333333336
-300.0   60.0   33.333333333333336
-250.0   60.0   33.333333333333336
-300.0   60.0   16.666666666666668
-300.0   30.0   33.333333333333336
-250.0   60.0   33.333333333333336
-250.0   30.0   33.333333333333336
-250.0   30.0   16.666666666666668
-300.0   30.0   33.333333333333336
-250.0   60.0   33.333333333333336
-250.0   30.0   16.666666666666668
-300.0   60.0   16.666666666666668
-300.0   30.0   33.333333333333336
-250.0   30.0   33.333333333333336
-300.0   60.0   33.333333333333336
-300.0   30.0   50.0
-250.0   30.0   33.333333333333336
-250.0   60.0   33.333333333333336
-300.0   60.0   33.333333333333336
-250.0   60.0   50.0
-300.0   30.0   50.0
-300.0   60.0   50.0
-250.0   60.0   50.0
-300.0   60.0   33.333333333333336
-300.0   30.0   50.0
-250.0   60.0   50.0
-250.0   30.0   50.0
-250.0   30.0   33.333333333333336
-300.0   30.0   50.0
-250.0   60.0   50.0
-250.0   30.0   33.333333333333336
-300.0   60.0   33.333333333333336
-300.0   60.0   0.0
-250.0   60.0   0.0
-300.0   90.0   0.0
-300.0   60.0   16.666666666666668
-250.0   60.0   0.0
-250.0   90.0   0.0
-300.0   90.0   0.0
-250.0   90.0   16.666666666666668
-300.0   60.0   16.666666666666668
-300.0   90.0   16.666666666666668
-250.0   90.0   16.666666666666668
-300.0   90.0   0.0
-300.0   60.0   16.666666666666668
-250.0   90.0   16.666666666666668
-250.0   60.0   16.666666666666668
-250.0   60.0   0.0
-300.0   60.0   16.666666666666668
-250.0   90.0   16.666666666666668
-250.0   60.0   0.0
-300.0   90.0   0.0
-300.0   60.0   16.666666666666668
-250.0   60.0   16.666666666666668
-300.0   90.0   16.666666666666668
-300.0   60.0   33.333333333333336
-250.0   60.0   16.666666666666668
-250.0   90.0   16.666666666666668
-300.0   90.0   16.666666666666668
-250.0   90.0   33.333333333333336
-300.0   60.0   33.333333333333336
-300.0   90.0   33.333333333333336
-250.0   90.0   33.333333333333336
-300.0   90.0   16.666666666666668
-300.0   60.0   33.333333333333336
-250.0   90.0   33.333333333333336
-250.0   60.0   33.333333333333336
-250.0   60.0   16.666666666666668
-300.0   60.0   33.333333333333336
-250.0   90.0   33.333333333333336
-250.0   60.0   16.666666666666668
-300.0   90.0   16.666666666666668
-300.0   60.0   33.333333333333336
-250.0   60.0   33.333333333333336
-300.0   90.0   33.333333333333336
-300.0   60.0   50.0
-250.0   60.0   33.333333333333336
-250.0   90.0   33.333333333333336
-300.0   90.0   33.333333333333336
-250.0   90.0   50.0
-300.0   60.0   50.0
-300.0   90.0   50.0
-250.0   90.0   50.0
-300.0   90.0   33.333333333333336
-300.0   60.0   50.0
-250.0   90.0   50.0
-250.0   60.0   50.0
-250.0   60.0   33.333333333333336
-300.0   60.0   50.0
-250.0   90.0   50.0
-250.0   60.0   33.333333333333336
-300.0   90.0   33.333333333333336
-300.0   90.0   0.0
-250.0   90.0   0.0
-300.0   120.0   0.0
-300.0   90.0   16.666666666666668
-250.0   90.0   0.0
-250.0   120.0   0.0
-300.0   120.0   0.0
-250.0   120.0   16.666666666666668
-300.0   90.0   16.666666666666668
-300.0   120.0   16.666666666666668
-250.0   120.0   16.666666666666668
-300.0   120.0   0.0
-300.0   90.0   16.666666666666668
-250.0   120.0   16.666666666666668
-250.0   90.0   16.666666666666668
-250.0   90.0   0.0
-300.0   90.0   16.666666666666668
-250.0   120.0   16.666666666666668
-250.0   90.0   0.0
-300.0   120.0   0.0
-300.0   90.0   16.666666666666668
-250.0   90.0   16.666666666666668
-300.0   120.0   16.666666666666668
-300.0   90.0   33.333333333333336
-250.0   90.0   16.666666666666668
-250.0   120.0   16.666666666666668
-300.0   120.0   16.666666666666668
-250.0   120.0   33.333333333333336
-300.0   90.0   33.333333333333336
-300.0   120.0   33.333333333333336
-250.0   120.0   33.333333333333336
-300.0   120.0   16.666666666666668
-300.0   90.0   33.333333333333336
-250.0   120.0   33.333333333333336
-250.0   90.0   33.333333333333336
-250.0   90.0   16.666666666666668
-300.0   90.0   33.333333333333336
-250.0   120.0   33.333333333333336
-250.0   90.0   16.666666666666668
-300.0   120.0   16.666666666666668
-300.0   90.0   33.333333333333336
-250.0   90.0   33.333333333333336
-300.0   120.0   33.333333333333336
-300.0   90.0   50.0
-250.0   90.0   33.333333333333336
-250.0   120.0   33.333333333333336
-300.0   120.0   33.333333333333336
-250.0   120.0   50.0
-300.0   90.0   50.0
-300.0   120.0   50.0
-250.0   120.0   50.0
-300.0   120.0   33.333333333333336
-300.0   90.0   50.0
-250.0   120.0   50.0
-250.0   90.0   50.0
-250.0   90.0   33.333333333333336
-300.0   90.0   50.0
-250.0   120.0   50.0
-250.0   90.0   33.333333333333336
-300.0   120.0   33.333333333333336
-300.0   120.0   0.0
-250.0   120.0   0.0
-300.0   150.0   0.0
-300.0   120.0   16.666666666666668
-250.0   120.0   0.0
-250.0   150.0   0.0
-300.0   150.0   0.0
-250.0   150.0   16.666666666666668
-300.0   120.0   16.666666666666668
-300.0   150.0   16.666666666666668
-250.0   150.0   16.666666666666668
-300.0   150.0   0.0
-300.0   120.0   16.666666666666668
-250.0   150.0   16.666666666666668
-250.0   120.0   16.666666666666668
-250.0   120.0   0.0
-300.0   120.0   16.666666666666668
-250.0   150.0   16.666666666666668
-250.0   120.0   0.0
-300.0   150.0   0.0
-300.0   120.0   16.666666666666668
-250.0   120.0   16.666666666666668
-300.0   150.0   16.666666666666668
-300.0   120.0   33.333333333333336
-250.0   120.0   16.666666666666668
-250.0   150.0   16.666666666666668
-300.0   150.0   16.666666666666668
-250.0   150.0   33.333333333333336
-300.0   120.0   33.333333333333336
-300.0   150.0   33.333333333333336
-250.0   150.0   33.333333333333336
-300.0   150.0   16.666666666666668
-300.0   120.0   33.333333333333336
-250.0   150.0   33.333333333333336
-250.0   120.0   33.333333333333336
-250.0   120.0   16.666666666666668
-300.0   120.0   33.333333333333336
-250.0   150.0   33.333333333333336
-250.0   120.0   16.666666666666668
-300.0   150.0   16.666666666666668
-300.0   120.0   33.333333333333336
-250.0   120.0   33.333333333333336
-300.0   150.0   33.333333333333336
-300.0   120.0   50.0
-250.0   120.0   33.333333333333336
-250.0   150.0   33.333333333333336
-300.0   150.0   33.333333333333336
-250.0   150.0   50.0
-300.0   120.0   50.0
-300.0   150.0   50.0
-250.0   150.0   50.0
-300.0   150.0   33.333333333333336
-300.0   120.0   50.0
-250.0   150.0   50.0
-250.0   120.0   50.0
-250.0   120.0   33.333333333333336
-300.0   120.0   50.0
-250.0   150.0   50.0
-250.0   120.0   33.333333333333336
-300.0   150.0   33.333333333333336
-250.0   0.0   0.0
-200.0   0.0   0.0
-250.0   30.0   0.0
-250.0   0.0   16.666666666666668
-200.0   0.0   0.0
-200.0   30.0   0.0
-250.0   30.0   0.0
-200.0   30.0   16.666666666666668
-250.0   0.0   16.666666666666668
-250.0   30.0   16.666666666666668
-200.0   30.0   16.666666666666668
-250.0   30.0   0.0
-250.0   0.0   16.666666666666668
-200.0   30.0   16.666666666666668
-200.0   0.0   16.666666666666668
-200.0   0.0   0.0
-250.0   0.0   16.666666666666668
-200.0   30.0   16.666666666666668
-200.0   0.0   0.0
-250.0   30.0   0.0
-250.0   0.0   16.666666666666668
-200.0   0.0   16.666666666666668
-250.0   30.0   16.666666666666668
-250.0   0.0   33.333333333333336
-200.0   0.0   16.666666666666668
-200.0   30.0   16.666666666666668
-250.0   30.0   16.666666666666668
-200.0   30.0   33.333333333333336
-250.0   0.0   33.333333333333336
-250.0   30.0   33.333333333333336
-200.0   30.0   33.333333333333336
-250.0   30.0   16.666666666666668
-250.0   0.0   33.333333333333336
-200.0   30.0   33.333333333333336
-200.0   0.0   33.333333333333336
-200.0   0.0   16.666666666666668
-250.0   0.0   33.333333333333336
-200.0   30.0   33.333333333333336
-200.0   0.0   16.666666666666668
-250.0   30.0   16.666666666666668
-250.0   0.0   33.333333333333336
-200.0   0.0   33.333333333333336
-250.0   30.0   33.333333333333336
-250.0   0.0   50.0
-200.0   0.0   33.333333333333336
-200.0   30.0   33.333333333333336
-250.0   30.0   33.333333333333336
-200.0   30.0   50.0
-250.0   0.0   50.0
-250.0   30.0   50.0
-200.0   30.0   50.0
-250.0   30.0   33.333333333333336
-250.0   0.0   50.0
-200.0   30.0   50.0
-200.0   0.0   50.0
-200.0   0.0   33.333333333333336
-250.0   0.0   50.0
-200.0   30.0   50.0
-200.0   0.0   33.333333333333336
-250.0   30.0   33.333333333333336
-250.0   30.0   0.0
-200.0   30.0   0.0
-250.0   60.0   0.0
-250.0   30.0   16.666666666666668
-200.0   30.0   0.0
-200.0   60.0   0.0
-250.0   60.0   0.0
-200.0   60.0   16.666666666666668
-250.0   30.0   16.666666666666668
-250.0   60.0   16.666666666666668
-200.0   60.0   16.666666666666668
-250.0   60.0   0.0
-250.0   30.0   16.666666666666668
-200.0   60.0   16.666666666666668
-200.0   30.0   16.666666666666668
-200.0   30.0   0.0
-250.0   30.0   16.666666666666668
-200.0   60.0   16.666666666666668
-200.0   30.0   0.0
-250.0   60.0   0.0
-250.0   30.0   16.666666666666668
-200.0   30.0   16.666666666666668
-250.0   60.0   16.666666666666668
-250.0   30.0   33.333333333333336
-200.0   30.0   16.666666666666668
-200.0   60.0   16.666666666666668
-250.0   60.0   16.666666666666668
-200.0   60.0   33.333333333333336
-250.0   30.0   33.333333333333336
-250.0   60.0   33.333333333333336
-200.0   60.0   33.333333333333336
-250.0   60.0   16.666666666666668
-250.0   30.0   33.333333333333336
-200.0   60.0   33.333333333333336
-200.0   30.0   33.333333333333336
-200.0   30.0   16.666666666666668
-250.0   30.0   33.333333333333336
-200.0   60.0   33.333333333333336
-200.0   30.0   16.666666666666668
-250.0   60.0   16.666666666666668
-250.0   30.0   33.333333333333336
-200.0   30.0   33.333333333333336
-250.0   60.0   33.333333333333336
-250.0   30.0   50.0
-200.0   30.0   33.333333333333336
-200.0   60.0   33.333333333333336
-250.0   60.0   33.333333333333336
-200.0   60.0   50.0
-250.0   30.0   50.0
-250.0   60.0   50.0
-200.0   60.0   50.0
-250.0   60.0   33.333333333333336
-250.0   30.0   50.0
-200.0   60.0   50.0
-200.0   30.0   50.0
-200.0   30.0   33.333333333333336
-250.0   30.0   50.0
-200.0   60.0   50.0
-200.0   30.0   33.333333333333336
-250.0   60.0   33.333333333333336
-250.0   60.0   0.0
-200.0   60.0   0.0
-250.0   90.0   0.0
-250.0   60.0   16.666666666666668
-200.0   60.0   0.0
-200.0   90.0   0.0
-250.0   90.0   0.0
-200.0   90.0   16.666666666666668
-250.0   60.0   16.666666666666668
-250.0   90.0   16.666666666666668
-200.0   90.0   16.666666666666668
-250.0   90.0   0.0
-250.0   60.0   16.666666666666668
-200.0   90.0   16.666666666666668
-200.0   60.0   16.666666666666668
-200.0   60.0   0.0
-250.0   60.0   16.666666666666668
-200.0   90.0   16.666666666666668
-200.0   60.0   0.0
-250.0   90.0   0.0
-250.0   60.0   16.666666666666668
-200.0   60.0   16.666666666666668
-250.0   90.0   16.666666666666668
-250.0   60.0   33.333333333333336
-200.0   60.0   16.666666666666668
-200.0   90.0   16.666666666666668
-250.0   90.0   16.666666666666668
-200.0   90.0   33.333333333333336
-250.0   60.0   33.333333333333336
-250.0   90.0   33.333333333333336
-200.0   90.0   33.333333333333336
-250.0   90.0   16.666666666666668
-250.0   60.0   33.333333333333336
-200.0   90.0   33.333333333333336
-200.0   60.0   33.333333333333336
-200.0   60.0   16.666666666666668
-250.0   60.0   33.333333333333336
-200.0   90.0   33.333333333333336
-200.0   60.0   16.666666666666668
-250.0   90.0   16.666666666666668
-250.0   60.0   33.333333333333336
-200.0   60.0   33.333333333333336
-250.0   90.0   33.333333333333336
-250.0   60.0   50.0
-200.0   60.0   33.333333333333336
-200.0   90.0   33.333333333333336
-250.0   90.0   33.333333333333336
-200.0   90.0   50.0
-250.0   60.0   50.0
-250.0   90.0   50.0
-200.0   90.0   50.0
-250.0   90.0   33.333333333333336
-250.0   60.0   50.0
-200.0   90.0   50.0
-200.0   60.0   50.0
-200.0   60.0   33.333333333333336
-250.0   60.0   50.0
-200.0   90.0   50.0
-200.0   60.0   33.333333333333336
-250.0   90.0   33.333333333333336
-250.0   90.0   0.0
-200.0   90.0   0.0
-250.0   120.0   0.0
-250.0   90.0   16.666666666666668
-200.0   90.0   0.0
-200.0   120.0   0.0
-250.0   120.0   0.0
-200.0   120.0   16.666666666666668
-250.0   90.0   16.666666666666668
-250.0   120.0   16.666666666666668
-200.0   120.0   16.666666666666668
-250.0   120.0   0.0
-250.0   90.0   16.666666666666668
-200.0   120.0   16.666666666666668
-200.0   90.0   16.666666666666668
-200.0   90.0   0.0
-250.0   90.0   16.666666666666668
-200.0   120.0   16.666666666666668
-200.0   90.0   0.0
-250.0   120.0   0.0
-250.0   90.0   16.666666666666668
-200.0   90.0   16.666666666666668
-250.0   120.0   16.666666666666668
-250.0   90.0   33.333333333333336
-200.0   90.0   16.666666666666668
-200.0   120.0   16.666666666666668
-250.0   120.0   16.666666666666668
-200.0   120.0   33.333333333333336
-250.0   90.0   33.333333333333336
-250.0   120.0   33.333333333333336
-200.0   120.0   33.333333333333336
-250.0   120.0   16.666666666666668
-250.0   90.0   33.333333333333336
-200.0   120.0   33.333333333333336
-200.0   90.0   33.333333333333336
-200.0   90.0   16.666666666666668
-250.0   90.0   33.333333333333336
-200.0   120.0   33.333333333333336
-200.0   90.0   16.666666666666668
-250.0   120.0   16.666666666666668
-250.0   90.0   33.333333333333336
-200.0   90.0   33.333333333333336
-250.0   120.0   33.333333333333336
-250.0   90.0   50.0
-200.0   90.0   33.333333333333336
-200.0   120.0   33.333333333333336
-250.0   120.0   33.333333333333336
-200.0   120.0   50.0
-250.0   90.0   50.0
-250.0   120.0   50.0
-200.0   120.0   50.0
-250.0   120.0   33.333333333333336
-250.0   90.0   50.0
-200.0   120.0   50.0
-200.0   90.0   50.0
-200.0   90.0   33.333333333333336
-250.0   90.0   50.0
-200.0   120.0   50.0
-200.0   90.0   33.333333333333336
-250.0   120.0   33.333333333333336
-250.0   120.0   0.0
-200.0   120.0   0.0
-250.0   150.0   0.0
-250.0   120.0   16.666666666666668
-200.0   120.0   0.0
-200.0   150.0   0.0
-250.0   150.0   0.0
-200.0   150.0   16.666666666666668
-250.0   120.0   16.666666666666668
-250.0   150.0   16.666666666666668
-200.0   150.0   16.666666666666668
-250.0   150.0   0.0
-250.0   120.0   16.666666666666668
-200.0   150.0   16.666666666666668
-200.0   120.0   16.666666666666668
-200.0   120.0   0.0
-250.0   120.0   16.666666666666668
-200.0   150.0   16.666666666666668
-200.0   120.0   0.0
-250.0   150.0   0.0
-250.0   120.0   16.666666666666668
-200.0   120.0   16.666666666666668
-250.0   150.0   16.666666666666668
-250.0   120.0   33.333333333333336
-200.0   120.0   16.666666666666668
-200.0   150.0   16.666666666666668
-250.0   150.0   16.666666666666668
-200.0   150.0   33.333333333333336
-250.0   120.0   33.333333333333336
-250.0   150.0   33.333333333333336
-200.0   150.0   33.333333333333336
-250.0   150.0   16.666666666666668
-250.0   120.0   33.333333333333336
-200.0   150.0   33.333333333333336
-200.0   120.0   33.333333333333336
-200.0   120.0   16.666666666666668
-250.0   120.0   33.333333333333336
-200.0   150.0   33.333333333333336
-200.0   120.0   16.666666666666668
-250.0   150.0   16.666666666666668
-250.0   120.0   33.333333333333336
-200.0   120.0   33.333333333333336
-250.0   150.0   33.333333333333336
-250.0   120.0   50.0
-200.0   120.0   33.333333333333336
-200.0   150.0   33.333333333333336
-250.0   150.0   33.333333333333336
-200.0   150.0   50.0
-250.0   120.0   50.0
-250.0   150.0   50.0
-200.0   150.0   50.0
-250.0   150.0   33.333333333333336
-250.0   120.0   50.0
-200.0   150.0   50.0
-200.0   120.0   50.0
-200.0   120.0   33.333333333333336
-250.0   120.0   50.0
-200.0   150.0   50.0
-200.0   120.0   33.333333333333336
-250.0   150.0   33.333333333333336
-200.0   0.0   0.0
-150.0   0.0   0.0
-200.0   30.0   0.0
-200.0   0.0   16.666666666666668
-150.0   0.0   0.0
-150.0   30.0   0.0
-200.0   30.0   0.0
-150.0   30.0   16.666666666666668
-200.0   0.0   16.666666666666668
-200.0   30.0   16.666666666666668
-150.0   30.0   16.666666666666668
-200.0   30.0   0.0
-200.0   0.0   16.666666666666668
-150.0   30.0   16.666666666666668
-150.0   0.0   16.666666666666668
-150.0   0.0   0.0
-200.0   0.0   16.666666666666668
-150.0   30.0   16.666666666666668
-150.0   0.0   0.0
-200.0   30.0   0.0
-200.0   0.0   16.666666666666668
-150.0   0.0   16.666666666666668
-200.0   30.0   16.666666666666668
-200.0   0.0   33.333333333333336
-150.0   0.0   16.666666666666668
-150.0   30.0   16.666666666666668
-200.0   30.0   16.666666666666668
-150.0   30.0   33.333333333333336
-200.0   0.0   33.333333333333336
-200.0   30.0   33.333333333333336
-150.0   30.0   33.333333333333336
-200.0   30.0   16.666666666666668
-200.0   0.0   33.333333333333336
-150.0   30.0   33.333333333333336
-150.0   0.0   33.333333333333336
-150.0   0.0   16.666666666666668
-200.0   0.0   33.333333333333336
-150.0   30.0   33.333333333333336
-150.0   0.0   16.666666666666668
-200.0   30.0   16.666666666666668
-200.0   0.0   33.333333333333336
-150.0   0.0   33.333333333333336
-200.0   30.0   33.333333333333336
-200.0   0.0   50.0
-150.0   0.0   33.333333333333336
-150.0   30.0   33.333333333333336
-200.0   30.0   33.333333333333336
-150.0   30.0   50.0
-200.0   0.0   50.0
-200.0   30.0   50.0
-150.0   30.0   50.0
-200.0   30.0   33.333333333333336
-200.0   0.0   50.0
-150.0   30.0   50.0
-150.0   0.0   50.0
-150.0   0.0   33.333333333333336
-200.0   0.0   50.0
-150.0   30.0   50.0
-150.0   0.0   33.333333333333336
-200.0   30.0   33.333333333333336
-200.0   30.0   0.0
-150.0   30.0   0.0
-200.0   60.0   0.0
-200.0   30.0   16.666666666666668
-150.0   30.0   0.0
-150.0   60.0   0.0
-200.0   60.0   0.0
-150.0   60.0   16.666666666666668
-200.0   30.0   16.666666666666668
-200.0   60.0   16.666666666666668
-150.0   60.0   16.666666666666668
-200.0   60.0   0.0
-200.0   30.0   16.666666666666668
-150.0   60.0   16.666666666666668
-150.0   30.0   16.666666666666668
-150.0   30.0   0.0
-200.0   30.0   16.666666666666668
-150.0   60.0   16.666666666666668
-150.0   30.0   0.0
-200.0   60.0   0.0
-200.0   30.0   16.666666666666668
-150.0   30.0   16.666666666666668
-200.0   60.0   16.666666666666668
-200.0   30.0   33.333333333333336
-150.0   30.0   16.666666666666668
-150.0   60.0   16.666666666666668
-200.0   60.0   16.666666666666668
-150.0   60.0   33.333333333333336
-200.0   30.0   33.333333333333336
-200.0   60.0   33.333333333333336
-150.0   60.0   33.333333333333336
-200.0   60.0   16.666666666666668
-200.0   30.0   33.333333333333336
-150.0   60.0   33.333333333333336
-150.0   30.0   33.333333333333336
-150.0   30.0   16.666666666666668
-200.0   30.0   33.333333333333336
-150.0   60.0   33.333333333333336
-150.0   30.0   16.666666666666668
-200.0   60.0   16.666666666666668
-200.0   30.0   33.333333333333336
-150.0   30.0   33.333333333333336
-200.0   60.0   33.333333333333336
-200.0   30.0   50.0
-150.0   30.0   33.333333333333336
-150.0   60.0   33.333333333333336
-200.0   60.0   33.333333333333336
-150.0   60.0   50.0
-200.0   30.0   50.0
-200.0   60.0   50.0
-150.0   60.0   50.0
-200.0   60.0   33.333333333333336
-200.0   30.0   50.0
-150.0   60.0   50.0
-150.0   30.0   50.0
-150.0   30.0   33.333333333333336
-200.0   30.0   50.0
-150.0   60.0   50.0
-150.0   30.0   33.333333333333336
-200.0   60.0   33.333333333333336
-200.0   60.0   0.0
-150.0   60.0   0.0
-200.0   90.0   0.0
-200.0   60.0   16.666666666666668
-150.0   60.0   0.0
-150.0   90.0   0.0
-200.0   90.0   0.0
-150.0   90.0   16.666666666666668
-200.0   60.0   16.666666666666668
-200.0   90.0   16.666666666666668
-150.0   90.0   16.666666666666668
-200.0   90.0   0.0
-200.0   60.0   16.666666666666668
-150.0   90.0   16.666666666666668
-150.0   60.0   16.666666666666668
-150.0   60.0   0.0
-200.0   60.0   16.666666666666668
-150.0   90.0   16.666666666666668
-150.0   60.0   0.0
-200.0   90.0   0.0
-200.0   60.0   16.666666666666668
-150.0   60.0   16.666666666666668
-200.0   90.0   16.666666666666668
-200.0   60.0   33.333333333333336
-150.0   60.0   16.666666666666668
-150.0   90.0   16.666666666666668
-200.0   90.0   16.666666666666668
-150.0   90.0   33.333333333333336
-200.0   60.0   33.333333333333336
-200.0   90.0   33.333333333333336
-150.0   90.0   33.333333333333336
-200.0   90.0   16.666666666666668
-200.0   60.0   33.333333333333336
-150.0   90.0   33.333333333333336
-150.0   60.0   33.333333333333336
-150.0   60.0   16.666666666666668
-200.0   60.0   33.333333333333336
-150.0   90.0   33.333333333333336
-150.0   60.0   16.666666666666668
-200.0   90.0   16.666666666666668
-200.0   60.0   33.333333333333336
-150.0   60.0   33.333333333333336
-200.0   90.0   33.333333333333336
-200.0   60.0   50.0
-150.0   60.0   33.333333333333336
-150.0   90.0   33.333333333333336
-200.0   90.0   33.333333333333336
-150.0   90.0   50.0
-200.0   60.0   50.0
-200.0   90.0   50.0
-150.0   90.0   50.0
-200.0   90.0   33.333333333333336
-200.0   60.0   50.0
-150.0   90.0   50.0
-150.0   60.0   50.0
-150.0   60.0   33.333333333333336
-200.0   60.0   50.0
-150.0   90.0   50.0
-150.0   60.0   33.333333333333336
-200.0   90.0   33.333333333333336
-200.0   90.0   0.0
-150.0   90.0   0.0
-200.0   120.0   0.0
-200.0   90.0   16.666666666666668
-150.0   90.0   0.0
-150.0   120.0   0.0
-200.0   120.0   0.0
-150.0   120.0   16.666666666666668
-200.0   90.0   16.666666666666668
-200.0   120.0   16.666666666666668
-150.0   120.0   16.666666666666668
-200.0   120.0   0.0
-200.0   90.0   16.666666666666668
-150.0   120.0   16.666666666666668
-150.0   90.0   16.666666666666668
-150.0   90.0   0.0
-200.0   90.0   16.666666666666668
-150.0   120.0   16.666666666666668
-150.0   90.0   0.0
-200.0   120.0   0.0
-200.0   90.0   16.666666666666668
-150.0   90.0   16.666666666666668
-200.0   120.0   16.666666666666668
-200.0   90.0   33.333333333333336
-150.0   90.0   16.666666666666668
-150.0   120.0   16.666666666666668
-200.0   120.0   16.666666666666668
-150.0   120.0   33.333333333333336
-200.0   90.0   33.333333333333336
-200.0   120.0   33.333333333333336
-150.0   120.0   33.333333333333336
-200.0   120.0   16.666666666666668
-200.0   90.0   33.333333333333336
-150.0   120.0   33.333333333333336
-150.0   90.0   33.333333333333336
-150.0   90.0   16.666666666666668
-200.0   90.0   33.333333333333336
-150.0   120.0   33.333333333333336
-150.0   90.0   16.666666666666668
-200.0   120.0   16.666666666666668
-200.0   90.0   33.333333333333336
-150.0   90.0   33.333333333333336
-200.0   120.0   33.333333333333336
-200.0   90.0   50.0
-150.0   90.0   33.333333333333336
-150.0   120.0   33.333333333333336
-200.0   120.0   33.333333333333336
-150.0   120.0   50.0
-200.0   90.0   50.0
-200.0   120.0   50.0
-150.0   120.0   50.0
-200.0   120.0   33.333333333333336
-200.0   90.0   50.0
-150.0   120.0   50.0
-150.0   90.0   50.0
-150.0   90.0   33.333333333333336
-200.0   90.0   50.0
-150.0   120.0   50.0
-150.0   90.0   33.333333333333336
-200.0   120.0   33.333333333333336
-200.0   120.0   0.0
-150.0   120.0   0.0
-200.0   150.0   0.0
-200.0   120.0   16.666666666666668
-150.0   120.0   0.0
-150.0   150.0   0.0
-200.0   150.0   0.0
-150.0   150.0   16.666666666666668
-200.0   120.0   16.666666666666668
-200.0   150.0   16.666666666666668
-150.0   150.0   16.666666666666668
-200.0   150.0   0.0
-200.0   120.0   16.666666666666668
-150.0   150.0   16.666666666666668
-150.0   120.0   16.666666666666668
-150.0   120.0   0.0
-200.0   120.0   16.666666666666668
-150.0   150.0   16.666666666666668
-150.0   120.0   0.0
-200.0   150.0   0.0
-200.0   120.0   16.666666666666668
-150.0   120.0   16.666666666666668
-200.0   150.0   16.666666666666668
-200.0   120.0   33.333333333333336
-150.0   120.0   16.666666666666668
-150.0   150.0   16.666666666666668
-200.0   150.0   16.666666666666668
-150.0   150.0   33.333333333333336
-200.0   120.0   33.333333333333336
-200.0   150.0   33.333333333333336
-150.0   150.0   33.333333333333336
-200.0   150.0   16.666666666666668
-200.0   120.0   33.333333333333336
-150.0   150.0   33.333333333333336
-150.0   120.0   33.333333333333336
-150.0   120.0   16.666666666666668
-200.0   120.0   33.333333333333336
-150.0   150.0   33.333333333333336
-150.0   120.0   16.666666666666668
-200.0   150.0   16.666666666666668
-200.0   120.0   33.333333333333336
-150.0   120.0   33.333333333333336
-200.0   150.0   33.333333333333336
-200.0   120.0   50.0
-150.0   120.0   33.333333333333336
-150.0   150.0   33.333333333333336
-200.0   150.0   33.333333333333336
-150.0   150.0   50.0
-200.0   120.0   50.0
-200.0   150.0   50.0
-150.0   150.0   50.0
-200.0   150.0   33.333333333333336
-200.0   120.0   50.0
-150.0   150.0   50.0
-150.0   120.0   50.0
-150.0   120.0   33.333333333333336
-200.0   120.0   50.0
-150.0   150.0   50.0
-150.0   120.0   33.333333333333336
-200.0   150.0   33.333333333333336
-150.0   0.0   0.0
-100.0   0.0   0.0
-150.0   30.0   0.0
-150.0   0.0   16.666666666666668
-100.0   0.0   0.0
-100.0   30.0   0.0
-150.0   30.0   0.0
-100.0   30.0   16.666666666666668
-150.0   0.0   16.666666666666668
-150.0   30.0   16.666666666666668
-100.0   30.0   16.666666666666668
-150.0   30.0   0.0
-150.0   0.0   16.666666666666668
-100.0   30.0   16.666666666666668
-100.0   0.0   16.666666666666668
-100.0   0.0   0.0
-150.0   0.0   16.666666666666668
-100.0   30.0   16.666666666666668
-100.0   0.0   0.0
-150.0   30.0   0.0
-150.0   0.0   16.666666666666668
-100.0   0.0   16.666666666666668
-150.0   30.0   16.666666666666668
-150.0   0.0   33.333333333333336
-100.0   0.0   16.666666666666668
-100.0   30.0   16.666666666666668
-150.0   30.0   16.666666666666668
-100.0   30.0   33.333333333333336
-150.0   0.0   33.333333333333336
-150.0   30.0   33.333333333333336
-100.0   30.0   33.333333333333336
-150.0   30.0   16.666666666666668
-150.0   0.0   33.333333333333336
-100.0   30.0   33.333333333333336
-100.0   0.0   33.333333333333336
-100.0   0.0   16.666666666666668
-150.0   0.0   33.333333333333336
-100.0   30.0   33.333333333333336
-100.0   0.0   16.666666666666668
-150.0   30.0   16.666666666666668
-150.0   0.0   33.333333333333336
-100.0   0.0   33.333333333333336
-150.0   30.0   33.333333333333336
-150.0   0.0   50.0
-100.0   0.0   33.333333333333336
-100.0   30.0   33.333333333333336
-150.0   30.0   33.333333333333336
-100.0   30.0   50.0
-150.0   0.0   50.0
-150.0   30.0   50.0
-100.0   30.0   50.0
-150.0   30.0   33.333333333333336
-150.0   0.0   50.0
-100.0   30.0   50.0
-100.0   0.0   50.0
-100.0   0.0   33.333333333333336
-150.0   0.0   50.0
-100.0   30.0   50.0
-100.0   0.0   33.333333333333336
-150.0   30.0   33.333333333333336
-150.0   30.0   0.0
-100.0   30.0   0.0
-150.0   60.0   0.0
-150.0   30.0   16.666666666666668
-100.0   30.0   0.0
-100.0   60.0   0.0
-150.0   60.0   0.0
-100.0   60.0   16.666666666666668
-150.0   30.0   16.666666666666668
-150.0   60.0   16.666666666666668
-100.0   60.0   16.666666666666668
-150.0   60.0   0.0
-150.0   30.0   16.666666666666668
-100.0   60.0   16.666666666666668
-100.0   30.0   16.666666666666668
-100.0   30.0   0.0
-150.0   30.0   16.666666666666668
-100.0   60.0   16.666666666666668
-100.0   30.0   0.0
-150.0   60.0   0.0
-150.0   30.0   16.666666666666668
-100.0   30.0   16.666666666666668
-150.0   60.0   16.666666666666668
-150.0   30.0   33.333333333333336
-100.0   30.0   16.666666666666668
-100.0   60.0   16.666666666666668
-150.0   60.0   16.666666666666668
-100.0   60.0   33.333333333333336
-150.0   30.0   33.333333333333336
-150.0   60.0   33.333333333333336
-100.0   60.0   33.333333333333336
-150.0   60.0   16.666666666666668
-150.0   30.0   33.333333333333336
-100.0   60.0   33.333333333333336
-100.0   30.0   33.333333333333336
-100.0   30.0   16.666666666666668
-150.0   30.0   33.333333333333336
-100.0   60.0   33.333333333333336
-100.0   30.0   16.666666666666668
-150.0   60.0   16.666666666666668
-150.0   30.0   33.333333333333336
-100.0   30.0   33.333333333333336
-150.0   60.0   33.333333333333336
-150.0   30.0   50.0
-100.0   30.0   33.333333333333336
-100.0   60.0   33.333333333333336
-150.0   60.0   33.333333333333336
-100.0   60.0   50.0
-150.0   30.0   50.0
-150.0   60.0   50.0
-100.0   60.0   50.0
-150.0   60.0   33.333333333333336
-150.0   30.0   50.0
-100.0   60.0   50.0
-100.0   30.0   50.0
-100.0   30.0   33.333333333333336
-150.0   30.0   50.0
-100.0   60.0   50.0
-100.0   30.0   33.333333333333336
-150.0   60.0   33.333333333333336
-150.0   60.0   0.0
-100.0   60.0   0.0
-150.0   90.0   0.0
-150.0   60.0   16.666666666666668
-100.0   60.0   0.0
-100.0   90.0   0.0
-150.0   90.0   0.0
-100.0   90.0   16.666666666666668
-150.0   60.0   16.666666666666668
-150.0   90.0   16.666666666666668
-100.0   90.0   16.666666666666668
-150.0   90.0   0.0
-150.0   60.0   16.666666666666668
-100.0   90.0   16.666666666666668
-100.0   60.0   16.666666666666668
-100.0   60.0   0.0
-150.0   60.0   16.666666666666668
-100.0   90.0   16.666666666666668
-100.0   60.0   0.0
-150.0   90.0   0.0
-150.0   60.0   16.666666666666668
-100.0   60.0   16.666666666666668
-150.0   90.0   16.666666666666668
-150.0   60.0   33.333333333333336
-100.0   60.0   16.666666666666668
-100.0   90.0   16.666666666666668
-150.0   90.0   16.666666666666668
-100.0   90.0   33.333333333333336
-150.0   60.0   33.333333333333336
-150.0   90.0   33.333333333333336
-100.0   90.0   33.333333333333336
-150.0   90.0   16.666666666666668
-150.0   60.0   33.333333333333336
-100.0   90.0   33.333333333333336
-100.0   60.0   33.333333333333336
-100.0   60.0   16.666666666666668
-150.0   60.0   33.333333333333336
-100.0   90.0   33.333333333333336
-100.0   60.0   16.666666666666668
-150.0   90.0   16.666666666666668
-150.0   60.0   33.333333333333336
-100.0   60.0   33.333333333333336
-150.0   90.0   33.333333333333336
-150.0   60.0   50.0
-100.0   60.0   33.333333333333336
-100.0   90.0   33.333333333333336
-150.0   90.0   33.333333333333336
-100.0   90.0   50.0
-150.0   60.0   50.0
-150.0   90.0   50.0
-100.0   90.0   50.0
-150.0   90.0   33.333333333333336
-150.0   60.0   50.0
-100.0   90.0   50.0
-100.0   60.0   50.0
-100.0   60.0   33.333333333333336
-150.0   60.0   50.0
-100.0   90.0   50.0
-100.0   60.0   33.333333333333336
-150.0   90.0   33.333333333333336
-150.0   90.0   0.0
-100.0   90.0   0.0
-150.0   120.0   0.0
-150.0   90.0   16.666666666666668
-100.0   90.0   0.0
-100.0   120.0   0.0
-150.0   120.0   0.0
-100.0   120.0   16.666666666666668
-150.0   90.0   16.666666666666668
-150.0   120.0   16.666666666666668
-100.0   120.0   16.666666666666668
-150.0   120.0   0.0
-150.0   90.0   16.666666666666668
-100.0   120.0   16.666666666666668
-100.0   90.0   16.666666666666668
-100.0   90.0   0.0
-150.0   90.0   16.666666666666668
-100.0   120.0   16.666666666666668
-100.0   90.0   0.0
-150.0   120.0   0.0
-150.0   90.0   16.666666666666668
-100.0   90.0   16.666666666666668
-150.0   120.0   16.666666666666668
-150.0   90.0   33.333333333333336
-100.0   90.0   16.666666666666668
-100.0   120.0   16.666666666666668
-150.0   120.0   16.666666666666668
-100.0   120.0   33.333333333333336
-150.0   90.0   33.333333333333336
-150.0   120.0   33.333333333333336
-100.0   120.0   33.333333333333336
-150.0   120.0   16.666666666666668
-150.0   90.0   33.333333333333336
-100.0   120.0   33.333333333333336
-100.0   90.0   33.333333333333336
-100.0   90.0   16.666666666666668
-150.0   90.0   33.333333333333336
-100.0   120.0   33.333333333333336
-100.0   90.0   16.666666666666668
-150.0   120.0   16.666666666666668
-150.0   90.0   33.333333333333336
-100.0   90.0   33.333333333333336
-150.0   120.0   33.333333333333336
-150.0   90.0   50.0
-100.0   90.0   33.333333333333336
-100.0   120.0   33.333333333333336
-150.0   120.0   33.333333333333336
-100.0   120.0   50.0
-150.0   90.0   50.0
-150.0   120.0   50.0
-100.0   120.0   50.0
-150.0   120.0   33.333333333333336
-150.0   90.0   50.0
-100.0   120.0   50.0
-100.0   90.0   50.0
-100.0   90.0   33.333333333333336
-150.0   90.0   50.0
-100.0   120.0   50.0
-100.0   90.0   33.333333333333336
-150.0   120.0   33.333333333333336
-150.0   120.0   0.0
-100.0   120.0   0.0
-150.0   150.0   0.0
-150.0   120.0   16.666666666666668
-100.0   120.0   0.0
-100.0   150.0   0.0
-150.0   150.0   0.0
-100.0   150.0   16.666666666666668
-150.0   120.0   16.666666666666668
-150.0   150.0   16.666666666666668
-100.0   150.0   16.666666666666668
-150.0   150.0   0.0
-150.0   120.0   16.666666666666668
-100.0   150.0   16.666666666666668
-100.0   120.0   16.666666666666668
-100.0   120.0   0.0
-150.0   120.0   16.666666666666668
-100.0   150.0   16.666666666666668
-100.0   120.0   0.0
-150.0   150.0   0.0
-150.0   120.0   16.666666666666668
-100.0   120.0   16.666666666666668
-150.0   150.0   16.666666666666668
-150.0   120.0   33.333333333333336
-100.0   120.0   16.666666666666668
-100.0   150.0   16.666666666666668
-150.0   150.0   16.666666666666668
-100.0   150.0   33.333333333333336
-150.0   120.0   33.333333333333336
-150.0   150.0   33.333333333333336
-100.0   150.0   33.333333333333336
-150.0   150.0   16.666666666666668
-150.0   120.0   33.333333333333336
-100.0   150.0   33.333333333333336
-100.0   120.0   33.333333333333336
-100.0   120.0   16.666666666666668
-150.0   120.0   33.333333333333336
-100.0   150.0   33.333333333333336
-100.0   120.0   16.666666666666668
-150.0   150.0   16.666666666666668
-150.0   120.0   33.333333333333336
-100.0   120.0   33.333333333333336
-150.0   150.0   33.333333333333336
-150.0   120.0   50.0
-100.0   120.0   33.333333333333336
-100.0   150.0   33.333333333333336
-150.0   150.0   33.333333333333336
-100.0   150.0   50.0
-150.0   120.0   50.0
-150.0   150.0   50.0
-100.0   150.0   50.0
-150.0   150.0   33.333333333333336
-150.0   120.0   50.0
-100.0   150.0   50.0
-100.0   120.0   50.0
-100.0   120.0   33.333333333333336
-150.0   120.0   50.0
-100.0   150.0   50.0
-100.0   120.0   33.333333333333336
-150.0   150.0   33.333333333333336
-100.0   0.0   0.0
-50.0   0.0   0.0
-100.0   30.0   0.0
-100.0   0.0   16.666666666666668
-50.0   0.0   0.0
-50.0   30.0   0.0
-100.0   30.0   0.0
-50.0   30.0   16.666666666666668
-100.0   0.0   16.666666666666668
-100.0   30.0   16.666666666666668
-50.0   30.0   16.666666666666668
-100.0   30.0   0.0
-100.0   0.0   16.666666666666668
-50.0   30.0   16.666666666666668
-50.0   0.0   16.666666666666668
-50.0   0.0   0.0
-100.0   0.0   16.666666666666668
-50.0   30.0   16.666666666666668
-50.0   0.0   0.0
-100.0   30.0   0.0
-100.0   0.0   16.666666666666668
-50.0   0.0   16.666666666666668
-100.0   30.0   16.666666666666668
-100.0   0.0   33.333333333333336
-50.0   0.0   16.666666666666668
-50.0   30.0   16.666666666666668
-100.0   30.0   16.666666666666668
-50.0   30.0   33.333333333333336
-100.0   0.0   33.333333333333336
-100.0   30.0   33.333333333333336
-50.0   30.0   33.333333333333336
-100.0   30.0   16.666666666666668
-100.0   0.0   33.333333333333336
-50.0   30.0   33.333333333333336
-50.0   0.0   33.333333333333336
-50.0   0.0   16.666666666666668
-100.0   0.0   33.333333333333336
-50.0   30.0   33.333333333333336
-50.0   0.0   16.666666666666668
-100.0   30.0   16.666666666666668
-100.0   0.0   33.333333333333336
-50.0   0.0   33.333333333333336
-100.0   30.0   33.333333333333336
-100.0   0.0   50.0
-50.0   0.0   33.333333333333336
-50.0   30.0   33.333333333333336
-100.0   30.0   33.333333333333336
-50.0   30.0   50.0
-100.0   0.0   50.0
-100.0   30.0   50.0
-50.0   30.0   50.0
-100.0   30.0   33.333333333333336
-100.0   0.0   50.0
-50.0   30.0   50.0
-50.0   0.0   50.0
-50.0   0.0   33.333333333333336
-100.0   0.0   50.0
-50.0   30.0   50.0
-50.0   0.0   33.333333333333336
-100.0   30.0   33.333333333333336
-100.0   30.0   0.0
-50.0   30.0   0.0
-100.0   60.0   0.0
-100.0   30.0   16.666666666666668
-50.0   30.0   0.0
-50.0   60.0   0.0
-100.0   60.0   0.0
-50.0   60.0   16.666666666666668
-100.0   30.0   16.666666666666668
-100.0   60.0   16.666666666666668
-50.0   60.0   16.666666666666668
-100.0   60.0   0.0
-100.0   30.0   16.666666666666668
-50.0   60.0   16.666666666666668
-50.0   30.0   16.666666666666668
-50.0   30.0   0.0
-100.0   30.0   16.666666666666668
-50.0   60.0   16.666666666666668
-50.0   30.0   0.0
-100.0   60.0   0.0
-100.0   30.0   16.666666666666668
-50.0   30.0   16.666666666666668
-100.0   60.0   16.666666666666668
-100.0   30.0   33.333333333333336
-50.0   30.0   16.666666666666668
-50.0   60.0   16.666666666666668
-100.0   60.0   16.666666666666668
-50.0   60.0   33.333333333333336
-100.0   30.0   33.333333333333336
-100.0   60.0   33.333333333333336
-50.0   60.0   33.333333333333336
-100.0   60.0   16.666666666666668
-100.0   30.0   33.333333333333336
-50.0   60.0   33.333333333333336
-50.0   30.0   33.333333333333336
-50.0   30.0   16.666666666666668
-100.0   30.0   33.333333333333336
-50.0   60.0   33.333333333333336
-50.0   30.0   16.666666666666668
-100.0   60.0   16.666666666666668
-100.0   30.0   33.333333333333336
-50.0   30.0   33.333333333333336
-100.0   60.0   33.333333333333336
-100.0   30.0   50.0
-50.0   30.0   33.333333333333336
-50.0   60.0   33.333333333333336
-100.0   60.0   33.333333333333336
-50.0   60.0   50.0
-100.0   30.0   50.0
-100.0   60.0   50.0
-50.0   60.0   50.0
-100.0   60.0   33.333333333333336
-100.0   30.0   50.0
-50.0   60.0   50.0
-50.0   30.0   50.0
-50.0   30.0   33.333333333333336
-100.0   30.0   50.0
-50.0   60.0   50.0
-50.0   30.0   33.333333333333336
-100.0   60.0   33.333333333333336
-100.0   60.0   0.0
-50.0   60.0   0.0
-100.0   90.0   0.0
-100.0   60.0   16.666666666666668
-50.0   60.0   0.0
-50.0   90.0   0.0
-100.0   90.0   0.0
-50.0   90.0   16.666666666666668
-100.0   60.0   16.666666666666668
-100.0   90.0   16.666666666666668
-50.0   90.0   16.666666666666668
-100.0   90.0   0.0
-100.0   60.0   16.666666666666668
-50.0   90.0   16.666666666666668
-50.0   60.0   16.666666666666668
-50.0   60.0   0.0
-100.0   60.0   16.666666666666668
-50.0   90.0   16.666666666666668
-50.0   60.0   0.0
-100.0   90.0   0.0
-100.0   60.0   16.666666666666668
-50.0   60.0   16.666666666666668
-100.0   90.0   16.666666666666668
-100.0   60.0   33.333333333333336
-50.0   60.0   16.666666666666668
-50.0   90.0   16.666666666666668
-100.0   90.0   16.666666666666668
-50.0   90.0   33.333333333333336
-100.0   60.0   33.333333333333336
-100.0   90.0   33.333333333333336
-50.0   90.0   33.333333333333336
-100.0   90.0   16.666666666666668
-100.0   60.0   33.333333333333336
-50.0   90.0   33.333333333333336
-50.0   60.0   33.333333333333336
-50.0   60.0   16.666666666666668
-100.0   60.0   33.333333333333336
-50.0   90.0   33.333333333333336
-50.0   60.0   16.666666666666668
-100.0   90.0   16.666666666666668
-100.0   60.0   33.333333333333336
-50.0   60.0   33.333333333333336
-100.0   90.0   33.333333333333336
-100.0   60.0   50.0
-50.0   60.0   33.333333333333336
-50.0   90.0   33.333333333333336
-100.0   90.0   33.333333333333336
-50.0   90.0   50.0
-100.0   60.0   50.0
-100.0   90.0   50.0
-50.0   90.0   50.0
-100.0   90.0   33.333333333333336
-100.0   60.0   50.0
-50.0   90.0   50.0
-50.0   60.0   50.0
-50.0   60.0   33.333333333333336
-100.0   60.0   50.0
-50.0   90.0   50.0
-50.0   60.0   33.333333333333336
-100.0   90.0   33.333333333333336
-100.0   90.0   0.0
-50.0   90.0   0.0
-100.0   120.0   0.0
-100.0   90.0   16.666666666666668
-50.0   90.0   0.0
-50.0   120.0   0.0
-100.0   120.0   0.0
-50.0   120.0   16.666666666666668
-100.0   90.0   16.666666666666668
-100.0   120.0   16.666666666666668
-50.0   120.0   16.666666666666668
-100.0   120.0   0.0
-100.0   90.0   16.666666666666668
-50.0   120.0   16.666666666666668
-50.0   90.0   16.666666666666668
-50.0   90.0   0.0
-100.0   90.0   16.666666666666668
-50.0   120.0   16.666666666666668
-50.0   90.0   0.0
-100.0   120.0   0.0
-100.0   90.0   16.666666666666668
-50.0   90.0   16.666666666666668
-100.0   120.0   16.666666666666668
-100.0   90.0   33.333333333333336
-50.0   90.0   16.666666666666668
-50.0   120.0   16.666666666666668
-100.0   120.0   16.666666666666668
-50.0   120.0   33.333333333333336
-100.0   90.0   33.333333333333336
-100.0   120.0   33.333333333333336
-50.0   120.0   33.333333333333336
-100.0   120.0   16.666666666666668
-100.0   90.0   33.333333333333336
-50.0   120.0   33.333333333333336
-50.0   90.0   33.333333333333336
-50.0   90.0   16.666666666666668
-100.0   90.0   33.333333333333336
-50.0   120.0   33.333333333333336
-50.0   90.0   16.666666666666668
-100.0   120.0   16.666666666666668
-100.0   90.0   33.333333333333336
-50.0   90.0   33.333333333333336
-100.0   120.0   33.333333333333336
-100.0   90.0   50.0
-50.0   90.0   33.333333333333336
-50.0   120.0   33.333333333333336
-100.0   120.0   33.333333333333336
-50.0   120.0   50.0
-100.0   90.0   50.0
-100.0   120.0   50.0
-50.0   120.0   50.0
-100.0   120.0   33.333333333333336
-100.0   90.0   50.0
-50.0   120.0   50.0
-50.0   90.0   50.0
-50.0   90.0   33.333333333333336
-100.0   90.0   50.0
-50.0   120.0   50.0
-50.0   90.0   33.333333333333336
-100.0   120.0   33.333333333333336
-100.0   120.0   0.0
-50.0   120.0   0.0
-100.0   150.0   0.0
-100.0   120.0   16.666666666666668
-50.0   120.0   0.0
-50.0   150.0   0.0
-100.0   150.0   0.0
-50.0   150.0   16.666666666666668
-100.0   120.0   16.666666666666668
-100.0   150.0   16.666666666666668
-50.0   150.0   16.666666666666668
-100.0   150.0   0.0
-100.0   120.0   16.666666666666668
-50.0   150.0   16.666666666666668
-50.0   120.0   16.666666666666668
-50.0   120.0   0.0
-100.0   120.0   16.666666666666668
-50.0   150.0   16.666666666666668
-50.0   120.0   0.0
-100.0   150.0   0.0
-100.0   120.0   16.666666666666668
-50.0   120.0   16.666666666666668
-100.0   150.0   16.666666666666668
-100.0   120.0   33.333333333333336
-50.0   120.0   16.666666666666668
-50.0   150.0   16.666666666666668
-100.0   150.0   16.666666666666668
-50.0   150.0   33.333333333333336
-100.0   120.0   33.333333333333336
-100.0   150.0   33.333333333333336
-50.0   150.0   33.333333333333336
-100.0   150.0   16.666666666666668
-100.0   120.0   33.333333333333336
-50.0   150.0   33.333333333333336
-50.0   120.0   33.333333333333336
-50.0   120.0   16.666666666666668
-100.0   120.0   33.333333333333336
-50.0   150.0   33.333333333333336
-50.0   120.0   16.666666666666668
-100.0   150.0   16.666666666666668
-100.0   120.0   33.333333333333336
-50.0   120.0   33.333333333333336
-100.0   150.0   33.333333333333336
-100.0   120.0   50.0
-50.0   120.0   33.333333333333336
-50.0   150.0   33.333333333333336
-100.0   150.0   33.333333333333336
-50.0   150.0   50.0
-100.0   120.0   50.0
-100.0   150.0   50.0
-50.0   150.0   50.0
-100.0   150.0   33.333333333333336
-100.0   120.0   50.0
-50.0   150.0   50.0
-50.0   120.0   50.0
-50.0   120.0   33.333333333333336
-100.0   120.0   50.0
-50.0   150.0   50.0
-50.0   120.0   33.333333333333336
-100.0   150.0   33.333333333333336
-50.0   0.0   0.0
0.0   0.0   0.0
-50.0   30.0   0.0
-50.0   0.0   16.666666666666668
0.0   0.0   0.0
0.0   30.0   0.0
-50.0   30.0   0.0
0.0   30.0   16.666666666666668
-50.0   0.0   16.666666666666668
-50.0   30.0   16.666666666666668
0.0   30.0   16.666666666666668
-50.0   30.0   0.0
-50.0   0.0   16.666666666666668
0.0   30.0   16.666666666666668
0.0   0.0   16.666666666666668
0.0   0.0   0.0
-50.0   0.0   16.666666666666668
0.0   30.0   16.666666666666668
0.0   0.0   0.0
-50.0   30.0   0.0
-50.0   0.0   16.666666666666668
0.0   0.0   16.666666666666668
-50.0   30.0   16.666666666666668
-50.0   0.0   33.333333333333336
0.0   0.0   16.666666666666668
0.0   30.0   16.666666666666668
-50.0   30.0   16.666666666666668
0.0   30.0   33.333333333333336
-50.0   0.0   33.333333333333336
-50.0   30.0   33.333333333333336
0.0   30.0   33.333333333333336
-50.0   30.0   16.666666666666668
-50.0   0.0   33.333333333333336
0.0   30.0   33.333333333333336
0.0   0.0   33.333333333333336
0.0   0.0   16.666666666666668
-50.0   0.0   33.333333333333336
0.0   30.0   33.333333333333336
0.0   0.0   16.666666666666668
-50.0   30.0   16.666666666666668
-50.0   0.0   33.333333333333336
0.0   0.0   33.333333333333336
-50.0   30.0   33.333333333333336
-50.0   0.0   50.0
0.0   0.0   33.333333333333336
0.0   30.0   33.333333333333336
-50.0   30.0   33.333333333333336
0.0   30.0   50.0
-50.0   0.0   50.0
-50.0   30.0   50.0
0.0   30.0   50.0
-50.0   30.0   33.333333333333336
-50.0   0.0   50.0
0.0   30.0   50.0
0.0   0.0   50.0
0.0   0.0   33.333333333333336
-50.0   0.0   50.0
0.0   30.0   50.0
0.0   0.0   33.333333333333336
-50.0   30.0   33.333333333333336
-50.0   30.0   0.0
0.0   30.0   0.0
-50.0   60.0   0.0
-50.0   30.0   16.666666666666668
0.0   30.0   0.0
0.0   60.0   0.0
-50.0   60.0   0.0
0.0   60.0   16.666666666666668
-50.0   30.0   16.666666666666668
-50.0   60.0   16.666666666666668
0.0   60.0   16.666666666666668
-50.0   60.0   0.0
-50.0   30.0   16.666666666666668
0.0   60.0   16.666666666666668
0.0   30.0   16.666666666666668
0.0   30.0   0.0
-50.0   30.0   16.666666666666668
0.0   60.0   16.666666666666668
0.0   30.0   0.0
-50.0   60.0   0.0
-50.0   30.0   16.666666666666668
0.0   30.0   16.666666666666668
-50.0   60.0   16.666666666666668
-50.0   30.0   33.333333333333336
0.0   30.0   16.666666666666668
0.0   60.0   16.666666666666668
-50.0   60.0   16.666666666666668
0.0   60.0   33.333333333333336
-50.0   30.0   33.333333333333336
-50.0   60.0   33.333333333333336
0.0   60.0   33.333333333333336
-50.0   60.0   16.666666666666668
-50.0   30.0   33.333333333333336
0.0   60.0   33.333333333333336
0.0   30.0   33.333333333333336
0.0   30.0   16.666666666666668
-50.0   30.0   33.333333333333336
0.0   60.0   33.333333333333336
0.0   30.0   16.666666666666668
-50.0   60.0   16.666666666666668
-50.0   30.0   33.333333333333336
0.0   30.0   33.333333333333336
-50.0   60.0   33.333333333333336
-50.0   30.0   50.0
0.0   30.0   33.333333333333336
0.0   60.0   33.333333333333336
-50.0   60.0   33.333333333333336
0.0   60.0   50.0
-50.0   30.0   50.0
-50.0   60.0   50.0
0.0   60.0   50.0
-50.0   60.0   33.333333333333336
-50.0   30.0   50.0
0.0   60.0   50.0
0.0   30.0   50.0
0.0   30.0   33.333333333333336
-50.0   30.0   50.0
0.0   60.0   50.0
0.0   30.0   33.333333333333336
-50.0   60.0   33.333333333333336
-50.0   60.0   0.0
0.0   60.0   0.0
-50.0   90.0   0.0
-50.0   60.0   16.666666666666668
0.0   60.0   0.0
0.0   90.0   0.0
-50.0   90.0   0.0
0.0   90.0   16.666666666666668
-50.0   60.0   16.666666666666668
-50.0   90.0   16.666666666666668
0.0   90.0   16.666666666666668
-50.0   90.0   0.0
-50.0   60.0   16.666666666666668
0.0   90.0   16.666666666666668
0.0   60.0   16.666666666666668
0.0   60.0   0.0
-50.0   60.0   16.666666666666668
0.0   90.0   16.666666666666668
0.0   60.0   0.0
-50.0   90.0   0.0
-50.0   60.0   16.666666666666668
0.0   60.0   16.666666666666668
-50.0   90.0   16.666666666666668
-50.0   60.0   33.333333333333336
0.0   60.0   16.666666666666668
0.0   90.0   16.666666666666668
-50.0   90.0   16.666666666666668
0.0   90.0   33.333333333333336
-50.0   60.0   33.333333333333336
-50.0   90.0   33.333333333333336
0.0   90.0   33.333333333333336
-50.0   90.0   16.666666666666668
-50.0   60.0   33.333333333333336
0.0   90.0   33.333333333333336
0.0   60.0   33.333333333333336
0.0   60.0   16.666666666666668
-50.0   60.0   33.333333333333336
0.0   90.0   33.333333333333336
0.0   60.0   16.666666666666668
-50.0   90.0   16.666666666666668
-50.0   60.0   33.333333333333336
0.0   60.0   33.333333333333336
-50.0   90.0   33.333333333333336
-50.0   60.0   50.0
0.0   60.0   33.333333333333336
0.0   90.0   33.333333333333336
-50.0   90.0   33.333333333333336
0.0   90.0   50.0
-50.0   60.0   50.0
-50.0   90.0   50.0
0.0   90.0   50.0
-50.0   90.0   33.333333333333336
-50.0   60.0   50.0
0.0   90.0   50.0
0.0   60.0   50.0
0.0   60.0   33.333333333333336
-50.0   60.0   50.0
0.0   90.0   50.0
0.0   60.0   33.333333333333336
-50.0   90.0   33.333333333333336
-50.0   90.0   0.0
0.0   90.0   0.0
-50.0   120.0   0.0
-50.0   90.0   16.666666666666668
0.0   90.0   0.0
0.0   120.0   0.0
-50.0   120.0   0.0
0.0   120.0   16.666666666666668
-50.0   90.0   16.666666666666668
-50.0   120.0   16.666666666666668
0.0   120.0   16.666666666666668
-50.0   120.0   0.0
-50.0   90.0   16.666666666666668
0.0   120.0   16.666666666666668
0.0   90.0   16.666666666666668
0.0   90.0   0.0
-50.0   90.0   16.666666666666668
0.0   120.0   16.666666666666668
0.0   90.0   0.0
-50.0   120.0   0.0
-50.0   90.0   16.666666666666668
0.0   90.0   16.666666666666668
-50.0   120.0   16.666666666666668
-50.0   90.0   33.333333333333336
0.0   90.0   16.666666666666668
0.0   120.0   16.666666666666668
-50.0   120.0   16.666666666666668
0.0   120.0   33.333333333333336
-50.0   90.0   33.333333333333336
-50.0   120.0   33.333333333333336
0.0   120.0   33.333333333333336
-50.0   120.0   16.666666666666668
-50.0   90.0   33.333333333333336
0.0   120.0   33.333333333333336
0.0   90.0   33.333333333333336
0.0   90.0   16.666666666666668
-50.0   90.0   33.333333333333336
0.0   120.0   33.333333333333336
0.0   90.0   16.666666666666668
-50.0   120.0   16.666666666666668
-50.0   90.0   33.333333333333336
0.0   90.0   33.333333333333336
-50.0   120.0   33.333333333333336
-50.0   90.0   50.0
0.0   90.0   33.333333333333336
0.0   120.0   33.333333333333336
-50.0   120.0   33.333333333333336
0.0   120.0   50.0
-50.0   90.0   50.0
-50.0   120.0   50.0
0.0   120.0   50.0
-50.0   120.0   33.333333333333336
-50.0   90.0   50.0
0.0   120.0   50.0
0.0   90.0   50.0
0.0   90.0   33.333333333333336
-50.0   90.0   50.0
0.0   120.0   50.0
0.0   90.0   33.333333333333336
-50.0   120.0   33.333333333333336
-50.0   120.0   0.0
0.0   120.0   0.0
-50.0   150.0   0.0
-50.0   120.0   16.666666666666668
0.0   120.0   0.0
0.0   150.0   0.0
-50.0   150.0   0.0
0.0   150.0   16.666666666666668
-50.0   120.0   16.666666666666668
-50.0   150.0   16.666666666666668
0.0   150.0   16.666666666666668
-50.0   150.0   0.0
-50.0   120.0   16.666666666666668
0.0   150.0   16.666666666666668
0.0   120.0   16.666666666666668
0.0   120.0   0.0
-50.0   120.0   16.666666666666668
0.0   150.0   16.666666666666668
0.0   120.0   0.0
-50.0   150.0   0.0
-50.0   120.0   16.666666666666668
0.0   120.0   16.666666666666668
-50.0   150.0   16.666666666666668
-50.0   120.0   33.333333333333336
0.0   120.0   16.666666666666668
0.0   150.0   16.666666666666668
-50.0   150.0   16.666666666666668
0.0   150.0   33.333333333333336
-50.0   120.0   33.333333333333336
-50.0   150.0   33.333333333333336
0.0   150.0   33.333333333333336
-50.0   150.0   16.666666666666668
-50.0   120.0   33.333333333333336
0.0   150.0   33.333333333333336
0.0   120.0   33.333333333333336
0.0   120.0   16.666666666666668
-50.0   120.0   33.333333333333336
0.0   150.0   33.333333333333336
0.0   120.0   16.666666666666668
-50.0   150.0   16.666666666666668
-50.0   120.0   33.333333333333336
0.0   120.0   33.333333333333336
-50.0   150.0   33.333333333333336
-50.0   120.0   50.0
0.0   120.0   33.333333333333336
0.0   150.0   33.333333333333336
-50.0   150.0   33.333333333333336
0.0   150.0   50.0
-50.0   120.0   50.0
-50.0   150.0   50.0
0.0   150.0   50.0
-50.0   150.0   33.333333333333336
-50.0   120.0   50.0
0.0   150.0   50.0
0.0   120.0   50.0
0.0   120.0   33.333333333333336
-50.0   120.0   50.0
0.0   150.0   50.0
0.0   120.0   33.333333333333336
-50.0   150.0   33.333333333333336
0.0   0.0   0.0
50.0   0.0   0.0
0.0   30.0   0.0
0.0   0.0   16.666666666666668
50.0   0.0   0.0
50.0   30.0   0.0
0.0   30.0   0.0
50.0   30.0   16.666666666666668
0.0   0.0   16.666666666666668
0.0   30.0   16.666666666666668
50.0   30.0   16.666666666666668
0.0   30.0   0.0
0.0   0.0   16.666666666666668
50.0   30.0   16.666666666666668
50.0   0.0   16.666666666666668
50.0   0.0   0.0
0.0   0.0   16.666666666666668
50.0   30.0   16.666666666666668
50.0   0.0   0.0
0.0   30.0   0.0
0.0   0.0   16.666666666666668
50.0   0.0   16.666666666666668
0.0   30.0   16.666666666666668
0.0   0.0   33.333333333333336
50.0   0.0   16.666666666666668
50.0   30.0   16.666666666666668
0.0   30.0   16.666666666666668
50.0   30.0   33.333333333333336
0.0   0.0   33.333333333333336
0.0   30.0   33.333333333333336
50.0   30.0   33.333333333333336
0.0   30.0   16.666666666666668
0.0   0.0   33.333333333333336
50.0   30.0   33.333333333333336
50.0   0.0   33.333333333333336
50.0   0.0   16.666666666666668
0.0   0.0   33.333333333333336
50.0   30.0   33.333333333333336
50.0   0.0   16.666666666666668
0.0   30.0   16.666666666666668
0.0   0.0   33.333333333333336
50.0   0.0   33.333333333333336
0.0   30.0   33.333333333333336
0.0   0.0   50.0
50.0   0.0   33.333333333333336
50.0   30.0   33.333333333333336
0.0   30.0   33.333333333333336
50.0   30.0   50.0
0.0   0.0   50.0
0.0   30.0   50.0
50.0   30.0   50.0
0.0   30.0   33.333333333333336
0.0   0.0   50.0
50.0   30.0   50.0
50.0   0.0   50.0
50.0   0.0   33.333333333333336
0.0   0.0   50.0
50.0   30.0   50.0
50.0   0.0   33.333333333333336
0.0   30.0   33.333333333333336
0.0   30.0   0.0
50.0   30.0   0.0
0.0   60.0   0.0
0.0   30.0   16.666666666666668
50.0   30.0   0.0
50.0   60.0   0.0
0.0   60.0   0.0
50.0   60.0   16.666666666666668
0.0   30.0   16.666666666666668
0.0   60.0   16.666666666666668
50.0   60.0   16.666666666666668
0.0   60.0   0.0
0.0   30.0   16.666666666666668
50.0   60.0   16.666666666666668
50.0   30.0   16.666666666666668
50.0   30.0   0.0
0.0   30.0   16.666666666666668
50.0   60.0   16.666666666666668
50.0   30.0   0.0
0.0   60.0   0.0
0.0   30.0   16.666666666666668
50.0   30.0   16.666666666666668
0.0   60.0   16.666666666666668
0.0   30.0   33.333333333333336
50.0   30.0   16.666666666666668
50.0   60.0   16.666666666666668
0.0   60.0   16.666666666666668
50.0   60.0   33.333333333333336
0.0   30.0   33.333333333333336
0.0   60.0   33.333333333333336
50.0   60.0   33.333333333333336
0.0   60.0   16.666666666666668
0.0   30.0   33.333333333333336
50.0   60.0   33.333333333333336
50.0   30.0   33.333333333333336
50.0   30.0   16.666666666666668
0.0   30.0   33.333333333333336
50.0   60.0   33.333333333333336
50.0   30.0   16.666666666666668
0.0   60.0   16.666666666666668
0.0   30.0   33.333333333333336
50.0   30.0   33.333333333333336
0.0   60.0   33.333333333333336
0.0   30.0   50.0
50.0   30.0   33.333333333333336
50.0   60.0   33.333333333333336
0.0   60.0   33.333333333333336
50.0   60.0   50.0
0.0   30.0   50.0
0.0   60.0   50.0
50.0   60.0   50.0
0.0   60.0   33.333333333333336
0.0   30.0   50.0
50.0   60.0   50.0
50.0   30.0   50.0
50.0   30.0   33.333333333333336
0.0   30.0   50.0
50.0   60.0   50.0
50.0   30.0   33.333333333333336
0.0   60.0   33.333333333333336
0.0   60.0   0.0
50.0   60.0   0.0
0.0   90.0   0.0
0.0   60.0   16.666666666666668
50.0   60.0   0.0
50.0   90.0   0.0
0.0   90.0   0.0
50.0   90.0   16.666666666666668
0.0   60.0   16.666666666666668
0.0   90.0   16.666666666666668
50.0   90.0   16.666666666666668
0.0   90.0   0.0
0.0   60.0   16.666666666666668
50.0   90.0   16.666666666666668
50.0   60.0   16.666666666666668
50.0   60.0   0.0
0.0   60.0   16.666666666666668
50.0   90.0   16.666666666666668
50.0   60.0   0.0
0.0   90.0   0.0
0.0   60.0   16.666666666666668
50.0   60.0   16.666666666666668
0.0   90.0   16.666666666666668
0.0   60.0   33.333333333333336
50.0   60.0   16.666666666666668
50.0   90.0   16.666666666666668
0.0   90.0   16.666666666666668
50.0   90.0   33.333333333333336
0.0   60.0   33.333333333333336
0.0   90.0   33.333333333333336
50.0   90.0   33.333333333333336
0.0   90.0   16.666666666666668
0.0   60.0   33.333333333333336
50.0   90.0   33.333333333333336
50.0   60.0   33.333333333333336
50.0   60.0   16.666666666666668
0.0   60.0   33.333333333333336
50.0   90.0   33.333333333333336
50.0   60.0   16.666666666666668
0.0   90.0   16.666666666666668
0.0   60.0   33.333333333333336
50.0   60.0   33.333333333333336
0.0   90.0   33.333333333333336
0.0   60.0   50.0
50.0   60.0   33.333333333333336
50.0   90.0   33.333333333333336
0.0   90.0   33.333333333333336
50.0   90.0   50.0
0.0   60.0   50.0
0.0   90.0   50.0
50.0   90.0   50.0
0.0   90.0   33.333333333333336
0.0   60.0   50.0
50.0   90.0   50.0
50.0   60.0   50.0
50.0   60.0   33.333333333333336
0.0   60.0   50.0
50.0   90.0   50.0
50.0   60.0   33.333333333333336
0.0   90.0   33.333333333333336
0.0   90.0   0.0
50.0   90.0   0.0
0.0   120.0   0.0
0.0   90.0   16.666666666666668
50.0   90.0   0.0
50.0   120.0   0.0
0.0   120.0   0.0
50.0   120.0   16.666666666666668
0.0   90.0   16.666666666666668
0.0   120.0   16.666666666666668
50.0   120.0   16.666666666666668
0.0   120.0   0.0
0.0   90.0   16.666666666666668
50.0   120.0   16.666666666666668
50.0   90.0   16.666666666666668
50.0   90.0   0.0
0.0   90.0   16.666666666666668
50.0   120.0   16.666666666666668
50.0   90.0   0.0
0.0   120.0   0.0
0.0   90.0   16.666666666666668
50.0   90.0   16.666666666666668
0.0   120.0   16.666666666666668
0.0   90.0   33.333333333333336
50.0   90.0   16.666666666666668
50.0   120.0   16.666666666666668
0.0   120.0   16.666666666666668
50.0   120.0   33.333333333333336
0.0   90.0   33.333333333333336
0.0   120.0   33.333333333333336
50.0   120.0   33.333333333333336
0.0   120.0   16.666666666666668
0.0   90.0   33.333333333333336
50.0   120.0   33.333333333333336
50.0   90.0   33.333333333333336
50.0   90.0   16.666666666666668
0.0   90.0   33.333333333333336
50.0   120.0   33.333333333333336
50.0   90.0   16.666666666666668
0.0   120.0   16.666666666666668
0.0   90.0   33.333333333333336
50.0   90.0   33.333333333333336
0.0   120.0   33.333333333333336
0.0   90.0   50.0
50.0   90.0   33.333333333333336
50.0   120.0   33.333333333333336
0.0   120.0   33.333333333333336
50.0   120.0   50.0
0.0   90.0   50.0
0.0   120.0   50.0
50.0   120.0   50.0
0.0   120.0   33.333333333333336
0.0   90.0   50.0
50.0   120.0   50.0
50.0   90.0   50.0
50.0   90.0   33.333333333333336
0.0   90.0   50.0
50.0   120.0   50.0
50.0   90.0   33.333333333333336
0.0   120.0   33.333333333333336
0.0   120.0   0.0
50.0   120.0   0.0
0.0   150.0   0.0
0.0   120.0   16.666666666666668
50.0   120.0   0.0
50.0   150.0   0.0
0.0   150.0   0.0
50.0   150.0   16.666666666666668
0.0   120.0   16.666666666666668
0.0   150.0   16.666666666666668
50.0   150.0   16.666666666666668
0.0   150.0   0.0
0.0   120.0   16.666666666666668
50.0   150.0   16.666666666666668
50.0   120.0   16.666666666666668
50.0   120.0   0.0
0.0   120.0   16.666666666666668
50.0   150.0   16.666666666666668
50.0   120.0   0.0
0.0   150.0   0.0
0.0   120.0   16.666666666666668
50.0   120.0   16.666666666666668
0.0   150.0   16.666666666666668
0.0   120.0   33.333333333333336
50.0   120.0   16.666666666666668
50.0   150.0   16.666666666666668
0.0   150.0   16.666666666666668
50.0   150.0   33.333333333333336
0.0   120.0   33.333333333333336
0.0   150.0   33.333333333333336
50.0   150.0   33.333333333333336
0.0   150.0   16.666666666666668
0.0   120.0   33.333333333333336
50.0   150.0   33.333333333333336
50.0   120.0   33.333333333333336
50.0   120.0   16.666666666666668
0.0   120.0   33.333333333333336
50.0   150.0   33.333333333333336
50.0   120.0   16.666666666666668
0.0   150.0   16.666666666666668
0.0   120.0   33.333333333333336
50.0   120.0   33.333333333333336
0.0   150.0   33.333333333333336
0.0   120.0   50.0
50.0   120.0   33.333333333333336
50.0   150.0   33.333333333333336
0.0   150.0   33.333333333333336
50.0   150.0   50.0
0.0   120.0   50.0
0.0   150.0   50.0
50.0   150.0   50.0
0.0   150.0   33.333333333333336
0.0   120.0   50.0
50.0   150.0   50.0
50.0   120.0   50.0
50.0   120.0   33.333333333333336
0.0   120.0   50.0
50.0   150.0   50.0
50.0   120.0   33.333333333333336
0.0   150.0   33.333333333333336
50.0   0.0   0.0
100.0   0.0   0.0
50.0   30.0   0.0
50.0   0.0   16.666666666666668
100.0   0.0   0.0
100.0   30.0   0.0
50.0   30.0   0.0
100.0   30.0   16.666666666666668
50.0   0.0   16.666666666666668
50.0   30.0   16.666666666666668
100.0   30.0   16.666666666666668
50.0   30.0   0.0
50.0   0.0   16.666666666666668
100.0   30.0   16.666666666666668
100.0   0.0   16.666666666666668
100.0   0.0   0.0
50.0   0.0   16.666666666666668
100.0   30.0   16.666666666666668
100.0   0.0   0.0
50.0   30.0   0.0
50.0   0.0   16.666666666666668
100.0   0.0   16.666666666666668
50.0   30.0   16.666666666666668
50.0   0.0   33.333333333333336
100.0   0.0   16.666666666666668
100.0   30.0   16.666666666666668
50.0   30.0   16.666666666666668
100.0   30.0   33.333333333333336
50.0   0.0   33.333333333333336
50.0   30.0   33.333333333333336
100.0   30.0   33.333333333333336
50.0   30.0   16.666666666666668
50.0   0.0   33.333333333333336
100.0   30.0   33.333333333333336
100.0   0.0   33.333333333333336
100.0   0.0   16.666666666666668
50.0   0.0   33.333333333333336
100.0   30.0   33.333333333333336
100.0   0.0   16.666666666666668
50.0   30.0   16.666666666666668
50.0   0.0   33.333333333333336
100.0   0.0   33.333333333333336
50.0   30.0   33.333333333333336
50.0   0.0   50.0
100.0   0.0   33.333333333333336
100.0   30.0   33.333333333333336
50.0   30.0   33.333333333333336
100.0   30.0   50.0
50.0   0.0   50.0
50.0   30.0   50.0
100.0   30.0   50.0
50.0   30.0   33.333333333333336
50.0   0.0   50.0
100.0   30.0   50.0
100.0   0.0   50.0
100.0   0.0   33.333333333333336
50.0   0.0   50.0
100.0   30.0   50.0
100.0   0.0   33.333333333333336
50.0   30.0   33.333333333333336
50.0   30.0   0.0
100.0   30.0   0.0
50.0   60.0   0.0
50.0   30.0   16.666666666666668
100.0   30.0   0.0
100.0   60.0   0.0
50.0   60.0   0.0
100.0   60.0   16.666666666666668
50.0   30.0   16.666666666666668
50.0   60.0   16.666666666666668
100.0   60.0   16.666666666666668
50.0   60.0   0.0
50.0   30.0   16.666666666666668
100.0   60.0   16.666666666666668
100.0   30.0   16.666666666666668
100.0   30.0   0.0
50.0   30.0   16.666666666666668
100.0   60.0   16.666666666666668
100.0   30.0   0.0
50.0   60.0   0.0
50.0   30.0   16.666666666666668
100.0   30.0   16.666666666666668
50.0   60.0   16.666666666666668
50.0   30.0   33.333333333333336
100.0   30.0   16.666666666666668
100.0   60.0   16.666666666666668
50.0   60.0   16.666666666666668
100.0   60.0   33.333333333333336
50.0   30.0   33.333333333333336
50.0   60.0   33.333333333333336
100.0   60.0   33.333333333333336
50.0   60.0   16.666666666666668
50.0   30.0   33.333333333333336
100.0   60.0   33.333333333333336
100.0   30.0   33.333333333333336
100.0   30.0   16.666666666666668
50.0   30.0   33.333333333333336
100.0   60.0   33.333333333333336
100.0   30.0   16.666666666666668
50.0   60.0   16.666666666666668
50.0   30.0   33.333333333333336
100.0   30.0   33.333333333333336
50.0   60.0   33.333333333333336
50.0   30.0   50.0
100.0   30.0   33.333333333333336
100.0   60.0   33.333333333333336
50.0   60.0   33.333333333333336
100.0   60.0   50.0
50.0   30.0   50.0
50.0   60.0   50.0
100.0   60.0   50.0
50.0   60.0   33.333333333333336
50.0   30.0   50.0
100.0   60.0   50.0
100.0   30.0   50.0
100.0   30.0   33.333333333333336
50.0   30.0   50.0
100.0   60.0   50.0
100.0   30.0   33.333333333333336
50.0   60.0   33.333333333333336
50.0   60.0   0.0
100.0   60.0   0.0
50.0   90.0   0.0
50.0   60.0   16.666666666666668
100.0   60.0   0.0
100.0   90.0   0.0
50.0   90.0   0.0
100.0   90.0   16.666666666666668
50.0   60.0   16.666666666666668
50.0   90.0   16.666666666666668
100.0   90.0   16.666666666666668
50.0   90.0   0.0
50.0   60.0   16.666666666666668
100.0   90.0   16.666666666666668
100.0   60.0   16.666666666666668
100.0   60.0   0.0
50.0   60.0   16.666666666666668
100.0   90.0   16.666666666666668
100.0   60.0   0.0
50.0   90.0   0.0
50.0   60.0   16.666666666666668
100.0   60.0   16.666666666666668
50.0   90.0   16.666666666666668
50.0   60.0   33.333333333333336
100.0   60.0   16.666666666666668
100.0   90.0   16.666666666666668
50.0   90.0   16.666666666666668
100.0   90.0   33.333333333333336
50.0   60.0   33.333333333333336
50.0   90.0   33.333333333333336
100.0   90.0   33.333333333333336
50.0   90.0   16.666666666666668
50.0   60.0   33.333333333333336
100.0   90.0   33.333333333333336
100.0   60.0   33.333333333333336
100.0   60.0   16.666666666666668
50.0   60.0   33.333333333333336
100.0   90.0   33.333333333333336
100.0   60.0   16.666666666666668
50.0   90.0   16.666666666666668
50.0   60.0   33.333333333333336
100.0   60.0   33.333333333333336
50.0   90.0   33.333333333333336
50.0   60.0   50.0
100.0   60.0   33.333333333333336
100.0   90.0   33.333333333333336
50.0   90.0   33.333333333333336
100.0   90.0   50.0
50.0   60.0   50.0
50.0   90.0   50.0
100.0   90.0   50.0
50.0   90.0   33.333333333333336
50.0   60.0   50.0
100.0   90.0   50.0
100.0   60.0   50.0
100.0   60.0   33.333333333333336
50.0   60.0   50.0
100.0   90.0   50.0
100.0   60.0   33.333333333333336
50.0   90.0   33.333333333333336
50.0   90.0   0.0
100.0   90.0   0.0
50.0   120.0   0.0
50.0   90.0   16.666666666666668
100.0   90.0   0.0
100.0   120.0   0.0
50.0   120.0   0.0
100.0   120.0   16.666666666666668
50.0   90.0   16.666666666666668
50.0   120.0   16.666666666666668
100.0   120.0   16.666666666666668
50.0   120.0   0.0
50.0   90.0   16.666666666666668
100.0   120.0   16.666666666666668
100.0   90.0   16.666666666666668
100.0   90.0   0.0
50.0   90.0   16.666666666666668
100.0   120.0   16.666666666666668
100.0   90.0   0.0
50.0   120.0   0.0
50.0   90.0   16.666666666666668
100.0   90.0   16.666666666666668
50.0   120.0   16.666666666666668
50.0   90.0   33.333333333333336
100.0   90.0   16.666666666666668
100.0   120.0   16.666666666666668
50.0   120.0   16.666666666666668
100.0   120.0   33.333333333333336
50.0   90.0   33.333333333333336
50.0   120.0   33.333333333333336
100.0   120.0   33.333333333333336
50.0   120.0   16.666666666666668
50.0   90.0   33.333333333333336
100.0   120.0   33.333333333333336
100.0   90.0   33.333333333333336
100.0   90.0   16.666666666666668
50.0   90.0   33.333333333333336
100.0   120.0   33.333333333333336
100.0   90.0   16.666666666666668
50.0   120.0   16.666666666666668
50.0   90.0   33.333333333333336
100.0   90.0   33.333333333333336
50.0   120.0   33.333333333333336
50.0   90.0   50.0
100.0   90.0   33.333333333333336
100.0   120.0   33.333333333333336
50.0   120.0   33.333333333333336
100.0   120.0   50.0
50.0   90.0   50.0
50.0   120.0   50.0
100.0   120.0   50.0
50.0   120.0   33.333333333333336
50.0   90.0   50.0
100.0   120.0   50.0
100.0   90.0   50.0
100.0   90.0   33.333333333333336
50.0   90.0   50.0
100.0   120.0   50.0
100.0   90.0   33.333333333333336
50.0   120.0   33.333333333333336
50.0   120.0   0.0
100.0   120.0   0.0
50.0   150.0   0.0
50.0   120.0   16.666666666666668
100.0   120.0   0.0
100.0   150.0   0.0
50.0   150.0   0.0
100.0   150.0   16.666666666666668
50.0   120.0   16.666666666666668
50.0   150.0   16.666666666666668
100.0   150.0   16.666666666666668
50.0   150.0   0.0
50.0   120.0   16.666666666666668
100.0   150.0   16.666666666666668
100.0   120.0   16.666666666666668
100.0   120.0   0.0
50.0   120.0   16.666666666666668
100.0   150.0   16.666666666666668
100.0   120.0   0.0
50.0   150.0   0.0
50.0   120.0   16.666666666666668
100.0   120.0   16.666666666666668
50.0   150.0   16.666666666666668
50.0   120.0   33.333333333333336
100.0   120.0   16.666666666666668
100.0   150.0   16.666666666666668
50.0   150.0   16.666666666666668
100.0   150.0   33.333333333333336
50.0   120.0   33.333333333333336
50.0   150.0   33.333333333333336
100.0   150.0   33.333333333333336
50.0   150.0   16.666666666666668
50.0   120.0   33.333333333333336
100.0   150.0   33.333333333333336
100.0   120.0   33.333333333333336
100.0   120.0   16.666666666666668
50.0   120.0   33.333333333333336
100.0   150.0   33.333333333333336
100.0   120.0   16.666666666666668
50.0   150.0   16.666666666666668
50.0   120.0   33.333333333333336
100.0   120.0   33.333333333333336
50.0   150.0   33.333333333333336
50.0   120.0   50.0
100.0   120.0   33.333333333333336
100.0   150.0   33.333333333333336
50.0   150.0   33.333333333333336
100.0   150.0   50.0
50.0   120.0   50.0
50.0   150.0   50.0
100.0   150.0   50.0
50.0   150.0   33.333333333333336
50.0   120.0   50.0
100.0   150.0   50.0
100.0   120.0   50.0
100.0   120.0   33.333333333333336
50.0   120.0   50.0
100.0   150.0   50.0
100.0   120.0   33.333333333333336
50.0   150.0   33.333333333333336
100.0   0.0   0.0
150.0   0.0   0.0
100.0   30.0   0.0
100.0   0.0   16.666666666666668
150.0   0.0   0.0
150.0   30.0   0.0
100.0   30.0   0.0
150.0   30.0   16.666666666666668
100.0   0.0   16.666666666666668
100.0   30.0   16.666666666666668
150.0   30.0   16.666666666666668
100.0   30.0   0.0
100.0   0.0   16.666666666666668
150.0   30.0   16.666666666666668
150.0   0.0   16.666666666666668
150.0   0.0   0.0
100.0   0.0   16.666666666666668
150.0   30.0   16.666666666666668
150.0   0.0   0.0
100.0   30.0   0.0
100.0   0.0   16.666666666666668
150.0   0.0   16.666666666666668
100.0   30.0   16.666666666666668
100.0   0.0   33.333333333333336
150.0   0.0   16.666666666666668
150.0   30.0   16.666666666666668
100.0   30.0   16.666666666666668
150.0   30.0   33.333333333333336
100.0   0.0   33.333333333333336
100.0   30.0   33.333333333333336
150.0   30.0   33.333333333333336
100.0   30.0   16.666666666666668
100.0   0.0   33.333333333333336
150.0   30.0   33.333333333333336
150.0   0.0   33.333333333333336
150.0   0.0   16.666666666666668
100.0   0.0   33.333333333333336
150.0   30.0   33.333333333333336
150.0   0.0   16.666666666666668
100.0   30.0   16.666666666666668
100.0   0.0   33.333333333333336
150.0   0.0   33.333333333333336
100.0   30.0   33.333333333333336
100.0   0.0   50.0
150.0   0.0   33.333333333333336
150.0   30.0   33.333333333333336
100.0   30.0   33.333333333333336
150.0   30.0   50.0
100.0   0.0   50.0
100.0   30.0   50.0
150.0   30.0   50.0
100.0   30.0   33.333333333333336
100.0   0.0   50.0
150.0   30.0   50.0
150.0   0.0   50.0
150.0   0.0   33.333333333333336
100.0   0.0   50.0
150.0   30.0   50.0
150.0   0.0   33.333333333333336
100.0   30.0   33.333333333333336
100.0   30.0   0.0
150.0   30.0   0.0
100.0   60.0   0.0
100.0   30.0   16.666666666666668
150.0   30.0   0.0
150.0   60.0   0.0
100.0   60.0   0.0
150.0   60.0   16.666666666666668
100.0   30.0   16.666666666666668
100.0   60.0   16.666666666666668
150.0   60.0   16.666666666666668
100.0   60.0   0.0
100.0   30.0   16.666666666666668
150.0   60.0   16.666666666666668
150.0   30.0   16.666666666666668
150.0   30.0   0.0
100.0   30.0   16.666666666666668
150.0   60.0   16.666666666666668
150.0   30.0   0.0
100.0   60.0   0.0
100.0   30.0   16.666666666666668
150.0   30.0   16.666666666666668
100.0   60.0   16.666666666666668
100.0   30.0   33.333333333333336
150.0   30.0   16.666666666666668
150.0   60.0   16.666666666666668
100.0   60.0   16.666666666666668
150.0   60.0   33.333333333333336
100.0   30.0   33.333333333333336
100.0   60.0   33.333333333333336
150.0   60.0   33.333333333333336
100.0   60.0   16.666666666666668
100.0   30.0   33.333333333333336
150.0   60.0   33.333333333333336
150.0   30.0   33.333333333333336
150.0   30.0   16.666666666666668
100.0   30.0   33.333333333333336
150.0   60.0   33.333333333333336
150.0   30.0   16.666666666666668
100.0   60.0   16.666666666666668
100.0   30.0   33.333333333333336
150.0   30.0   33.333333333333336
100.0   60.0   33.333333333333336
100.0   30.0   50.0
150.0   30.0   33.333333333333336
150.0   60.0   33.333333333333336
100.0   60.0   33.333333333333336
150.0   60.0   50.0
100.0   30.0   50.0
100.0   60.0   50.0
150.0   60.0   50.0
100.0   60.0   33.333333333333336
100.0   30.0   50.0
150.0   60.0   50.0
150.0   30.0   50.0
150.0   30.0   33.333333333333336
100.0   30.0   50.0
150.0   60.0   50.0
150.0   30.0   33.333333333333336
100.0   60.0   33.333333333333336
100.0   60.0   0.0
150.0   60.0   0.0
100.0   90.0   0.0
100.0   60.0   16.666666666666668
150.0   60.0   0.0
150.0   90.0   0.0
100.0   90.0   0.0
150.0   90.0   16.666666666666668
100.0   60.0   16.666666666666668
100.0   90.0   16.666666666666668
150.0   90.0   16.666666666666668
100.0   90.0   0.0
100.0   60.0   16.666666666666668
150.0   90.0   16.666666666666668
150.0   60.0   16.666666666666668
150.0   60.0   0.0
100.0   60.0   16.666666666666668
150.0   90.0   16.666666666666668
150.0   60.0   0.0
100.0   90.0   0.0
100.0   60.0   16.666666666666668
150.0   60.0   16.666666666666668
100.0   90.0   16.666666666666668
100.0   60.0   33.333333333333336
150.0   60.0   16.666666666666668
150.0   90.0   16.666666666666668
100.0   90.0   16.666666666666668
150.0   90.0   33.333333333333336
100.0   60.0   33.333333333333336
100.0   90.0   33.333333333333336
150.0   90.0   33.333333333333336
100.0   90.0   16.666666666666668
100.0   60.0   33.333333333333336
150.0   90.0   33.333333333333336
150.0   60.0   33.333333333333336
150.0   60.0   16.666666666666668
100.0   60.0   33.333333333333336
150.0   90.0   33.333333333333336
150.0   60.0   16.666666666666668
100.0   90.0   16.666666666666668
100.0   60.0   33.333333333333336
150.0   60.0   33.333333333333336
100.0   90.0   33.333333333333336
100.0   60.0   50.0
150.0   60.0   33.333333333333336
150.0   90.0   33.333333333333336
100.0   90.0   33.333333333333336
150.0   90.0   50.0
100.0   60.0   50.0
100.0   90.0   50.0
150.0   90.0   50.0
100.0   90.0   33.333333333333336
100.0   60.0   50.0
150.0   90.0   50.0
150.0   60.0   50.0
150.0   60.0   33.333333333333336
100.0   60.0   50.0
150.0   90.0   50.0
150.0   60.0   33.333333333333336
100.0   90.0   33.333333333333336
100.0   90.0   0.0
150.0   90.0   0.0
100.0   120.0   0.0
100.0   90.0   16.666666666666668
150.0   90.0   0.0
150.0   120.0   0.0
100.0   120.0   0.0
150.0   120.0   16.666666666666668
100.0   90.0   16.666666666666668
100.0   120.0   16.666666666666668
150.0   120.0   16.666666666666668
100.0   120.0   0.0
100.0   90.0   16.666666666666668
150.0   120.0   16.666666666666668
150.0   90.0   16.666666666666668
150.0   90.0   0.0
100.0   90.0   16.666666666666668
150.0   120.0   16.666666666666668
150.0   90.0   0.0
100.0   120.0   0.0
100.0   90.0   16.666666666666668
150.0   90.0   16.666666666666668
100.0   120.0   16.666666666666668
100.0   90.0   33.333333333333336
150.0   90.0   16.666666666666668
150.0   120.0   16.666666666666668
100.0   120.0   16.666666666666668
150.0   120.0   33.333333333333336
100.0   90.0   33.333333333333336
100.0   120.0   33.333333333333336
150.0   120.0   33.333333333333336
100.0   120.0   16.666666666666668
100.0   90.0   33.333333333333336
150.0   120.0   33.333333333333336
150.0   90.0   33.333333333333336
150.0   90.0   16.666666666666668
100.0   90.0   33.333333333333336
150.0   120.0   33.333333333333336
150.0   90.0   16.666666666666668
100.0   120.0   16.666666666666668
100.0   90.0   33.333333333333336
150.0   90.0   33.333333333333336
100.0   120.0   33.333333333333336
100.0   90.0   50.0
150.0   90.0   33.333333333333336
150.0   120.0   33.333333333333336
100.0   120.0   33.333333333333336
150.0   120.0   50.0
100.0   90.0   50.0
100.0   120.0   50.0
150.0   120.0   50.0
100.0   120.0   33.333333333333336
100.0   90.0   50.0
150.0   120.0   50.0
150.0   90.0   50.0
150.0   90.0   33.333333333333336
100.0   90.0   50.0
150.0   120.0   50.0
150.0   90.0   33.333333333333336
100.0   120.0   33.333333333333336
100.0   120.0   0.0
150.0   120.0   0.0
100.0   150.0   0.0
100.0   120.0   16.666666666666668
150.0   120.0   0.0
150.0   150.0   0.0
100.0   150.0   0.0
150.0   150.0   16.666666666666668
100.0   120.0   16.666666666666668
100.0   150.0   16.666666666666668
150.0   150.0   16.666666666666668
100.0   150.0   0.0
100.0   120.0   16.666666666666668
150.0   150.0   16.666666666666668
150.0   120.0   16.666666666666668
150.0   120.0   0.0
100.0   120.0   16.666666666666668
150.0   150.0   16.666666666666668
150.0   120.0   0.0
100.0   150.0   0.0
100.0   120.0   16.666666666666668
150.0   120.0   16.666666666666668
100.0   150.0   16.666666666666668
100.0   120.0   33.333333333333336
150.0   120.0   16.666666666666668
150.0   150.0   16.666666666666668
100.0   150.0   16.666666666666668
150.0   150.0   33.333333333333336
100.0   120.0   33.333333333333336
100.0   150.0   33.333333333333336
150.0   150.0   33.333333333333336
100.0   150.0   16.666666666666668
100.0   120.0   33.333333333333336
150.0   150.0   33.333333333333336
150.0   120.0   33.333333333333336
150.0   120.0   16.666666666666668
100.0   120.0   33.333333333333336
150.0   150.0   33.333333333333336
150.0   120.0   16.666666666666668
100.0   150.0   16.666666666666668
100.0   120.0   33.333333333333336
150.0   120.0   33.333333333333336
100.0   150.0   33.333333333333336
100.0   120.0   50.0
150.0   120.0   33.333333333333336
150.0   150.0   33.333333333333336
100.0   150.0   33.333333333333336
150.0   150.0   50.0
100.0   120.0   50.0
100.0   150.0   50.0
150.0   150.0   50.0
100.0   150.0   33.333333333333336
100.0   120.0   50.0
150.0   150.0   50.0
150.0   120.0   50.0
150.0   120.0   33.333333333333336
100.0   120.0   50.0
150.0   150.0   50.0
150.0   120.0   33.333333333333336
100.0   150.0   33.333333333333336
150.0   0.0   0.0
200.0   0.0   0.0
150.0   30.0   0.0
150.0   0.0   16.666666666666668
200.0   0.0   0.0
200.0   30.0   0.0
150.0   30.0   0.0
200.0   30.0   16.666666666666668
150.0   0.0   16.666666666666668
150.0   30.0   16.666666666666668
200.0   30.0   16.666666666666668
150.0   30.0   0.0
150.0   0.0   16.666666666666668
200.0   30.0   16.666666666666668
200.0   0.0   16.666666666666668
200.0   0.0   0.0
150.0   0.0   16.666666666666668
200.0   30.0   16.666666666666668
200.0   0.0   0.0
150.0   30.0   0.0
150.0   0.0   16.666666666666668
200.0   0.0   16.666666666666668
150.0   30.0   16.666666666666668
150.0   0.0   33.333333333333336
200.0   0.0   16.666666666666668
200.0   30.0   16.666666666666668
150.0   30.0   16.666666666666668
200.0   30.0   33.333333333333336
150.0   0.0   33.333333333333336
150.0   30.0   33.333333333333336
200.0   30.0   33.333333333333336
150.0   30.0   16.666666666666668
150.0   0.0   33.333333333333336
200.0   30.0   33.333333333333336
200.0   0.0   33.333333333333336
200.0   0.0   16.666666666666668
150.0   0.0   33.333333333333336
200.0   30.0   33.333333333333336
200.0   0.0   16.666666666666668
150.0   30.0   16.666666666666668
150.0   0.0   33.333333333333336
200.0   0.0   33.333333333333336
150.0   30.0   33.333333333333336
150.0   0.0   50.0
200.0   0.0   33.333333333333336
200.0   30.0   33.333333333333336
150.0   30.0   33.333333333333336
200.0   30.0   50.0
150.0   0.0   50.0
150.0   30.0   50.0
200.0   30.0   50.0
150.0   30.0   33.333333333333336
150.0   0.0   50.0
200.0   30.0   50.0
200.0   0.0   50.0
200.0   0.0   33.333333333333336
150.0   0.0   50.0
200.0   30.0   50.0
200.0   0.0   33.333333333333336
150.0   30.0   33.333333333333336
150.0   30.0   0.0
200.0   30.0   0.0
150.0   60.0   0.0
150.0   30.0   16.666666666666668
200.0   30.0   0.0
200.0   60.0   0.0
150.0   60.0   0.0
200.0   60.0   16.666666666666668
150.0   30.0   16.666666666666668
150.0   60.0   16.666666666666668
200.0   60.0   16.666666666666668
150.0   60.0   0.0
150.0   30.0   16.666666666666668
200.0   60.0   16.666666666666668
200.0   30.0   16.666666666666668
200.0   30.0   0.0
150.0   30.0   16.666666666666668
200.0   60.0   16.666666666666668
200.0   30.0   0.0
150.0   60.0   0.0
150.0   30.0   16.666666666666668
200.0   30.0   16.666666666666668
150.0   60.0   16.666666666666668
150.0   30.0   33.333333333333336
200.0   30.0   16.666666666666668
200.0   60.0   16.666666666666668
150.0   60.0   16.666666666666668
200.0   60.0   33.333333333333336
150.0   30.0   33.333333333333336
150.0   60.0   33.333333333333336
200.0   60.0   33.333333333333336
150.0   60.0   16.666666666666668
150.0   30.0   33.333333333333336
200.0   60.0   33.333333333333336
200.0   30.0   33.333333333333336
200.0   30.0   16.666666666666668
150.0   30.0   33.333333333333336
200.0   60.0   33.333333333333336
200.0   30.0   16.666666666666668
150.0   60.0   16.666666666666668
150.0   30.0   33.333333333333336
200.0   30.0   33.333333333333336
150.0   60.0   33.333333333333336
150.0   30.0   50.0
200.0   30.0   33.333333333333336
200.0   60.0   33.333333333333336
150.0   60.0   33.333333333333336
200.0   60.0   50.0
150.0   30.0   50.0
150.0   60.0   50.0
200.0   60.0   50.0
150.0   60.0   33.333333333333336
150.0   30.0   50.0
200.0   60.0   50.0
200.0   30.0   50.0
200.0   30.0   33.333333333333336
150.0   30.0   50.0
200.0   60.0   50.0
200.0   30.0   33.333333333333336
150.0   60.0   33.333333333333336
150.0   60.0   0.0
200.0   60.0   0.0
150.0   90.0   0.0
150.0   60.0   16.666666666666668
200.0   60.0   0.0
200.0   90.0   0.0
150.0   90.0   0.0
200.0   90.0   16.666666666666668
150.0   60.0   16.666666666666668
150.0   90.0   16.666666666666668
200.0   90.0   16.666666666666668
150.0   90.0   0.0
150.0   60.0   16.666666666666668
200.0   90.0   16.666666666666668
200.0   60.0   16.666666666666668
200.0   60.0   0.0
150.0   60.0   16.666666666666668
200.0   90.0   16.666666666666668
200.0   60.0   0.0
150.0   90.0   0.0
150.0   60.0   16.666666666666668
200.0   60.0   16.666666666666668
150.0   90.0   16.666666666666668
150.0   60.0   33.333333333333336
200.0   60.0   16.666666666666668
200.0   90.0   16.666666666666668
150.0   90.0   16.666666666666668
200.0   90.0   33.333333333333336
150.0   60.0   33.333333333333336
150.0   90.0   33.333333333333336
200.0   90.0   33.333333333333336
150.0   90.0   16.666666666666668
150.0   60.0   33.333333333333336
200.0   90.0   33.333333333333336
200.0   60.0   33.333333333333336
200.0   60.0   16.666666666666668
150.0   60.0   33.333333333333336
200.0   90.0   33.333333333333336
200.0   60.0   16.666666666666668
150.0   90.0   16.666666666666668
150.0   60.0   33.333333333333336
200.0   60.0   33.333333333333336
150.0   90.0   33.333333333333336
150.0   60.0   50.0
200.0   60.0   33.333333333333336
200.0   90.0   33.333333333333336
150.0   90.0   33.333333333333336
200.0   90.0   50.0
150.0   60.0   50.0
150.0   90.0   50.0
200.0   90.0   50.0
150.0   90.0   33.333333333333336
150.0   60.0   50.0
200.0   90.0   50.0
200.0   60.0   50.0
200.0   60.0   33.333333333333336
150.0   60.0   50.0
200.0   90.0   50.0
200.0   60.0   33.333333333333336
150.0   90.0   33.333333333333336
150.0   90.0   0.0
200.0   90.0   0.0
150.0   120.0   0.0
150.0   90.0   16.666666666666668
200.0   90.0   0.0
200.0   120.0   0.0
150.0   120.0   0.0
200.0   120.0   16.666666666666668
150.0   90.0   16.666666666666668
150.0   120.0   16.666666666666668
200.0   120.0   16.666666666666668
150.0   120.0   0.0
150.0   90.0   16.666666666666668
200.0   120.0   16.666666666666668
200.0   90.0   16.666666666666668
200.0   90.0   0.0
150.0   90.0   16.666666666666668
200.0   120.0   16.666666666666668
200.0   90.0   0.0
150.0   120.0   0.0
150.0   90.0   16.666666666666668
200.0   90.0   16.666666666666668
150.0   120.0   16.666666666666668
150.0   90.0   33.333333333333336
200.0   90.0   16.666666666666668
200.0   120.0   16.666666666666668
150.0   120.0   16.666666666666668
200.0   120.0   33.333333333333336
150.0   90.0   33.333333333333336
150.0   120.0   33.333333333333336
200.0   120.0   33.333333333333336
150.0   120.0   16.666666666666668
150.0   90.0   33.333333333333336
200.0   120.0   33.333333333333336
200.0   90.0   33.333333333333336
200.0   90.0   16.666666666666668
150.0   90.0   33.333333333333336
200.0   120.0   33.333333333333336
200.0   90.0   16.666666666666668
150.0   120.0   16.666666666666668
150.0   90.0   33.333333333333336
200.0   90.0   33.333333333333336
150.0   120.0   33.333333333333336
150.0   90.0   50.0
200.0   90.0   33.333333333333336
200.0   120.0   33.333333333333336
150.0   120.0   33.333333333333336
200.0   120.0   50.0
150.0   90.0   50.0
150.0   120.0   50.0
200.0   120.0   50.0
150.0   120.0   33.333333333333336
150.0   90.0   50.0
200.0   120.0   50.0
200.0   90.0   50.0
200.0   90.0   33.333333333333336
150.0   90.0   50.0
200.0   120.0   50.0
200.0   90.0   33.333333333333336
150.0   120.0   33.333333333333336
150.0   120.0   0.0
200.0   120.0   0.0
150.0   150.0   0.0
150.0   120.0   16.666666666666668
200.0   120.0   0.0
200.0   150.0   0.0
150.0   150.0   0.0
200.0   150.0   16.666666666666668
150.0   120.0   16.666666666666668
150.0   150.0   16.666666666666668
200.0   150.0   16.666666666666668
150.0   150.0   0.0
150.0   120.0   16.666666666666668
200.0   150.0   16.666666666666668
200.0   120.0   16.666666666666668
200.0   120.0   0.0
150.0   120.0   16.666666666666668
200.0   150.0   16.666666666666668
200.0   120.0   0.0
150.0   150.0   0.0
150.0   120.0   16.666666666666668
200.0   120.0   16.666666666666668
150.0   150.0   16.666666666666668
150.0   120.0   33.333333333333336
200.0   120.0   16.666666666666668
200.0   150.0   16.666666666666668
150.0   150.0   16.666666666666668
200.0   150.0   33.333333333333336
150.0   120.0   33.333333333333336
150.0   150.0   33.333333333333336
200.0   150.0   33.333333333333336
150.0   150.0   16.666666666666668
150.0   120.0   33.333333333333336
200.0   150.0   33.333333333333336
200.0   120.0   33.333333333333336
200.0   120.0   16.666666666666668
150.0   120.0   33.333333333333336
200.0   150.0   33.333333333333336
200.0   120.0   16.666666666666668
150.0   150.0   16.666666666666668
150.0   120.0   33.333333333333336
200.0   120.0   33.333333333333336
150.0   150.0   33.333333333333336
150.0   120.0   50.0
200.0   120.0   33.333333333333336
200.0   150.0   33.333333333333336
150.0   150.0   33.333333333333336
200.0   150.0   50.0
150.0   120.0   50.0
150.0   150.0   50.0
200.0   150.0   50.0
150.0   150.0   33.333333333333336
150.0   120.0   50.0
200.0   150.0   50.0
200.0   120.0   50.0
200.0   120.0   33.333333333333336
150.0   120.0   50.0
200.0   150.0   50.0
200.0   120.0   33.333333333333336
150.0   150.0   33.333333333333336
200.0   0.0   0.0
250.0   0.0   0.0
200.0   30.0   0.0
200.0   0.0   16.666666666666668
250.0   0.0   0.0
250.0   30.0   0.0
200.0   30.0   0.0
250.0   30.0   16.666666666666668
200.0   0.0   16.666666666666668
200.0   30.0   16.666666666666668
250.0   30.0   16.666666666666668
200.0   30.0   0.0
200.0   0.0   16.666666666666668
250.0   30.0   16.666666666666668
250.0   0.0   16.666666666666668
250.0   0.0   0.0
200.0   0.0   16.666666666666668
250.0   30.0   16.666666666666668
250.0   0.0   0.0
200.0   30.0   0.0
200.0   0.0   16.666666666666668
250.0   0.0   16.666666666666668
200.0   30.0   16.666666666666668
200.0   0.0   33.333333333333336
250.0   0.0   16.666666666666668
250.0   30.0   16.666666666666668
200.0   30.0   16.666666666666668
250.0   30.0   33.333333333333336
200.0   0.0   33.333333333333336
200.0   30.0   33.333333333333336
250.0   30.0   33.333333333333336
200.0   30.0   16.666666666666668
200.0   0.0   33.333333333333336
250.0   30.0   33.333333333333336
250.0   0.0   33.333333333333336
250.0   0.0   16.666666666666668
200.0   0.0   33.333333333333336
250.0   30.0   33.333333333333336
250.0   0.0   16.666666666666668
200.0   30.0   16.666666666666668
200.0   0.0   33.333333333333336
250.0   0.0   33.333333333333336
200.0   30.0   33.333333333333336
200.0   0.0   50.0
250.0   0.0   33.333333333333336
250.0   30.0   33.333333333333336
200.0   30.0   33.333333333333336
250.0   30.0   50.0
200.0   0.0   50.0
200.0   30.0   50.0
250.0   30.0   50.0
200.0   30.0   33.333333333333336
200.0   0.0   50.0
250.0   30.0   50.0
250.0   0.0   50.0
250.0   0.0   33.333333333333336
200.0   0.0   50.0
250.0   30.0   50.0
250.0   0.0   33.333333333333336
200.0   30.0   33.333333333333336
200.0   30.0   0.0
250.0   30.0   0.0
200.0   60.0   0.0
200.0   30.0   16.666666666666668
250.0   30.0   0.0
250.0   60.0   0.0
200.0   60.0   0.0
250.0   60.0   16.666666666666668
200.0   30.0   16.666666666666668
200.0   60.0   16.666666666666668
250.0   60.0   16.666666666666668
200.0   60.0   0.0
200.0   30.0   16.666666666666668
250.0   60.0   16.666666666666668
250.0   30.0   16.666666666666668
250.0   30.0   0.0
200.0   30.0   16.666666666666668
250.0   60.0   16.666666666666668
250.0   30.0   0.0
200.0   60.0   0.0
200.0   30.0   16.666666666666668
250.0   30.0   16.666666666666668
200.0   60.0   16.666666666666668
200.0   30.0   33.333333333333336
250.0   30.0   16.666666666666668
250.0   60.0   16.666666666666668
200.0   60.0   16.666666666666668
250.0   60.0   33.333333333333336
200.0   30.0   33.333333333333336
200.0   60.0   33.333333333333336
250.0   60.0   33.333333333333336
200.0   60.0   16.666666666666668
200.0   30.0   33.333333333333336
250.0   60.0   33.333333333333336
250.0   30.0   33.333333333333336
250.0   30.0   16.666666666666668
200.0   30.0   33.333333333333336
250.0   60.0   33.333333333333336
250.0   30.0   16.666666666666668
200.0   60.0   16.666666666666668
200.0   30.0   33.333333333333336
250.0   30.0   33.333333333333336
200.0   60.0   33.333333333333336
200.0   30.0   50.0
250.0   30.0   33.333333333333336
250.0   60.0   33.333333333333336
200.0   60.0   33.333333333333336
250.0   60.0   50.0
200.0   30.0   50.0
200.0   60.0   50.0
250.0   60.0   50.0
200.0   60.0   33.333333333333336
200.0   30.0   50.0
250.0   60.0   50.0
250.0   30.0   50.0
250.0   30.0   33.333333333333336
200.0   30.0   50.0
250.0   60.0   50.0
250.0   30.0   33.333333333333336
200.0   60.0   33.333333333333336
200.0   60.0   0.0
250.0   60.0   0.0
200.0   90.0   0.0
200.0   60.0   16.666666666666668
250.0   60.0   0.0
250.0   90.0   0.0
200.0   90.0   0.0
250.0   90.0   16.666666666666668
200.0   60.0   16.666666666666668
200.0   90.0   16.666666666666668
250.0   90.0   16.666666666666668
200.0   90.0   0.0
200.0   60.0   16.666666666666668
250.0   90.0   16.666666666666668
250.0   60.0   16.666666666666668
250.0   60.0   0.0
200.0   60.0   16.666666666666668
250.0   90.0   16.666666666666668
250.0   60.0   0.0
200.0   90.0   0.0
200.0   60.0   16.666666666666668
250.0   60.0   16.666666666666668
200.0   90.0   16.666666666666668
200.0   60.0   33.333333333333336
250.0   60.0   16.666666666666668
250.0   90.0   16.666666666666668
200.0   90.0   16.666666666666668
250.0   90.0   33.333333333333336
200.0   60.0   33.333333333333336
200.0   90.0   33.333333333333336
250.0   90.0   33.333333333333336
200.0   90.0   16.666666666666668
200.0   60.0   33.333333333333336
250.0   90.0   33.333333333333336
250.0   60.0   33.333333333333336
250.0   60.0   16.666666666666668
200.0   60.0   33.333333333333336
250.0   90.0   33.333333333333336
250.0   60.0   16.666666666666668
200.0   90.0   16.666666666666668
200.0   60.0   33.333333333333336
250.0   60.0   33.333333333333336
200.0   90.0   33.333333333333336
200.0   60.0   50.0
250.0   60.0   33.333333333333336
250.0   90.0   33.333333333333336
200.0   90.0   33.333333333333336
250.0   90.0   50.0
200.0   60.0   50.0
200.0   90.0   50.0
250.0   90.0   50.0
200.0   90.0   33.333333333333336
200.0   60.0   50.0
250.0   90.0   50.0
250.0   60.0   50.0
250.0   60.0   33.333333333333336
200.0   60.0   50.0
250.0   90.0   50.0
250.0   60.0   33.333333333333336
200.0   90.0   33.333333333333336
200.0   90.0   0.0
250.0   90.0   0.0
200.0   120.0   0.0
200.0   90.0   16.666666666666668
250.0   90.0   0.0
250.0   120.0   0.0
200.0   120.0   0.0
250.0   120.0   16.666666666666668
200.0   90.0   16.666666666666668
200.0   120.0   16.666666666666668
250.0   120.0   16.666666666666668
200.0   120.0   0.0
200.0   90.0   16.666666666666668
250.0   120.0   16.666666666666668
250.0   90.0   16.666666666666668
250.0   90.0   0.0
200.0   90.0   16.666666666666668
250.0   120.0   16.666666666666668
250.0   90.0   0.0
200.0   120.0   0.0
200.0   90.0   16.666666666666668
250.0   90.0   16.666666666666668
200.0   120.0   16.666666666666668
200.0   90.0   33.333333333333336
250.0   90.0   16.666666666666668
250.0   120.0   16.666666666666668
200.0   120.0   16.666666666666668
250.0   120.0   33.333333333333336
200.0   90.0   33.333333333333336
200.0   120.0   33.333333333333336
250.0   120.0   33.333333333333336
200.0   120.0   16.666666666666668
200.0   90.0   33.333333333333336
250.0   120.0   33.333333333333336
250.0   90.0   33.333333333333336
250.0   90.0   16.666666666666668
200.0   90.0   33.333333333333336
250.0   120.0   33.333333333333336
250.0   90.0   16.666666666666668
200.0   120.0   16.666666666666668
200.0   90.0   33.333333333333336
250.0   90.0   33.333333333333336
200.0   120.0   33.333333333333336
200.0   90.0   50.0
250.0   90.0   33.333333333333336
250.0   120.0   33.333333333333336
200.0   120.0   33.333333333333336
250.0   120.0   50.0
200.0   90.0   50.0
200.0   120.0   50.0
250.0   120.0   50.0
200.0   120.0   33.333333333333336
200.0   90.0   50.0
250.0   120.0   50.0
250.0   90.0   50.0
250.0   90.0   33.333333333333336
200.0   90.0   50.0
250.0   120.0   50.0
250.0   90.0   33.333333333333336
200.0   120.0   33.333333333333336
200.0   120.0   0.0
250.0   120.0   0.0
200.0   150.0   0.0
200.0   120.0   16.666666666666668
250.0   120.0   0.0
250.0   150.0   0.0
200.0   150.0   0.0
250.0   150.0   16.666666666666668
200.0   120.0   16.666666666666668
200.0   150.0   16.666666666666668
250.0   150.0   16.666666666666668
200.0   150.0   0.0
200.0   120.0   16.666666666666668
250.0   150.0   16.666666666666668
250.0   120.0   16.666666666666668
250.0   120.0   0.0
200.0   120.0   16.666666666666668
250.0   150.0   16.666666666666668
250.0   120.0   0.0
200.0   150.0   0.0
200.0   120.0   16.666666666666668
250.0   120.0   16.666666666666668
200.0   150.0   16.666666666666668
200.0   120.0   33.333333333333336
250.0   120.0   16.666666666666668
250.0   150.0   16.666666666666668
200.0   150.0   16.666666666666668
250.0   150.0   33.333333333333336
200.0   120.0   33.333333333333336
200.0   150.0   33.333333333333336
250.0   150.0   33.333333333333336
200.0   150.0   16.666666666666668
200.0   120.0   33.333333333333336
250.0   150.0   33.333333333333336
250.0   120.0   33.333333333333336
250.0   120.0   16.666666666666668
200.0   120.0   33.333333333333336
250.0   150.0   33.333333333333336
250.0   120.0   16.666666666666668
200.0   150.0   16.666666666666668
200.0   120.0   33.333333333333336
250.0   120.0   33.333333333333336
200.0   150.0   33.333333333333336
200.0   120.0   50.0
250.0   120.0   33.333333333333336
250.0   150.0   33.333333333333336
200.0   150.0   33.333333333333336
250.0   150.0   50.0
200.0   120.0   50.0
200.0   150.0   50.0
250.0   150.0   50.0
200.0   150.0   33.333333333333336
200.0   120.0   50.0
250.0   150.0   50.0
250.0   120.0   50.0
250.0   120.0   33.333333333333336
200.0   120.0   50.0
250.0   150.0   50.0
250.0   120.0   33.333333333333336
200.0   150.0   33.333333333333336
250.0   0.0   0.0
300.0   0.0   0.0
250.0   30.0   0.0
250.0   0.0   16.666666666666668
300.0   0.0   0.0
300.0   30.0   0.0
250.0   30.0   0.0
300.0   30.0   16.666666666666668
250.0   0.0   16.666666666666668
250.0   30.0   16.666666666666668
300.0   30.0   16.666666666666668
250.0   30.0   0.0
250.0   0.0   16.666666666666668
300.0   30.0   16.666666666666668
300.0   0.0   16.666666666666668
300.0   0.0   0.0
250.0   0.0   16.666666666666668
300.0   30.0   16.666666666666668
300.0   0.0   0.0
250.0   30.0   0.0
250.0   0.0   16.666666666666668
300.0   0.0   16.666666666666668
250.0   30.0   16.666666666666668
250.0   0.0   33.333333333333336
300.0   0.0   16.666666666666668
300.0   30.0   16.666666666666668
250.0   30.0   16.666666666666668
300.0   30.0   33.333333333333336
250.0   0.0   33.333333333333336
250.0   30.0   33.333333333333336
300.0   30.0   33.333333333333336
250.0   30.0   16.666666666666668
250.0   0.0   33.333333333333336
300.0   30.0   33.333333333333336
300.0   0.0   33.333333333333336
300.0   0.0   16.666666666666668
250.0   0.0   33.333333333333336
300.0   30.0   33.333333333333336
300.0   0.0   16.666666666666668
250.0   30.0   16.666666666666668
250.0   0.0   33.333333333333336
300.0   0.0   33.333333333333336
250.0   30.0   33.333333333333336
250.0   0.0   50.0
300.0   0.0   33.333333333333336
300.0   30.0   33.333333333333336
250.0   30.0   33.333333333333336
300.0   30.0   50.0
250.0   0.0   50.0
250.0   30.0   50.0
300.0   30.0   50.0
250.0   30.0   33.333333333333336
250.0   0.0   50.0
300.0   30.0   50.0
300.0   0.0   50.0
300.0   0.0   33.333333333333336
250.0   0.0   50.0
300.0   30.0   50.0
300.0   0.0   33.333333333333336
250.0   30.0   33.333333333333336
250.0   30.0   0.0
300.0   30.0   0.0
250.0   60.0   0.0
250.0   30.0   16.666666666666668
300.0   30.0   0.0
300.0   60.0   0.0
250.0   60.0   0.0
300.0   60.0   16.666666666666668
250.0   30.0   16.666666666666668
250.0   60.0   16.666666666666668
300.0   60.0   16.666666666666668
250.0   60.0   0.0
250.0   30.0   16.666666666666668
300.0   60.0   16.666666666666668
300.0   30.0   16.666666666666668
300.0   30.0   0.0
250.0   30.0   16.666666666666668
300.0   60.0   16.666666666666668
300.0   30.0   0.0
250.0   60.0   0.0
250.0   30.0   16.666666666666668
300.0   30.0   16.666666666666668
250.0   60.0   16.666666666666668
250.0   30.0   33.333333333333336
300.0   30.0   16.666666666666668
300.0   60.0   16.666666666666668
250.0   60.0   16.666666666666668
300.0   60.0   33.333333333333336
250.0   30.0   33.333333333333336
250.0   60.0   33.333333333333336
300.0   60.0   33.333333333333336
250.0   60.0   16.666666666666668
250.0   30.0   33.333333333333336
300.0   60.0   33.333333333333336
300.0   30.0   33.333333333333336
300.0   30.0   16.666666666666668
250.0   30.0   33.333333333333336
300.0   60.0   33.333333333333336
300.0   30.0   16.666666666666668
250.0   60.0   16.666666666666668
250.0   30.0   33.333333333333336
300.0   30.0   33.333333333333336
250.0   60.0   33.333333333333336
250.0   30.0   50.0
300.0   30.0   33.333333333333336
300.0   60.0   33.333333333333336
250.0   60.0   33.333333333333336
300.0   60.0   50.0
250.0   30.0   50.0
250.0   60.0   50.0
300.0   60.0   50.0
250.0   60.0   33.333333333333336
250.0   30.0   50.0
300.0   60.0   50.0
300.0   30.0   50.0
300.0   30.0   33.333333333333336
250.0   30.0   50.0
300.0   60.0   50.0
300.0   30.0   33.333333333333336
250.0   60.0   33.333333333333336
250.0   60.0   0.0
300.0   60.0   0.0
250.0   90.0   0.0
250.0   60.0   16.666666666666668
300.0   60.0   0.0
300.0   90.0   0.0
250.0   90.0   0.0
300.0   90.0   16.666666666666668
250.0   60.0   16.666666666666668
250.0   90.0   16.666666666666668
300.0   90.0   16.666666666666668
250.0   90.0   0.0
250.0   60.0   16.666666666666668
300.0   90.0   16.666666666666668
300.0   60.0   16.666666666666668
300.0   60.0   0.0
250.0   60.0   16.666666666666668
300.0   90.0   16.666666666666668
300.0   60.0   0.0
250.0   90.0   0.0
250.0   60.0   16.666666666666668
300.0   60.0   16.666666666666668
250.0   90.0   16.666666666666668
250.0   60.0   33.333333333333336
300.0   60.0   16.666666666666668
300.0   90.0   16.666666666666668
250.0   90.0   16.666666666666668
300.0   90.0   33.333333333333336
250.0   60.0   33.333333333333336
250.0   90.0   33.333333333333336
300.0   90.0   33.333333333333336
250.0   90.0   16.666666666666668
250.0   60.0   33.333333333333336
300.0   90.0   33.333333333333336
300.0   60.0   33.333333333333336
300.0   60.0   16.666666666666668
250.0   60.0   33.333333333333336
300.0   90.0   33.333333333333336
300.0   60.0   16.666666666666668
250.0   90.0   16.666666666666668
250.0   60.0   33.333333333333336
300.0   60.0   33.333333333333336
250.0   90.0   33.333333333333336
250.0   60.0   50.0
300.0   60.0   33.333333333333336
300.0   90.0   33.333333333333336
250.0   90.0   33.333333333333336
300.0   90.0   50.0
250.0   60.0   50.0
250.0   90.0   50.0
300.0   90.0   50.0
250.0   90.0   33.333333333333336
250.0   60.0   50.0
300.0   90.0   50.0
300.0   60.0   50.0
300.0   60.0   33.333333333333336
250.0   60.0   50.0
300.0   90.0   50.0
300.0   60.0   33.333333333333336
250.0   90.0   33.333333333333336
250.0   90.0   0.0
300.0   90.0   0.0
250.0   120.0   0.0
250.0   90.0   16.666666666666668
300.0   90.0   0.0
300.0   120.0   0.0
250.0   120.0   0.0
300.0   120.0   16.666666666666668
250.0   90.0   16.666666666666668
250.0   120.0   16.666666666666668
300.0   120.0   16.666666666666668
250.0   120.0   0.0
250.0   90.0   16.666666666666668
300.0   120.0   16.666666666666668
300.0   90.0   16.666666666666668
300.0   90.0   0.0
250.0   90.0   16.666666666666668
300.0   120.0   16.666666666666668
300.0   90.0   0.0
250.0   120.0   0.0
250.0   90.0   16.666666666666668
300.0   90.0   16.666666666666668
250.0   120.0   16.666666666666668
250.0   90.0   33.333333333333336
300.0   90.0   16.666666666666668
300.0   120.0   16.666666666666668
250.0   120.0   16.666666666666668
300.0   120.0   33.333333333333336
250.0   90.0   33.333333333333336
250.0   120.0   33.333333333333336
300.0   120.0   33.333333333333336
250.0   120.0   16.666666666666668
250.0   90.0   33.333333333333336
300.0   120.0   33.333333333333336
300.0   90.0   33.333333333333336
300.0   90.0   16.666666666666668
250.0   90.0   33.333333333333336
300.0   120.0   33.333333333333336
300.0   90.0   16.666666666666668
250.0   120.0   16.666666666666668
250.0   90.0   33.333333333333336
300.0   90.0   33.333333333333336
250.0   120.0   33.333333333333336
250.0   90.0   50.0
300.0   90.0   33.333333333333336
300.0   120.0   33.333333333333336
250.0   120.0   33.333333333333336
300.0   120.0   50.0
250.0   90.0   50.0
250.0   120.0   50.0
300.0   120.0   50.0
250.0   120.0   33.333333333333336
250.0   90.0   50.0
300.0   120.0   50.0
300.0   90.0   50.0
300.0   90.0   33.333333333333336
250.0   90.0   50.0
300.0   120.0   50.0
300.0   90.0   33.333333333333336
250.0   120.0   33.333333333333336
250.0   120.0   0.0
300.0   120.0   0.0
250.0   150.0   0.0
250.0   120.0   16.666666666666668
300.0   120.0   0.0
300.0   150.0   0.0
250.0   150.0   0.0
300.0   150.0   16.666666666666668
250.0   120.0   16.666666666666668
250.0   150.0   16.666666666666668
300.0   150.0   16.666666666666668
250.0   150.0   0.0
250.0   120.0   16.666666666666668
300.0   150.0   16.666666666666668
300.0   120.0   16.666666666666668
300.0   120.0   0.0
250.0   120.0   16.666666666666668
300.0   150.0   16.666666666666668
300.0   120.0   0.0
250.0   150.0   0.0
250.0   120.0   16.666666666666668
300.0   120.0   16.666666666666668
250.0   150.0   16.666666666666668
250.0   120.0   33.333333333333336
300.0   120.0   16.666666666666668
300.0   150.0   16.666666666666668
250.0   150.0   16.666666666666668
300.0   150.0   33.333333333333336
250.0   120.0   33.333333333333336
250.0   150.0   33.333333333333336
300.0   150.0   33.333333333333336
250.0   150.0   16.666666666666668
250.0   120.0   33.333333333333336
300.0   150.0   33.333333333333336
300.0   120.0   33.333333333333336
300.0   120.0   16.666666666666668
250.0   120.0   33.333333333333336
300.0   150.0   33.333333333333336
300.0   120.0   16.666666666666668
250.0   150.0   16.666666666666668
250.0   120.0   33.333333333333336
300.0   120.0   33.333333333333336
250.0   150.0   33.333333333333336
250.0   120.0   50.0
300.0   120.0   33.333333333333336
300.0   150.0   33.333333333333336
250.0   150.0   33.333333333333336
300.0   150.0   50.0
250.0   120.0   50.0
250.0   150.0   50.0
300.0   150.0   50.0
250.0   150.0   33.333333333333336
250.0   120.0   50.0
300.0   150.0   50.0
300.0   120.0   50.0
300.0   120.0   33.333333333333336
250.0   120.0   50.0
300.0   150.0   50.0
300.0   120.0   33.333333333333336
250.0   150.0   33.333333333333336
300.0   0.0   0.0
350.0   0.0   0.0
300.0   30.0   0.0
300.0   0.0   16.666666666666668
350.0   0.0   0.0
350.0   30.0   0.0
300.0   30.0   0.0
350.0   30.0   16.666666666666668
300.0   0.0   16.666666666666668
300.0   30.0   16.666666666666668
350.0   30.0   16.666666666666668
300.0   30.0   0.0
300.0   0.0   16.666666666666668
350.0   30.0   16.666666666666668
350.0   0.0   16.666666666666668
350.0   0.0   0.0
300.0   0.0   16.666666666666668
350.0   30.0   16.666666666666668
350.0   0.0   0.0
300.0   30.0   0.0
300.0   0.0   16.666666666666668
350.0   0.0   16.666666666666668
300.0   30.0   16.666666666666668
300.0   0.0   33.333333333333336
350.0   0.0   16.666666666666668
350.0   30.0   16.666666666666668
300.0   30.0   16.666666666666668
350.0   30.0   33.333333333333336
300.0   0.0   33.333333333333336
300.0   30.0   33.333333333333336
350.0   30.0   33.333333333333336
300.0   30.0   16.666666666666668
300.0   0.0   33.333333333333336
350.0   30.0   33.333333333333336
350.0   0.0   33.333333333333336
350.0   0.0   16.666666666666668
300.0   0.0   33.333333333333336
350.0   30.0   33.333333333333336
350.0   0.0   16.666666666666668
300.0   30.0   16.666666666666668
300.0   0.0   33.333333333333336
350.0   0.0   33.333333333333336
300.0   30.0   33.333333333333336
300.0   0.0   50.0
350.0   0.0   33.333333333333336
350.0   30.0   33.333333333333336
300.0   30.0   33.333333333333336
350.0   30.0   50.0
300.0   0.0   50.0
300.0   30.0   50.0
350.0   30.0   50.0
300.0   30.0   33.333333333333336
300.0   0.0   50.0
350.0   30.0   50.0
350.0   0.0   50.0
350.0   0.0   33.333333333333336
300.0   0.0   50.0
350.0   30.0   50.0
350.0   0.0   33.333333333333336
300.0   30.0   33.333333333333336
300.0   30.0   0.0
350.0   30.0   0.0
300.0   60.0   0.0
300.0   30.0   16.666666666666668
350.0   30.0   0.0
350.0   60.0   0.0
300.0   60.0   0.0
350.0   60.0   16.666666666666668
300.0   30.0   16.666666666666668
300.0   60.0   16.666666666666668
350.0   60.0   16.666666666666668
300.0   60.0   0.0
300.0   30.0   16.666666666666668
350.0   60.0   16.666666666666668
350.0   30.0   16.666666666666668
350.0   30.0   0.0
300.0   30.0   16.666666666666668
350.0   60.0   16.666666666666668
350.0   30.0   0.0
300.0   60.0   0.0
300.0   30.0   16.666666666666668
350.0   30.0   16.666666666666668
300.0   60.0   16.666666666666668
300.0   30.0   33.333333333333336
350.0   30.0   16.666666666666668
350.0   60.0   16.666666666666668
300.0   60.0   16.666666666666668
350.0   60.0   33.333333333333336
300.0   30.0   33.333333333333336
300.0   60.0   33.333333333333336
350.0   60.0   33.333333333333336
300.0   60.0   16.666666666666668
300.0   30.0   33.333333333333336
350.0   60.0   33.333333333333336
350.0   30.0   33.333333333333336
350.0   30.0   16.666666666666668
300.0   30.0   33.333333333333336
350.0   60.0   33.333333333333336
350.0   30.0   16.666666666666668
300.0   60.0   16.666666666666668
300.0   30.0   33.333333333333336
350.0   30.0   33.333333333333336
300.0   60.0   33.333333333333336
300.0   30.0   50.0
350.0   30.0   33.333333333333336
350.0   60.0   33.333333333333336
300.0   60.0   33.333333333333336
350.0   60.0   50.0
300.0   30.0   50.0
300.0   60.0   50.0
350.0   60.0   50.0
300.0   60.0   33.333333333333336
300.0   30.0   50.0
350.0   60.0   50.0
350.0   30.0   50.0
350.0   30.0   33.333333333333336
300.0   30.0   50.0
350.0   60.0   50.0
350.0   30.0   33.333333333333336
300.0   60.0   33.333333333333336
300.0   60.0   0.0
350.0   60.0   0.0
300.0   90.0   0.0
300.0   60.0   16.666666666666668
350.0   60.0   0.0
350.0   90.0   0.0
300.0   90.0   0.0
350.0   90.0   16.666666666666668
300.0   60.0   16.666666666666668
300.0   90.0   16.666666666666668
350.0   90.0   16.666666666666668
300.0   90.0   0.0
300.0   60.0   16.666666666666668
350.0   90.0   16.666666666666668
350.0   60.0   16.666666666666668
350.0   60.0   0.0
300.0   60.0   16.666666666666668
350.0   90.0   16.666666666666668
350.0   60.0   0.0
300.0   90.0   0.0
300.0   60.0   16.666666666666668
350.0   60.0   16.666666666666668
300.0   90.0   16.666666666666668
300.0   60.0   33.333333333333336
350.0   60.0   16.666666666666668
350.0   90.0   16.666666666666668
300.0   90.0   16.666666666666668
350.0   90.0   33.333333333333336
300.0   60.0   33.333333333333336
300.0   90.0   33.333333333333336
350.0   90.0   33.333333333333336
300.0   90.0   16.666666666666668
300.0   60.0   33.333333333333336
350.0   90.0   33.333333333333336
350.0   60.0   33.333333333333336
350.0   60.0   16.666666666666668
300.0   60.0   33.333333333333336
350.0   90.0   33.333333333333336
350.0   60.0   16.666666666666668
300.0   90.0   16.666666666666668
300.0   60.0   33.333333333333336
350.0   60.0   33.333333333333336
300.0   90.0   33.333333333333336
300.0   60.0   50.0
350.0   60.0   33.333333333333336
350.0   90.0   33.333333333333336
300.0   90.0   33.333333333333336
350.0   90.0   50.0
300.0   60.0   50.0
300.0   90.0   50.0
350.0   90.0   50.0
300.0   90.0   33.333333333333336
300.0   60.0   50.0
350.0   90.0   50.0
350.0   60.0   50.0
350.0   60.0   33.333333333333336
300.0   60.0   50.0
350.0   90.0   50.0
350.0   60.0   33.333333333333336
300.0   90.0   33.333333333333336
300.0   90.0   0.0
350.0   90.0   0.0
300.0   120.0   0.0
300.0   90.0   16.666666666666668
350.0   90.0   0.0
350.0   120.0   0.0
300.0   120.0   0.0
350.0   120.0   16.666666666666668
300.0   90.0   16.666666666666668
300.0   120.0   16.666666666666668
350.0   120.0   16.666666666666668
300.0   120.0   0.0
300.0   90.0   16.666666666666668
350.0   120.0   16.666666666666668
350.0   90.0   16.666666666666668
350.0   90.0   0.0
300.0   90.0   16.666666666666668
350.0   120.0   16.666666666666668
350.0   90.0   0.0
300.0   120.0   0.0
300.0   90.0   16.666666666666668
350.0   90.0   16.666666666666668
300.0   120.0   16.666666666666668
300.0   90.0   33.333333333333336
350.0   90.0   16.666666666666668
350.0   120.0   16.666666666666668
300.0   120.0   16.666666666666668
350.0   120.0   33.333333333333336
300.0   90.0   33.333333333333336
300.0   120.0   33.333333333333336
350.0   120.0   33.333333333333336
300.0   120.0   16.666666666666668
300.0   90.0   33.333333333333336
350.0   120.0   33.333333333333336
350.0   90.0   33.333333333333336
350.0   90.0   16.666666666666668
300.0   90.0   33.333333333333336
350.0   120.0   33.333333333333336
350.0   90.0   16.666666666666668
300.0   120.0   16.666666666666668
300.0   90.0   33.333333333333336
350.0   90.0   33.333333333333336
300.0   120.0   33.333333333333336
300.0   90.0   50.0
350.0   90.0   33.333333333333336
350.0   120.0   33.333333333333336
300.0   120.0   33.333333333333336
350.0   120.0   50.0
300.0   90.0   50.0
300.0   120.0   50.0
350.0   120.0   50.0
300.0   120.0   33.333333333333336
300.0   90.0   50.0
350.0   120.0   50.0
350.0   90.0   50.0
350.0   90.0   33.333333333333336
300.0   90.0   50.0
350.0   120.0   50.0
350.0   90.0   33.333333333333336
300.0   120.0   33.333333333333336
300.0   120.0   0.0
350.0   120.0   0.0
300.0   150.0   0.0
300.0   120.0   16.666666666666668
350.0   120.0   0.0
350.0   150.0   0.0
300.0   150.0   0.0
350.0   150.0   16.666666666666668
300.0   120.0   16.666666666666668
300.0   150.0   16.666666666666668
350.0   150.0   16.666666666666668
300.0   150.0   0.0
300.0   120.0   16.666666666666668
350.0   150.0   16.666666666666668
350.0   120.0   16.666666666666668
350.0   120.0   0.0
300.0   120.0   16.666666666666668
350.0   150.0   16.666666666666668
350.0   120.0   0.0
300.0   150.0   0.0
300.0   120.0   16.666666666666668
350.0   120.0   16.666666666666668
300.0   150.0   16.666666666666668
300.0   120.0   33.333333333333336
350.0   120.0   16.666666666666668
350.0   150.0   16.666666666666668
300.0   150.0   16.666666666666668
350.0   150.0   33.333333333333336
300.0   120.0   33.333333333333336
300.0   150.0   33.333333333333336
350.0   150.0   33.333333333333336
300.0   150.0   16.666666666666668
300.0   120.0   33.333333333333336
350.0   150.0   33.333333333333336
350.0   120.0   33.333333333333336
350.0   120.0   16.666666666666668
300.0   120.0   33.333333333333336
350.0   150.0   33.333333333333336
350.0   120.0   16.666666666666668
300.0   150.0   16.666666666666668
300.0   120.0   33.333333333333336
350.0   120.0   33.333333333333336
300.0   150.0   33.333333333333336
300.0   120.0   50.0
350.0   120.0   33.333333333333336
350.0   150.0   33.333333333333336
300.0   150.0   33.333333333333336
350.0   150.0   50.0
300.0   120.0   50.0
300.0   150.0   50.0
350.0   150.0   50.0
300.0   150.0   33.333333333333336
300.0   120.0   50.0
350.0   150.0   50.0
350.0   120.0   50.0
350.0   120.0   33.333333333333336
300.0   120.0   50.0
350.0   150.0   50.0
350.0   120.0   33.333333333333336
300.0   150.0   33.333333333333336
350.0   0.0   0.0
400.0   0.0   0.0
350.0   30.0   0.0
350.0   0.0   16.666666666666668
400.0   0.0   0.0
400.0   30.0   0.0
350.0   30.0   0.0
400.0   30.0   16.666666666666668
350.0   0.0   16.666666666666668
350.0   30.0   16.666666666666668
400.0   30.0   16.666666666666668
350.0   30.0   0.0
350.0   0.0   16.666666666666668
400.0   30.0   16.666666666666668
400.0   0.0   16.666666666666668
400.0   0.0   0.0
350.0   0.0   16.666666666666668
400.0   30.0   16.666666666666668
400.0   0.0   0.0
350.0   30.0   0.0
350.0   0.0   16.666666666666668
400.0   0.0   16.666666666666668
350.0   30.0   16.666666666666668
350.0   0.0   33.333333333333336
400.0   0.0   16.666666666666668
400.0   30.0   16.666666666666668
350.0   30.0   16.666666666666668
400.0   30.0   33.333333333333336
350.0   0.0   33.333333333333336
350.0   30.0   33.333333333333336
400.0   30.0   33.333333333333336
350.0   30.0   16.666666666666668
350.0   0.0   33.333333333333336
400.0   30.0   33.333333333333336
400.0   0.0   33.333333333333336
400.0   0.0   16.666666666666668
350.0   0.0   33.333333333333336
400.0   30.0   33.333333333333336
400.0   0.0   16.666666666666668
350.0   30.0   16.666666666666668
350.0   0.0   33.333333333333336
400.0   0.0   33.333333333333336
350.0   30.0   33.333333333333336
350.0   0.0   50.0
400.0   0.0   33.333333333333336
400.0   30.0   33.333333333333336
350.0   30.0   33.333333333333336
400.0   30.0   50.0
350.0   0.0   50.0
350.0   30.0   50.0
400.0   30.0   50.0
350.0   30.0   33.333333333333336
350.0   0.0   50.0
400.0   30.0   50.0
400.0   0.0   50.0
400.0   0.0   33.333333333333336
350.0   0.0   50.0
400.0   30.0   50.0
400.0   0.0   33.333333333333336
350.0   30.0   33.333333333333336
350.0   30.0   0.0
400.0   30.0   0.0
350.0   60.0   0.0
350.0   30.0   16.666666666666668
400.0   30.0   0.0
400.0   60.0   0.0
350.0   60.0   0.0
400.0   60.0   16.666666666666668
350.0   30.0   16.666666666666668
350.0   60.0   16.666666666666668
400.0   60.0   16.666666666666668
350.0   60.0   0.0
350.0   30.0   16.666666666666668
400.0   60.0   16.666666666666668
400.0   30.0   16.666666666666668
400.0   30.0   0.0
350.0   30.0   16.666666666666668
400.0   60.0   16.666666666666668
400.0   30.0   0.0
350.0   60.0   0.0
350.0   30.0   16.666666666666668
400.0   30.0   16.666666666666668
350.0   60.0   16.666666666666668
350.0   30.0   33.333333333333336
400.0   30.0   16.666666666666668
400.0   60.0   16.666666666666668
350.0   60.0   16.666666666666668
400.0   60.0   33.333333333333336
350.0   30.0   33.333333333333336
350.0   60.0   33.333333333333336
400.0   60.0   33.333333333333336
350.0   60.0   16.666666666666668
350.0   30.0   33.333333333333336
400.0   60.0   33.333333333333336
400.0   30.0   33.333333333333336
400.0   30.0   16.666666666666668
350.0   30.0   33.333333333333336
400.0   60.0   33.333333333333336
400.0   30.0   16.666666666666668
350.0   60.0   16.666666666666668
350.0   30.0   33.333333333333336
400.0   30.0   33.333333333333336
350.0   60.0   33.333333333333336
350.0   30.0   50.0
400.0   30.0   33.333333333333336
400.0   60.0   33.333333333333336
350.0   60.0   33.333333333333336
400.0   60.0   50.0
350.0   30.0   50.0
350.0   60.0   50.0
400.0   60.0   50.0
350.0   60.0   33.333333333333336
350.0   30.0   50.0
400.0   60.0   50.0
400.0   30.0   50.0
400.0   30.0   33.333333333333336
350.0   30.0   50.0
400.0   60.0   50.0
400.0   30.0   33.333333333333336
350.0   60.0   33.333333333333336
350.0   60.0   0.0
400.0   60.0   0.0
350.0   90.0   0.0
350.0   60.0   16.666666666666668
400.0   60.0   0.0
400.0   90.0   0.0
350.0   90.0   0.0
400.0   90.0   16.666666666666668
350.0   60.0   16.666666666666668
350.0   90.0   16.666666666666668
400.0   90.0   16.666666666666668
350.0   90.0   0.0
350.0   60.0   16.666666666666668
400.0   90.0   16.666666666666668
400.0   60.0   16.666666666666668
400.0   60.0   0.0
350.0   60.0   16.666666666666668
400.0   90.0   16.666666666666668
400.0   60.0   0.0
350.0   90.0   0.0
350.0   60.0   16.666666666666668
400.0   60.0   16.666666666666668
350.0   90.0   16.666666666666668
350.0   60.0   33.333333333333336
400.0   60.0   16.666666666666668
400.0   90.0   16.666666666666668
350.0   90.0   16.666666666666668
400.0   90.0   33.333333333333336
350.0   60.0   33.333333333333336
350.0   90.0   33.333333333333336
400.0   90.0   33.333333333333336
350.0   90.0   16.666666666666668
350.0   60.0   33.333333333333336
400.0   90.0   33.333333333333336
400.0   60.0   33.333333333333336
400.0   60.0   16.666666666666668
350.0   60.0   33.333333333333336
400.0   90.0   33.333333333333336
400.0   60.0   16.666666666666668
350.0   90.0   16.666666666666668
350.0   60.0   33.333333333333336
400.0   60.0   33.333333333333336
350.0   90.0   33.333333333333336
350.0   60.0   50.0
400.0   60.0   33.333333333333336
400.0   90.0   33.333333333333336
350.0   90.0   33.333333333333336
400.0   90.0   50.0
350.0   60.0   50.0
350.0   90.0   50.0
400.0   90.0   50.0
350.0   90.0   33.333333333333336
350.0   60.0   50.0
400.0   90.0   50.0
400.0   60.0   50.0
400.0   60.0   33.333333333333336
350.0   60.0   50.0
400.0   90.0   50.0
400.0   60.0   33.333333333333336
350.0   90.0   33.333333333333336
350.0   90.0   0.0
400.0   90.0   0.0
350.0   120.0   0.0
350.0   90.0   16.666666666666668
400.0   90.0   0.0
400.0   120.0   0.0
350.0   120.0   0.0
400.0   120.0   16.666666666666668
350.0   90.0   16.666666666666668
350.0   120.0   16.666666666666668
400.0   120.0   16.666666666666668
350.0   120.0   0.0
350.0   90.0   16.666666666666668
400.0   120.0   16.666666666666668
400.0   90.0   16.666666666666668
400.0   90.0   0.0
350.0   90.0   16.666666666666668
400.0   120.0   16.666666666666668
400.0   90.0   0.0
350.0   120.0   0.0
350.0   90.0   16.666666666666668
400.0   90.0   16.666666666666668
350.0   120.0   16.666666666666668
350.0   90.0   33.333333333333336
400.0   90.0   16.666666666666668
400.0   120.0   16.666666666666668
350.0   120.0   16.666666666666668
400.0   120.0   33.333333333333336
350.0   90.0   33.333333333333336
350.0   120.0   33.333333333333336
400.0   120.0   33.333333333333336
350.0   120.0   16.666666666666668
350.0   90.0   33.333333333333336
400.0   120.0   33.333333333333336
400.0   90.0   33.333333333333336
400.0   90.0   16.666666666666668
350.0   90.0   33.333333333333336
400.0   120.0   33.333333333333336
400.0   90.0   16.666666666666668
350.0   120.0   16.666666666666668
350.0   90.0   33.333333333333336
400.0   90.0   33.333333333333336
350.0   120.0   33.333333333333336
350.0   90.0   50.0
400.0   90.0   33.333333333333336
400.0   120.0   33.333333333333336
350.0   120.0   33.333333333333336
400.0   120.0   50.0
350.0   90.0   50.0
350.0   120.0   50.0
400.0   120.0   50.0
350.0   120.0   33.333333333333336
350.0   90.0   50.0
400.0   120.0   50.0
400.0   90.0   50.0
400.0   90.0   33.333333333333336
350.0   90.0   50.0
400.0   120.0   50.0
400.0   90.0   33.333333333333336
350.0   120.0   33.333333333333336
350.0   120.0   0.0
400.0   120.0   0.0
350.0   150.0   0.0
350.0   120.0   16.666666666666668
400.0   120.0   0.0
400.0   150.0   0.0
350.0   150.0   0.0
400.0   150.0   16.666666666666668
350.0   120.0   16.666666666666668
350.0   150.0   16.666666666666668
400.0   150.0   16.666666666666668
350.0   150.0   0.0
350.0   120.0   16.666666666666668
400.0   150.0   16.666666666666668
400.0   120.0   16.666666666666668
400.0   120.0   0.0
350.0   120.0   16.666666666666668
400.0   150.0   16.666666666666668
400.0   120.0   0.0
350.0   150.0   0.0
350.0   120.0   16.666666666666668
400.0   120.0   16.666666666666668
350.0   150.0   16.666666666666668
350.0   120.0   33.333333333333336
400.0   120.0   16.666666666666668
400.0   150.0   16.666666666666668
350.0   150.0   16.666666666666668
400.0   150.0   33.333333333333336
350.0   120.0   33.333333333333336
350.0   150.0   33.333333333333336
400.0   150.0   33.333333333333336
350.0   150.0   16.666666666666668
350.0   120.0   33.333333333333336
400.0   150.0   33.333333333333336
400.0   120.0   33.333333333333336
400.0   120.0   16.666666666666668
350.0   120.0   33.333333333333336
400.0   150.0   33.333333333333336
400.0   120.0   16.666666666666668
350.0   150.0   16.666666666666668
350.0   120.0   33.333333333333336
400.0   120.0   33.333333333333336
350.0   150.0   33.333333333333336
350.0   120.0   50.0
400.0   120.0   33.333333333333336
400.0   150.0   33.333333333333336
350.0   150.0   33.333333333333336
400.0   150.0   50.0
350.0   120.0   50.0
350.0   150.0   50.0
400.0   150.0   50.0
350.0   150.0   33.333333333333336
350.0   120.0   50.0
400.0   150.0   50.0
400.0   120.0   50.0
400.0   120.0   33.333333333333336
350.0   120.0   50.0
400.0   150.0   50.0
400.0   120.0   33.333333333333336
350.0   150.0   33.333333333333336
400.0   0.0   0.0
450.0   0.0   0.0
400.0   30.0   0.0
400.0   0.0   16.666666666666668
450.0   0.0   0.0
450.0   30.0   0.0
400.0   30.0   0.0
450.0   30.0   16.666666666666668
400.0   0.0   16.666666666666668
400.0   30.0   16.666666666666668
450.0   30.0   16.666666666666668
400.0   30.0   0.0
400.0   0.0   16.666666666666668
450.0   30.0   16.666666666666668
450.0   0.0   16.666666666666668
450.0   0.0   0.0
400.0   0.0   16.666666666666668
450.0   30.0   16.666666666666668
450.0   0.0   0.0
400.0   30.0   0.0
400.0   0.0   16.666666666666668
450.0   0.0   16.666666666666668
400.0   30.0   16.666666666666668
400.0   0.0   33.333333333333336
450.0   0.0   16.666666666666668
450.0   30.0   16.666666666666668
400.0   30.0   16.666666666666668
450.0   30.0   33.333333333333336
400.0   0.0   33.333333333333336
400.0   30.0   33.333333333333336
450.0   30.0   33.333333333333336
400.0   30.0   16.666666666666668
400.0   0.0   33.333333333333336
450.0   30.0   33.333333333333336
450.0   0.0   33.333333333333336
450.0   0.0   16.666666666666668
400.0   0.0   33.333333333333336
450.0   30.0   33.333333333333336
450.0   0.0   16.666666666666668
400.0   30.0   16.666666666666668
400.0   0.0   33.333333333333336
450.0   0.0   33.333333333333336
400.0   30.0   33.333333333333336
400.0   0.0   50.0
450.0   0.0   33.333333333333336
450.0   30.0   33.333333333333336
400.0   30.0   33.333333333333336
450.0   30.0   50.0
400.0   0.0   50.0
400.0   30.0   50.0
450.0   30.0   50.0
400.0   30.0   33.333333333333336
400.0   0.0   50.0
450.0   30.0   50.0
450.0   0.0   50.0
450.0   0.0   33.333333333333336
400.0   0.0   50.0
450.0   30.0   50.0
450.0   0.0   33.333333333333336
400.0   30.0   33.333333333333336
400.0   30.0   0.0
450.0   30.0   0.0
400.0   60.0   0.0
400.0   30.0   16.666666666666668
450.0   30.0   0.0
450.0   60.0   0.0
400.0   60.0   0.0
450.0   60.0   16.666666666666668
400.0   30.0   16.666666666666668
400.0   60.0   16.666666666666668
450.0   60.0   16.666666666666668
400.0   60.0   0.0
400.0   30.0   16.666666666666668
450.0   60.0   16.666666666666668
450.0   30.0   16.666666666666668
450.0   30.0   0.0
400.0   30.0   16.666666666666668
450.0   60.0   16.666666666666668
450.0   30.0   0.0
400.0   60.0   0.0
400.0   30.0   16.666666666666668
450.0   30.0   16.666666666666668
400.0   60.0   16.666666666666668
400.0   30.0   33.333333333333336
450.0   30.0   16.666666666666668
450.0   60.0   16.666666666666668
400.0   60.0   16.666666666666668
450.0   60.0   33.333333333333336
400.0   30.0   33.333333333333336
400.0   60.0   33.333333333333336
450.0   60.0   33.333333333333336
400.0   60.0   16.666666666666668
400.0   30.0   33.333333333333336
450.0   60.0   33.333333333333336
450.0   30.0   33.333333333333336
450.0   30.0   16.666666666666668
400.0   30.0   33.333333333333336
450.0   60.0   33.333333333333336
450.0   30.0   16.666666666666668
400.0   60.0   16.666666666666668
400.0   30.0   33.333333333333336
450.0   30.0   33.333333333333336
400.0   60.0   33.333333333333336
400.0   30.0   50.0
450.0   30.0   33.333333333333336
450.0   60.0   33.333333333333336
400.0   60.0   33.333333333333336
450.0   60.0   50.0
400.0   30.0   50.0
400.0   60.0   50.0
450.0   60.0   50.0
400.0   60.0   33.333333333333336
400.0   30.0   50.0
450.0   60.0   50.0
450.0   30.0   50.0
450.0   30.0   33.333333333333336
400.0   30.0   50.0
450.0   60.0   50.0
450.0   30.0   33.333333333333336
400.0   60.0   33.333333333333336
400.0   60.0   0.0
450.0   60.0   0.0
400.0   90.0   0.0
400.0   60.0   16.666666666666668
450.0   60.0   0.0
450.0   90.0   0.0
400.0   90.0   0.0
450.0   90.0   16.666666666666668
400.0   60.0   16.666666666666668
400.0   90.0   16.666666666666668
450.0   90.0   16.666666666666668
400.0   90.0   0.0
400.0   60.0   16.666666666666668
450.0   90.0   16.666666666666668
450.0   60.0   16.666666666666668
450.0   60.0   0.0
400.0   60.0   16.666666666666668
450.0   90.0   16.666666666666668
450.0   60.0   0.0
400.0   90.0   0.0
400.0   60.0   16.666666666666668
450.0   60.0   16.666666666666668
400.0   90.0   16.666666666666668
400.0   60.0   33.333333333333336
450.0   60.0   16.666666666666668
450.0   90.0   16.666666666666668
400.0   90.0   16.666666666666668
450.0   90.0   33.333333333333336
400.0   60.0   33.333333333333336
400.0   90.0   33.333333333333336
450.0   90.0   33.333333333333336
400.0   90.0   16.666666666666668
400.0   60.0   33.333333333333336
450.0   90.0   33.333333333333336
450.0   60.0   33.333333333333336
450.0   60.0   16.666666666666668
400.0   60.0   33.333333333333336
450.0   90.0   33.333333333333336
450.0   60.0   16.666666666666668
400.0   90.0   16.666666666666668
400.0   60.0   33.333333333333336
450.0   60.0   33.333333333333336
400.0   90.0   33.333333333333336
400.0   60.0   50.0
450.0   60.0   33.333333333333336
450.0   90.0   33.333333333333336
400.0   90.0   33.333333333333336
450.0   90.0   50.0
400.0   60.0   50.0
400.0   90.0   50.0
450.0   90.0   50.0
400.0   90.0   33.333333333333336
400.0   60.0   50.0
450.0   90.0   50.0
450.0   60.0   50.0
450.0   60.0   33.333333333333336
400.0   60.0   50.0
450.0   90.0   50.0
450.0   60.0   33.333333333333336
400.0   90.0   33.333333333333336
400.0   90.0   0.0
450.0   90.0   0.0
400.0   120.0   0.0
400.0   90.0   16.666666666666668
450.0   90.0   0.0
450.0   120.0   0.0
400.0   120.0   0.0
450.0   120.0   16.666666666666668
400.0   90.0   16.666666666666668
400.0   120.0   16.666666666666668
450.0   120.0   16.666666666666668
400.0   120.0   0.0
400.0   90.0   16.666666666666668
450.0   120.0   16.666666666666668
450.0   90.0   16.666666666666668
450.0   90.0   0.0
400.0   90.0   16.666666666666668
450.0   120.0   16.666666666666668
450.0   90.0   0.0
400.0   120.0   0.0
400.0   90.0   16.666666666666668
450.0   90.0   16.666666666666668
400.0   120.0   16.666666666666668
400.0   90.0   33.333333333333336
450.0   90.0   16.666666666666668
450.0   120.0   16.666666666666668
400.0   120.0   16.666666666666668
450.0   120.0   33.333333333333336
400.0   90.0   33.333333333333336
400.0   120.0   33.333333333333336
450.0   120.0   33.333333333333336
400.0   120.0   16.666666666666668
400.0   90.0   33.333333333333336
450.0   120.0   33.333333333333336
450.0   90.0   33.333333333333336
450.0   90.0   16.666666666666668
400.0   90.0   33.333333333333336
450.0   120.0   33.333333333333336
450.0   90.0   16.666666666666668
400.0   120.0   16.666666666666668
400.0   90.0   33.333333333333336
450.0   90.0   33.333333333333336
400.0   120.0   33.333333333333336
400.0   90.0   50.0
450.0   90.0   33.333333333333336
450.0   120.0   33.333333333333336
400.0   120.0   33.333333333333336
450.0   120.0   50.0
400.0   90.0   50.0
400.0   120.0   50.0
450.0   120.0   50.0
400.0   120.0   33.333333333333336
400.0   90.0   50.0
450.0   120.0   50.0
450.0   90.0   50.0
450.0   90.0   33.333333333333336
400.0   90.0   50.0
450.0   120.0   50.0
450.0   90.0   33.333333333333336
400.0   120.0   33.333333333333336
400.0   120.0   0.0
450.0   120.0   0.0
400.0   150.0   0.0
400.0   120.0   16.666666666666668
450.0   120.0   0.0
450.0   150.0   0.0
400.0   150.0   0.0
450.0   150.0   16.666666666666668
400.0   120.0   16.666666666666668
400.0   150.0   16.666666666666668
450.0   150.0   16.666666666666668
400.0   150.0   0.0
400.0   120.0   16.666666666666668
450.0   150.0   16.666666666666668
450.0   120.0   16.666666666666668
450.0   120.0   0.0
400.0   120.0   16.666666666666668
450.0   150.0   16.666666666666668
450.0   120.0   0.0
400.0   150.0   0.0
400.0   120.0   16.666666666666668
450.0   120.0   16.666666666666668
400.0   150.0   16.666666666666668
400.0   120.0   33.333333333333336
450.0   120.0   16.666666666666668
450.0   150.0   16.666666666666668
400.0   150.0   16.666666666666668
450.0   150.0   33.333333333333336
400.0   120.0   33.333333333333336
400.0   150.0   33.333333333333336
450.0   150.0   33.333333333333336
400.0   150.0   16.666666666666668
400.0   120.0   33.333333333333336
450.0   150.0   33.333333333333336
450.0   120.0   33.333333333333336
450.0   120.0   16.666666666666668
400.0   120.0   33.333333333333336
450.0   150.0   33.333333333333336
450.0   120.0   16.666666666666668
400.0   150.0   16.666666666666668
400.0   120.0   33.333333333333336
450.0   120.0   33.333333333333336
400.0   150.0   33.333333333333336
400.0   120.0   50.0
450.0   120.0   33.333333333333336
450.0   150.0   33.333333333333336
400.0   150.0   33.333333333333336
450.0   150.0   50.0
400.0   120.0   50.0
400.0   150.0   50.0
450.0   150.0   50.0
400.0   150.0   33.333333333333336
400.0   120.0   50.0
450.0   150.0   50.0
450.0   120.0   50.0
450.0   120.0   33.333333333333336
400.0   120.0   50.0
450.0   150.0   50.0
450.0   120.0   33.333333333333336
400.0   150.0   33.333333333333336
450.0   0.0   0.0
500.0   0.0   0.0
450.0   30.0   0.0
450.0   0.0   16.666666666666668
500.0   0.0   0.0
500.0   30.0   0.0
450.0   30.0   0.0
500.0   30.0   16.666666666666668
450.0   0.0   16.666666666666668
450.0   30.0   16.666666666666668
500.0   30.0   16.666666666666668
450.0   30.0   0.0
450.0   0.0   16.666666666666668
500.0   30.0   16.666666666666668
500.0   0.0   16.666666666666668
500.0   0.0   0.0
450.0   0.0   16.666666666666668
500.0   30.0   16.666666666666668
500.0   0.0   0.0
450.0   30.0   0.0
450.0   0.0   16.666666666666668
500.0   0.0   16.666666666666668
450.0   30.0   16.666666666666668
450.0   0.0   33.333333333333336
500.0   0.0   16.666666666666668
500.0   30.0   16.666666666666668
450.0   30.0   16.666666666666668
500.0   30.0   33.333333333333336
450.0   0.0   33.333333333333336
450.0   30.0   33.333333333333336
500.0   30.0   33.333333333333336
450.0   30.0   16.666666666666668
450.0   0.0   33.333333333333336
500.0   30.0   33.333333333333336
500.0   0.0   33.333333333333336
500.0   0.0   16.666666666666668
450.0   0.0   33.333333333333336
500.0   30.0   33.333333333333336
500.0   0.0   16.666666666666668
450.0   30.0   16.666666666666668
450.0   0.0   33.333333333333336
500.0   0.0   33.333333333333336
450.0   30.0   33.333333333333336
450.0   0.0   50.0
500.0   0.0   33.333333333333336
500.0   30.0   33.333333333333336
450.0   30.0   33.333333333333336
500.0   30.0   50.0
450.0   0.0   50.0
450.0   30.0   50.0
500.0   30.0   50.0
450.0   30.0   33.333333333333336
450.0   0.0   50.0
500.0   30.0   50.0
500.0   0.0   50.0
500.0   0.0   33.333333333333336
450.0   0.0   50.0
500.0   30.0   50.0
500.0   0.0   33.333333333333336
450.0   30.0   33.333333333333336
450.0   30.0   0.0
500.0   30.0   0.0
450.0   60.0   0.0
450.0   30.0   16.666666666666668
500.0   30.0   0.0
500.0   60.0   0.0
450.0   60.0   0.0
500.0   60.0   16.666666666666668
450.0   30.0   16.666666666666668
450.0   60.0   16.666666666666668
500.0   60.0   16.666666666666668
450.0   60.0   0.0
450.0   30.0   16.666666666666668
500.0   60.0   16.666666666666668
500.0   30.0   16.666666666666668
500.0   30.0   0.0
450.0   30.0   16.666666666666668
500.0   60.0   16.666666666666668
500.0   30.0   0.0
450.0   60.0   0.0
450.0   30.0   16.666666666666668
500.0   30.0   16.666666666666668
450.0   60.0   16.666666666666668
450.0   30.0   33.333333333333336
500.0   30.0   16.666666666666668
500.0   60.0   16.666666666666668
450.0   60.0   16.666666666666668
500.0   60.0   33.333333333333336
450.0   30.0   33.333333333333336
450.0   60.0   33.333333333333336
500.0   60.0   33.333333333333336
450.0   60.0   16.666666666666668
450.0   30.0   33.333333333333336
500.0   60.0   33.333333333333336
500.0   30.0   33.333333333333336
500.0   30.0   16.666666666666668
450.0   30.0   33.333333333333336
500.0   60.0   33.333333333333336
500.0   30.0   16.666666666666668
450.0   60.0   16.666666666666668
450.0   30.0   33.333333333333336
500.0   30.0   33.333333333333336
450.0   60.0   33.333333333333336
450.0   30.0   50.0
500.0   30.0   33.333333333333336
500.0   60.0   33.333333333333336
450.0   60.0   33.333333333333336
500.0   60.0   50.0
450.0   30.0   50.0
450.0   60.0   50.0
500.0   60.0   50.0
450.0   60.0   33.333333333333336
450.0   30.0   50.0
500.0   60.0   50.0
500.0   30.0   50.0
500.0   30.0   33.333333333333336
450.0   30.0   50.0
500.0   60.0   50.0
500.0   30.0   33.333333333333336
450.0   60.0   33.333333333333336
450.0   60.0   0.0
500.0   60.0   0.0
450.0   90.0   0.0
450.0   60.0   16.666666666666668
500.0   60.0   0.0
500.0   90.0   0.0
450.0   90.0   0.0
500.0   90.0   16.666666666666668
450.0   60.0   16.666666666666668
450.0   90.0   16.666666666666668
500.0   90.0   16.666666666666668
450.0   90.0   0.0
450.0   60.0   16.666666666666668
500.0   90.0   16.666666666666668
500.0   60.0   16.666666666666668
500.0   60.0   0.0
450.0   60.0   16.666666666666668
500.0   90.0   16.666666666666668
500.0   60.0   0.0
450.0   90.0   0.0
450.0   60.0   16.666666666666668
500.0   60.0   16.666666666666668
450.0   90.0   16.666666666666668
450.0   60.0   33.333333333333336
500.0   60.0   16.666666666666668
500.0   90.0   16.666666666666668
450.0   90.0   16.666666666666668
500.0   90.0   33.333333333333336
450.0   60.0   33.333333333333336
450.0   90.0   33.333333333333336
500.0   90.0   33.333333333333336
450.0   90.0   16.666666666666668
450.0   60.0   33.333333333333336
500.0   90.0   33.333333333333336
500.0   60.0   33.333333333333336
500.0   60.0   16.666666666666668
450.0   60.0   33.333333333333336
500.0   90.0   33.333333333333336
500.0   60.0   16.666666666666668
450.0   90.0   16.666666666666668
450.0   60.0   33.333333333333336
500.0   60.0   33.333333333333336
450.0   90.0   33.333333333333336
450.0   60.0   50.0
500.0   60.0   33.333333333333336
500.0   90.0   33.333333333333336
450.0   90.0   33.333333333333336
500.0   90.0   50.0
450.0   60.0   50.0
450.0   90.0   50.0
500.0   90.0   50.0
450.0   90.0   33.333333333333336
450.0   60.0   50.0
500.0   90.0   50.0
500.0   60.0   50.0
500.0   60.0   33.333333333333336
450.0   60.0   50.0
500.0   90.0   50.0
500.0   60.0   33.333333333333336
450.0   90.0   33.333333333333336
450.0   90.0   0.0
500.0   90.0   0.0
450.0   120.0   0.0
450.0   90.0   16.666666666666668
500.0   90.0   0.0
500.0   120.0   0.0
450.0   120.0   0.0
500.0   120.0   16.666666666666668
450.0   90.0   16.666666666666668
450.0   120.0   16.666666666666668
500.0   120.0   16.666666666666668
450.0   120.0   0.0
450.0   90.0   16.666666666666668
500.0   120.0   16.666666666666668
500.0   90.0   16.666666666666668
500.0   90.0   0.0
450.0   90.0   16.666666666666668
500.0   120.0   16.666666666666668
500.0   90.0   0.0
450.0   120.0   0.0
450.0   90.0   16.666666666666668
500.0   90.0   16.666666666666668
450.0   120.0   16.666666666666668
450.0   90.0   33.333333333333336
500.0   90.0   16.666666666666668
500.0   120.0   16.666666666666668
450.0   120.0   16.666666666666668
500.0   120.0   33.333333333333336
450.0   90.0   33.333333333333336
450.0   120.0   33.333333333333336
500.0   120.0   33.333333333333336
450.0   120.0   16.666666666666668
450.0   90.0   33.333333333333336
500.0   120.0   33.333333333333336
500.0   90.0   33.333333333333336
500.0   90.0   16.666666666666668
450.0   90.0   33.333333333333336
500.0   120.0   33.333333333333336
500.0   90.0   16.666666666666668
450.0   120.0   16.666666666666668
450.0   90.0   33.333333333333336
500.0   90.0   33.333333333333336
450.0   120.0   33.333333333333336
450.0   90.0   50.0
500.0   90.0   33.333333333333336
500.0   120.0   33.333333333333336
450.0   120.0   33.333333333333336
500.0   120.0   50.0
450.0   90.0   50.0
450.0   120.0   50.0
500.0   120.0   50.0
450.0   120.0   33.333333333333336
450.0   90.0   50.0
500.0   120.0   50.0
500.0   90.0   50.0
500.0   90.0   33.333333333333336
450.0   90.0   50.0
500.0   120.0   50.0
500.0   90.0   33.333333333333336
450.0   120.0   33.333333333333336
450.0   120.0   0.0
500.0   120.0   0.0
450.0   150.0   0.0
450.0   120.0   16.666666666666668
500.0   120.0   0.0
500.0   150.0   0.0
450.0   150.0   0.0
500.0   150.0   16.666666666666668
450.0   120.0   16.666666666666668
450.0   150.0   16.666666666666668
500.0   150.0   16.666666666666668
450.0   150.0   0.0
450.0   120.0   16.666666666666668
500.0   150.0   16.666666666666668
500.0   120.0   16.666666666666668
500.0   120.0   0.0
450.0   120.0   16.666666666666668
500.0   150.0   16.666666666666668
500.0   120.0   0.0
450.0   150.0   0.0
450.0   120.0   16.666666666666668
500.0   120.0   16.666666666666668
450.0   150.0   16.666666666666668
450.0   120.0   33.333333333333336
500.0   120.0   16.666666666666668
500.0   150.0   16.666666666666668
450.0   150.0   16.666666666666668
500.0   150.0   33.333333333333336
450.0   120.0   33.333333333333336
450.0   150.0   33.333333333333336
500.0   150.0   33.333333333333336
450.0   150.0   16.666666666666668
450.0   120.0   33.333333333333336
500.0   150.0   33.333333333333336
500.0   120.0   33.333333333333336
500.0   120.0   16.666666666666668
450.0   120.0   33.333333333333336
500.0   150.0   33.333333333333336
500.0   120.0   16.666666666666668
450.0   150.0   16.666666666666668
450.0   120.0   33.333333333333336
500.0   120.0   33.333333333333336
450.0   150.0   33.333333333333336
450.0   120.0   50.0
500.0   120.0   33.333333333333336
500.0   150.0   33.333333333333336
450.0   150.0   33.333333333333336
500.0   150.0   50.0
450.0   120.0   50.0
450.0   150.0   50.0
500.0   150.0   50.0
450.0   150.0   33.333333333333336
450.0   120.0   50.0
500.0   150.0   50.0
500.0   120.0   50.0
500.0   120.0   33.333333333333336
450.0   120.0   50.0
500.0   150.0   50.0
500.0   120.0   33.333333333333336
450.0   150.0   33.333333333333336
             </DataArray>   
          </Points>  
          <Cells>  
             <DataArray type="Int32" Name="connectivity" format="ascii">   
0   1   2   3
4   5   6   7
8   9   10   11
12   13   14   15
16   17   18   19
20   21   22   23
24   25   26   27
28   29   30   31
32   33   34   35
36   37   38   39
40   41   42   43
44   45   46   47
48   49   50   51
52   53   54   55
56   57   58   59
60   61   62   63
64   65   66   67
68   69   70   71
72   73   74   75
76   77   78   79
80   81   82   83
84   85   86   87
88   89   90   91
92   93   94   95
96   97   98   99
100   101   102   103
104   105   106   107
108   109   110   111
112   113   114   115
116   117   118   119
120   121   122   123
124   125   126   127
128   129   130   131
132   133   134   135
136   137   138   139
140   141   142   143
144   145   146   147
148   149   150   151
152   153   154   155
156   157   158   159
160   161   162   163
164   165   166   167
168   169   170   171
172   173   174   175
176   177   178   179
180   181   182   183
184   185   186   187
188   189   190   191
192   193   194   195
196   197   198   199
200   201   202   203
204   205   206   207
208   209   210   211
212   213   214   215
216   217   218   219
220   221   222   223
224   225   226   227
228   229   230   231
232   233   234   235
236   237   238   239
240   241   242   243
244   245   246   247
248   249   250   251
252   253   254   255
256   257   258   259
260   261   262   263
264   265   266   267
268   269   270   271
272   273   274   275
276   277   278   279
280   281   282   283
284   285   286   287
288   289   290   291
292   293   294   295
296   297   298   299
300   301   302   303
304   305   306   307
308   309   310   311
312   313   314   315
316   317   318   319
320   321   322   323
324   325   326   327
328   329   330   331
332   333   334   335
336   337   338   339
340   341   342   343
344   345   346   347
348   349   350   351
352   353   354   355
356   357   358   359
360   361   362   363
364   365   366   367
368   369   370   371
372   373   374   375
376   377   378   379
380   381   382   383
384   385   386   387
388   389   390   391
392   393   394   395
396   397   398   399
400   401   402   403
404   405   406   407
408   409   410   411
412   413   414   415
416   417   418   419
420   421   422   423
424   425   426   427
428   429   430   431
432   433   434   435
436   437   438   439
440   441   442   443
444   445   446   447
448   449   450   451
452   453   454   455
456   457   458   459
460   461   462   463
464   465   466   467
468   469   470   471
472   473   474   475
476   477   478   479
480   481   482   483
484   485   486   487
488   489   490   491
492   493   494   495
496   497   498   499
500   501   502   503
504   505   506   507
508   509   510   511
512   513   514   515
516   517   518   519
520   521   522   523
524   525   526   527
528   529   530   531
532   533   534   535
536   537   538   539
540   541   542   543
544   545   546   547
548   549   550   551
552   553   554   555
556   557   558   559
560   561   562   563
564   565   566   567
568   569   570   571
572   573   574   575
576   577   578   579
580   581   582   583
584   585   586   587
588   589   590   591
592   593   594   595
596   597   598   599
600   601   602   603
604   605   606   607
608   609   610   611
612   613   614   615
616   617   618   619
620   621   622   623
624   625   626   627
628   629   630   631
632   633   634   635
636   637   638   639
640   641   642   643
644   645   646   647
648   649   650   651
652   653   654   655
656   657   658   659
660   661   662   663
664   665   666   667
668   669   670   671
672   673   674   675
676   677   678   679
680   681   682   683
684   685   686   687
688   689   690   691
692   693   694   695
696   697   698   699
700   701   702   703
704   705   706   707
708   709   710   711
712   713   714   715
716   717   718   719
720   721   722   723
724   725   726   727
728   729   730   731
732   733   734   735
736   737   738   739
740   741   742   743
744   745   746   747
748   749   750   751
752   753   754   755
756   757   758   759
760   761   762   763
764   765   766   767
768   769   770   771
772   773   774   775
776   777   778   779
780   781   782   783
784   785   786   787
788   789   790   791
792   793   794   795
796   797   798   799
800   801   802   803
804   805   806   807
808   809   810   811
812   813   814   815
816   817   818   819
820   821   822   823
824   825   826   827
828   829   830   831
832   833   834   835
836   837   838   839
840   841   842   843
844   845   846   847
848   849   850   851
852   853   854   855
856   857   858   859
860   861   862   863
864   865   866   867
868   869   870   871
872   873   874   875
876   877   878   879
880   881   882   883
884   885   886   887
888   889   890   891
892   893   894   895
896   897   898   899
900   901   902   903
904   905   906   907
908   909   910   911
912   913   914   915
916   917   918   919
920   921   922   923
924   925   926   927
928   929   930   931
932   933   934   935
936   937   938   939
940   941   942   943
944   945   946   947
948   949   950   951
952   953   954   955
956   957   958   959
960   961   962   963
964   965   966   967
968   969   970   971
972   973   974   975
976   977   978   979
980   981   982   983
984   985   986   987
988   989   990   991
992   993   994   995
996   997   998   999
1000   1001   1002   1003
1004   1005   1006   1007
1008   1009   1010   1011
1012   1013   1014   1015
1016   1017   1018   1019
1020   1021   1022   1023
1024   1025   1026   1027
1028   1029   1030   1031
1032   1033   1034   1035
1036   1037   1038   1039
1040   1041   1042   1043
1044   1045   1046   1047
1048   1049   1050   1051
1052   1053   1054   1055
1056   1057   1058   1059
1060   1061   1062   1063
1064   1065   1066   1067
1068   1069   1070   1071
1072   1073   1074   1075
1076   1077   1078   1079
1080   1081   1082   1083
1084   1085   1086   1087
1088   1089   1090   1091
1092   1093   1094   1095
1096   1097   1098   1099
1100   1101   1102   1103
1104   1105   1106   1107
1108   1109   1110   1111
1112   1113   1114   1115
1116   1117   1118   1119
1120   1121   1122   1123
1124   1125   1126   1127
1128   1129   1130   1131
1132   1133   1134   1135
1136   1137   1138   1139
1140   1141   1142   1143
1144   1145   1146   1147
1148   1149   1150   1151
1152   1153   1154   1155
1156   1157   1158   1159
1160   1161   1162   1163
1164   1165   1166   1167
1168   1169   1170   1171
1172   1173   1174   1175
1176   1177   1178   1179
1180   1181   1182   1183
1184   1185   1186   1187
1188   1189   1190   1191
1192   1193   1194   1195
1196   1197   1198   1199
1200   1201   1202   1203
1204   1205   1206   1207
1208   1209   1210   1211
1212   1213   1214   1215
1216   1217   1218   1219
1220   1221   1222   1223
1224   1225   1226   1227
1228   1229   1230   1231
1232   1233   1234   1235
1236   1237   1238   1239
1240   1241   1242   1243
1244   1245   1246   1247
1248   1249   1250   1251
1252   1253   1254   1255
1256   1257   1258   1259
1260   1261   1262   1263
1264   1265   1266   1267
1268   1269   1270   1271
1272   1273   1274   1275
1276   1277   1278   1279
1280   1281   1282   1283
1284   1285   1286   1287
1288   1289   1290   1291
1292   1293   1294   1295
1296   1297   1298   1299
1300   1301   1302   1303
1304   1305   1306   1307
1308   1309   1310   1311
1312   1313   1314   1315
1316   1317   1318   1319
1320   1321   1322   1323
1324   1325   1326   1327
1328   1329   1330   1331
1332   1333   1334   1335
1336   1337   1338   1339
1340   1341   1342   1343
1344   1345   1346   1347
1348   1349   1350   1351
1352   1353   1354   1355
1356   1357   1358   1359
1360   1361   1362   1363
1364   1365   1366   1367
1368   1369   1370   1371
1372   1373   1374   1375
1376   1377   1378   1379
1380   1381   1382   1383
1384   1385   1386   1387
1388   1389   1390   1391
1392   1393   1394   1395
1396   1397   1398   1399
1400   1401   1402   1403
1404   1405   1406   1407
1408   1409   1410   1411
1412   1413   1414   1415
1416   1417   1418   1419
1420   1421   1422   1423
1424   1425   1426   1427
1428   1429   1430   1431
1432   1433   1434   1435
1436   1437   1438   1439
1440   1441   1442   1443
1444   1445   1446   1447
1448   1449   1450   1451
1452   1453   1454   1455
1456   1457   1458   1459
1460   1461   1462   1463
1464   1465   1466   1467
1468   1469   1470   1471
1472   1473   1474   1475
1476   1477   1478   1479
1480   1481   1482   1483
1484   1485   1486   1487
1488   1489   1490   1491
1492   1493   1494   1495
1496   1497   1498   1499
1500   1501   1502   1503
1504   1505   1506   1507
1508   1509   1510   1511
1512   1513   1514   1515
1516   1517   1518   1519
1520   1521   1522   1523
1524   1525   1526   1527
1528   1529   1530   1531
1532   1533   1534   1535
1536   1537   1538   1539
1540   1541   1542   1543
1544   1545   1546   1547
1548   1549   1550   1551
1552   1553   1554   1555
1556   1557   1558   1559
1560   1561   1562   1563
1564   1565   1566   1567
1568   1569   1570   1571
1572   1573   1574   1575
1576   1577   1578   1579
1580   1581   1582   1583
1584   1585   1586   1587
1588   1589   1590   1591
1592   1593   1594   1595
1596   1597   1598   1599
1600   1601   1602   1603
1604   1605   1606   1607
1608   1609   1610   1611
1612   1613   1614   1615
1616   1617   1618   1619
1620   1621   1622   1623
1624   1625   1626   1627
1628   1629   1630   1631
1632   1633   1634   1635
1636   1637   1638   1639
1640   1641   1642   1643
1644   1645   1646   1647
1648   1649   1650   1651
1652   1653   1654   1655
1656   1657   1658   1659
1660   1661   1662   1663
1664   1665   1666   1667
1668   1669   1670   1671
1672   1673   1674   1675
1676   1677   1678   1679
1680   1681   1682   1683
1684   1685   1686   1687
1688   1689   1690   1691
1692   1693   1694   1695
1696   1697   1698   1699
1700   1701   1702   1703
1704   1705   1706   1707
1708   1709   1710   1711
1712   1713   1714   1715
1716   1717   1718   1719
1720   1721   1722   1723
1724   1725   1726   1727
1728   1729   1730   1731
1732   1733   1734   1735
1736   1737   1738   1739
1740   1741   1742   1743
1744   1745   1746   1747
1748   1749   1750   1751
1752   1753   1754   1755
1756   1757   1758   1759
1760   1761   1762   1763
1764   1765   1766   1767
1768   1769   1770   1771
1772   1773   1774   1775
1776   1777   1778   1779
1780   1781   1782   1783
1784   1785   1786   1787
1788   1789   1790   1791
1792   1793   1794   1795
1796   1797   1798   1799
1800   1801   1802   1803
1804   1805   1806   1807
1808   1809   1810   1811
1812   1813   1814   1815
1816   1817   1818   1819
1820   1821   1822   1823
1824   1825   1826   1827
1828   1829   1830   1831
1832   1833   1834   1835
1836   1837   1838   1839
1840   1841   1842   1843
1844   1845   1846   1847
1848   1849   1850   1851
1852   1853   1854   1855
1856   1857   1858   1859
1860   1861   1862   1863
1864   1865   1866   1867
1868   1869   1870   1871
1872   1873   1874   1875
1876   1877   1878   1879
1880   1881   1882   1883
1884   1885   1886   1887
1888   1889   1890   1891
1892   1893   1894   1895
1896   1897   1898   1899
1900   1901   1902   1903
1904   1905   1906   1907
1908   1909   1910   1911
1912   1913   1914   1915
1916   1917   1918   1919
1920   1921   1922   1923
1924   1925   1926   1927
1928   1929   1930   1931
1932   1933   1934   1935
1936   1937   1938   1939
1940   1941   1942   1943
1944   1945   1946   1947
1948   1949   1950   1951
1952   1953   1954   1955
1956   1957   1958   1959
1960   1961   1962   1963
1964   1965   1966   1967
1968   1969   1970   1971
1972   1973   1974   1975
1976   1977   1978   1979
1980   1981   1982   1983
1984   1985   1986   1987
1988   1989   1990   1991
1992   1993   1994   1995
1996   1997   1998   1999
2000   2001   2002   2003
2004   2005   2006   2007
2008   2009   2010   2011
2012   2013   2014   2015
2016   2017   2018   2019
2020   2021   2022   2023
2024   2025   2026   2027
2028   2029   2030   2031
2032   2033   2034   2035
2036   2037   2038   2039
2040   2041   2042   2043
2044   2045   2046   2047
2048   2049   2050   2051
2052   2053   2054   2055
2056   2057   2058   2059
2060   2061   2062   2063
2064   2065   2066   2067
2068   2069   2070   2071
2072   2073   2074   2075
2076   2077   2078   2079
2080   2081   2082   2083
2084   2085   2086   2087
2088   2089   2090   2091
2092   2093   2094   2095
2096   2097   2098   2099
2100   2101   2102   2103
2104   2105   2106   2107
2108   2109   2110   2111
2112   2113   2114   2115
2116   2117   2118   2119
2120   2121   2122   2123
2124   2125   2126   2127
2128   2129   2130   2131
2132   2133   2134   2135
2136   2137   2138   2139
2140   2141   2142   2143
2144   2145   2146   2147
2148   2149   2150   2151
2152   2153   2154   2155
2156   2157   2158   2159
2160   2161   2162   2163
2164   2165   2166   2167
2168   2169   2170   2171
2172   2173   2174   2175
2176   2177   2178   2179
2180   2181   2182   2183
2184   2185   2186   2187
2188   2189   2190   2191
2192   2193   2194   2195
2196   2197   2198   2199
2200   2201   2202   2203
2204   2205   2206   2207
2208   2209   2210   2211
2212   2213   2214   2215
2216   2217   2218   2219
2220   2221   2222   2223
2224   2225   2226   2227
2228   2229   2230   2231
2232   2233   2234   2235
2236   2237   2238   2239
2240   2241   2242   2243
2244   2245   2246   2247
2248   2249   2250   2251
2252   2253   2254   2255
2256   2257   2258   2259
2260   2261   2262   2263
2264   2265   2266   2267
2268   2269   2270   2271
2272   2273   2274   2275
2276   2277   2278   2279
2280   2281   2282   2283
2284   2285   2286   2287
2288   2289   2290   2291
2292   2293   2294   2295
2296   2297   2298   2299
2300   2301   2302   2303
2304   2305   2306   2307
2308   2309   2310   2311
2312   2313   2314   2315
2316   2317   2318   2319
2320   2321   2322   2323
2324   2325   2326   2327
2328   2329   2330   2331
2332   2333   2334   2335
2336   2337   2338   2339
2340   2341   2342   2343
2344   2345   2346   2347
2348   2349   2350   2351
2352   2353   2354   2355
2356   2357   2358   2359
2360   2361   2362   2363
2364   2365   2366   2367
2368   2369   2370   2371
2372   2373   2374   2375
2376   2377   2378   2379
2380   2381   2382   2383
2384   2385   2386   2387
2388   2389   2390   2391
2392   2393   2394   2395
2396   2397   2398   2399
2400   2401   2402   2403
2404   2405   2406   2407
2408   2409   2410   2411
2412   2413   2414   2415
2416   2417   2418   2419
2420   2421   2422   2423
2424   2425   2426   2427
2428   2429   2430   2431
2432   2433   2434   2435
2436   2437   2438   2439
2440   2441   2442   2443
2444   2445   2446   2447
2448   2449   2450   2451
2452   2453   2454   2455
2456   2457   2458   2459
2460   2461   2462   2463
2464   2465   2466   2467
2468   2469   2470   2471
2472   2473   2474   2475
2476   2477   2478   2479
2480   2481   2482   2483
2484   2485   2486   2487
2488   2489   2490   2491
2492   2493   2494   2495
2496   2497   2498   2499
2500   2501   2502   2503
2504   2505   2506   2507
2508   2509   2510   2511
2512   2513   2514   2515
2516   2517   2518   2519
2520   2521   2522   2523
2524   2525   2526   2527
2528   2529   2530   2531
2532   2533   2534   2535
2536   2537   2538   2539
2540   2541   2542   2543
2544   2545   2546   2547
2548   2549   2550   2551
2552   2553   2554   2555
2556   2557   2558   2559
2560   2561   2562   2563
2564   2565   2566   2567
2568   2569   2570   2571
2572   2573   2574   2575
2576   2577   2578   2579
2580   2581   2582   2583
2584   2585   2586   2587
2588   2589   2590   2591
2592   2593   2594   2595
2596   2597   2598   2599
2600   2601   2602   2603
2604   2605   2606   2607
2608   2609   2610   2611
2612   2613   2614   2615
2616   2617   2618   2619
2620   2621   2622   2623
2624   2625   2626   2627
2628   2629   2630   2631
2632   2633   2634   2635
2636   2637   2638   2639
2640   2641   2642   2643
2644   2645   2646   2647
2648   2649   2650   2651
2652   2653   2654   2655
2656   2657   2658   2659
2660   2661   2662   2663
2664   2665   2666   2667
2668   2669   2670   2671
2672   2673   2674   2675
2676   2677   2678   2679
2680   2681   2682   2683
2684   2685   2686   2687
2688   2689   2690   2691
2692   2693   2694   2695
2696   2697   2698   2699
2700   2701   2702   2703
2704   2705   2706   2707
2708   2709   2710   2711
2712   2713   2714   2715
2716   2717   2718   2719
2720   2721   2722   2723
2724   2725   2726   2727
2728   2729   2730   2731
2732   2733   2734   2735
2736   2737   2738   2739
2740   2741   2742   2743
2744   2745   2746   2747
2748   2749   2750   2751
2752   2753   2754   2755
2756   2757   2758   2759
2760   2761   2762   2763
2764   2765   2766   2767
2768   2769   2770   2771
2772   2773   2774   2775
2776   2777   2778   2779
2780   2781   2782   2783
2784   2785   2786   2787
2788   2789   2790   2791
2792   2793   2794   2795
2796   2797   2798   2799
2800   2801   2802   2803
2804   2805   2806   2807
2808   2809   2810   2811
2812   2813   2814   2815
2816   2817   2818   2819
2820   2821   2822   2823
2824   2825   2826   2827
2828   2829   2830   2831
2832   2833   2834   2835
2836   2837   2838   2839
2840   2841   2842   2843
2844   2845   2846   2847
2848   2849   2850   2851
2852   2853   2854   2855
2856   2857   2858   2859
2860   2861   2862   2863
2864   2865   2866   2867
2868   2869   2870   2871
2872   2873   2874   2875
2876   2877   2878   2879
2880   2881   2882   2883
2884   2885   2886   2887
2888   2889   2890   2891
2892   2893   2894   2895
2896   2897   2898   2899
2900   2901   2902   2903
2904   2905   2906   2907
2908   2909   2910   2911
2912   2913   2914   2915
2916   2917   2918   2919
2920   2921   2922   2923
2924   2925   2926   2927
2928   2929   2930   2931
2932   2933   2934   2935
2936   2937   2938   2939
2940   2941   2942   2943
2944   2945   2946   2947
2948   2949   2950   2951
2952   2953   2954   2955
2956   2957   2958   2959
2960   2961   2962   2963
2964   2965   2966   2967
2968   2969   2970   2971
2972   2973   2974   2975
2976   2977   2978   2979
2980   2981   2982   2983
2984   2985   2986   2987
2988   2989   2990   2991
2992   2993   2994   2995
2996   2997   2998   2999
3000   3001   3002   3003
3004   3005   3006   3007
3008   3009   3010   3011
3012   3013   3014   3015
3016   3017   3018   3019
3020   3021   3022   3023
3024   3025   3026   3027
3028   3029   3030   3031
3032   3033   3034   3035
3036   3037   3038   3039
3040   3041   3042   3043
3044   3045   3046   3047
3048   3049   3050   3051
3052   3053   3054   3055
3056   3057   3058   3059
3060   3061   3062   3063
3064   3065   3066   3067
3068   3069   3070   3071
3072   3073   3074   3075
3076   3077   3078   3079
3080   3081   3082   3083
3084   3085   3086   3087
3088   3089   3090   3091
3092   3093   3094   3095
3096   3097   3098   3099
3100   3101   3102   3103
3104   3105   3106   3107
3108   3109   3110   3111
3112   3113   3114   3115
3116   3117   3118   3119
3120   3121   3122   3123
3124   3125   3126   3127
3128   3129   3130   3131
3132   3133   3134   3135
3136   3137   3138   3139
3140   3141   3142   3143
3144   3145   3146   3147
3148   3149   3150   3151
3152   3153   3154   3155
3156   3157   3158   3159
3160   3161   3162   3163
3164   3165   3166   3167
3168   3169   3170   3171
3172   3173   3174   3175
3176   3177   3178   3179
3180   3181   3182   3183
3184   3185   3186   3187
3188   3189   3190   3191
3192   3193   3194   3195
3196   3197   3198   3199
3200   3201   3202   3203
3204   3205   3206   3207
3208   3209   3210   3211
3212   3213   3214   3215
3216   3217   3218   3219
3220   3221   3222   3223
3224   3225   3226   3227
3228   3229   3230   3231
3232   3233   3234   3235
3236   3237   3238   3239
3240   3241   3242   3243
3244   3245   3246   3247
3248   3249   3250   3251
3252   3253   3254   3255
3256   3257   3258   3259
3260   3261   3262   3263
3264   3265   3266   3267
3268   3269   3270   3271
3272   3273   3274   3275
3276   3277   3278   3279
3280   3281   3282   3283
3284   3285   3286   3287
3288   3289   3290   3291
3292   3293   3294   3295
3296   3297   3298   3299
3300   3301   3302   3303
3304   3305   3306   3307
3308   3309   3310   3311
3312   3313   3314   3315
3316   3317   3318   3319
3320   3321   3322   3323
3324   3325   3326   3327
3328   3329   3330   3331
3332   3333   3334   3335
3336   3337   3338   3339
3340   3341   3342   3343
3344   3345   3346   3347
3348   3349   3350   3351
3352   3353   3354   3355
3356   3357   3358   3359
3360   3361   3362   3363
3364   3365   3366   3367
3368   3369   3370   3371
3372   3373   3374   3375
3376   3377   3378   3379
3380   3381   3382   3383
3384   3385   3386   3387
3388   3389   3390   3391
3392   3393   3394   3395
3396   3397   3398   3399
3400   3401   3402   3403
3404   3405   3406   3407
3408   3409   3410   3411
3412   3413   3414   3415
3416   3417   3418   3419
3420   3421   3422   3423
3424   3425   3426   3427
3428   3429   3430   3431
3432   3433   3434   3435
3436   3437   3438   3439
3440   3441   3442   3443
3444   3445   3446   3447
3448   3449   3450   3451
3452   3453   3454   3455
3456   3457   3458   3459
3460   3461   3462   3463
3464   3465   3466   3467
3468   3469   3470   3471
3472   3473   3474   3475
3476   3477   3478   3479
3480   3481   3482   3483
3484   3485   3486   3487
3488   3489   3490   3491
3492   3493   3494   3495
3496   3497   3498   3499
3500   3501   3502   3503
3504   3505   3506   3507
3508   3509   3510   3511
3512   3513   3514   3515
3516   3517   3518   3519
3520   3521   3522   3523
3524   3525   3526   3527
3528   3529   3530   3531
3532   3533   3534   3535
3536   3537   3538   3539
3540   3541   3542   3543
3544   3545   3546   3547
3548   3549   3550   3551
3552   3553   3554   3555
3556   3557   3558   3559
3560   3561   3562   3563
3564   3565   3566   3567
3568   3569   3570   3571
3572   3573   3574   3575
3576   3577   3578   3579
3580   3581   3582   3583
3584   3585   3586   3587
3588   3589   3590   3591
3592   3593   3594   3595
3596   3597   3598   3599
3600   3601   3602   3603
3604   3605   3606   3607
3608   3609   3610   3611
3612   3613   3614   3615
3616   3617   3618   3619
3620   3621   3622   3623
3624   3625   3626   3627
3628   3629   3630   3631
3632   3633   3634   3635
3636   3637   3638   3639
3640   3641   3642   3643
3644   3645   3646   3647
3648   3649   3650   3651
3652   3653   3654   3655
3656   3657   3658   3659
3660   3661   3662   3663
3664   3665   3666   3667
3668   3669   3670   3671
3672   3673   3674   3675
3676   3677   3678   3679
3680   3681   3682   3683
3684   3685   3686   3687
3688   3689   3690   3691
3692   3693   3694   3695
3696   3697   3698   3699
3700   3701   3702   3703
3704   3705   3706   3707
3708   3709   3710   3711
3712   3713   3714   3715
3716   3717   3718   3719
3720   3721   3722   3723
3724   3725   3726   3727
3728   3729   3730   3731
3732   3733   3734   3735
3736   3737   3738   3739
3740   3741   3742   3743
3744   3745   3746   3747
3748   3749   3750   3751
3752   3753   3754   3755
3756   3757   3758   3759
3760   3761   3762   3763
3764   3765   3766   3767
3768   3769   3770   3771
3772   3773   3774   3775
3776   3777   3778   3779
3780   3781   3782   3783
3784   3785   3786   3787
3788   3789   3790   3791
3792   3793   3794   3795
3796   3797   3798   3799
3800   3801   3802   3803
3804   3805   3806   3807
3808   3809   3810   3811
3812   3813   3814   3815
3816   3817   3818   3819
3820   3821   3822   3823
3824   3825   3826   3827
3828   3829   3830   3831
3832   3833   3834   3835
3836   3837   3838   3839
3840   3841   3842   3843
3844   3845   3846   3847
3848   3849   3850   3851
3852   3853   3854   3855
3856   3857   3858   3859
3860   3861   3862   3863
3864   3865   3866   3867
3868   3869   3870   3871
3872   3873   3874   3875
3876   3877   3878   3879
3880   3881   3882   3883
3884   3885   3886   3887
3888   3889   3890   3891
3892   3893   3894   3895
3896   3897   3898   3899
3900   3901   3902   3903
3904   3905   3906   3907
3908   3909   3910   3911
3912   3913   3914   3915
3916   3917   3918   3919
3920   3921   3922   3923
3924   3925   3926   3927
3928   3929   3930   3931
3932   3933   3934   3935
3936   3937   3938   3939
3940   3941   3942   3943
3944   3945   3946   3947
3948   3949   3950   3951
3952   3953   3954   3955
3956   3957   3958   3959
3960   3961   3962   3963
3964   3965   3966   3967
3968   3969   3970   3971
3972   3973   3974   3975
3976   3977   3978   3979
3980   3981   3982   3983
3984   3985   3986   3987
3988   3989   3990   3991
3992   3993   3994   3995
3996   3997   3998   3999
4000   4001   4002   4003
4004   4005   4006   4007
4008   4009   4010   4011
4012   4013   4014   4015
4016   4017   4018   4019
4020   4021   4022   4023
4024   4025   4026   4027
4028   4029   4030   4031
4032   4033   4034   4035
4036   4037   4038   4039
4040   4041   4042   4043
4044   4045   4046   4047
4048   4049   4050   4051
4052   4053   4054   4055
4056   4057   4058   4059
4060   4061   4062   4063
4064   4065   4066   4067
4068   4069   4070   4071
4072   4073   4074   4075
4076   4077   4078   4079
4080   4081   4082   4083
4084   4085   4086   4087
4088   4089   4090   4091
4092   4093   4094   4095
4096   4097   4098   4099
4100   4101   4102   4103
4104   4105   4106   4107
4108   4109   4110   4111
4112   4113   4114   4115
4116   4117   4118   4119
4120   4121   4122   4123
4124   4125   4126   4127
4128   4129   4130   4131
4132   4133   4134   4135
4136   4137   4138   4139
4140   4141   4142   4143
4144   4145   4146   4147
4148   4149   4150   4151
4152   4153   4154   4155
4156   4157   4158   4159
4160   4161   4162   4163
4164   4165   4166   4167
4168   4169   4170   4171
4172   4173   4174   4175
4176   4177   4178   4179
4180   4181   4182   4183
4184   4185   4186   4187
4188   4189   4190   4191
4192   4193   4194   4195
4196   4197   4198   4199
4200   4201   4202   4203
4204   4205   4206   4207
4208   4209   4210   4211
4212   4213   4214   4215
4216   4217   4218   4219
4220   4221   4222   4223
4224   4225   4226   4227
4228   4229   4230   4231
4232   4233   4234   4235
4236   4237   4238   4239
4240   4241   4242   4243
4244   4245   4246   4247
4248   4249   4250   4251
4252   4253   4254   4255
4256   4257   4258   4259
4260   4261   4262   4263
4264   4265   4266   4267
4268   4269   4270   4271
4272   4273   4274   4275
4276   4277   4278   4279
4280   4281   4282   4283
4284   4285   4286   4287
4288   4289   4290   4291
4292   4293   4294   4295
4296   4297   4298   4299
4300   4301   4302   4303
4304   4305   4306   4307
4308   4309   4310   4311
4312   4313   4314   4315
4316   4317   4318   4319
4320   4321   4322   4323
4324   4325   4326   4327
4328   4329   4330   4331
4332   4333   4334   4335
4336   4337   4338   4339
4340   4341   4342   4343
4344   4345   4346   4347
4348   4349   4350   4351
4352   4353   4354   4355
4356   4357   4358   4359
4360   4361   4362   4363
4364   4365   4366   4367
4368   4369   4370   4371
4372   4373   4374   4375
4376   4377   4378   4379
4380   4381   4382   4383
4384   4385   4386   4387
4388   4389   4390   4391
4392   4393   4394   4395
4396   4397   4398   4399
4400   4401   4402   4403
4404   4405   4406   4407
4408   4409   4410   4411
4412   4413   4414   4415
4416   4417   4418   4419
4420   4421   4422   4423
4424   4425   4426   4427
4428   4429   4430   4431
4432   4433   4434   4435
4436   4437   4438   4439
4440   4441   4442   4443
4444   4445   4446   4447
4448   4449   4450   4451
4452   4453   4454   4455
4456   4457   4458   4459
4460   4461   4462   4463
4464   4465   4466   4467
4468   4469   4470   4471
4472   4473   4474   4475
4476   4477   4478   4479
4480   4481   4482   4483
4484   4485   4486   4487
4488   4489   4490   4491
4492   4493   4494   4495
4496   4497   4498   4499
4500   4501   4502   4503
4504   4505   4506   4507
4508   4509   4510   4511
4512   4513   4514   4515
4516   4517   4518   4519
4520   4521   4522   4523
4524   4525   4526   4527
4528   4529   4530   4531
4532   4533   4534   4535
4536   4537   4538   4539
4540   4541   4542   4543
4544   4545   4546   4547
4548   4549   4550   4551
4552   4553   4554   4555
4556   4557   4558   4559
4560   4561   4562   4563
4564   4565   4566   4567
4568   4569   4570   4571
4572   4573   4574   4575
4576   4577   4578   4579
4580   4581   4582   4583
4584   4585   4586   4587
4588   4589   4590   4591
4592   4593   4594   4595
4596   4597   4598   4599
4600   4601   4602   4603
4604   4605   4606   4607
4608   4609   4610   4611
4612   4613   4614   4615
4616   4617   4618   4619
4620   4621   4622   4623
4624   4625   4626   4627
4628   4629   4630   4631
4632   4633   4634   4635
4636   4637   4638   4639
4640   4641   4642   4643
4644   4645   4646   4647
4648   4649   4650   4651
4652   4653   4654   4655
4656   4657   4658   4659
4660   4661   4662   4663
4664   4665   4666   4667
4668   4669   4670   4671
4672   4673   4674   4675
4676   4677   4678   4679
4680   4681   4682   4683
4684   4685   4686   4687
4688   4689   4690   4691
4692   4693   4694   4695
4696   4697   4698   4699
4700   4701   4702   4703
4704   4705   4706   4707
4708   4709   4710   4711
4712   4713   4714   4715
4716   4717   4718   4719
4720   4721   4722   4723
4724   4725   4726   4727
4728   4729   4730   4731
4732   4733   4734   4735
4736   4737   4738   4739
4740   4741   4742   4743
4744   4745   4746   4747
4748   4749   4750   4751
4752   4753   4754   4755
4756   4757   4758   4759
4760   4761   4762   4763
4764   4765   4766   4767
4768   4769   4770   4771
4772   4773   4774   4775
4776   4777   4778   4779
4780   4781   4782   4783
4784   4785   4786   4787
4788   4789   4790   4791
4792   4793   4794   4795
4796   4797   4798   4799
4800   4801   4802   4803
4804   4805   4806   4807
4808   4809   4810   4811
4812   4813   4814   4815
4816   4817   4818   4819
4820   4821   4822   4823
4824   4825   4826   4827
4828   4829   4830   4831
4832   4833   4834   4835
4836   4837   4838   4839
4840   4841   4842   4843
4844   4845   4846   4847
4848   4849   4850   4851
4852   4853   4854   4855
4856   4857   4858   4859
4860   4861   4862   4863
4864   4865   4866   4867
4868   4869   4870   4871
4872   4873   4874   4875
4876   4877   4878   4879
4880   4881   4882   4883
4884   4885   4886   4887
4888   4889   4890   4891
4892   4893   4894   4895
4896   4897   4898   4899
4900   4901   4902   4903
4904   4905   4906   4907
4908   4909   4910   4911
4912   4913   4914   4915
4916   4917   4918   4919
4920   4921   4922   4923
4924   4925   4926   4927
4928   4929   4930   4931
4932   4933   4934   4935
4936   4937   4938   4939
4940   4941   4942   4943
4944   4945   4946   4947
4948   4949   4950   4951
4952   4953   4954   4955
4956   4957   4958   4959
4960   4961   4962   4963
4964   4965   4966   4967
4968   4969   4970   4971
4972   4973   4974   4975
4976   4977   4978   4979
4980   4981   4982   4983
4984   4985   4986   4987
4988   4989   4990   4991
4992   4993   4994   4995
4996   4997   4998   4999
5000   5001   5002   5003
5004   5005   5006   5007
5008   5009   5010   5011
5012   5013   5014   5015
5016   5017   5018   5019
5020   5021   5022   5023
5024   5025   5026   5027
5028   5029   5030   5031
5032   5033   5034   5035
5036   5037   5038   5039
5040   5041   5042   5043
5044   5045   5046   5047
5048   5049   5050   5051
5052   5053   5054   5055
5056   5057   5058   5059
5060   5061   5062   5063
5064   5065   5066   5067
5068   5069   5070   5071
5072   5073   5074   5075
5076   5077   5078   5079
5080   5081   5082   5083
5084   5085   5086   5087
5088   5089   5090   5091
5092   5093   5094   5095
5096   5097   5098   5099
5100   5101   5102   5103
5104   5105   5106   5107
5108   5109   5110   5111
5112   5113   5114   5115
5116   5117   5118   5119
5120   5121   5122   5123
5124   5125   5126   5127
5128   5129   5130   5131
5132   5133   5134   5135
5136   5137   5138   5139
5140   5141   5142   5143
5144   5145   5146   5147
5148   5149   5150   5151
5152   5153   5154   5155
5156   5157   5158   5159
5160   5161   5162   5163
5164   5165   5166   5167
5168   5169   5170   5171
5172   5173   5174   5175
5176   5177   5178   5179
5180   5181   5182   5183
5184   5185   5186   5187
5188   5189   5190   5191
5192   5193   5194   5195
5196   5197   5198   5199
5200   5201   5202   5203
5204   5205   5206   5207
5208   5209   5210   5211
5212   5213   5214   5215
5216   5217   5218   5219
5220   5221   5222   5223
5224   5225   5226   5227
5228   5229   5230   5231
5232   5233   5234   5235
5236   5237   5238   5239
5240   5241   5242   5243
5244   5245   5246   5247
5248   5249   5250   5251
5252   5253   5254   5255
5256   5257   5258   5259
5260   5261   5262   5263
5264   5265   5266   5267
5268   5269   5270   5271
5272   5273   5274   5275
5276   5277   5278   5279
5280   5281   5282   5283
5284   5285   5286   5287
5288   5289   5290   5291
5292   5293   5294   5295
5296   5297   5298   5299
5300   5301   5302   5303
5304   5305   5306   5307
5308   5309   5310   5311
5312   5313   5314   5315
5316   5317   5318   5319
5320   5321   5322   5323
5324   5325   5326   5327
5328   5329   5330   5331
5332   5333   5334   5335
5336   5337   5338   5339
5340   5341   5342   5343
5344   5345   5346   5347
5348   5349   5350   5351
5352   5353   5354   5355
5356   5357   5358   5359
5360   5361   5362   5363
5364   5365   5366   5367
5368   5369   5370   5371
5372   5373   5374   5375
5376   5377   5378   5379
5380   5381   5382   5383
5384   5385   5386   5387
5388   5389   5390   5391
5392   5393   5394   5395
5396   5397   5398   5399
5400   5401   5402   5403
5404   5405   5406   5407
5408   5409   5410   5411
5412   5413   5414   5415
5416   5417   5418   5419
5420   5421   5422   5423
5424   5425   5426   5427
5428   5429   5430   5431
5432   5433   5434   5435
5436   5437   5438   5439
5440   5441   5442   5443
5444   5445   5446   5447
5448   5449   5450   5451
5452   5453   5454   5455
5456   5457   5458   5459
5460   5461   5462   5463
5464   5465   5466   5467
5468   5469   5470   5471
5472   5473   5474   5475
5476   5477   5478   5479
5480   5481   5482   5483
5484   5485   5486   5487
5488   5489   5490   5491
5492   5493   5494   5495
5496   5497   5498   5499
5500   5501   5502   5503
5504   5505   5506   5507
5508   5509   5510   5511
5512   5513   5514   5515
5516   5517   5518   5519
5520   5521   5522   5523
5524   5525   5526   5527
5528   5529   5530   5531
5532   5533   5534   5535
5536   5537   5538   5539
5540   5541   5542   5543
5544   5545   5546   5547
5548   5549   5550   5551
5552   5553   5554   5555
5556   5557   5558   5559
5560   5561   5562   5563
5564   5565   5566   5567
5568   5569   5570   5571
5572   5573   5574   5575
5576   5577   5578   5579
5580   5581   5582   5583
5584   5585   5586   5587
5588   5589   5590   5591
5592   5593   5594   5595
5596   5597   5598   5599
5600   5601   5602   5603
5604   5605   5606   5607
5608   5609   5610   5611
5612   5613   5614   5615
5616   5617   5618   5619
5620   5621   5622   5623
5624   5625   5626   5627
5628   5629   5630   5631
5632   5633   5634   5635
5636   5637   5638   5639
5640   5641   5642   5643
5644   5645   5646   5647
5648   5649   5650   5651
5652   5653   5654   5655
5656   5657   5658   5659
5660   5661   5662   5663
5664   5665   5666   5667
5668   5669   5670   5671
5672   5673   5674   5675
5676   5677   5678   5679
5680   5681   5682   5683
5684   5685   5686   5687
5688   5689   5690   5691
5692   5693   5694   5695
5696   5697   5698   5699
5700   5701   5702   5703
5704   5705   5706   5707
5708   5709   5710   5711
5712   5713   5714   5715
5716   5717   5718   5719
5720   5721   5722   5723
5724   5725   5726   5727
5728   5729   5730   5731
5732   5733   5734   5735
5736   5737   5738   5739
5740   5741   5742   5743
5744   5745   5746   5747
5748   5749   5750   5751
5752   5753   5754   5755
5756   5757   5758   5759
5760   5761   5762   5763
5764   5765   5766   5767
5768   5769   5770   5771
5772   5773   5774   5775
5776   5777   5778   5779
5780   5781   5782   5783
5784   5785   5786   5787
5788   5789   5790   5791
5792   5793   5794   5795
5796   5797   5798   5799
5800   5801   5802   5803
5804   5805   5806   5807
5808   5809   5810   5811
5812   5813   5814   5815
5816   5817   5818   5819
5820   5821   5822   5823
5824   5825   5826   5827
5828   5829   5830   5831
5832   5833   5834   5835
5836   5837   5838   5839
5840   5841   5842   5843
5844   5845   5846   5847
5848   5849   5850   5851
5852   5853   5854   5855
5856   5857   5858   5859
5860   5861   5862   5863
5864   5865   5866   5867
5868   5869   5870   5871
5872   5873   5874   5875
5876   5877   5878   5879
5880   5881   5882   5883
5884   5885   5886   5887
5888   5889   5890   5891
5892   5893   5894   5895
5896   5897   5898   5899
5900   5901   5902   5903
5904   5905   5906   5907
5908   5909   5910   5911
5912   5913   5914   5915
5916   5917   5918   5919
5920   5921   5922   5923
5924   5925   5926   5927
5928   5929   5930   5931
5932   5933   5934   5935
5936   5937   5938   5939
5940   5941   5942   5943
5944   5945   5946   5947
5948   5949   5950   5951
5952   5953   5954   5955
5956   5957   5958   5959
5960   5961   5962   5963
5964   5965   5966   5967
5968   5969   5970   5971
5972   5973   5974   5975
5976   5977   5978   5979
5980   5981   5982   5983
5984   5985   5986   5987
5988   5989   5990   5991
5992   5993   5994   5995
5996   5997   5998   5999
              </DataArray>   
              <DataArray type="Int32" Name="offsets" format="ascii">   
4
8
12
16
20
24
28
32
36
40
44
48
52
56
60
64
68
72
76
80
84
88
92
96
100
104
108
112
116
120
124
128
132
136
140
144
148
152
156
160
164
168
172
176
180
184
188
192
196
200
204
208
212
216
220
224
228
232
236
240
244
248
252
256
260
264
268
272
276
280
284
288
292
296
300
304
308
312
316
320
324
328
332
336
340
344
348
352
356
360
364
368
372
376
380
384
388
392
396
400
404
408
412
416
420
424
428
432
436
440
444
448
452
456
460
464
468
472
476
480
484
488
492
496
500
504
508
512
516
520
524
528
532
536
540
544
548
552
556
560
564
568
572
576
580
584
588
592
596
600
604
608
612
616
620
624
628
632
636
640
644
648
652
656
660
664
668
672
676
680
684
688
692
696
700
704
708
712
716
720
724
728
732
736
740
744
748
752
756
760
764
768
772
776
780
784
788
792
796
800
804
808
812
816
820
824
828
832
836
840
844
848
852
856
860
864
868
872
876
880
884
888
892
896
900
904
908
912
916
920
924
928
932
936
940
944
948
952
956
960
964
968
972
976
980
984
988
992
996
1000
1004
1008
1012
1016
1020
1024
1028
1032
1036
1040
1044
1048
1052
1056
1060
1064
1068
1072
1076
1080
1084
1088
1092
1096
1100
1104
1108
1112
1116
1120
1124
1128
1132
1136
1140
1144
1148
1152
1156
1160
1164
1168
1172
1176
1180
1184
1188
1192
1196
1200
1204
1208
1212
1216
1220
1224
1228
1232
1236
1240
1244
1248
1252
1256
1260
1264
1268
1272
1276
1280
1284
1288
1292
1296
1300
1304
1308
1312
1316
1320
1324
1328
1332
1336
1340
1344
1348
1352
1356
1360
1364
1368
1372
1376
1380
1384
1388
1392
1396
1400
1404
1408
1412
1416
1420
1424
1428
1432
1436
1440
1444
1448
1452
1456
1460
1464
1468
1472
1476
1480
1484
1488
1492
1496
1500
1504
1508
1512
1516
1520
1524
1528
1532
1536
1540
1544
1548
1552
1556
1560
1564
1568
1572
1576
1580
1584
1588
1592
1596
1600
1604
1608
1612
1616
1620
1624
1628
1632
1636
1640
1644
1648
1652
1656
1660
1664
1668
1672
1676
1680
1684
1688
1692
1696
1700
1704
1708
1712
1716
1720
1724
1728
1732
1736
1740
1744
1748
1752
1756
1760
1764
1768
1772
1776
1780
1784
1788
1792
1796
1800
1804
1808
1812
1816
1820
1824
1828
1832
1836
1840
1844
1848
1852
1856
1860
1864
1868
1872
1876
1880
1884
1888
1892
1896
1900
1904
1908
1912
1916
1920
1924
1928
1932
1936
1940
1944
1948
1952
1956
1960
1964
1968
1972
1976
1980
1984
1988
1992
1996
2000
2004
2008
2012
2016
2020
2024
2028
2032
2036
2040
2044
2048
2052
2056
2060
2064
2068
2072
2076
2080
2084
2088
2092
2096
2100
2104
2108
2112
2116
2120
2124
2128
2132
2136
2140
2144
2148
2152
2156
2160
2164
2168
2172
2176
2180
2184
2188
2192
2196
2200
2204
2208
2212
2216
2220
2224
2228
2232
2236
2240
2244
2248
2252
2256
2260
2264
2268
2272
2276
2280
2284
2288
2292
2296
2300
2304
2308
2312
2316
2320
2324
2328
2332
2336
2340
2344
2348
2352
2356
2360
2364
2368
2372
2376
2380
2384
2388
2392
2396
2400
2404
2408
2412
2416
2420
2424
2428
2432
2436
2440
2444
2448
2452
2456
2460
2464
2468
2472
2476
2480
2484
2488
2492
2496
2500
2504
2508
2512
2516
2520
2524
2528
2532
2536
2540
2544
2548
2552
2556
2560
2564
2568
2572
2576
2580
2584
2588
2592
2596
2600
2604
2608
2612
2616
2620
2624
2628
2632
2636
2640
2644
2648
2652
2656
2660
2664
2668
2672
2676
2680
2684
2688
2692
2696
2700
2704
2708
2712
2716
2720
2724
2728
2732
2736
2740
2744
2748
2752
2756
2760
2764
2768
2772
2776
2780
2784
2788
2792
2796
2800
2804
2808
2812
2816
2820
2824
2828
2832
2836
2840
2844
2848
2852
2856
2860
2864
2868
2872
2876
2880
2884
2888
2892
2896
2900
2904
2908
2912
2916
2920
2924
2928
2932
2936
2940
2944
2948
2952
2956
2960
2964
2968
2972
2976
2980
2984
2988
2992
2996
3000
3004
3008
3012
3016
3020
3024
3028
3032
3036
3040
3044
3048
3052
3056
3060
3064
3068
3072
3076
3080
3084
3088
3092
3096
3100
3104
3108
3112
3116
3120
3124
3128
3132
3136
3140
3144
3148
3152
3156
3160
3164
3168
3172
3176
3180
3184
3188
3192
3196
3200
3204
3208
3212
3216
3220
3224
3228
3232
3236
3240
3244
3248
3252
3256
3260
3264
3268
3272
3276
3280
3284
3288
3292
3296
3300
3304
3308
3312
3316
3320
3324
3328
3332
3336
3340
3344
3348
3352
3356
3360
3364
3368
3372
3376
3380
3384
3388
3392
3396
3400
3404
3408
3412
3416
3420
3424
3428
3432
3436
3440
3444
3448
3452
3456
3460
3464
3468
3472
3476
3480
3484
3488
3492
3496
3500
3504
3508
3512
3516
3520
3524
3528
3532
3536
3540
3544
3548
3552
3556
3560
3564
3568
3572
3576
3580
3584
3588
3592
3596
3600
3604
3608
3612
3616
3620
3624
3628
3632
3636
3640
3644
3648
3652
3656
3660
3664
3668
3672
3676
3680
3684
3688
3692
3696
3700
3704
3708
3712
3716
3720
3724
3728
3732
3736
3740
3744
3748
3752
3756
3760
3764
3768
3772
3776
3780
3784
3788
3792
3796
3800
3804
3808
3812
3816
3820
3824
3828
3832
3836
3840
3844
3848
3852
3856
3860
3864
3868
3872
3876
3880
3884
3888
3892
3896
3900
3904
3908
3912
3916
3920
3924
3928
3932
3936
3940
3944
3948
3952
3956
3960
3964
3968
3972
3976
3980
3984
3988
3992
3996
4000
4004
4008
4012
4016
4020
4024
4028
4032
4036
4040
4044
4048
4052
4056
4060
4064
4068
4072
4076
4080
4084
4088
4092
4096
4100
4104
4108
4112
4116
4120
4124
4128
4132
4136
4140
4144
4148
4152
4156
4160
4164
4168
4172
4176
4180
4184
4188
4192
4196
4200
4204
4208
4212
4216
4220
4224
4228
4232
4236
4240
4244
4248
4252
4256
4260
4264
4268
4272
4276
4280
4284
4288
4292
4296
4300
4304
4308
4312
4316
4320
4324
4328
4332
4336
4340
4344
4348
4352
4356
4360
4364
4368
4372
4376
4380
4384
4388
4392
4396
4400
4404
4408
4412
4416
4420
4424
4428
4432
4436
4440
4444
4448
4452
4456
4460
4464
4468
4472
4476
4480
4484
4488
4492
4496
4500
4504
4508
4512
4516
4520
4524
4528
4532
4536
4540
4544
4548
4552
4556
4560
4564
4568
4572
4576
4580
4584
4588
4592
4596
4600
4604
4608
4612
4616
4620
4624
4628
4632
4636
4640
4644
4648
4652
4656
4660
4664
4668
4672
4676
4680
4684
4688
4692
4696
4700
4704
4708
4712
4716
4720
4724
4728
4732
4736
4740
4744
4748
4752
4756
4760
4764
4768
4772
4776
4780
4784
4788
4792
4796
4800
4804
4808
4812
4816
4820
4824
4828
4832
4836
4840
4844
4848
4852
4856
4860
4864
4868
4872
4876
4880
4884
4888
4892
4896
4900
4904
4908
4912
4916
4920
4924
4928
4932
4936
4940
4944
4948
4952
4956
4960
4964
4968
4972
4976
4980
4984
4988
4992
4996
5000
5004
5008
5012
5016
5020
5024
5028
5032
5036
5040
5044
5048
5052
5056
5060
5064
5068
5072
5076
5080
5084
5088
5092
5096
5100
5104
5108
5112
5116
5120
5124
5128
5132
5136
5140
5144
5148
5152
5156
5160
5164
5168
5172
5176
5180
5184
5188
5192
5196
5200
5204
5208
5212
5216
5220
5224
5228
5232
5236
5240
5244
5248
5252
5256
5260
5264
5268
5272
5276
5280
5284
5288
5292
5296
5300
5304
5308
5312
5316
5320
5324
5328
5332
5336
5340
5344
5348
5352
5356
5360
5364
5368
5372
5376
5380
5384
5388
5392
5396
5400
5404
5408
5412
5416
5420
5424
5428
5432
5436
5440
5444
5448
5452
5456
5460
5464
5468
5472
5476
5480
5484
5488
5492
5496
5500
5504
5508
5512
5516
5520
5524
5528
5532
5536
5540
5544
5548
5552
5556
5560
5564
5568
5572
5576
5580
5584
5588
5592
5596
5600
5604
5608
5612
5616
5620
5624
5628
5632
5636
5640
5644
5648
5652
5656
5660
5664
5668
5672
5676
5680
5684
5688
5692
5696
5700
5704
5708
5712
5716
5720
5724
5728
5732
5736
5740
5744
5748
5752
5756
5760
5764
5768
5772
5776
5780
5784
5788
5792
5796
5800
5804
5808
5812
5816
5820
5824
5828
5832
5836
5840
5844
5848
5852
5856
5860
5864
5868
5872
5876
5880
5884
5888
5892
5896
5900
5904
5908
5912
5916
5920
5924
5928
5932
5936
5940
5944
5948
5952
5956
5960
5964
5968
5972
5976
5980
5984
5988
5992
5996
6000
              </DataArray>   
              <DataArray type="UInt8" Name="types" format="ascii">   
10
10
10
10
10
10
10
10
10
10
10
10
10
10
10
10
10
10
10
10
10
10
10
10
10
10
10
10
10
10
10
10
10
10
10
10
10
10
10
10
10
10
10
10
10
10
10
10
10
10
10
10
10
10
10
10
10
10
10
10
10
10
10
10
10
10
10
10
10
10
10
10
10
10
10
10
10
10
10
10
10
10
10
10
10
10
10
10
10
10
10
10
10
10
10
10
10
10
10
10
10
10
10
10
10
10
10
10
10
10
10
10
10
10
10
10
10
10
10
10
10
10
10
10
10
10
10
10
10
10
10
10
10
10
10
10
10
10
10
10
10
10
10
10
10
10
10
10
10
10
10
10
10
10
10
10
10
10
10
10
10
10
10
10
10
10
10
10
10
10
10
10
10
10
10
10
10
10
10
10
10
10
10
10
10
10
10
10
10
10
10
10
10
10
10
10
10
10
10
10
10
10
10
10
10
10
10
10
10
10
10
10
10
10
10
10
10
10
10
10
10
10
10
10
10
10
10
10
10
10
10
10
10
10
10
10
10
10
10
10
10
10
10
10
10
10
10
10
10
10
10
10
10
10
10
10
10
10
10
10
10
10
10
10
10
10
10
10
10
10
10
10
10
10
10
10
10
10
10
10
10
10
10
10
10
10
10
10
10
10
10
10
10
10
10
10
10
10
10
10
10
10
10
10
10
10
10
10
10
10
10
10
10
10
10
10
10
10
10
10
10
10
10
10
10
10
10
10
10
10
10
10
10
10
10
10
10
10
10
10
10
10
10
10
10
10
10
10
10
10
10
10
10
10
10
10
10
10
10
10
10
10
10
10
10
10
10
10
10
10
10
10
10
10
10
10
10
10
10
10
10
10
10
10
10
10
10
10
10
10
10
10
10
10
10
10
10
10
10
10
10
10
10
10
10
10
10
10
10
10
10
10
10
10
10
10
10
10
10
10
10
10
10
10
10
10
10
10
10
10
10
10
10
10
10
10
10
10
10
10
10
10
10
10
10
10
10
10
10
10
10
10
10
10
10
10
10
10
10
10
10
10
10
10
10
10
10
10
10
10
10
10
10
10
10
10
10
10
10
10
10
10
10
10
10
10
10
10
10
10
10
10
10
10
10
10
10
10
10
10
10
10
10
10
10
10
10
10
10
10
10
10
10
10
10
10
10
10
10
10
10
10
10
10
10
10
10
10
10
10
10
10
10
10
10
10
10
10
10
10
10
10
10
10
10
10
10
10
10
10
10
10
10
10
10
10
10
10
10
10
10
10
10
10
10
10
10
10
10
10
10
10
10
10
10
10
10
10
10
10
10
10
10
10
10
10
10
10
10
10
10
10
10
10
10
10
10
10
10
10
10
10
10
10
10
10
10
10
10
10
10
10
10
10
10
10
10
10
10
10
10
10
10
10
10
10
10
10
10
10
10
10
10
10
10
10
10
10
10
10
10
10
10
10
10
10
10
10
10
10
10
10
10
10
10
10
10
10
10
10
10
10
10
10
10
10
10
10
10
10
10
10
10
10
10
10
10
10
10
10
10
10
10
10
10
10
10
10
10
10
10
10
10
10
10
10
10
10
10
10
10
10
10
10
10
10
10
10
10
10
10
10
10
10
10
10
10
10
10
10
10
10
10
10
10
10
10
10
10
10
10
10
10
10
10
10
10
10
10
10
10
10
10
10
10
10
10
10
10
10
10
10
10
10
10
10
10
10
10
10
10
10
10
10
10
10
10
10
10
10
10
10
10
10
10
10
10
10
10
10
10
10
10
10
10
10
10
10
10
10
10
10
10
10
10
10
10
10
10
10
10
10
10
10
10
10
10
10
10
10
10
10
10
10
10
10
10
10
10
10
10
10
10
10
10
10
10
10
10
10
10
10
10
10
10
10
10
10
10
10
10
10
10
10
10
10
10
10
10
10
10
10
10
10
10
10
10
10
10
10
10
10
10
10
10
10
10
10
10
10
10
10
10
10
10
10
10
10
10
10
10
10
10
10
10
10
10
10
10
10
10
10
10
10
10
10
10
10
10
10
10
10
10
10
10
10
10
10
10
10
10
10
10
10
10
10
10
10
10
10
10
10
10
10
10
10
10
10
10
10
10
10
10
10
10
10
10
10
10
10
10
10
10
10
10
10
10
10
10
10
10
10
10
10
10
10
10
10
10
10
10
10
10
10
10
10
10
10
10
10
10
10
10
10
10
10
10
10
10
10
10
10
10
10
10
10
10
10
10
10
10
10
10
10
10
10
10
10
10
10
10
10
10
10
10
10
10
10
10
10
10
10
10
10
10
10
10
10
10
10
10
10
10
10
10
10
10
10
10
10
10
10
10
10
10
10
10
10
10
10
10
10
10
10
10
10
10
10
10
10
10
10
10
10
10
10
10
10
10
10
10
10
10
10
10
10
10
10
10
10
10
10
10
10
10
10
10
10
10
10
10
10
10
10
10
10
10
10
10
10
10
10
10
10
10
10
10
10
10
10
10
10
10
10
10
10
10
10
10
10
10
10
10
10
10
10
10
10
10
10
10
10
10
10
10
10
10
10
10
10
10
10
10
10
10
10
10
10
10
10
10
10
10
10
10
10
10
10
10
10
10
10
10
10
10
10
10
10
10
10
10
10
10
10
10
10
10
10
10
10
10
10
10
10
10
10
10
10
10
10
10
10
10
10
10
10
10
10
10
10
10
10
10
10
10
10
10
10
10
10
10
10
10
10
10
10
10
10
10
10
10
10
10
10
10
10
10
10
10
10
10
10
10
10
10
10
10
10
10
10
10
10
10
10
10
10
10
10
10
10
10
10
10
10
10
10
10
10
10
10
10
10
10
10
10
10
10
10
10
10
10
10
10
10
10
10
10
10
10
10
10
10
10
10
10
10
10
10
10
10
10
10
10
10
10
10
10
10
10
10
10
10
10
10
10
10
10
10
10
10
10
10
10
10
10
10
10
10
10
10
10
10
10
10
10
10
10
10
10
10
10
10
10
10
10
10
10
10
10
10
10
10
10
10
10
10
10
10
10
10
10
10
10
10
10
10
10
10
10
10
10
10
10
10
10
10
10
10
10
10
10
10
10
10
10
10
10
10
10
10
10
10
10
10
10
10
10
10
10
10
10
10
10
10
10
10
10
10
10
10
10
10
10
10
10
10
10
10
10
10
10
10
10
10
10
10
10
10
10
10
10
10
10
10
10
10
10
10
10
10
10
10
10
10
10
10
10
10
10
10
10
10
10
10
10
10
10
10
10
10
10
10
10
10
10
10
10
10
10
10
10
10
10
10
10
10
10
10
10
10
10
10
10
10
10
10
10
10
10
10
10
10
10
10
10
10
10
10
10
10
10
10
10
10
10
10
10
10
10
10
10
10
10
10
10
10
10
10
10
10
              </DataArray>   
          </Cells>  
          <PointData>  
             <DataArray type="Float64" NumberOfComponents="3" Name="Strains" format="ascii">   
-0.00031342412465614036   0.0   -0.0002050942785546861
-0.00031342412465614036   0.0   -0.0002050942785546861
-0.00031342412465614036   0.0   -0.0002050942785546861
-0.00031342412465614036   0.0   -0.0002050942785546861
-0.00019949784059417722   3.480186288438037e-05   5.663979279213645e-06
-0.00019949784059417722   3.480186288438037e-05   5.663979279213645e-06
-0.00019949784059417722   3.480186288438037e-05   5.663979279213645e-06
-0.00019949784059417722   3.480186288438037e-05   5.663979279213645e-06
-0.00019559449903991144   0.0   -0.00019348865603311557
-0.00019559449903991144   0.0   -0.00019348865603311557
-0.00019559449903991144   0.0   -0.00019348865603311557
-0.00019559449903991144   0.0   -0.00019348865603311557
-0.0003280652161635912   4.172560963021908e-05   2.260506728220062e-06
-0.0003280652161635912   4.172560963021908e-05   2.260506728220062e-06
-0.0003280652161635912   4.172560963021908e-05   2.260506728220062e-06
-0.0003280652161635912   4.172560963021908e-05   2.260506728220062e-06
-0.00025450931184802547   9.671352101308772e-06   -0.00010110011261370982
-0.00025450931184802547   9.671352101308772e-06   -0.00010110011261370982
-0.00025450931184802547   9.671352101308772e-06   -0.00010110011261370982
-0.00025450931184802547   9.671352101308772e-06   -0.00010110011261370982
-0.00032806521616359174   0.0   -0.00021852402181124706
-0.00032806521616359174   0.0   -0.00021852402181124706
-0.00032806521616359174   0.0   -0.00021852402181124706
-0.00032806521616359174   0.0   -0.00021852402181124706
-0.00019559449903991144   4.1725609630219134e-05   2.7295872506351607e-05
-0.00019559449903991144   4.1725609630219134e-05   2.7295872506351607e-05
-0.00019559449903991144   4.1725609630219134e-05   2.7295872506351607e-05
-0.00019559449903991144   4.1725609630219134e-05   2.7295872506351607e-05
-0.0001961916125658074   0.0   -0.00019823682598470882
-0.0001961916125658074   0.0   -0.00019823682598470882
-0.0001961916125658074   0.0   -0.00019823682598470882
-0.0001961916125658074   0.0   -0.00019823682598470882
-0.00033836840053201795   4.469224121387454e-05   1.1909142563984866e-05
-0.00033836840053201795   4.469224121387454e-05   1.1909142563984866e-05
-0.00033836840053201795   4.469224121387454e-05   1.1909142563984866e-05
-0.00033836840053201795   4.469224121387454e-05   1.1909142563984866e-05
-0.0002621284143646991   1.690599652211518e-05   -9.848575423315745e-05
-0.0002621284143646991   1.690599652211518e-05   -9.848575423315745e-05
-0.0002621284143646991   1.690599652211518e-05   -9.848575423315745e-05
-0.0002621284143646991   1.690599652211518e-05   -9.848575423315745e-05
-0.0003383684005320185   0.0   -0.0002250521707130336
-0.0003383684005320185   0.0   -0.0002250521707130336
-0.0003383684005320185   0.0   -0.0002250521707130336
-0.0003383684005320185   0.0   -0.0002250521707130336
-0.0001961916125658074   4.469224121387465e-05   3.872448729230966e-05
-0.0001961916125658074   4.469224121387465e-05   3.872448729230966e-05
-0.0001961916125658074   4.469224121387465e-05   3.872448729230966e-05
-0.0001961916125658074   4.469224121387465e-05   3.872448729230966e-05
-0.00019613978386512392   0.0   -0.0001994497410368467
-0.00019613978386512392   0.0   -0.0001994497410368467
-0.00019613978386512392   0.0   -0.0001994497410368467
-0.00019613978386512392   0.0   -0.0001994497410368467
-0.00036051914192571506   5.08809568456291e-05   4.3987281623428676e-05
-0.00036051914192571506   5.08809568456291e-05   4.3987281623428676e-05
-0.00036051914192571506   5.08809568456291e-05   4.3987281623428676e-05
-0.00036051914192571506   5.08809568456291e-05   4.3987281623428676e-05
-0.00026725409219857074   2.133535806348908e-05   -9.372710865252772e-05
-0.00026725409219857074   2.133535806348908e-05   -9.372710865252772e-05
-0.00026725409219857074   2.133535806348908e-05   -9.372710865252772e-05
-0.00026725409219857074   2.133535806348908e-05   -9.372710865252772e-05
-0.00019949784059417758   0.0   -0.00018421316082405784
-0.00019949784059417758   0.0   -0.00018421316082405784
-0.00019949784059417758   0.0   -0.00018421316082405784
-0.00019949784059417758   0.0   -0.00018421316082405784
-9.079977516826802e-05   1.2779482956032135e-05   4.617971326077215e-06
-9.079977516826802e-05   1.2779482956032135e-05   4.617971326077215e-06
-9.079977516826802e-05   1.2779482956032135e-05   4.617971326077215e-06
-9.079977516826802e-05   1.2779482956032135e-05   4.617971326077215e-06
-8.737428759992018e-05   0.0   -0.00018258814837637945
-8.737428759992018e-05   0.0   -0.00018258814837637945
-8.737428759992018e-05   0.0   -0.00018258814837637945
-8.737428759992018e-05   0.0   -0.00018258814837637945
-0.00019559449903991144   1.8167512761226847e-05   -1.312163696646346e-05
-0.00019559449903991144   1.8167512761226847e-05   -1.312163696646346e-05
-0.00019559449903991144   1.8167512761226847e-05   -1.312163696646346e-05
-0.00019559449903991144   1.8167512761226847e-05   -1.312163696646346e-05
-0.00014343606409704862   1.35417703973201e-06   -8.996436043833727e-05
-0.00014343606409704862   1.35417703973201e-06   -8.996436043833727e-05
-0.00014343606409704862   1.35417703973201e-06   -8.996436043833727e-05
-0.00014343606409704862   1.35417703973201e-06   -8.996436043833727e-05
-0.00019559449903991128   0.0   -0.0001934886560331154
-0.00019559449903991128   0.0   -0.0001934886560331154
-0.00019559449903991128   0.0   -0.0001934886560331154
-0.00019559449903991128   0.0   -0.0001934886560331154
-8.737428759992018e-05   1.8167512761226847e-05   -2.2211293097273456e-06
-8.737428759992018e-05   1.8167512761226847e-05   -2.2211293097273456e-06
-8.737428759992018e-05   1.8167512761226847e-05   -2.2211293097273456e-06
-8.737428759992018e-05   1.8167512761226847e-05   -2.2211293097273456e-06
-8.546902855981812e-05   0.0   -0.00018488953220723207
-8.546902855981812e-05   0.0   -0.00018488953220723207
-8.546902855981812e-05   0.0   -0.00018488953220723207
-8.546902855981812e-05   0.0   -0.00018488953220723207
-0.0001961916125658074   2.224548962912788e-05   -1.3699185974726713e-05
-0.0001961916125658074   2.224548962912788e-05   -1.3699185974726713e-05
-0.0001961916125658074   2.224548962912788e-05   -1.3699185974726713e-05
-0.0001961916125658074   2.224548962912788e-05   -1.3699185974726713e-05
-0.0001405317637998645   7.1659365215695535e-06   -9.741786872009572e-05
-0.0001405317637998645   7.1659365215695535e-06   -9.741786872009572e-05
-0.0001405317637998645   7.1659365215695535e-06   -9.741786872009572e-05
-0.0001405317637998645   7.1659365215695535e-06   -9.741786872009572e-05
-0.0001961916125658074   0.0   -0.00019823682598470882
-0.0001961916125658074   0.0   -0.00019823682598470882
-0.0001961916125658074   0.0   -0.00019823682598470882
-0.0001961916125658074   0.0   -0.00019823682598470882
-8.546902855981812e-05   2.224548962912788e-05   -3.518921972499691e-07
-8.546902855981812e-05   2.224548962912788e-05   -3.518921972499691e-07
-8.546902855981812e-05   2.224548962912788e-05   -3.518921972499691e-07
-8.546902855981812e-05   2.224548962912788e-05   -3.518921972499691e-07
-8.374165771337513e-05   0.0   -0.00018392508283075675
-8.374165771337513e-05   0.0   -0.00018392508283075675
-8.374165771337513e-05   0.0   -0.00018392508283075675
-8.374165771337513e-05   0.0   -0.00018392508283075675
-0.0001961397838651234   2.5874430343482912e-05   -1.2119530783931995e-05
-0.0001961397838651234   2.5874430343482912e-05   -1.2119530783931995e-05
-0.0001961397838651234   2.5874430343482912e-05   -1.2119530783931995e-05
-0.0001961397838651234   2.5874430343482912e-05   -1.2119530783931995e-05
-0.0001399666351395912   1.1926452628293265e-05   -9.737265869737257e-05
-0.0001399666351395912   1.1926452628293265e-05   -9.737265869737257e-05
-0.0001399666351395912   1.1926452628293265e-05   -9.737265869737257e-05
-0.0001399666351395912   1.1926452628293265e-05   -9.737265869737257e-05
-9.079977516826818e-05   0.0   -0.00017654547105043855
-9.079977516826818e-05   0.0   -0.00017654547105043855
-9.079977516826818e-05   0.0   -0.00017654547105043855
-9.079977516826818e-05   0.0   -0.00017654547105043855
1.1938364997409306e-05   -1.6255523103514782e-06   -6.290568827186799e-06
1.1938364997409306e-05   -1.6255523103514782e-06   -6.290568827186799e-06
1.1938364997409306e-05   -1.6255523103514782e-06   -6.290568827186799e-06
1.1938364997409306e-05   -1.6255523103514782e-06   -6.290568827186799e-06
1.4103755143591894e-05   0.0   -0.0001806587218301509
1.4103755143591894e-05   0.0   -0.0001806587218301509
1.4103755143591894e-05   0.0   -0.0001806587218301509
1.4103755143591894e-05   0.0   -0.0001806587218301509
-8.737428759992003e-05   3.2157109103798692e-06   -1.3458077137192594e-05
-8.737428759992003e-05   3.2157109103798692e-06   -1.3458077137192594e-05
-8.737428759992003e-05   3.2157109103798692e-06   -1.3458077137192594e-05
-8.737428759992003e-05   3.2157109103798692e-06   -1.3458077137192594e-05
-3.8348010012337984e-05   -3.4277089830941226e-06   -9.11824878470779e-05
-3.8348010012337984e-05   -3.4277089830941226e-06   -9.11824878470779e-05
-3.8348010012337984e-05   -3.4277089830941226e-06   -9.11824878470779e-05
-3.8348010012337984e-05   -3.4277089830941226e-06   -9.11824878470779e-05
-8.737428759992018e-05   0.0   -0.00018258814837637945
-8.737428759992018e-05   0.0   -0.00018258814837637945
-8.737428759992018e-05   0.0   -0.00018258814837637945
-8.737428759992018e-05   0.0   -0.00018258814837637945
1.410375514359192e-05   3.2157109103798692e-06   -1.1528650590964672e-05
1.410375514359192e-05   3.2157109103798692e-06   -1.1528650590964672e-05
1.410375514359192e-05   3.2157109103798692e-06   -1.1528650590964672e-05
1.410375514359192e-05   3.2157109103798692e-06   -1.1528650590964672e-05
1.58068040526277e-05   0.0   -0.00018040375656165308
1.58068040526277e-05   0.0   -0.00018040375656165308
1.58068040526277e-05   0.0   -0.00018040375656165308
1.58068040526277e-05   0.0   -0.00018040375656165308
-8.546902855981782e-05   7.476292742631156e-06   -1.6096477853155675e-05
-8.546902855981782e-05   7.476292742631156e-06   -1.6096477853155675e-05
-8.546902855981782e-05   7.476292742631156e-06   -1.6096477853155675e-05
-8.546902855981782e-05   7.476292742631156e-06   -1.6096477853155675e-05
-3.578374177364616e-05   1.8203265122717076e-06   -9.551170942522627e-05
-3.578374177364616e-05   1.8203265122717076e-06   -9.551170942522627e-05
-3.578374177364616e-05   1.8203265122717076e-06   -9.551170942522627e-05
-3.578374177364616e-05   1.8203265122717076e-06   -9.551170942522627e-05
-8.546902855981812e-05   0.0   -0.00018488953220723207
-8.546902855981812e-05   0.0   -0.00018488953220723207
-8.546902855981812e-05   0.0   -0.00018488953220723207
-8.546902855981812e-05   0.0   -0.00018488953220723207
1.5806804052627726e-05   7.476292742631156e-06   -1.1610702207577014e-05
1.5806804052627726e-05   7.476292742631156e-06   -1.1610702207577014e-05
1.5806804052627726e-05   7.476292742631156e-06   -1.1610702207577014e-05
1.5806804052627726e-05   7.476292742631156e-06   -1.1610702207577014e-05
1.8113369304992268e-05   0.0   -0.00017647678016795615
1.8113369304992268e-05   0.0   -0.00017647678016795615
1.8113369304992268e-05   0.0   -0.00017647678016795615
1.8113369304992268e-05   0.0   -0.00017647678016795615
-8.374165771337492e-05   1.2413837771334095e-05   -1.4166704466811057e-05
-8.374165771337492e-05   1.2413837771334095e-05   -1.4166704466811057e-05
-8.374165771337492e-05   1.2413837771334095e-05   -1.4166704466811057e-05
-8.374165771337492e-05   1.2413837771334095e-05   -1.4166704466811057e-05
-3.367782962741285e-05   7.010626699396346e-06   -9.436449130025202e-05
-3.367782962741285e-05   7.010626699396346e-06   -9.436449130025202e-05
-3.367782962741285e-05   7.010626699396346e-06   -9.436449130025202e-05
-3.367782962741285e-05   7.010626699396346e-06   -9.436449130025202e-05
1.1938364997409326e-05   0.0   -0.00017752080243664943
1.1938364997409326e-05   0.0   -0.00017752080243664943
1.1938364997409326e-05   0.0   -0.00017752080243664943
1.1938364997409326e-05   0.0   -0.00017752080243664943
0.00012342034930086363   -1.4475706595466829e-05   -4.0291922150556786e-07
0.00012342034930086363   -1.4475706595466829e-05   -4.0291922150556786e-07
0.00012342034930086363   -1.4475706595466829e-05   -4.0291922150556786e-07
0.00012342034930086363   -1.4475706595466829e-05   -4.0291922150556786e-07
0.0001235807655463651   0.0   -0.00018721407762070587
0.0001235807655463651   0.0   -0.00018721407762070587
0.0001235807655463651   0.0   -0.00018721407762070587
0.0001235807655463651   0.0   -0.00018721407762070587
1.4103755143591943e-05   -1.0925592984257246e-05   1.8029621744703546e-06
1.4103755143591943e-05   -1.0925592984257246e-05   1.8029621744703546e-06
1.4103755143591943e-05   -1.0925592984257246e-05   1.8029621744703546e-06
1.4103755143591943e-05   -1.0925592984257246e-05   1.8029621744703546e-06
6.775956527188721e-05   -8.077729320047033e-06   -8.933210623788111e-05
6.775956527188721e-05   -8.077729320047033e-06   -8.933210623788111e-05
6.775956527188721e-05   -8.077729320047033e-06   -8.933210623788111e-05
6.775956527188721e-05   -8.077729320047033e-06   -8.933210623788111e-05
1.4103755143591943e-05   0.0   -0.00018065872183015152
1.4103755143591943e-05   0.0   -0.00018065872183015152
1.4103755143591943e-05   0.0   -0.00018065872183015152
1.4103755143591943e-05   0.0   -0.00018065872183015152
0.0001235807655463651   -1.0925592984257246e-05   -4.752393616083993e-06
0.0001235807655463651   -1.0925592984257246e-05   -4.752393616083993e-06
0.0001235807655463651   -1.0925592984257246e-05   -4.752393616083993e-06
0.0001235807655463651   -1.0925592984257246e-05   -4.752393616083993e-06
0.00012300060241501778   0.0   -0.00018454030826511755
0.00012300060241501778   0.0   -0.00018454030826511755
0.00012300060241501778   0.0   -0.00018454030826511755
0.00012300060241501778   0.0   -0.00018454030826511755
1.5806804052627726e-05   -6.894252839106929e-06   -1.7474259576700137e-06
1.5806804052627726e-05   -6.894252839106929e-06   -1.7474259576700137e-06
1.5806804052627726e-05   -6.894252839106929e-06   -1.7474259576700137e-06
1.5806804052627726e-05   -6.894252839106929e-06   -1.7474259576700137e-06
6.855217877930487e-05   -3.2346553624716917e-06   -9.18521423214463e-05
6.855217877930487e-05   -3.2346553624716917e-06   -9.18521423214463e-05
6.855217877930487e-05   -3.2346553624716917e-06   -9.18521423214463e-05
6.855217877930487e-05   -3.2346553624716917e-06   -9.18521423214463e-05
1.5806804052627712e-05   0.0   -0.00018040375656165324
1.5806804052627712e-05   0.0   -0.00018040375656165324
1.5806804052627712e-05   0.0   -0.00018040375656165324
1.5806804052627712e-05   0.0   -0.00018040375656165324
0.00012300060241501778   -6.894252839106929e-06   -5.88397766113419e-06
0.00012300060241501778   -6.894252839106929e-06   -5.88397766113419e-06
0.00012300060241501778   -6.894252839106929e-06   -5.88397766113419e-06
0.00012300060241501778   -6.894252839106929e-06   -5.88397766113419e-06
0.00012533386059252797   0.0   -0.00017736113875440975
0.00012533386059252797   0.0   -0.00017736113875440975
0.00012533386059252797   0.0   -0.00017736113875440975
0.00012533386059252797   0.0   -0.00017736113875440975
1.81133693049923e-05   -1.4739309774222057e-06   2.224038644602974e-06
1.81133693049923e-05   -1.4739309774222057e-06   2.224038644602974e-06
1.81133693049923e-05   -1.4739309774222057e-06   2.224038644602974e-06
1.81133693049923e-05   -1.4739309774222057e-06   2.224038644602974e-06
7.057033232257779e-05   2.5355148393697196e-06   -8.760990054144788e-05
7.057033232257779e-05   2.5355148393697196e-06   -8.760990054144788e-05
7.057033232257779e-05   2.5355148393697196e-06   -8.760990054144788e-05
7.057033232257779e-05   2.5355148393697196e-06   -8.760990054144788e-05
0.00012342034930086363   0.0   -0.00018620622639392955
0.00012342034930086363   0.0   -0.00018620622639392955
0.00012342034930086363   0.0   -0.00018620622639392955
0.00012342034930086363   0.0   -0.00018620622639392955
0.0002783268640816221   -3.6656126958289296e-05   4.9977622065695815e-05
0.0002783268640816221   -3.6656126958289296e-05   4.9977622065695815e-05
0.0002783268640816221   -3.6656126958289296e-05   4.9977622065695815e-05
0.0002783268640816221   -3.6656126958289296e-05   4.9977622065695815e-05
0.0002613171450242049   0.0   -0.00020594590816465418
0.0002613171450242049   0.0   -0.00020594590816465418
0.0002613171450242049   0.0   -0.00020594590816465418
0.0002613171450242049   0.0   -0.00020594590816465418
0.0001235807655463651   -3.121971757324716e-05   4.234655484236044e-05
0.0001235807655463651   -3.121971757324716e-05   4.234655484236044e-05
0.0001235807655463651   -3.121971757324716e-05   4.234655484236044e-05
0.0001235807655463651   -3.121971757324716e-05   4.234655484236044e-05
0.00019236874716253426   -1.64497348089372e-05   -8.11620708431741e-05
0.00019236874716253426   -1.64497348089372e-05   -8.11620708431741e-05
0.00019236874716253426   -1.64497348089372e-05   -8.11620708431741e-05
0.00019236874716253426   -1.64497348089372e-05   -8.11620708431741e-05
0.000123580765546365   0.0   -0.0001872140776207057
0.000123580765546365   0.0   -0.0001872140776207057
0.000123580765546365   0.0   -0.0001872140776207057
0.000123580765546365   0.0   -0.0001872140776207057
0.00026131714502420397   -3.121971757324705e-05   2.3614724298412027e-05
0.00026131714502420397   -3.121971757324705e-05   2.3614724298412027e-05
0.00026131714502420397   -3.121971757324705e-05   2.3614724298412027e-05
0.00026131714502420397   -3.121971757324705e-05   2.3614724298412027e-05
0.0002534502993657651   0.0   -0.00020166362223029814
0.0002534502993657651   0.0   -0.00020166362223029814
0.0002534502993657651   0.0   -0.00020166362223029814
0.0002534502993657651   0.0   -0.00020166362223029814
0.00012300060241501778   -2.853885660863433e-05   3.287585331946126e-05
0.00012300060241501778   -2.853885660863433e-05   3.287585331946126e-05
0.00012300060241501778   -2.853885660863433e-05   3.287585331946126e-05
0.00012300060241501778   -2.853885660863433e-05   3.287585331946126e-05
0.000188515532456065   -1.2041287174660234e-05   -8.62142384093352e-05
0.000188515532456065   -1.2041287174660234e-05   -8.62142384093352e-05
0.000188515532456065   -1.2041287174660234e-05   -8.62142384093352e-05
0.000188515532456065   -1.2041287174660234e-05   -8.62142384093352e-05
0.00012300060241501778   0.0   -0.00018454030826511755
0.00012300060241501778   0.0   -0.00018454030826511755
0.00012300060241501778   0.0   -0.00018454030826511755
0.00012300060241501778   0.0   -0.00018454030826511755
0.00025345029936576423   -2.853885660863422e-05   1.5752539354280646e-05
0.00025345029936576423   -2.853885660863422e-05   1.5752539354280646e-05
0.00025345029936576423   -2.853885660863422e-05   1.5752539354280646e-05
0.00025345029936576423   -2.853885660863422e-05   1.5752539354280646e-05
0.00024177434445549168   0.0   -0.0001906917849852287
0.00024177434445549168   0.0   -0.0001906917849852287
0.00024177434445549168   0.0   -0.0001906917849852287
0.00024177434445549168   0.0   -0.0001906917849852287
0.00012533386059252797   -2.2217743718032086e-05   1.6706334350530402e-05
0.00012533386059252797   -2.2217743718032086e-05   1.6706334350530402e-05
0.00012533386059252797   -2.2217743718032086e-05   1.6706334350530402e-05
0.00012533386059252797   -2.2217743718032086e-05   1.6706334350530402e-05
0.00018238747343525492   -5.126230600092886e-06   -8.86379282581113e-05
0.00018238747343525492   -5.126230600092886e-06   -8.86379282581113e-05
0.00018238747343525492   -5.126230600092886e-06   -8.86379282581113e-05
0.00018238747343525492   -5.126230600092886e-06   -8.86379282581113e-05
-0.0002723889893457801   3.4801862884380316e-05   -0.00017831899635881062
-0.0002723889893457801   3.4801862884380316e-05   -0.00017831899635881062
-0.0002723889893457801   3.4801862884380316e-05   -0.00017831899635881062
-0.0002723889893457801   3.4801862884380316e-05   -0.00017831899635881062
-0.00017442254980848436   3.132390383664646e-05   -1.7128372558624727e-05
-0.00017442254980848436   3.132390383664646e-05   -1.7128372558624727e-05
-0.00017442254980848436   3.132390383664646e-05   -1.7128372558624727e-05
-0.00017442254980848436   3.132390383664646e-05   -1.7128372558624727e-05
-0.00017883632120911547   4.1725609630219025e-05   -0.0001497210328854561
-0.00017883632120911547   4.1725609630219025e-05   -0.0001497210328854561
-0.00017883632120911547   4.1725609630219025e-05   -0.0001497210328854561
-0.00017883632120911547   4.1725609630219025e-05   -0.0001497210328854561
-0.0002753904598740137   3.7571067959842096e-05   1.3695256558267886e-05
-0.0002753904598740137   3.7571067959842096e-05   1.3695256558267886e-05
-0.0002753904598740137   3.7571067959842096e-05   1.3695256558267886e-05
-0.0002753904598740137   3.7571067959842096e-05   1.3695256558267886e-05
-0.00021634043874658939   3.633921545493203e-05   -8.398233381782811e-05
-0.00021634043874658939   3.633921545493203e-05   -8.398233381782811e-05
-0.00021634043874658939   3.633921545493203e-05   -8.398233381782811e-05
-0.00021634043874658939   3.633921545493203e-05   -8.398233381782811e-05
-0.0002753904598740137   4.1725609630219025e-05   -0.00014722830788322985
-0.0002753904598740137   4.1725609630219025e-05   -0.00014722830788322985
-0.0002753904598740137   4.1725609630219025e-05   -0.00014722830788322985
-0.0002753904598740137   4.1725609630219025e-05   -0.00014722830788322985
-0.0001788363212091161   3.7571067959842205e-05   1.120253155604162e-05
-0.0001788363212091161   3.7571067959842205e-05   1.120253155604162e-05
-0.0001788363212091161   3.7571067959842205e-05   1.120253155604162e-05
-0.0001788363212091161   3.7571067959842205e-05   1.120253155604162e-05
-0.00017978766601386994   4.469224121387449e-05   -0.00013457995125546775
-0.00017978766601386994   4.469224121387449e-05   -0.00013457995125546775
-0.00017978766601386994   4.469224121387449e-05   -0.00013457995125546775
-0.00017978766601386994   4.469224121387449e-05   -0.00013457995125546775
-0.00027737416737294487   4.0389627601168133e-05   3.064578584394671e-05
-0.00027737416737294487   4.0389627601168133e-05   3.064578584394671e-05
-0.00027737416737294487   4.0389627601168133e-05   3.064578584394671e-05
-0.00027737416737294487   4.0389627601168133e-05   3.064578584394671e-05
-0.0002227360275226768   4.02685686638894e-05   -6.0345145210798524e-05
-0.0002227360275226768   4.02685686638894e-05   -6.0345145210798524e-05
-0.0002227360275226768   4.02685686638894e-05   -6.0345145210798524e-05
-0.0002227360275226768   4.02685686638894e-05   -6.0345145210798524e-05
-0.0002773741673729444   4.469224121387449e-05   -0.0001319983830878438
-0.0002773741673729444   4.469224121387449e-05   -0.0001319983830878438
-0.0002773741673729444   4.469224121387449e-05   -0.0001319983830878438
-0.0002773741673729444   4.469224121387449e-05   -0.0001319983830878438
-0.00017978766601387027   4.0389627601168133e-05   2.806421767632283e-05
-0.00017978766601387027   4.0389627601168133e-05   2.806421767632283e-05
-0.00017978766601387027   4.0389627601168133e-05   2.806421767632283e-05
-0.00017978766601387027   4.0389627601168133e-05   2.806421767632283e-05
-0.00017879590396043576   5.088095684562899e-05   -9.935377835748236e-05
-0.00017879590396043576   5.088095684562899e-05   -9.935377835748236e-05
-0.00017879590396043576   5.088095684562899e-05   -9.935377835748236e-05
-0.00017879590396043576   5.088095684562899e-05   -9.935377835748236e-05
-0.0002697491893978123   4.261758957166471e-05   5.719305106918976e-05
-0.0002697491893978123   4.261758957166471e-05   5.719305106918976e-05
-0.0002697491893978123   4.261758957166471e-05   5.719305106918976e-05
-0.0002697491893978123   4.261758957166471e-05   5.719305106918976e-05
-0.00021698375061950017   4.415353339619116e-05   -3.167091318937972e-05
-0.00021698375061950017   4.415353339619116e-05   -3.167091318937972e-05
-0.00021698375061950017   4.415353339619116e-05   -3.167091318937972e-05
-0.00021698375061950017   4.415353339619116e-05   -3.167091318937972e-05
-0.00017442254980848436   1.2779482956032135e-05   -0.0001891194695142066
-0.00017442254980848436   1.2779482956032135e-05   -0.0001891194695142066
-0.00017442254980848436   1.2779482956032135e-05   -0.0001891194695142066
-0.00017442254980848436   1.2779482956032135e-05   -0.0001891194695142066
-8.257924037575119e-05   1.4574641782815964e-05   -3.497019183024735e-05
-8.257924037575119e-05   1.4574641782815964e-05   -3.497019183024735e-05
-8.257924037575119e-05   1.4574641782815964e-05   -3.497019183024735e-05
-8.257924037575119e-05   1.4574641782815964e-05   -3.497019183024735e-05
-8.45790873515851e-05   1.8167512761226793e-05   -0.00018884711191319704
-8.45790873515851e-05   1.8167512761226793e-05   -0.00018884711191319704
-8.45790873515851e-05   1.8167512761226793e-05   -0.00018884711191319704
-8.45790873515851e-05   1.8167512761226793e-05   -0.00018884711191319704
-0.00017883632120911547   2.0319896836349955e-05   -3.3043152595719875e-05
-0.00017883632120911547   2.0319896836349955e-05   -3.3043152595719875e-05
-0.00017883632120911547   2.0319896836349955e-05   -3.3043152595719875e-05
-0.00017883632120911547   2.0319896836349955e-05   -3.3043152595719875e-05
-0.00012973974557299402   1.6364148617690143e-05   -0.00011249732972472753
-0.00012973974557299402   1.6364148617690143e-05   -0.00011249732972472753
-0.00012973974557299402   1.6364148617690143e-05   -0.00011249732972472753
-0.00012973974557299402   1.6364148617690143e-05   -0.00011249732972472753
-0.0001788363212091153   1.8167512761226793e-05   -0.00019013854235827061
-0.0001788363212091153   1.8167512761226793e-05   -0.00019013854235827061
-0.0001788363212091153   1.8167512761226793e-05   -0.00019013854235827061
-0.0001788363212091153   1.8167512761226793e-05   -0.00019013854235827061
-8.457908735158525e-05   2.0319896836349955e-05   -3.175172215064606e-05
-8.457908735158525e-05   2.0319896836349955e-05   -3.175172215064606e-05
-8.457908735158525e-05   2.0319896836349955e-05   -3.175172215064606e-05
-8.457908735158525e-05   2.0319896836349955e-05   -3.175172215064606e-05
-8.522890128045004e-05   2.224548962912788e-05   -0.00018530749322207094
-8.522890128045004e-05   2.224548962912788e-05   -0.00018530749322207094
-8.522890128045004e-05   2.224548962912788e-05   -0.00018530749322207094
-8.522890128045004e-05   2.224548962912788e-05   -0.00018530749322207094
-0.00017978766601386994   2.5072375129849608e-05   -2.940568330013775e-05
-0.00017978766601386994   2.5072375129849608e-05   -2.940568330013775e-05
-0.00017978766601386994   2.5072375129849608e-05   -2.940568330013775e-05
-0.00017978766601386994   2.5072375129849608e-05   -2.940568330013775e-05
-0.00013078142496178392   2.0756858022569365e-05   -0.00010849344145591239
-0.00013078142496178392   2.0756858022569365e-05   -0.00010849344145591239
-0.00013078142496178392   2.0756858022569365e-05   -0.00010849344145591239
-0.00013078142496178392   2.0756858022569365e-05   -0.00010849344145591239
-0.00017978766601386994   2.224548962912788e-05   -0.00018700362452250404
-0.00017978766601386994   2.224548962912788e-05   -0.00018700362452250404
-0.00017978766601386994   2.224548962912788e-05   -0.00018700362452250404
-0.00017978766601386994   2.224548962912788e-05   -0.00018700362452250404
-8.522890128045034e-05   2.5072375129849716e-05   -2.7709551999704696e-05
-8.522890128045034e-05   2.5072375129849716e-05   -2.7709551999704696e-05
-8.522890128045034e-05   2.5072375129849716e-05   -2.7709551999704696e-05
-8.522890128045034e-05   2.5072375129849716e-05   -2.7709551999704696e-05
-8.505004259712274e-05   2.5874430343482912e-05   -0.00018340386528475992
-8.505004259712274e-05   2.5874430343482912e-05   -0.00018340386528475992
-8.505004259712274e-05   2.5874430343482912e-05   -0.00018340386528475992
-8.505004259712274e-05   2.5874430343482912e-05   -0.00018340386528475992
-0.0001787959039604356   3.01832629892502e-05   -2.9746062600032237e-05
-0.0001787959039604356   3.01832629892502e-05   -2.9746062600032237e-05
-0.0001787959039604356   3.01832629892502e-05   -2.9746062600032237e-05
-0.0001787959039604356   3.01832629892502e-05   -2.9746062600032237e-05
-0.00013158108323261676   2.4732617481981528e-05   -0.00010516704317536972
-0.00013158108323261676   2.4732617481981528e-05   -0.00010516704317536972
-0.00013158108323261676   2.4732617481981528e-05   -0.00010516704317536972
-0.00013158108323261676   2.4732617481981528e-05   -0.00010516704317536972
-8.257924037575105e-05   -1.625552310351424e-06   -0.00019797558298518942
-8.257924037575105e-05   -1.625552310351424e-06   -0.00019797558298518942
-8.257924037575105e-05   -1.625552310351424e-06   -0.00019797558298518942
-8.257924037575105e-05   -1.625552310351424e-06   -0.00019797558298518942
8.110133884759013e-06   -4.269280688196965e-07   -4.610745133942022e-05
8.110133884759013e-06   -4.269280688196965e-07   -4.610745133942022e-05
8.110133884759013e-06   -4.269280688196965e-07   -4.610745133942022e-05
8.110133884759013e-06   -4.269280688196965e-07   -4.610745133942022e-05
7.709257548062889e-06   3.215710910379815e-06   -0.00019909442394469703
7.709257548062889e-06   3.215710910379815e-06   -0.00019909442394469703
7.709257548062889e-06   3.215710910379815e-06   -0.00019909442394469703
7.709257548062889e-06   3.215710910379815e-06   -0.00019909442394469703
-8.45790873515851e-05   4.865103903655917e-06   -4.6270151574581936e-05
-8.45790873515851e-05   4.865103903655917e-06   -4.6270151574581936e-05
-8.45790873515851e-05   4.865103903655917e-06   -4.6270151574581936e-05
-8.45790873515851e-05   4.865103903655917e-06   -4.6270151574581936e-05
-3.8065040124926774e-05   1.6128471423210384e-06   -0.00012184220956221197
-3.8065040124926774e-05   1.6128471423210384e-06   -0.00012184220956221197
-3.8065040124926774e-05   1.6128471423210384e-06   -0.00012184220956221197
-3.8065040124926774e-05   1.6128471423210384e-06   -0.00012184220956221197
-8.45790873515851e-05   3.2157109103798692e-06   -0.0002000840597406623
-8.45790873515851e-05   3.2157109103798692e-06   -0.0002000840597406623
-8.45790873515851e-05   3.2157109103798692e-06   -0.0002000840597406623
-8.45790873515851e-05   3.2157109103798692e-06   -0.0002000840597406623
7.709257548062889e-06   4.865103903655917e-06   -4.528051577861638e-05
7.709257548062889e-06   4.865103903655917e-06   -4.528051577861638e-05
7.709257548062889e-06   4.865103903655917e-06   -4.528051577861638e-05
7.709257548062889e-06   4.865103903655917e-06   -4.528051577861638e-05
7.171191135676005e-06   7.476292742631101e-06   -0.00019951692211421767
7.171191135676005e-06   7.476292742631101e-06   -0.00019951692211421767
7.171191135676005e-06   7.476292742631101e-06   -0.00019951692211421767
7.171191135676005e-06   7.476292742631101e-06   -0.00019951692211421767
-8.522890128045004e-05   1.0034887348895878e-05   -4.7051924851099994e-05
-8.522890128045004e-05   1.0034887348895878e-05   -4.7051924851099994e-05
-8.522890128045004e-05   1.0034887348895878e-05   -4.7051924851099994e-05
-8.522890128045004e-05   1.0034887348895878e-05   -4.7051924851099994e-05
-3.880505317348769e-05   6.0994639194682405e-06   -0.00012206375097171355
-3.880505317348769e-05   6.0994639194682405e-06   -0.00012206375097171355
-3.880505317348769e-05   6.0994639194682405e-06   -0.00012206375097171355
-3.880505317348769e-05   6.0994639194682405e-06   -0.00012206375097171355
-8.522890128045004e-05   7.476292742631101e-06   -0.00020105207887797654
-8.522890128045004e-05   7.476292742631101e-06   -0.00020105207887797654
-8.522890128045004e-05   7.476292742631101e-06   -0.00020105207887797654
-8.522890128045004e-05   7.476292742631101e-06   -0.00020105207887797654
7.1711911356760185e-06   1.0034887348895878e-05   -4.551676808734124e-05
7.1711911356760185e-06   1.0034887348895878e-05   -4.551676808734124e-05
7.1711911356760185e-06   1.0034887348895878e-05   -4.551676808734124e-05
7.1711911356760185e-06   1.0034887348895878e-05   -4.551676808734124e-05
6.1197068342754535e-06   1.241383777133404e-05   -0.00019917056471439952
6.1197068342754535e-06   1.241383777133404e-05   -0.00019917056471439952
6.1197068342754535e-06   1.241383777133404e-05   -0.00019917056471439952
6.1197068342754535e-06   1.241383777133404e-05   -0.00019917056471439952
-8.50500425971228e-05   1.5422391870216143e-05   -4.902611478806526e-05
-8.50500425971228e-05   1.5422391870216143e-05   -4.902611478806526e-05
-8.50500425971228e-05   1.5422391870216143e-05   -4.902611478806526e-05
-8.50500425971228e-05   1.5422391870216143e-05   -4.902611478806526e-05
-3.926500002012646e-05   1.0708557051738944e-05   -0.00012250621819197258
-3.926500002012646e-05   1.0708557051738944e-05   -0.00012250621819197258
-3.926500002012646e-05   1.0708557051738944e-05   -0.00012250621819197258
-3.926500002012646e-05   1.0708557051738944e-05   -0.00012250621819197258
8.110133884759013e-06   -1.4475706595466829e-05   -0.00018268333487730918
8.110133884759013e-06   -1.4475706595466829e-05   -0.00018268333487730918
8.110133884759013e-06   -1.4475706595466829e-05   -0.00018268333487730918
8.110133884759013e-06   -1.4475706595466829e-05   -0.00018268333487730918
0.00010156820793622413   -1.4884720978769689e-05   -2.7165286754848926e-05
0.00010156820793622413   -1.4884720978769689e-05   -2.7165286754848926e-05
0.00010156820793622413   -1.4884720978769689e-05   -2.7165286754848926e-05
0.00010156820793622413   -1.4884720978769689e-05   -2.7165286754848926e-05
0.00010236724020369655   -1.0925592984257191e-05   -0.000185256230842459
0.00010236724020369655   -1.0925592984257191e-05   -0.000185256230842459
0.00010236724020369655   -1.0925592984257191e-05   -0.000185256230842459
0.00010236724020369655   -1.0925592984257191e-05   -0.000185256230842459
7.709257548062889e-06   -1.0081292422919972e-05   -2.7999506753204836e-05
7.709257548062889e-06   -1.0081292422919972e-05   -2.7999506753204836e-05
7.709257548062889e-06   -1.0081292422919972e-05   -2.7999506753204836e-05
7.709257548062889e-06   -1.0081292422919972e-05   -2.7999506753204836e-05
5.423620009388731e-05   -1.2060043787652367e-05   -0.00010435716017740642
5.423620009388731e-05   -1.2060043787652367e-05   -0.00010435716017740642
5.423620009388731e-05   -1.2060043787652367e-05   -0.00010435716017740642
5.423620009388731e-05   -1.2060043787652367e-05   -0.00010435716017740642
7.709257548062877e-06   -1.0925592984257246e-05   -0.0001857628111792616
7.709257548062877e-06   -1.0925592984257246e-05   -0.0001857628111792616
7.709257548062877e-06   -1.0925592984257246e-05   -0.0001857628111792616
7.709257548062877e-06   -1.0925592984257246e-05   -0.0001857628111792616
0.00010236724020369674   -1.0081292422919972e-05   -2.7492926416402413e-05
0.00010236724020369674   -1.0081292422919972e-05   -2.7492926416402413e-05
0.00010236724020369674   -1.0081292422919972e-05   -2.7492926416402413e-05
0.00010236724020369674   -1.0081292422919972e-05   -2.7492926416402413e-05
0.0001018260079553926   -6.894252839106929e-06   -0.00018874091203546322
0.0001018260079553926   -6.894252839106929e-06   -0.00018874091203546322
0.0001018260079553926   -6.894252839106929e-06   -0.00018874091203546322
0.0001018260079553926   -6.894252839106929e-06   -0.00018874091203546322
7.171191135676005e-06   -5.373029791028291e-06   -3.1895617831449635e-05
7.171191135676005e-06   -5.373029791028291e-06   -3.1895617831449635e-05
7.171191135676005e-06   -5.373029791028291e-06   -3.1895617831449635e-05
7.171191135676005e-06   -5.373029791028291e-06   -3.1895617831449635e-05
5.362602673153628e-05   -8.220545791317929e-06   -0.000107611834224376
5.362602673153628e-05   -8.220545791317929e-06   -0.000107611834224376
5.362602673153628e-05   -8.220545791317929e-06   -0.000107611834224376
5.362602673153628e-05   -8.220545791317929e-06   -0.000107611834224376
7.171191135675998e-06   -6.894252839106929e-06   -0.0001896536458643104
7.171191135675998e-06   -6.894252839106929e-06   -0.0001896536458643104
7.171191135675998e-06   -6.894252839106929e-06   -0.0001896536458643104
7.171191135675998e-06   -6.894252839106929e-06   -0.0001896536458643104
0.00010182600795539295   -5.373029791028291e-06   -3.098288400260249e-05
0.00010182600795539295   -5.373029791028291e-06   -3.098288400260249e-05
0.00010182600795539295   -5.373029791028291e-06   -3.098288400260249e-05
0.00010182600795539295   -5.373029791028291e-06   -3.098288400260249e-05
9.882208515585628e-05   -1.4739309774221515e-06   -0.00018907116096096504
9.882208515585628e-05   -1.4739309774221515e-06   -0.00018907116096096504
9.882208515585628e-05   -1.4739309774221515e-06   -0.00018907116096096504
9.882208515585628e-05   -1.4739309774221515e-06   -0.00018907116096096504
6.1197068342754535e-06   4.543411972787563e-07   -3.5724160396484525e-05
6.1197068342754535e-06   4.543411972787563e-07   -3.5724160396484525e-05
6.1197068342754535e-06   4.543411972787563e-07   -3.5724160396484525e-05
6.1197068342754535e-06   4.543411972787563e-07   -3.5724160396484525e-05
5.300998460833903e-05   -3.7357613292901288e-06   -0.0001113605618373156
5.300998460833903e-05   -3.7357613292901288e-06   -0.0001113605618373156
5.300998460833903e-05   -3.7357613292901288e-06   -0.0001113605618373156
5.300998460833903e-05   -3.7357613292901288e-06   -0.0001113605618373156
0.00010156820793622413   -3.6656126958289296e-05   -0.00011055452604511585
0.00010156820793622413   -3.6656126958289296e-05   -0.00011055452604511585
0.00010156820793622413   -3.6656126958289296e-05   -0.00011055452604511585
0.00010156820793622413   -3.6656126958289296e-05   -0.00011055452604511585
0.0001938656742998888   -2.768977170780184e-05   4.8654397711284125e-05
0.0001938656742998888   -2.768977170780184e-05   4.8654397711284125e-05
0.0001938656742998888   -2.768977170780184e-05   4.8654397711284125e-05
0.0001938656742998888   -2.768977170780184e-05   4.8654397711284125e-05
0.00020115569151741793   -3.1219717573247106e-05   -0.0001345119345942913
0.00020115569151741793   -3.1219717573247106e-05   -0.0001345119345942913
0.00020115569151741793   -3.1219717573247106e-05   -0.0001345119345942913
0.00020115569151741793   -3.1219717573247106e-05   -0.0001345119345942913
0.0001023672402036969   -2.5144137923707234e-05   2.6490136472186903e-05
0.0001023672402036969   -2.5144137923707234e-05   2.6490136472186903e-05
0.0001023672402036969   -2.5144137923707234e-05   2.6490136472186903e-05
0.0001023672402036969   -2.5144137923707234e-05   2.6490136472186903e-05
0.00014277688207536132   -3.0055019247137273e-05   -3.7912737853195994e-05
0.00014277688207536132   -3.0055019247137273e-05   -3.7912737853195994e-05
0.00014277688207536132   -3.0055019247137273e-05   -3.7912737853195994e-05
0.00014277688207536132   -3.0055019247137273e-05   -3.7912737853195994e-05
0.00010236724020369663   -3.121971757324705e-05   -0.00013815728238401474
0.00010236724020369663   -3.121971757324705e-05   -0.00013815728238401474
0.00010236724020369663   -3.121971757324705e-05   -0.00013815728238401474
0.00010236724020369663   -3.121971757324705e-05   -0.00013815728238401474
0.00020115569151741793   -2.5144137923707234e-05   3.013548426191088e-05
0.00020115569151741793   -2.5144137923707234e-05   3.013548426191088e-05
0.00020115569151741793   -2.5144137923707234e-05   3.013548426191088e-05
0.00020115569151741793   -2.5144137923707234e-05   3.013548426191088e-05
0.00020034586207860213   -2.853885660863422e-05   -0.0001463181638486206
0.00020034586207860213   -2.853885660863422e-05   -0.0001463181638486206
0.00020034586207860213   -2.853885660863422e-05   -0.0001463181638486206
0.00020034586207860213   -2.853885660863422e-05   -0.0001463181638486206
0.00010182600795539295   -2.2433994598221145e-05   1.4218675817146743e-05
0.00010182600795539295   -2.2433994598221145e-05   1.4218675817146743e-05
0.00010182600795539295   -2.2433994598221145e-05   1.4218675817146743e-05
0.00010182600795539295   -2.2433994598221145e-05   1.4218675817146743e-05
0.0001477132098776031   -2.655962924603874e-05   -5.978461326451302e-05
0.0001477132098776031   -2.655962924603874e-05   -5.978461326451302e-05
0.0001477132098776031   -2.655962924603874e-05   -5.978461326451302e-05
0.0001477132098776031   -2.655962924603874e-05   -5.978461326451302e-05
0.00010182600795539278   -2.853885660863422e-05   -0.00014998108105486818
0.00010182600795539278   -2.853885660863422e-05   -0.00014998108105486818
0.00010182600795539278   -2.853885660863422e-05   -0.00014998108105486818
0.00010182600795539278   -2.853885660863422e-05   -0.00014998108105486818
0.00020034586207860213   -2.2433994598221145e-05   1.7881593023394578e-05
0.00020034586207860213   -2.2433994598221145e-05   1.7881593023394578e-05
0.00020034586207860213   -2.2433994598221145e-05   1.7881593023394578e-05
0.00020034586207860213   -2.2433994598221145e-05   1.7881593023394578e-05
0.00019906824905387805   -2.2217743718032086e-05   -0.00017033367041779015
0.00019906824905387805   -2.2217743718032086e-05   -0.00017033367041779015
0.00019906824905387805   -2.2217743718032086e-05   -0.00017033367041779015
0.00019906824905387805   -2.2217743718032086e-05   -0.00017033367041779015
9.88220851558566e-05   -1.6599683300040635e-05   -6.627566838549395e-06
9.88220851558566e-05   -1.6599683300040635e-05   -6.627566838549395e-06
9.88220851558566e-05   -1.6599683300040635e-05   -6.627566838549395e-06
9.88220851558566e-05   -1.6599683300040635e-05   -6.627566838549395e-06
0.00014344252196074391   -2.2881550899402363e-05   -7.72258409537444e-05
0.00014344252196074391   -2.2881550899402363e-05   -7.72258409537444e-05
0.00014344252196074391   -2.2881550899402363e-05   -7.72258409537444e-05
0.00014344252196074391   -2.2881550899402363e-05   -7.72258409537444e-05
-0.00021735185777604525   3.132390383664646e-05   -0.0001497476248251005
-0.00021735185777604525   3.132390383664646e-05   -0.0001497476248251005
-0.00021735185777604525   3.132390383664646e-05   -0.0001497476248251005
-0.00021735185777604525   3.132390383664646e-05   -0.0001497476248251005
-0.00014240480392525905   2.396662109111999e-05   -2.9250238054439638e-05
-0.00014240480392525905   2.396662109111999e-05   -2.9250238054439638e-05
-0.00014240480392525905   2.396662109111999e-05   -2.9250238054439638e-05
-0.00014240480392525905   2.396662109111999e-05   -2.9250238054439638e-05
-0.00014310903242619697   3.7571067959842096e-05   -0.0001243192799227908
-0.00014310903242619697   3.7571067959842096e-05   -0.0001243192799227908
-0.00014310903242619697   3.7571067959842096e-05   -0.0001243192799227908
-0.00014310903242619697   3.7571067959842096e-05   -0.0001243192799227908
-0.00021410461750144755   2.8975413792542643e-05   -8.359122969936201e-07
-0.00021410461750144755   2.8975413792542643e-05   -8.359122969936201e-07
-0.00021410461750144755   2.8975413792542643e-05   -8.359122969936201e-07
-0.00021410461750144755   2.8975413792542643e-05   -8.359122969936201e-07
-0.00017166437900646136   3.184314527611334e-05   -7.32902820121138e-05
-0.00017166437900646136   3.184314527611334e-05   -7.32902820121138e-05
-0.00017166437900646136   3.184314527611334e-05   -7.32902820121138e-05
-0.00017166437900646136   3.184314527611334e-05   -7.32902820121138e-05
-0.00021410461750144755   3.7571067959842096e-05   -0.00011916188742241128
-0.00021410461750144755   3.7571067959842096e-05   -0.00011916188742241128
-0.00021410461750144755   3.7571067959842096e-05   -0.00011916188742241128
-0.00021410461750144755   3.7571067959842096e-05   -0.00011916188742241128
-0.00014310903242619697   2.8975413792542643e-05   -5.993304797373032e-06
-0.00014310903242619697   2.8975413792542643e-05   -5.993304797373032e-06
-0.00014310903242619697   2.8975413792542643e-05   -5.993304797373032e-06
-0.00014310903242619697   2.8975413792542643e-05   -5.993304797373032e-06
-0.00014298085840426517   4.0389627601168133e-05   -0.00010634446029840657
-0.00014298085840426517   4.0389627601168133e-05   -0.00010634446029840657
-0.00014298085840426517   4.0389627601168133e-05   -0.00010634446029840657
-0.00014298085840426517   4.0389627601168133e-05   -0.00010634446029840657
-0.00021093060114002265   3.117306307940065e-05   1.243504964091582e-05
-0.00021093060114002265   3.117306307940065e-05   1.243504964091582e-05
-0.00021093060114002265   3.117306307940065e-05   1.243504964091582e-05
-0.00021093060114002265   3.117306307940065e-05   1.243504964091582e-05
-0.00017317352118450285   3.4747046027305785e-05   -5.2637806720358285e-05
-0.00017317352118450285   3.4747046027305785e-05   -5.2637806720358285e-05
-0.00017317352118450285   3.4747046027305785e-05   -5.2637806720358285e-05
-0.00017317352118450285   3.4747046027305785e-05   -5.2637806720358285e-05
-0.00021093060114002265   4.0389627601168133e-05   -0.00010081452158534616
-0.00021093060114002265   4.0389627601168133e-05   -0.00010081452158534616
-0.00021093060114002265   4.0389627601168133e-05   -0.00010081452158534616
-0.00021093060114002265   4.0389627601168133e-05   -0.00010081452158534616
-0.00014298085840426538   3.117306307940087e-05   6.905110927856611e-06
-0.00014298085840426538   3.117306307940087e-05   6.905110927856611e-06
-0.00014298085840426538   3.117306307940087e-05   6.905110927856611e-06
-0.00014298085840426538   3.117306307940087e-05   6.905110927856611e-06
-0.0001431389796247335   4.261758957166471e-05   -8.114918735367379e-05
-0.0001431389796247335   4.261758957166471e-05   -8.114918735367379e-05
-0.0001431389796247335   4.261758957166471e-05   -8.114918735367379e-05
-0.0001431389796247335   4.261758957166471e-05   -8.114918735367379e-05
-0.00020677350861416646   3.332634959005696e-05   3.0483104951011192e-05
-0.00020677350861416646   3.332634959005696e-05   3.0483104951011192e-05
-0.00020677350861416646   3.332634959005696e-05   3.0483104951011192e-05
-0.00020677350861416646   3.332634959005696e-05   3.0483104951011192e-05
-0.000169250113296037   3.6267284095196787e-05   -3.3820447948952506e-05
-0.000169250113296037   3.6267284095196787e-05   -3.3820447948952506e-05
-0.000169250113296037   3.6267284095196787e-05   -3.3820447948952506e-05
-0.000169250113296037   3.6267284095196787e-05   -3.3820447948952506e-05
-0.00014240480392525905   1.4574641782815964e-05   -0.0001730809090401094
-0.00014240480392525905   1.4574641782815964e-05   -0.0001730809090401094
-0.00014240480392525905   1.4574641782815964e-05   -0.0001730809090401094
-0.00014240480392525905   1.4574641782815964e-05   -0.0001730809090401094
-7.238198957785032e-05   1.1938407878475969e-05   -5.79579588036989e-05
-7.238198957785032e-05   1.1938407878475969e-05   -5.79579588036989e-05
-7.238198957785032e-05   1.1938407878475969e-05   -5.79579588036989e-05
-7.238198957785032e-05   1.1938407878475969e-05   -5.79579588036989e-05
-7.32743357794722e-05   2.0319896836349955e-05   -0.00017063973776059046
-7.32743357794722e-05   2.0319896836349955e-05   -0.00017063973776059046
-7.32743357794722e-05   2.0319896836349955e-05   -0.00017063973776059046
-7.32743357794722e-05   2.0319896836349955e-05   -0.00017063973776059046
-0.00014310903242619675   1.6861940692953397e-05   -5.2173802996677916e-05
-0.00014310903242619675   1.6861940692953397e-05   -5.2173802996677916e-05
-0.00014310903242619675   1.6861940692953397e-05   -5.2173802996677916e-05
-0.00014310903242619675   1.6861940692953397e-05   -5.2173802996677916e-05
-0.00010687153463292616   1.6792591988517083e-05   -0.00011252802342946727
-0.00010687153463292616   1.6792591988517083e-05   -0.00011252802342946727
-0.00010687153463292616   1.6792591988517083e-05   -0.00011252802342946727
-0.00010687153463292616   1.6792591988517083e-05   -0.00011252802342946727
-0.00014310903242619686   2.0319896836349955e-05   -0.00016856496407455202
-0.00014310903242619686   2.0319896836349955e-05   -0.00016856496407455202
-0.00014310903242619686   2.0319896836349955e-05   -0.00016856496407455202
-0.00014310903242619686   2.0319896836349955e-05   -0.00016856496407455202
-7.327433577947233e-05   1.686194069295318e-05   -5.424857668271562e-05
-7.327433577947233e-05   1.686194069295318e-05   -5.424857668271562e-05
-7.327433577947233e-05   1.686194069295318e-05   -5.424857668271562e-05
-7.327433577947233e-05   1.686194069295318e-05   -5.424857668271562e-05
-7.385756143933278e-05   2.5072375129849608e-05   -0.00016611841000315907
-7.385756143933278e-05   2.5072375129849608e-05   -0.00016611841000315907
-7.385756143933278e-05   2.5072375129849608e-05   -0.00016611841000315907
-7.385756143933278e-05   2.5072375129849608e-05   -0.00016611841000315907
-0.00014298085840426517   2.1232293916029253e-05   -4.8608866333313796e-05
-0.00014298085840426517   2.1232293916029253e-05   -4.8608866333313796e-05
-0.00014298085840426517   2.1232293916029253e-05   -4.8608866333313796e-05
-0.00014298085840426517   2.1232293916029253e-05   -4.8608866333313796e-05
-0.00010708134521182106   2.0840620706640217e-05   -0.00010820638439508522
-0.00010708134521182106   2.0840620706640217e-05   -0.00010820638439508522
-0.00010708134521182106   2.0840620706640217e-05   -0.00010820638439508522
-0.00010708134521182106   2.0840620706640217e-05   -0.00010820638439508522
-0.00014298085840426517   2.5072375129849608e-05   -0.0001638143612748671
-0.00014298085840426517   2.5072375129849608e-05   -0.0001638143612748671
-0.00014298085840426517   2.5072375129849608e-05   -0.0001638143612748671
-0.00014298085840426517   2.5072375129849608e-05   -0.0001638143612748671
-7.385756143933305e-05   2.1232293916029253e-05   -5.091291506160539e-05
-7.385756143933305e-05   2.1232293916029253e-05   -5.091291506160539e-05
-7.385756143933305e-05   2.1232293916029253e-05   -5.091291506160539e-05
-7.385756143933305e-05   2.1232293916029253e-05   -5.091291506160539e-05
-7.460734666278214e-05   3.01832629892502e-05   -0.00016571389242307387
-7.460734666278214e-05   3.01832629892502e-05   -0.00016571389242307387
-7.460734666278214e-05   3.01832629892502e-05   -0.00016571389242307387
-7.460734666278214e-05   3.01832629892502e-05   -0.00016571389242307387
-0.0001431389796247334   2.587724338165543e-05   -4.891089238859823e-05
-0.0001431389796247334   2.587724338165543e-05   -4.891089238859823e-05
-0.0001431389796247334   2.587724338165543e-05   -4.891089238859823e-05
-0.0001431389796247334   2.587724338165543e-05   -4.891089238859823e-05
-0.00010836278314569723   2.4846767025416732e-05   -0.00010625293403991381
-0.00010836278314569723   2.4846767025416732e-05   -0.00010625293403991381
-0.00010836278314569723   2.4846767025416732e-05   -0.00010625293403991381
-0.00010836278314569723   2.4846767025416732e-05   -0.00010625293403991381
-7.238198957785019e-05   -4.269280688198049e-07   -0.00018651908343680543
-7.238198957785019e-05   -4.269280688198049e-07   -0.00018651908343680543
-7.238198957785019e-05   -4.269280688198049e-07   -0.00018651908343680543
-7.238198957785019e-05   -4.269280688198049e-07   -0.00018651908343680543
-3.1566673285952336e-06   6.332313194951263e-07   -7.050745072172473e-05
-3.1566673285952336e-06   6.332313194951263e-07   -7.050745072172473e-05
-3.1566673285952336e-06   6.332313194951263e-07   -7.050745072172473e-05
-3.1566673285952336e-06   6.332313194951263e-07   -7.050745072172473e-05
-3.874326211745015e-06   4.865103903655917e-06   -0.00018479147247402086
-3.874326211745015e-06   4.865103903655917e-06   -0.00018479147247402086
-3.874326211745015e-06   4.865103903655917e-06   -0.00018479147247402086
-3.874326211745015e-06   4.865103903655917e-06   -0.00018479147247402086
-7.32743357794722e-05   5.476261754497986e-06   -6.94914845716476e-05
-7.32743357794722e-05   5.476261754497986e-06   -6.94914845716476e-05
-7.32743357794722e-05   5.476261754497986e-06   -6.94914845716476e-05
-7.32743357794722e-05   5.476261754497986e-06   -6.94914845716476e-05
-3.795872128631133e-05   3.188106473943266e-06   -0.00012697794889191617
-3.795872128631133e-05   3.188106473943266e-06   -0.00012697794889191617
-3.795872128631133e-05   3.188106473943266e-06   -0.00012697794889191617
-3.795872128631133e-05   3.188106473943266e-06   -0.00012697794889191617
-7.32743357794722e-05   4.865103903655917e-06   -0.00018515816718452636
-7.32743357794722e-05   4.865103903655917e-06   -0.00018515816718452636
-7.32743357794722e-05   4.865103903655917e-06   -0.00018515816718452636
-7.32743357794722e-05   4.865103903655917e-06   -0.00018515816718452636
-3.874326211745022e-06   5.476261754497986e-06   -6.912478986114215e-05
-3.874326211745022e-06   5.476261754497986e-06   -6.912478986114215e-05
-3.874326211745022e-06   5.476261754497986e-06   -6.912478986114215e-05
-3.874326211745022e-06   5.476261754497986e-06   -6.912478986114215e-05
-4.397493675735683e-06   1.0034887348895878e-05   -0.00018529901341266593
-4.397493675735683e-06   1.0034887348895878e-05   -0.00018529901341266593
-4.397493675735683e-06   1.0034887348895878e-05   -0.00018529901341266593
-4.397493675735683e-06   1.0034887348895878e-05   -0.00018529901341266593
-7.385756143933291e-05   1.0304503085376568e-05   -6.969400324855987e-05
-7.385756143933291e-05   1.0304503085376568e-05   -6.969400324855987e-05
-7.385756143933291e-05   1.0304503085376568e-05   -6.969400324855987e-05
-7.385756143933291e-05   1.0304503085376568e-05   -6.969400324855987e-05
-3.888114603489805e-05   7.458266289754904e-06   -0.00012628028684524378
-3.888114603489805e-05   7.458266289754904e-06   -0.00012628028684524378
-3.888114603489805e-05   7.458266289754904e-06   -0.00012628028684524378
-3.888114603489805e-05   7.458266289754904e-06   -0.00012628028684524378
-7.385756143933291e-05   1.0034887348895878e-05   -0.00018546078285455476
-7.385756143933291e-05   1.0034887348895878e-05   -0.00018546078285455476
-7.385756143933291e-05   1.0034887348895878e-05   -0.00018546078285455476
-7.385756143933291e-05   1.0034887348895878e-05   -0.00018546078285455476
-4.3974936757356895e-06   1.0304503085376785e-05   -6.953223380667061e-05
-4.3974936757356895e-06   1.0304503085376785e-05   -6.953223380667061e-05
-4.3974936757356895e-06   1.0304503085376785e-05   -6.953223380667061e-05
-4.3974936757356895e-06   1.0304503085376785e-05   -6.953223380667061e-05
-5.21196437012229e-06   1.5422391870216143e-05   -0.0001876854577119888
-5.21196437012229e-06   1.5422391870216143e-05   -0.0001876854577119888
-5.21196437012229e-06   1.5422391870216143e-05   -0.0001876854577119888
-5.21196437012229e-06   1.5422391870216143e-05   -0.0001876854577119888
-7.460734666278208e-05   1.5245369347846463e-05   -7.192027371080131e-05
-7.460734666278208e-05   1.5245369347846463e-05   -7.192027371080131e-05
-7.460734666278208e-05   1.5245369347846463e-05   -7.192027371080131e-05
-7.460734666278208e-05   1.5245369347846463e-05   -7.192027371080131e-05
-3.986033719413067e-05   1.1779116921148067e-05   -0.00012775220470253354
-3.986033719413067e-05   1.1779116921148067e-05   -0.00012775220470253354
-3.986033719413067e-05   1.1779116921148067e-05   -0.00012775220470253354
-3.986033719413067e-05   1.1779116921148067e-05   -0.00012775220470253354
-3.1566673285952404e-06   -1.4884720978769689e-05   -0.00016669541458926322
-3.1566673285952404e-06   -1.4884720978769689e-05   -0.00016669541458926322
-3.1566673285952404e-06   -1.4884720978769689e-05   -0.00016669541458926322
-3.1566673285952404e-06   -1.4884720978769689e-05   -0.00016669541458926322
6.574326302955067e-05   -1.0001157847653284e-05   -4.8932059447017416e-05
6.574326302955067e-05   -1.0001157847653284e-05   -4.8932059447017416e-05
6.574326302955067e-05   -1.0001157847653284e-05   -4.8932059447017416e-05
6.574326302955067e-05   -1.0001157847653284e-05   -4.8932059447017416e-05
6.567967671870922e-05   -1.0081292422919972e-05   -0.0001648017639699974
6.567967671870922e-05   -1.0081292422919972e-05   -0.0001648017639699974
6.567967671870922e-05   -1.0081292422919972e-05   -0.0001648017639699974
6.567967671870922e-05   -1.0081292422919972e-05   -0.0001648017639699974
-3.874326211745022e-06   -5.566793291899219e-06   -5.158712523118605e-05
-3.874326211745022e-06   -5.566793291899219e-06   -5.158712523118605e-05
-3.874326211745022e-06   -5.566793291899219e-06   -5.158712523118605e-05
-3.874326211745022e-06   -5.566793291899219e-06   -5.158712523118605e-05
3.085897204680075e-05   -9.786818272966872e-06   -0.000106943940673455
3.085897204680075e-05   -9.786818272966872e-06   -0.000106943940673455
3.085897204680075e-05   -9.786818272966872e-06   -0.000106943940673455
3.085897204680075e-05   -9.786818272966872e-06   -0.000106943940673455
-3.874326211745022e-06   -1.0081292422919972e-05   -0.0001675104634486095
-3.874326211745022e-06   -1.0081292422919972e-05   -0.0001675104634486095
-3.874326211745022e-06   -1.0081292422919972e-05   -0.0001675104634486095
-3.874326211745022e-06   -1.0081292422919972e-05   -0.0001675104634486095
6.567967671870922e-05   -5.566793291899219e-06   -4.88784257525732e-05
6.567967671870922e-05   -5.566793291899219e-06   -4.88784257525732e-05
6.567967671870922e-05   -5.566793291899219e-06   -4.88784257525732e-05
6.567967671870922e-05   -5.566793291899219e-06   -4.88784257525732e-05
6.597087651396031e-05   -5.373029791028291e-06   -0.00016917722018882123
6.597087651396031e-05   -5.373029791028291e-06   -0.00016917722018882123
6.597087651396031e-05   -5.373029791028291e-06   -0.00016917722018882123
6.597087651396031e-05   -5.373029791028291e-06   -0.00016917722018882123
-4.3974936757357e-06   -1.2052915111054018e-06   -5.439724617394891e-05
-4.3974936757357e-06   -1.2052915111054018e-06   -5.439724617394891e-05
-4.3974936757357e-06   -1.2052915111054018e-06   -5.439724617394891e-05
-4.3974936757357e-06   -1.2052915111054018e-06   -5.439724617394891e-05
2.990508621295748e-05   -5.940600228954715e-06   -0.00010872702742439363
2.990508621295748e-05   -5.940600228954715e-06   -0.00010872702742439363
2.990508621295748e-05   -5.940600228954715e-06   -0.00010872702742439363
2.990508621295748e-05   -5.940600228954715e-06   -0.00010872702742439363
-4.397493675735686e-06   -5.373029791028291e-06   -0.00017167786315677432
-4.397493675735686e-06   -5.373029791028291e-06   -0.00017167786315677432
-4.397493675735686e-06   -5.373029791028291e-06   -0.00017167786315677432
-4.397493675735686e-06   -5.373029791028291e-06   -0.00017167786315677432
6.597087651396031e-05   -1.205291511105185e-06   -5.189660320599411e-05
6.597087651396031e-05   -1.205291511105185e-06   -5.189660320599411e-05
6.597087651396031e-05   -1.205291511105185e-06   -5.189660320599411e-05
6.597087651396031e-05   -1.205291511105185e-06   -5.189660320599411e-05
6.54493733043655e-05   4.543411972786479e-07   -0.0001741220427396912
6.54493733043655e-05   4.543411972786479e-07   -0.0001741220427396912
6.54493733043655e-05   4.543411972786479e-07   -0.0001741220427396912
6.54493733043655e-05   4.543411972786479e-07   -0.0001741220427396912
-5.2119643701223e-06   3.898662930689736e-06   -5.8419739655591764e-05
-5.2119643701223e-06   3.898662930689736e-06   -5.8419739655591764e-05
-5.2119643701223e-06   3.898662930689736e-06   -5.8419739655591764e-05
-5.2119643701223e-06   3.898662930689736e-06   -5.8419739655591764e-05
2.956306702781971e-05   -1.8215139868176747e-06   -0.00011294601916832312
2.956306702781971e-05   -1.8215139868176747e-06   -0.00011294601916832312
2.956306702781971e-05   -1.8215139868176747e-06   -0.00011294601916832312
2.956306702781971e-05   -1.8215139868176747e-06   -0.00011294601916832312
6.574326302955056e-05   -2.768977170780184e-05   -9.332540539475304e-05
6.574326302955056e-05   -2.768977170780184e-05   -9.332540539475304e-05
6.574326302955056e-05   -2.768977170780184e-05   -9.332540539475304e-05
6.574326302955056e-05   -2.768977170780184e-05   -9.332540539475304e-05
0.0001303545292063627   -1.8169775025344203e-05   2.00720362427422e-05
0.0001303545292063627   -1.8169775025344203e-05   2.00720362427422e-05
0.0001303545292063627   -1.8169775025344203e-05   2.00720362427422e-05
0.0001303545292063627   -1.8169775025344203e-05   2.00720362427422e-05
0.00013470095914011138   -2.5144137923707125e-05   -0.00010510547032855486
0.00013470095914011138   -2.5144137923707125e-05   -0.00010510547032855486
0.00013470095914011138   -2.5144137923707125e-05   -0.00010510547032855486
0.00013470095914011138   -2.5144137923707125e-05   -0.00010510547032855486
6.567967671870914e-05   -1.5622086668952472e-05   4.2167696209296775e-06
6.567967671870914e-05   -1.5622086668952472e-05   4.2167696209296775e-06
6.567967671870914e-05   -1.5622086668952472e-05   4.2167696209296775e-06
6.567967671870914e-05   -1.5622086668952472e-05   4.2167696209296775e-06
9.488253590839935e-05   -2.140152232605729e-05   -4.098700096762467e-05
9.488253590839935e-05   -2.140152232605729e-05   -4.098700096762467e-05
9.488253590839935e-05   -2.140152232605729e-05   -4.098700096762467e-05
9.488253590839935e-05   -2.140152232605729e-05   -4.098700096762467e-05
6.567967671870906e-05   -2.5144137923707125e-05   -0.00011081870108140739
6.567967671870906e-05   -2.5144137923707125e-05   -0.00011081870108140739
6.567967671870906e-05   -2.5144137923707125e-05   -0.00011081870108140739
6.567967671870906e-05   -2.5144137923707125e-05   -0.00011081870108140739
0.00013470095914011138   -1.5622086668952472e-05   9.930000373782827e-06
0.00013470095914011138   -1.5622086668952472e-05   9.930000373782827e-06
0.00013470095914011138   -1.5622086668952472e-05   9.930000373782827e-06
0.00013470095914011138   -1.5622086668952472e-05   9.930000373782827e-06
0.00013803247876972749   -2.2433994598221145e-05   -0.00011857226508015089
0.00013803247876972749   -2.2433994598221145e-05   -0.00011857226508015089
0.00013803247876972749   -2.2433994598221145e-05   -0.00011857226508015089
0.00013803247876972749   -2.2433994598221145e-05   -0.00011857226508015089
6.597087651396007e-05   -1.3428335783352953e-05   -3.872989942793625e-06
6.597087651396007e-05   -1.3428335783352953e-05   -3.872989942793625e-06
6.597087651396007e-05   -1.3428335783352953e-05   -3.872989942793625e-06
6.597087651396007e-05   -1.3428335783352953e-05   -3.872989942793625e-06
9.807843788541588e-05   -1.975692554102089e-05   -5.3588438373951643e-05
9.807843788541588e-05   -1.975692554102089e-05   -5.3588438373951643e-05
9.807843788541588e-05   -1.975692554102089e-05   -5.3588438373951643e-05
9.807843788541588e-05   -1.975692554102089e-05   -5.3588438373951643e-05
6.597087651396017e-05   -2.2433994598221145e-05   -0.00012397566036907173
6.597087651396017e-05   -2.2433994598221145e-05   -0.00012397566036907173
6.597087651396017e-05   -2.2433994598221145e-05   -0.00012397566036907173
6.597087651396017e-05   -2.2433994598221145e-05   -0.00012397566036907173
0.00013803247876972716   -1.3428335783352953e-05   1.5304053461282115e-06
0.00013803247876972716   -1.3428335783352953e-05   1.5304053461282115e-06
0.00013803247876972716   -1.3428335783352953e-05   1.5304053461282115e-06
0.00013803247876972716   -1.3428335783352953e-05   1.5304053461282115e-06
0.00014157482951426397   -1.6599683300040635e-05   -0.00014146366739401555
0.00014157482951426397   -1.6599683300040635e-05   -0.00014146366739401555
0.00014157482951426397   -1.6599683300040635e-05   -0.00014146366739401555
0.00014157482951426397   -1.6599683300040635e-05   -0.00014146366739401555
6.544937330436531e-05   -8.735108145772668e-06   -1.9306652136745885e-05
6.544937330436531e-05   -8.735108145772668e-06   -1.9306652136745885e-05
6.544937330436531e-05   -8.735108145772668e-06   -1.9306652136745885e-05
6.544937330436531e-05   -8.735108145772668e-06   -1.9306652136745885e-05
9.763140135762662e-05   -1.7030590201901367e-05   -6.796607632517028e-05
9.763140135762662e-05   -1.7030590201901367e-05   -6.796607632517028e-05
9.763140135762662e-05   -1.7030590201901367e-05   -6.796607632517028e-05
9.763140135762662e-05   -1.7030590201901367e-05   -6.796607632517028e-05
-0.00015650188286002486   2.396662109111999e-05   -0.00011886506194084775
-0.00015650188286002486   2.396662109111999e-05   -0.00011886506194084775
-0.00015650188286002486   2.396662109111999e-05   -0.00011886506194084775
-0.00015650188286002486   2.396662109111999e-05   -0.00011886506194084775
-0.00010644220438316577   1.5275619586767233e-05   -4.0646865382027475e-05
-0.00010644220438316577   1.5275619586767233e-05   -4.0646865382027475e-05
-0.00010644220438316577   1.5275619586767233e-05   -4.0646865382027475e-05
-0.00010644220438316577   1.5275619586767233e-05   -4.0646865382027475e-05
-0.00010605710114178245   2.8975413792542643e-05   -0.00010097498851927489
-0.00010605710114178245   2.8975413792542643e-05   -0.00010097498851927489
-0.00010605710114178245   2.8975413792542643e-05   -0.00010097498851927489
-0.00010605710114178245   2.8975413792542643e-05   -0.00010097498851927489
-0.00015184945888649945   1.9428271507353212e-05   -1.892610690696706e-05
-0.00015184945888649945   1.9428271507353212e-05   -1.892610690696706e-05
-0.00015184945888649945   1.9428271507353212e-05   -1.892610690696706e-05
-0.00015184945888649945   1.9428271507353212e-05   -1.892610690696706e-05
-0.00012468916029401145   2.3072934996218753e-05   -6.638006932109942e-05
-0.00012468916029401145   2.3072934996218753e-05   -6.638006932109942e-05
-0.00012468916029401145   2.3072934996218753e-05   -6.638006932109942e-05
-0.00012468916029401145   2.3072934996218753e-05   -6.638006932109942e-05
-0.00015184945888649945   2.8975413792542643e-05   -9.524670314816166e-05
-0.00015184945888649945   2.8975413792542643e-05   -9.524670314816166e-05
-0.00015184945888649945   2.8975413792542643e-05   -9.524670314816166e-05
-0.00015184945888649945   2.8975413792542643e-05   -9.524670314816166e-05
-0.00010605710114178267   1.9428271507353212e-05   -2.4654392278080392e-05
-0.00010605710114178267   1.9428271507353212e-05   -2.4654392278080392e-05
-0.00010605710114178267   1.9428271507353212e-05   -2.4654392278080392e-05
-0.00010605710114178267   1.9428271507353212e-05   -2.4654392278080392e-05
-0.00010525437739152856   3.117306307940065e-05   -8.804766754024742e-05
-0.00010525437739152856   3.117306307940065e-05   -8.804766754024742e-05
-0.00010525437739152856   3.117306307940065e-05   -8.804766754024742e-05
-0.00010525437739152856   3.117306307940065e-05   -8.804766754024742e-05
-0.0001483666532461238   2.1359083201638596e-05   -1.03054865225982e-05
-0.0001483666532461238   2.1359083201638596e-05   -1.03054865225982e-05
-0.0001483666532461238   2.1359083201638596e-05   -1.03054865225982e-05
-0.0001483666532461238   2.1359083201638596e-05   -1.03054865225982e-05
-0.0001247056225404072   2.5389280335325493e-05   -5.215865597900469e-05
-0.0001247056225404072   2.5389280335325493e-05   -5.215865597900469e-05
-0.0001247056225404072   2.5389280335325493e-05   -5.215865597900469e-05
-0.0001247056225404072   2.5389280335325493e-05   -5.215865597900469e-05
-0.0001483666532461238   3.117306307940065e-05   -8.215927961358993e-05
-0.0001483666532461238   3.117306307940065e-05   -8.215927961358993e-05
-0.0001483666532461238   3.117306307940065e-05   -8.215927961358993e-05
-0.0001483666532461238   3.117306307940065e-05   -8.215927961358993e-05
-0.00010525437739152877   2.1359083201638596e-05   -1.619387444925497e-05
-0.00010525437739152877   2.1359083201638596e-05   -1.619387444925497e-05
-0.00010525437739152877   2.1359083201638596e-05   -1.619387444925497e-05
-0.00010525437739152877   2.1359083201638596e-05   -1.619387444925497e-05
-0.00010492978358862012   3.332634959005718e-05   -7.013791889813993e-05
-0.00010492978358862012   3.332634959005718e-05   -7.013791889813993e-05
-0.00010492978358862012   3.332634959005718e-05   -7.013791889813993e-05
-0.00010492978358862012   3.332634959005718e-05   -7.013791889813993e-05
-0.00014380388679505922   2.37808742454583e-05   3.795383193517729e-07
-0.00014380388679505922   2.37808742454583e-05   3.795383193517729e-07
-0.00014380388679505922   2.37808742454583e-05   3.795383193517729e-07
-0.00014380388679505922   2.37808742454583e-05   3.795383193517729e-07
-0.0001210211482041933   2.6636756338774617e-05   -3.9305221921414734e-05
-0.0001210211482041933   2.6636756338774617e-05   -3.9305221921414734e-05
-0.0001210211482041933   2.6636756338774617e-05   -3.9305221921414734e-05
-0.0001210211482041933   2.6636756338774617e-05   -3.9305221921414734e-05
-0.00010644220438316555   1.1938407878475752e-05   -0.0001512056432501146
-0.00010644220438316555   1.1938407878475752e-05   -0.0001512056432501146
-0.00010644220438316555   1.1938407878475752e-05   -0.0001512056432501146
-0.00010644220438316555   1.1938407878475752e-05   -0.0001512056432501146
-6.110487533613298e-05   7.878026666641343e-06   -7.807965689882786e-05
-6.110487533613298e-05   7.878026666641343e-06   -7.807965689882786e-05
-6.110487533613298e-05   7.878026666641343e-06   -7.807965689882786e-05
-6.110487533613298e-05   7.878026666641343e-06   -7.807965689882786e-05
-6.11334051703157e-05   1.6861940692953397e-05   -0.0001499170464393934
-6.11334051703157e-05   1.6861940692953397e-05   -0.0001499170464393934
-6.11334051703157e-05   1.6861940692953397e-05   -0.0001499170464393934
-6.11334051703157e-05   1.6861940692953397e-05   -0.0001499170464393934
-0.00010605710114178245   1.225934115826454e-05   -7.228266009946826e-05
-0.00010605710114178245   1.225934115826454e-05   -7.228266009946826e-05
-0.00010605710114178245   1.225934115826454e-05   -7.228266009946826e-05
-0.00010605710114178245   1.225934115826454e-05   -7.228266009946826e-05
-8.291382840764332e-05   1.304629282493407e-05   -0.0001113269523230361
-8.291382840764332e-05   1.304629282493407e-05   -0.0001113269523230361
-8.291382840764332e-05   1.304629282493407e-05   -0.0001113269523230361
-8.291382840764332e-05   1.304629282493407e-05   -0.0001113269523230361
-0.00010605710114178235   1.6861940692953397e-05   -0.00014715548671857923
-0.00010605710114178235   1.6861940692953397e-05   -0.00014715548671857923
-0.00010605710114178235   1.6861940692953397e-05   -0.00014715548671857923
-0.00010605710114178235   1.6861940692953397e-05   -0.00014715548671857923
-6.11334051703157e-05   1.2259341158264107e-05   -7.50442198202819e-05
-6.11334051703157e-05   1.2259341158264107e-05   -7.50442198202819e-05
-6.11334051703157e-05   1.2259341158264107e-05   -7.50442198202819e-05
-6.11334051703157e-05   1.2259341158264107e-05   -7.50442198202819e-05
-6.108643188657649e-05   2.1232293916029253e-05   -0.00014655580305172173
-6.108643188657649e-05   2.1232293916029253e-05   -0.00014655580305172173
-6.108643188657649e-05   2.1232293916029253e-05   -0.00014655580305172173
-6.108643188657649e-05   2.1232293916029253e-05   -0.00014655580305172173
-0.00010525437739152856   1.6242030165521202e-05   -6.994840229316342e-05
-0.00010525437739152856   1.6242030165521202e-05   -6.994840229316342e-05
-0.00010525437739152856   1.6242030165521202e-05   -6.994840229316342e-05
-0.00010525437739152856   1.6242030165521202e-05   -6.994840229316342e-05
-8.252551463413182e-05   1.664059847118586e-05   -0.00010806898120555562
-8.252551463413182e-05   1.664059847118586e-05   -0.00010806898120555562
-8.252551463413182e-05   1.664059847118586e-05   -0.00010806898120555562
-8.252551463413182e-05   1.664059847118586e-05   -0.00010806898120555562
-0.00010525437739152856   2.1232293916029253e-05   -0.00014356164480141707
-0.00010525437739152856   2.1232293916029253e-05   -0.00014356164480141707
-0.00010525437739152856   2.1232293916029253e-05   -0.00014356164480141707
-0.00010525437739152856   2.1232293916029253e-05   -0.00014356164480141707
-6.108643188657654e-05   1.6242030165521202e-05   -7.294256054346786e-05
-6.108643188657654e-05   1.6242030165521202e-05   -7.294256054346786e-05
-6.108643188657654e-05   1.6242030165521202e-05   -7.294256054346786e-05
-6.108643188657654e-05   1.6242030165521202e-05   -7.294256054346786e-05
-6.113267551929473e-05   2.587724338165543e-05   -0.00014714512683626675
-6.113267551929473e-05   2.587724338165543e-05   -0.00014714512683626675
-6.113267551929473e-05   2.587724338165543e-05   -0.00014714512683626675
-6.113267551929473e-05   2.587724338165543e-05   -0.00014714512683626675
-0.00010492978358862023   2.056398573585267e-05   -7.096199213324191e-05
-0.00010492978358862023   2.056398573585267e-05   -7.096199213324191e-05
-0.00010492978358862023   2.056398573585267e-05   -7.096199213324191e-05
-0.00010492978358862023   2.056398573585267e-05   -7.096199213324191e-05
-8.305803906907561e-05   2.01921797688678e-05   -0.00010719181608562526
-8.305803906907561e-05   2.01921797688678e-05   -0.00010719181608562526
-8.305803906907561e-05   2.01921797688678e-05   -0.00010719181608562526
-8.305803906907561e-05   2.01921797688678e-05   -0.00010719181608562526
-6.110487533613287e-05   6.332313194953431e-07   -0.0001668274595282304
-6.110487533613287e-05   6.332313194953431e-07   -0.0001668274595282304
-6.110487533613287e-05   6.332313194953431e-07   -0.0001668274595282304
-6.110487533613287e-05   6.332313194953431e-07   -0.0001668274595282304
-1.641545695172507e-05   1.3441575302821328e-06   -9.19185398277453e-05
-1.641545695172507e-05   1.3441575302821328e-06   -9.19185398277453e-05
-1.641545695172507e-05   1.3441575302821328e-06   -9.19185398277453e-05
-1.641545695172507e-05   1.3441575302821328e-06   -9.19185398277453e-05
-1.6444677054574813e-05   5.476261754497986e-06   -0.00016499868195301247
-1.6444677054574813e-05   5.476261754497986e-06   -0.00016499868195301247
-1.6444677054574813e-05   5.476261754497986e-06   -0.00016499868195301247
-1.6444677054574813e-05   5.476261754497986e-06   -0.00016499868195301247
-6.113340517031559e-05   5.745049046685692e-06   -9.067874080209064e-05
-6.113340517031559e-05   5.745049046685692e-06   -9.067874080209064e-05
-6.113340517031559e-05   5.745049046685692e-06   -9.067874080209064e-05
-6.113340517031559e-05   5.745049046685692e-06   -9.067874080209064e-05
-3.851799592763145e-05   3.865449328227001e-06   -0.00012724332970882218
-3.851799592763145e-05   3.865449328227001e-06   -0.00012724332970882218
-3.851799592763145e-05   3.865449328227001e-06   -0.00012724332970882218
-3.851799592763145e-05   3.865449328227001e-06   -0.00012724332970882218
-6.113340517031559e-05   5.476261754497986e-06   -0.00016515995432832514
-6.113340517031559e-05   5.476261754497986e-06   -0.00016515995432832514
-6.113340517031559e-05   5.476261754497986e-06   -0.00016515995432832514
-6.113340517031559e-05   5.476261754497986e-06   -0.00016515995432832514
-1.6444677054574813e-05   5.745049046685692e-06   -9.051746842677786e-05
-1.6444677054574813e-05   5.745049046685692e-06   -9.051746842677786e-05
-1.6444677054574813e-05   5.745049046685692e-06   -9.051746842677786e-05
-1.6444677054574813e-05   5.745049046685692e-06   -9.051746842677786e-05
-1.638454440768552e-05   1.0304503085376785e-05   -0.0001654236269680628
-1.638454440768552e-05   1.0304503085376785e-05   -0.0001654236269680628
-1.638454440768552e-05   1.0304503085376785e-05   -0.0001654236269680628
-1.638454440768552e-05   1.0304503085376785e-05   -0.0001654236269680628
-6.108643188657649e-05   1.0159943536397487e-05   -9.083374544052389e-05
-6.108643188657649e-05   1.0159943536397487e-05   -9.083374544052389e-05
-6.108643188657649e-05   1.0159943536397487e-05   -9.083374544052389e-05
-6.108643188657649e-05   1.0159943536397487e-05   -9.083374544052389e-05
-3.877417699835965e-05   7.712883579486483e-06   -0.0001265526009467386
-3.877417699835965e-05   7.712883579486483e-06   -0.0001265526009467386
-3.877417699835965e-05   7.712883579486483e-06   -0.0001265526009467386
-3.877417699835965e-05   7.712883579486483e-06   -0.0001265526009467386
-6.108643188657649e-05   1.0304503085376785e-05   -0.0001653368912386754
-6.108643188657649e-05   1.0304503085376785e-05   -0.0001653368912386754
-6.108643188657649e-05   1.0304503085376785e-05   -0.0001653368912386754
-6.108643188657649e-05   1.0304503085376785e-05   -0.0001653368912386754
-1.638454440768555e-05   1.0159943536397487e-05   -9.092048116991097e-05
-1.638454440768555e-05   1.0159943536397487e-05   -9.092048116991097e-05
-1.638454440768555e-05   1.0159943536397487e-05   -9.092048116991097e-05
-1.638454440768555e-05   1.0159943536397487e-05   -9.092048116991097e-05
-1.640957075416907e-05   1.524536934784668e-05   -0.00016792689973069608
-1.640957075416907e-05   1.524536934784668e-05   -0.00016792689973069608
-1.640957075416907e-05   1.524536934784668e-05   -0.00016792689973069608
-1.640957075416907e-05   1.524536934784668e-05   -0.00016792689973069608
-6.113267551929465e-05   1.4652030453208512e-05   -9.303238845203632e-05
-6.113267551929465e-05   1.4652030453208512e-05   -9.303238845203632e-05
-6.113267551929465e-05   1.4652030453208512e-05   -9.303238845203632e-05
-6.113267551929465e-05   1.4652030453208512e-05   -9.303238845203632e-05
-3.910591834524455e-05   1.1610809764572242e-05   -0.00012791891799560496
-3.910591834524455e-05   1.1610809764572242e-05   -0.00012791891799560496
-3.910591834524455e-05   1.1610809764572242e-05   -0.00012791891799560496
-3.910591834524455e-05   1.1610809764572242e-05   -0.00012791891799560496
-1.641545695172504e-05   -1.0001157847653284e-05   -0.00014775565040572023
-1.641545695172504e-05   -1.0001157847653284e-05   -0.00014775565040572023
-1.641545695172504e-05   -1.0001157847653284e-05   -0.00014775565040572023
-1.641545695172504e-05   -1.0001157847653284e-05   -0.00014775565040572023
2.7651145040767005e-05   -4.6347717747342865e-06   -7.109148210781603e-05
2.7651145040767005e-05   -4.6347717747342865e-06   -7.109148210781603e-05
2.7651145040767005e-05   -4.6347717747342865e-06   -7.109148210781603e-05
2.7651145040767005e-05   -4.6347717747342865e-06   -7.109148210781603e-05
2.801193565370218e-05   -5.566793291899219e-06   -0.00014441723361805956
2.801193565370218e-05   -5.566793291899219e-06   -0.00014441723361805956
2.801193565370218e-05   -5.566793291899219e-06   -0.00014441723361805956
2.801193565370218e-05   -5.566793291899219e-06   -0.00014441723361805956
-1.6444677054574813e-05   -4.938204502388452e-07   -7.33666628092611e-05
-1.6444677054574813e-05   -4.938204502388452e-07   -7.33666628092611e-05
-1.6444677054574813e-05   -4.938204502388452e-07   -7.33666628092611e-05
-1.6444677054574813e-05   -4.938204502388452e-07   -7.33666628092611e-05
5.72274298888658e-06   -4.792249463109015e-06   -0.0001077333054739745
5.72274298888658e-06   -4.792249463109015e-06   -0.0001077333054739745
5.72274298888658e-06   -4.792249463109015e-06   -0.0001077333054739745
5.72274298888658e-06   -4.792249463109015e-06   -0.0001077333054739745
-1.6444677054574813e-05   -5.566793291899219e-06   -0.00014746101732305617
-1.6444677054574813e-05   -5.566793291899219e-06   -0.00014746101732305617
-1.6444677054574813e-05   -5.566793291899219e-06   -0.00014746101732305617
-1.6444677054574813e-05   -5.566793291899219e-06   -0.00014746101732305617
2.801193565370229e-05   -4.938204502388452e-07   -7.032287910426491e-05
2.801193565370229e-05   -4.938204502388452e-07   -7.032287910426491e-05
2.801193565370229e-05   -4.938204502388452e-07   -7.032287910426491e-05
2.801193565370229e-05   -4.938204502388452e-07   -7.032287910426491e-05
2.8855360168801624e-05   -1.205291511105185e-06   -0.0001474691529548286
2.8855360168801624e-05   -1.205291511105185e-06   -0.0001474691529548286
2.8855360168801624e-05   -1.205291511105185e-06   -0.0001474691529548286
2.8855360168801624e-05   -1.205291511105185e-06   -0.0001474691529548286
-1.638454440768555e-05   3.4938524564138637e-06   -7.48887983745282e-05
-1.638454440768555e-05   3.4938524564138637e-06   -7.48887983745282e-05
-1.638454440768555e-05   3.4938524564138637e-06   -7.48887983745282e-05
-1.638454440768555e-05   3.4938524564138637e-06   -7.48887983745282e-05
5.469336248584191e-06   -1.3483629042873244e-06   -0.00010840660358522381
5.469336248584191e-06   -1.3483629042873244e-06   -0.00010840660358522381
5.469336248584191e-06   -1.3483629042873244e-06   -0.00010840660358522381
5.469336248584191e-06   -1.3483629042873244e-06   -0.00010840660358522381
-1.6384544407685535e-05   -1.2052915111054018e-06   -0.00015028863933533982
-1.6384544407685535e-05   -1.2052915111054018e-06   -0.00015028863933533982
-1.6384544407685535e-05   -1.2052915111054018e-06   -0.00015028863933533982
-1.6384544407685535e-05   -1.2052915111054018e-06   -0.00015028863933533982
2.8855360168801678e-05   3.4938524564138637e-06   -7.206931199401647e-05
2.8855360168801678e-05   3.4938524564138637e-06   -7.206931199401647e-05
2.8855360168801678e-05   3.4938524564138637e-06   -7.206931199401647e-05
2.8855360168801678e-05   3.4938524564138637e-06   -7.206931199401647e-05
2.926639191270895e-05   3.898662930689736e-06   -0.00015181813950824476
2.926639191270895e-05   3.898662930689736e-06   -0.00015181813950824476
2.926639191270895e-05   3.898662930689736e-06   -0.00015181813950824476
2.926639191270895e-05   3.898662930689736e-06   -0.00015181813950824476
-1.6409570754169043e-05   8.068684020388472e-06   -7.819354771726717e-05
-1.6409570754169043e-05   8.068684020388472e-06   -7.819354771726717e-05
-1.6409570754169043e-05   8.068684020388472e-06   -7.819354771726717e-05
-1.6409570754169043e-05   8.068684020388472e-06   -7.819354771726717e-05
5.624534708412441e-06   2.3398495770914768e-06   -0.00011147975615559132
5.624534708412441e-06   2.3398495770914768e-06   -0.00011147975615559132
5.624534708412441e-06   2.3398495770914768e-06   -0.00011147975615559132
5.624534708412441e-06   2.3398495770914768e-06   -0.00011147975615559132
2.765114504076695e-05   -1.8169775025344203e-05   -8.12437210816841e-05
2.765114504076695e-05   -1.8169775025344203e-05   -8.12437210816841e-05
2.765114504076695e-05   -1.8169775025344203e-05   -8.12437210816841e-05
2.765114504076695e-05   -1.8169775025344203e-05   -8.12437210816841e-05
6.689129188810626e-05   -8.541016342988959e-06   -1.006622112670547e-05
6.689129188810626e-05   -8.541016342988959e-06   -1.006622112670547e-05
6.689129188810626e-05   -8.541016342988959e-06   -1.006622112670547e-05
6.689129188810626e-05   -8.541016342988959e-06   -1.006622112670547e-05
7.151545797724485e-05   -1.5622086668952472e-05   -8.539384153011188e-05
7.151545797724485e-05   -1.5622086668952472e-05   -8.539384153011188e-05
7.151545797724485e-05   -1.5622086668952472e-05   -8.539384153011188e-05
7.151545797724485e-05   -1.5622086668952472e-05   -8.539384153011188e-05
2.8011935653702235e-05   -5.741758811544494e-06   -1.8816167705318983e-05
2.8011935653702235e-05   -5.741758811544494e-06   -1.8816167705318983e-05
2.8011935653702235e-05   -5.741758811544494e-06   -1.8816167705318983e-05
2.8011935653702235e-05   -5.741758811544494e-06   -1.8816167705318983e-05
4.6448734454869304e-05   -1.1647233848236394e-05   -4.600088068524894e-05
4.6448734454869304e-05   -1.1647233848236394e-05   -4.600088068524894e-05
4.6448734454869304e-05   -1.1647233848236394e-05   -4.600088068524894e-05
4.6448734454869304e-05   -1.1647233848236394e-05   -4.600088068524894e-05
2.801193565370218e-05   -1.5622086668952472e-05   -9.132203824455598e-05
2.801193565370218e-05   -1.5622086668952472e-05   -9.132203824455598e-05
2.801193565370218e-05   -1.5622086668952472e-05   -9.132203824455598e-05
2.801193565370218e-05   -1.5622086668952472e-05   -9.132203824455598e-05
7.151545797724453e-05   -5.741758811544494e-06   -1.2887970990874131e-05
7.151545797724453e-05   -5.741758811544494e-06   -1.2887970990874131e-05
7.151545797724453e-05   -5.741758811544494e-06   -1.2887970990874131e-05
7.151545797724453e-05   -5.741758811544494e-06   -1.2887970990874131e-05
7.507038405953309e-05   -1.342833578335317e-05   -9.367114240006118e-05
7.507038405953309e-05   -1.342833578335317e-05   -9.367114240006118e-05
7.507038405953309e-05   -1.342833578335317e-05   -9.367114240006118e-05
7.507038405953309e-05   -1.342833578335317e-05   -9.367114240006118e-05
2.8855360168801678e-05   -3.804340297409222e-06   -2.2420499873742e-05
2.8855360168801678e-05   -3.804340297409222e-06   -2.2420499873742e-05
2.8855360168801678e-05   -3.804340297409222e-06   -2.2420499873742e-05
2.8855360168801678e-05   -3.804340297409222e-06   -2.2420499873742e-05
4.928367991499752e-05   -1.021202040679594e-05   -5.262309138510273e-05
4.928367991499752e-05   -1.021202040679594e-05   -5.262309138510273e-05
4.928367991499752e-05   -1.021202040679594e-05   -5.262309138510273e-05
4.928367991499752e-05   -1.021202040679594e-05   -5.262309138510273e-05
2.8855360168801678e-05   -1.3428335783352953e-05   -9.944553969162741e-05
2.8855360168801678e-05   -1.3428335783352953e-05   -9.944553969162741e-05
2.8855360168801678e-05   -1.3428335783352953e-05   -9.944553969162741e-05
2.8855360168801678e-05   -1.3428335783352953e-05   -9.944553969162741e-05
7.507038405953276e-05   -3.804340297409222e-06   -1.6646102582175328e-05
7.507038405953276e-05   -3.804340297409222e-06   -1.6646102582175328e-05
7.507038405953276e-05   -3.804340297409222e-06   -1.6646102582175328e-05
7.507038405953276e-05   -3.804340297409222e-06   -1.6646102582175328e-05
7.978850139453604e-05   -8.735108145772668e-06   -0.00010952240737275817
7.978850139453604e-05   -8.735108145772668e-06   -0.00010952240737275817
7.978850139453604e-05   -8.735108145772668e-06   -0.00010952240737275817
7.978850139453604e-05   -8.735108145772668e-06   -0.00010952240737275817
2.9266391912709006e-05   1.3621282040233301e-08   -3.056812922640033e-05
2.9266391912709006e-05   1.3621282040233301e-08   -3.056812922640033e-05
2.9266391912709006e-05   1.3621282040233301e-08   -3.056812922640033e-05
2.9266391912709006e-05   1.3621282040233301e-08   -3.056812922640033e-05
5.021240610224905e-05   -8.063765367116466e-06   -6.063172088613996e-05
5.021240610224905e-05   -8.063765367116466e-06   -6.063172088613996e-05
5.021240610224905e-05   -8.063765367116466e-06   -6.063172088613996e-05
5.021240610224905e-05   -8.063765367116466e-06   -6.063172088613996e-05
-9.500257566721611e-05   1.52756195867668e-05   -8.885486593388295e-05
-9.500257566721611e-05   1.52756195867668e-05   -8.885486593388295e-05
-9.500257566721611e-05   1.52756195867668e-05   -8.885486593388295e-05
-9.500257566721611e-05   1.52756195867668e-05   -8.885486593388295e-05
-6.999591255326591e-05   6.249188882643739e-06   -5.259295249977346e-05
-6.999591255326591e-05   6.249188882643739e-06   -5.259295249977346e-05
-6.999591255326591e-05   6.249188882643739e-06   -5.259295249977346e-05
-6.999591255326591e-05   6.249188882643739e-06   -5.259295249977346e-05
-6.89579837862929e-05   1.9428271507353212e-05   -7.838507079472538e-05
-6.89579837862929e-05   1.9428271507353212e-05   -7.838507079472538e-05
-6.89579837862929e-05   1.9428271507353212e-05   -7.838507079472538e-05
-6.89579837862929e-05   1.9428271507353212e-05   -7.838507079472538e-05
-8.985916099930457e-05   9.710062088944676e-06   -3.7718849788659966e-05
-8.985916099930457e-05   9.710062088944676e-06   -3.7718849788659966e-05
-8.985916099930457e-05   9.710062088944676e-06   -3.7718849788659966e-05
-8.985916099930457e-05   9.710062088944676e-06   -3.7718849788659966e-05
-7.752360838593356e-05   1.3697132216296953e-05   -6.0670346220693255e-05
-7.752360838593356e-05   1.3697132216296953e-05   -6.0670346220693255e-05
-7.752360838593356e-05   1.3697132216296953e-05   -6.0670346220693255e-05
-7.752360838593356e-05   1.3697132216296953e-05   -6.0670346220693255e-05
-8.985916099930457e-05   1.9428271507353212e-05   -7.255414514368034e-05
-8.985916099930457e-05   1.9428271507353212e-05   -7.255414514368034e-05
-8.985916099930457e-05   1.9428271507353212e-05   -7.255414514368034e-05
-8.985916099930457e-05   1.9428271507353212e-05   -7.255414514368034e-05
-6.895798378629301e-05   9.71006208894511e-06   -4.354977543970522e-05
-6.895798378629301e-05   9.71006208894511e-06   -4.354977543970522e-05
-6.895798378629301e-05   9.71006208894511e-06   -4.354977543970522e-05
-6.895798378629301e-05   9.71006208894511e-06   -4.354977543970522e-05
-6.747920579655412e-05   2.1359083201638596e-05   -6.999717453706972e-05
-6.747920579655412e-05   2.1359083201638596e-05   -6.999717453706972e-05
-6.747920579655412e-05   2.1359083201638596e-05   -6.999717453706972e-05
-6.747920579655412e-05   2.1359083201638596e-05   -6.999717453706972e-05
-8.574889343989452e-05   1.1453963229018493e-05   -3.360462314792954e-05
-8.574889343989452e-05   1.1453963229018493e-05   -3.360462314792954e-05
-8.574889343989452e-05   1.1453963229018493e-05   -3.360462314792954e-05
-8.574889343989452e-05   1.1453963229018493e-05   -3.360462314792954e-05
-7.616292874438344e-05   1.5562667711265833e-05   -5.204645366313032e-05
-7.616292874438344e-05   1.5562667711265833e-05   -5.204645366313032e-05
-7.616292874438344e-05   1.5562667711265833e-05   -5.204645366313032e-05
-7.616292874438344e-05   1.5562667711265833e-05   -5.204645366313032e-05
-8.574889343989452e-05   2.1359083201638596e-05   -6.40541025534974e-05
-8.574889343989452e-05   2.1359083201638596e-05   -6.40541025534974e-05
-8.574889343989452e-05   2.1359083201638596e-05   -6.40541025534974e-05
-8.574889343989452e-05   2.1359083201638596e-05   -6.40541025534974e-05
-6.747920579655423e-05   1.1453963229018493e-05   -3.954769513150175e-05
-6.747920579655423e-05   1.1453963229018493e-05   -3.954769513150175e-05
-6.747920579655423e-05   1.1453963229018493e-05   -3.954769513150175e-05
-6.747920579655423e-05   1.1453963229018493e-05   -3.954769513150175e-05
-6.646495138182414e-05   2.37808742454583e-05   -5.9226465182483576e-05
-6.646495138182414e-05   2.37808742454583e-05   -5.9226465182483576e-05
-6.646495138182414e-05   2.37808742454583e-05   -5.9226465182483576e-05
-6.646495138182414e-05   2.37808742454583e-05   -5.9226465182483576e-05
-8.051321523431555e-05   1.4214067529745057e-05   -3.0072608065568728e-05
-8.051321523431555e-05   1.4214067529745057e-05   -3.0072608065568728e-05
-8.051321523431555e-05   1.4214067529745057e-05   -3.0072608065568728e-05
-8.051321523431555e-05   1.4214067529745057e-05   -3.0072608065568728e-05
-7.259893852175879e-05   1.6848610174112922e-05   -4.484379483978614e-05
-7.259893852175879e-05   1.6848610174112922e-05   -4.484379483978614e-05
-7.259893852175879e-05   1.6848610174112922e-05   -4.484379483978614e-05
-7.259893852175879e-05   1.6848610174112922e-05   -4.484379483978614e-05
-6.999591255326591e-05   7.878026666641343e-06   -0.00012926728714605647
-6.999591255326591e-05   7.878026666641343e-06   -0.00012926728714605647
-6.999591255326591e-05   7.878026666641343e-06   -0.00012926728714605647
-6.999591255326591e-05   7.878026666641343e-06   -0.00012926728714605647
-4.969620338374003e-05   3.5623749210398833e-06   -9.802382957754124e-05
-4.969620338374003e-05   3.5623749210398833e-06   -9.802382957754124e-05
-4.969620338374003e-05   3.5623749210398833e-06   -9.802382957754124e-05
-4.969620338374003e-05   3.5623749210398833e-06   -9.802382957754124e-05
-4.9010815027198014e-05   1.2259341158264107e-05   -0.0001288520034768404
-4.9010815027198014e-05   1.2259341158264107e-05   -0.0001288520034768404
-4.9010815027198014e-05   1.2259341158264107e-05   -0.0001288520034768404
-4.9010815027198014e-05   1.2259341158264107e-05   -0.0001288520034768404
-6.895798378629301e-05   7.528233057052525e-06   -9.276805735095386e-05
-6.895798378629301e-05   7.528233057052525e-06   -9.276805735095386e-05
-6.895798378629301e-05   7.528233057052525e-06   -9.276805735095386e-05
-6.895798378629301e-05   7.528233057052525e-06   -9.276805735095386e-05
-5.883620395891751e-05   8.561531883145845e-06   -0.00011025766969223894
-5.883620395891751e-05   8.561531883145845e-06   -0.00011025766969223894
-5.883620395891751e-05   8.561531883145845e-06   -0.00011025766969223894
-5.883620395891751e-05   8.561531883145845e-06   -0.00011025766969223894
-6.89579837862928e-05   1.2259341158264107e-05   -0.0001260133386161125
-6.89579837862928e-05   1.2259341158264107e-05   -0.0001260133386161125
-6.89579837862928e-05   1.2259341158264107e-05   -0.0001260133386161125
-6.89579837862928e-05   1.2259341158264107e-05   -0.0001260133386161125
-4.9010815027198014e-05   7.528233057052525e-06   -9.560672221168155e-05
-4.9010815027198014e-05   7.528233057052525e-06   -9.560672221168155e-05
-4.9010815027198014e-05   7.528233057052525e-06   -9.560672221168155e-05
-4.9010815027198014e-05   7.528233057052525e-06   -9.560672221168155e-05
-4.825465778339439e-05   1.6242030165521202e-05   -0.00012676977719690112
-4.825465778339439e-05   1.6242030165521202e-05   -0.00012676977719690112
-4.825465778339439e-05   1.6242030165521202e-05   -0.00012676977719690112
-4.825465778339439e-05   1.6242030165521202e-05   -0.00012676977719690112
-6.747920579655434e-05   1.1211905472314869e-05   -9.171078902571028e-05
-6.747920579655434e-05   1.1211905472314869e-05   -9.171078902571028e-05
-6.747920579655434e-05   1.1211905472314869e-05   -9.171078902571028e-05
-6.747920579655434e-05   1.1211905472314869e-05   -9.171078902571028e-05
-5.793794413805345e-05   1.1763718381263902e-05   -0.00010794397953524674
-5.793794413805345e-05   1.1763718381263902e-05   -0.00010794397953524674
-5.793794413805345e-05   1.1763718381263902e-05   -0.00010794397953524674
-5.793794413805345e-05   1.1763718381263902e-05   -0.00010794397953524674
-6.747920579655412e-05   1.6242030165520768e-05   -0.00012375170238097702
-6.747920579655412e-05   1.6242030165520768e-05   -0.00012375170238097702
-6.747920579655412e-05   1.6242030165520768e-05   -0.00012375170238097702
-6.747920579655412e-05   1.6242030165520768e-05   -0.00012375170238097702
-4.825465778339423e-05   1.1211905472314869e-05   -9.472886384163373e-05
-4.825465778339423e-05   1.1211905472314869e-05   -9.472886384163373e-05
-4.825465778339423e-05   1.1211905472314869e-05   -9.472886384163373e-05
-4.825465778339423e-05   1.1211905472314869e-05   -9.472886384163373e-05
-4.757993819098596e-05   2.056398573585267e-05   -0.00012799836407206182
-4.757993819098596e-05   2.056398573585267e-05   -0.00012799836407206182
-4.757993819098596e-05   2.056398573585267e-05   -0.00012799836407206182
-4.757993819098596e-05   2.056398573585267e-05   -0.00012799836407206182
-6.646495138182436e-05   1.530122966294633e-05   -9.336568844358641e-05
-6.646495138182436e-05   1.530122966294633e-05   -9.336568844358641e-05
-6.646495138182436e-05   1.530122966294633e-05   -9.336568844358641e-05
-6.646495138182436e-05   1.530122966294633e-05   -9.336568844358641e-05
-5.757950332524743e-05   1.5002821351107858e-05   -0.00010799572355077978
-5.757950332524743e-05   1.5002821351107858e-05   -0.00010799572355077978
-5.757950332524743e-05   1.5002821351107858e-05   -0.00010799572355077978
-5.757950332524743e-05   1.5002821351107858e-05   -0.00010799572355077978
-4.9696203383739924e-05   1.3441575302821328e-06   -0.0001461221168488076
-4.9696203383739924e-05   1.3441575302821328e-06   -0.0001461221168488076
-4.9696203383739924e-05   1.3441575302821328e-06   -0.0001461221168488076
-4.9696203383739924e-05   1.3441575302821328e-06   -0.0001461221168488076
-2.993085529795201e-05   2.0248363905867733e-06   -0.00011277146272297865
-2.993085529795201e-05   2.0248363905867733e-06   -0.00011277146272297865
-2.993085529795201e-05   2.0248363905867733e-06   -0.00011277146272297865
-2.993085529795201e-05   2.0248363905867733e-06   -0.00011277146272297865
-2.9261511718594964e-05   5.745049046685692e-06   -0.00014429773478412573
-2.9261511718594964e-05   5.745049046685692e-06   -0.00014429773478412573
-2.9261511718594964e-05   5.745049046685692e-06   -0.00014429773478412573
-2.9261511718594964e-05   5.745049046685692e-06   -0.00014429773478412573
-4.9010815027198014e-05   6.059698504225046e-06   -0.00011157101894430953
-4.9010815027198014e-05   6.059698504225046e-06   -0.00011157101894430953
-4.9010815027198014e-05   6.059698504225046e-06   -0.00011157101894430953
-4.9010815027198014e-05   6.059698504225046e-06   -0.00011157101894430953
-3.922242241777864e-05   4.352601860747873e-06   -0.0001268607486405917
-3.922242241777864e-05   4.352601860747873e-06   -0.0001268607486405917
-3.922242241777864e-05   4.352601860747873e-06   -0.0001268607486405917
-3.922242241777864e-05   4.352601860747873e-06   -0.0001268607486405917
-4.9010815027197905e-05   5.745049046685692e-06   -0.0001444865244586489
-4.9010815027197905e-05   5.745049046685692e-06   -0.0001444865244586489
-4.9010815027197905e-05   5.745049046685692e-06   -0.0001444865244586489
-4.9010815027197905e-05   5.745049046685692e-06   -0.0001444865244586489
-2.9261511718594964e-05   6.05969850422548e-06   -0.00011138222926978668
-2.9261511718594964e-05   6.05969850422548e-06   -0.00011138222926978668
-2.9261511718594964e-05   6.05969850422548e-06   -0.00011138222926978668
-2.9261511718594964e-05   6.05969850422548e-06   -0.00011138222926978668
-2.851093783153445e-05   1.0159943536397487e-05   -0.00014467886163936237
-2.851093783153445e-05   1.0159943536397487e-05   -0.00014467886163936237
-2.851093783153445e-05   1.0159943536397487e-05   -0.00014467886163936237
-2.851093783153445e-05   1.0159943536397487e-05   -0.00014467886163936237
-4.825465778339423e-05   1.0130110960721635e-05   -0.00011175476217419001
-4.825465778339423e-05   1.0130110960721635e-05   -0.00011175476217419001
-4.825465778339423e-05   1.0130110960721635e-05   -0.00011175476217419001
-4.825465778339423e-05   1.0130110960721635e-05   -0.00011175476217419001
-3.8769498957150236e-05   7.816166773680702e-06   -0.00012617499370570545
-3.8769498957150236e-05   7.816166773680702e-06   -0.00012617499370570545
-3.8769498957150236e-05   7.816166773680702e-06   -0.00012617499370570545
-3.8769498957150236e-05   7.816166773680702e-06   -0.00012617499370570545
-4.8254657783394176e-05   1.0159943536397487e-05   -0.0001446609620939566
-4.8254657783394176e-05   1.0159943536397487e-05   -0.0001446609620939566
-4.8254657783394176e-05   1.0159943536397487e-05   -0.0001446609620939566
-4.8254657783394176e-05   1.0159943536397487e-05   -0.0001446609620939566
-2.85109378315345e-05   1.0130110960721635e-05   -0.00011177266171959578
-2.85109378315345e-05   1.0130110960721635e-05   -0.00011177266171959578
-2.85109378315345e-05   1.0130110960721635e-05   -0.00011177266171959578
-2.85109378315345e-05   1.0130110960721635e-05   -0.00011177266171959578
-2.7835887339483145e-05   1.4652030453208512e-05   -0.000147114993944522
-2.7835887339483145e-05   1.4652030453208512e-05   -0.000147114993944522
-2.7835887339483145e-05   1.4652030453208512e-05   -0.000147114993944522
-2.7835887339483145e-05   1.4652030453208512e-05   -0.000147114993944522
-4.757993819098607e-05   1.4261716884630005e-05   -0.00011397405438420241
-4.757993819098607e-05   1.4261716884630005e-05   -0.00011397405438420241
-4.757993819098607e-05   1.4261716884630005e-05   -0.00011397405438420241
-4.757993819098607e-05   1.4261716884630005e-05   -0.00011397405438420241
-3.839258094319311e-05   1.132570595753805e-05   -0.00012752470990760314
-3.839258094319311e-05   1.132570595753805e-05   -0.00012752470990760314
-3.839258094319311e-05   1.132570595753805e-05   -0.00012752470990760314
-3.839258094319311e-05   1.132570595753805e-05   -0.00012752470990760314
-2.9930855297951908e-05   -4.6347717747342865e-06   -0.00012810648345644654
-2.9930855297951908e-05   -4.6347717747342865e-06   -0.00012810648345644654
-2.9930855297951908e-05   -4.6347717747342865e-06   -0.00012810648345644654
-2.9930855297951908e-05   -4.6347717747342865e-06   -0.00012810648345644654
-1.0731772958607266e-05   8.352673057459258e-07   -9.282598944258423e-05
-1.0731772958607266e-05   8.352673057459258e-07   -9.282598944258423e-05
-1.0731772958607266e-05   8.352673057459258e-07   -9.282598944258423e-05
-1.0731772958607266e-05   8.352673057459258e-07   -9.282598944258423e-05
-9.737640953111663e-06   -4.938204502384115e-07   -0.00012400648096859098
-9.737640953111663e-06   -4.938204502384115e-07   -0.00012400648096859098
-9.737640953111663e-06   -4.938204502384115e-07   -0.00012400648096859098
-9.737640953111663e-06   -4.938204502384115e-07   -0.00012400648096859098
-2.9261511718594913e-05   4.74025987979047e-06   -9.46071445574686e-05
-2.9261511718594913e-05   4.74025987979047e-06   -9.46071445574686e-05
-2.9261511718594913e-05   4.74025987979047e-06   -9.46071445574686e-05
-2.9261511718594913e-05   4.74025987979047e-06   -9.46071445574686e-05
-1.97147391297413e-05   5.204031946395155e-07   -0.00010798651819446956
-1.97147391297413e-05   5.204031946395155e-07   -0.00010798651819446956
-1.97147391297413e-05   5.204031946395155e-07   -0.00010798651819446956
-1.97147391297413e-05   5.204031946395155e-07   -0.00010798651819446956
-2.9261511718594862e-05   -4.938204502388452e-07   -0.0001271469291666083
-2.9261511718594862e-05   -4.938204502388452e-07   -0.0001271469291666083
-2.9261511718594862e-05   -4.938204502388452e-07   -0.0001271469291666083
-2.9261511718594862e-05   -4.938204502388452e-07   -0.0001271469291666083
-9.737640953111663e-06   4.74025987979047e-06   -9.146669635945199e-05
-9.737640953111663e-06   4.74025987979047e-06   -9.146669635945199e-05
-9.737640953111663e-06   4.74025987979047e-06   -9.146669635945199e-05
-9.737640953111663e-06   4.74025987979047e-06   -9.146669635945199e-05
-8.271313253340059e-06   3.4938524564142974e-06   -0.00012568936926646442
-8.271313253340059e-06   3.4938524564142974e-06   -0.00012568936926646442
-8.271313253340059e-06   3.4938524564142974e-06   -0.00012568936926646442
-8.271313253340059e-06   3.4938524564142974e-06   -0.00012568936926646442
-2.851093783153445e-05   8.423535085604755e-06   -9.491447121365485e-05
-2.851093783153445e-05   8.423535085604755e-06   -9.491447121365485e-05
-2.851093783153445e-05   8.423535085604755e-06   -9.491447121365485e-05
-2.851093783153445e-05   8.423535085604755e-06   -9.491447121365485e-05
-1.911077186039164e-05   3.671203071052391e-06   -0.00010773001529016139
-1.911077186039164e-05   3.671203071052391e-06   -0.00010773001529016139
-1.911077186039164e-05   3.671203071052391e-06   -0.00010773001529016139
-1.911077186039164e-05   3.671203071052391e-06   -0.00010773001529016139
-2.8510937831534375e-05   3.4938524564142974e-06   -0.00012864717884397865
-2.8510937831534375e-05   3.4938524564142974e-06   -0.00012864717884397865
-2.8510937831534375e-05   3.4938524564142974e-06   -0.00012864717884397865
-2.8510937831534375e-05   3.4938524564142974e-06   -0.00012864717884397865
-8.271313253340059e-06   8.423535085604755e-06   -9.195666163614022e-05
-8.271313253340059e-06   8.423535085604755e-06   -9.195666163614022e-05
-8.271313253340059e-06   8.423535085604755e-06   -9.195666163614022e-05
-8.271313253340059e-06   8.423535085604755e-06   -9.195666163614022e-05
-7.245883371783399e-06   8.068684020388472e-06   -0.00012920575247063536
-7.245883371783399e-06   8.068684020388472e-06   -0.00012920575247063536
-7.245883371783399e-06   8.068684020388472e-06   -0.00012920575247063536
-7.245883371783399e-06   8.068684020388472e-06   -0.00012920575247063536
-2.7835887339483145e-05   1.2592679690945092e-05   -9.760347659346907e-05
-2.7835887339483145e-05   1.2592679690945092e-05   -9.760347659346907e-05
-2.7835887339483145e-05   1.2592679690945092e-05   -9.760347659346907e-05
-2.7835887339483145e-05   1.2592679690945092e-05   -9.760347659346907e-05
-1.8476770600562803e-05   6.977901324252238e-06   -0.00010983313747165455
-1.8476770600562803e-05   6.977901324252238e-06   -0.00010983313747165455
-1.8476770600562803e-05   6.977901324252238e-06   -0.00010983313747165455
-1.8476770600562803e-05   6.977901324252238e-06   -0.00010983313747165455
-1.0731772958607212e-05   -8.541016342988959e-06   -6.957645423646117e-05
-1.0731772958607212e-05   -8.541016342988959e-06   -6.957645423646117e-05
-1.0731772958607212e-05   -8.541016342988959e-06   -6.957645423646117e-05
-1.0731772958607212e-05   -8.541016342988959e-06   -6.957645423646117e-05
3.593102047792069e-06   1.1244693027242028e-06   -3.990237117170109e-05
3.593102047792069e-06   1.1244693027242028e-06   -3.990237117170109e-05
3.593102047792069e-06   1.1244693027242028e-06   -3.990237117170109e-05
3.593102047792069e-06   1.1244693027242028e-06   -3.990237117170109e-05
8.775900845489062e-06   -5.741758811544494e-06   -6.65307289292481e-05
8.775900845489062e-06   -5.741758811544494e-06   -6.65307289292481e-05
8.775900845489062e-06   -5.741758811544494e-06   -6.65307289292481e-05
8.775900845489062e-06   -5.741758811544494e-06   -6.65307289292481e-05
-9.737640953111663e-06   4.206642255784668e-06   -4.1643866571976565e-05
-9.737640953111663e-06   4.206642255784668e-06   -4.1643866571976565e-05
-9.737640953111663e-06   4.206642255784668e-06   -4.1643866571976565e-05
-9.737640953111663e-06   4.206642255784668e-06   -4.1643866571976565e-05
-1.9808153725941005e-06   -1.8175072767170376e-06   -5.09574194866735e-05
-1.9808153725941005e-06   -1.8175072767170376e-06   -5.09574194866735e-05
-1.9808153725941005e-06   -1.8175072767170376e-06   -5.09574194866735e-05
-1.9808153725941005e-06   -1.8175072767170376e-06   -5.09574194866735e-05
-9.737640953111609e-06   -5.741758811544494e-06   -7.24997695696443e-05
-9.737640953111609e-06   -5.741758811544494e-06   -7.24997695696443e-05
-9.737640953111609e-06   -5.741758811544494e-06   -7.24997695696443e-05
-9.737640953111609e-06   -5.741758811544494e-06   -7.24997695696443e-05
8.775900845489062e-06   4.206642255784668e-06   -3.56748259315795e-05
8.775900845489062e-06   4.206642255784668e-06   -3.56748259315795e-05
8.775900845489062e-06   4.206642255784668e-06   -3.56748259315795e-05
8.775900845489062e-06   4.206642255784668e-06   -3.56748259315795e-05
1.2866769498344867e-05   -3.8043402974087884e-06   -7.019257767637913e-05
1.2866769498344867e-05   -3.8043402974087884e-06   -7.019257767637913e-05
1.2866769498344867e-05   -3.8043402974087884e-06   -7.019257767637913e-05
1.2866769498344867e-05   -3.8043402974087884e-06   -7.019257767637913e-05
-8.271313253340059e-06   5.942292152275996e-06   -4.081041922671439e-05
-8.271313253340059e-06   5.942292152275996e-06   -4.081041922671439e-05
-8.271313253340059e-06   5.942292152275996e-06   -4.081041922671439e-05
-8.271313253340059e-06   5.942292152275996e-06   -4.081041922671439e-05
6.628351145909663e-07   -3.455864266842419e-07   -5.1927939359223334e-05
6.628351145909663e-07   -3.455864266842419e-07   -5.1927939359223334e-05
6.628351145909663e-07   -3.455864266842419e-07   -5.1927939359223334e-05
6.628351145909663e-07   -3.455864266842419e-07   -5.1927939359223334e-05
-8.271313253340059e-06   -3.804340297409222e-06   -7.604055714618952e-05
-8.271313253340059e-06   -3.804340297409222e-06   -7.604055714618952e-05
-8.271313253340059e-06   -3.804340297409222e-06   -7.604055714618952e-05
-8.271313253340059e-06   -3.804340297409222e-06   -7.604055714618952e-05
1.2866769498344867e-05   5.942292152275996e-06   -3.496243975690356e-05
1.2866769498344867e-05   5.942292152275996e-06   -3.496243975690356e-05
1.2866769498344867e-05   5.942292152275996e-06   -3.496243975690356e-05
1.2866769498344867e-05   5.942292152275996e-06   -3.496243975690356e-05
1.801973703030818e-05   1.3621282040233301e-08   -7.867209071548472e-05
1.801973703030818e-05   1.3621282040233301e-08   -7.867209071548472e-05
1.801973703030818e-05   1.3621282040233301e-08   -7.867209071548472e-05
1.801973703030818e-05   1.3621282040233301e-08   -7.867209071548472e-05
-7.245883371783399e-06   9.030714478879855e-06   -4.1972979296768065e-05
-7.245883371783399e-06   9.030714478879855e-06   -4.1972979296768065e-05
-7.245883371783399e-06   9.030714478879855e-06   -4.1972979296768065e-05
-7.245883371783399e-06   9.030714478879855e-06   -4.1972979296768065e-05
2.9182300046120375e-06   1.3449788619909406e-06   -5.430172688729491e-05
2.9182300046120375e-06   1.3449788619909406e-06   -5.430172688729491e-05
2.9182300046120375e-06   1.3449788619909406e-06   -5.430172688729491e-05
2.9182300046120375e-06   1.3449788619909406e-06   -5.430172688729491e-05
-3.337570461458888e-05   6.249188882643739e-06   -5.9439944969844234e-05
-3.337570461458888e-05   6.249188882643739e-06   -5.9439944969844234e-05
-3.337570461458888e-05   6.249188882643739e-06   -5.9439944969844234e-05
-3.337570461458888e-05   6.249188882643739e-06   -5.9439944969844234e-05
-3.355586102294717e-05   -2.8656011449475216e-06   -6.520907966699597e-05
-3.355586102294717e-05   -2.8656011449475216e-06   -6.520907966699597e-05
-3.355586102294717e-05   -2.8656011449475216e-06   -6.520907966699597e-05
-3.355586102294717e-05   -2.8656011449475216e-06   -6.520907966699597e-05
-3.185947656453975e-05   9.710062088944676e-06   -5.584155857579244e-05
-3.185947656453975e-05   9.710062088944676e-06   -5.584155857579244e-05
-3.185947656453975e-05   9.710062088944676e-06   -5.584155857579244e-05
-3.185947656453975e-05   9.710062088944676e-06   -5.584155857579244e-05
-2.7592339383558043e-05   -6.061208048316336e-08   -5.709104937577148e-05
-2.7592339383558043e-05   -6.061208048316336e-08   -5.709104937577148e-05
-2.7592339383558043e-05   -6.061208048316336e-08   -5.709104937577148e-05
-2.7592339383558043e-05   -6.061208048316336e-08   -5.709104937577148e-05
-3.0213662199212636e-05   4.30070195208028e-06   -5.533896643588774e-05
-3.0213662199212636e-05   4.30070195208028e-06   -5.533896643588774e-05
-3.0213662199212636e-05   4.30070195208028e-06   -5.533896643588774e-05
-3.0213662199212636e-05   4.30070195208028e-06   -5.533896643588774e-05
-2.7592339383558043e-05   9.710062088944676e-06   -4.997915407413574e-05
-2.7592339383558043e-05   9.710062088944676e-06   -4.997915407413574e-05
-2.7592339383558043e-05   9.710062088944676e-06   -4.997915407413574e-05
-2.7592339383558043e-05   9.710062088944676e-06   -4.997915407413574e-05
-3.185947656453986e-05   -6.061208048316336e-08   -6.295345387742884e-05
-3.185947656453986e-05   -6.061208048316336e-08   -6.295345387742884e-05
-3.185947656453986e-05   -6.061208048316336e-08   -6.295345387742884e-05
-3.185947656453986e-05   -6.061208048316336e-08   -6.295345387742884e-05
-2.972282699084108e-05   1.1453963229018493e-05   -5.1823836287751175e-05
-2.972282699084108e-05   1.1453963229018493e-05   -5.1823836287751175e-05
-2.972282699084108e-05   1.1453963229018493e-05   -5.1823836287751175e-05
-2.972282699084108e-05   1.1453963229018493e-05   -5.1823836287751175e-05
-2.280071569507082e-05   1.520707013699836e-06   -5.740073471817691e-05
-2.280071569507082e-05   1.520707013699836e-06   -5.740073471817691e-05
-2.280071569507082e-05   1.520707013699836e-06   -5.740073471817691e-05
-2.280071569507082e-05   1.520707013699836e-06   -5.740073471817691e-05
-2.7467073318489287e-05   5.7378056234382024e-06   -5.2153731178324145e-05
-2.7467073318489287e-05   5.7378056234382024e-06   -5.2153731178324145e-05
-2.7467073318489287e-05   5.7378056234382024e-06   -5.2153731178324145e-05
-2.7467073318489287e-05   5.7378056234382024e-06   -5.2153731178324145e-05
-2.280071569507082e-05   1.1453963229018493e-05   -4.5863882558560675e-05
-2.280071569507082e-05   1.1453963229018493e-05   -4.5863882558560675e-05
-2.280071569507082e-05   1.1453963229018493e-05   -4.5863882558560675e-05
-2.280071569507082e-05   1.1453963229018493e-05   -4.5863882558560675e-05
-2.972282699084119e-05   1.5207070137007034e-06   -6.336068844736763e-05
-2.972282699084119e-05   1.5207070137007034e-06   -6.336068844736763e-05
-2.972282699084119e-05   1.5207070137007034e-06   -6.336068844736763e-05
-2.972282699084119e-05   1.5207070137007034e-06   -6.336068844736763e-05
-2.8048794544105124e-05   1.4214067529745057e-05   -4.807732863395739e-05
-2.8048794544105124e-05   1.4214067529745057e-05   -4.807732863395739e-05
-2.8048794544105124e-05   1.4214067529745057e-05   -4.807732863395739e-05
-2.8048794544105124e-05   1.4214067529745057e-05   -4.807732863395739e-05
-1.6884611594738825e-05   4.676425769324644e-06   -6.09617151599831e-05
-1.6884611594738825e-05   4.676425769324644e-06   -6.09617151599831e-05
-1.6884611594738825e-05   4.676425769324644e-06   -6.09617151599831e-05
-1.6884611594738825e-05   4.676425769324644e-06   -6.09617151599831e-05
-2.402748312591203e-05   7.108165889672252e-06   -5.051597334690297e-05
-2.402748312591203e-05   7.108165889672252e-06   -5.051597334690297e-05
-2.402748312591203e-05   7.108165889672252e-06   -5.051597334690297e-05
-2.402748312591203e-05   7.108165889672252e-06   -5.051597334690297e-05
-3.355586102294706e-05   3.5623749210394497e-06   -0.00010775030501680542
-3.355586102294706e-05   3.5623749210394497e-06   -0.00010775030501680542
-3.355586102294706e-05   3.5623749210394497e-06   -0.00010775030501680542
-3.355586102294706e-05   3.5623749210394497e-06   -0.00010775030501680542
-3.845526014250222e-05   -6.384802388398683e-07   -0.00011843648331199175
-3.845526014250222e-05   -6.384802388398683e-07   -0.00011843648331199175
-3.845526014250222e-05   -6.384802388398683e-07   -0.00011843648331199175
-3.845526014250222e-05   -6.384802388398683e-07   -0.00011843648331199175
-3.7078669273939125e-05   7.528233057052525e-06   -0.00010783847719413172
-3.7078669273939125e-05   7.528233057052525e-06   -0.00010783847719413172
-3.7078669273939125e-05   7.528233057052525e-06   -0.00010783847719413172
-3.7078669273939125e-05   7.528233057052525e-06   -0.00010783847719413172
-3.185947656453986e-05   2.897171878569506e-06   -0.00011375849500270705
-3.185947656453986e-05   2.897171878569506e-06   -0.00011375849500270705
-3.185947656453986e-05   2.897171878569506e-06   -0.00011375849500270705
-3.185947656453986e-05   2.897171878569506e-06   -0.00011375849500270705
-3.482637552234416e-05   4.108244879886397e-06   -0.00010954030720715835
-3.482637552234416e-05   4.108244879886397e-06   -0.00010954030720715835
-3.482637552234416e-05   4.108244879886397e-06   -0.00010954030720715835
-3.482637552234416e-05   4.108244879886397e-06   -0.00010954030720715835
-3.185947656453975e-05   7.528233057052525e-06   -0.00010505984048704087
-3.185947656453975e-05   7.528233057052525e-06   -0.00010505984048704087
-3.185947656453975e-05   7.528233057052525e-06   -0.00010505984048704087
-3.185947656453975e-05   7.528233057052525e-06   -0.00010505984048704087
-3.707866927393907e-05   2.897171878569506e-06   -0.00011653713170979682
-3.707866927393907e-05   2.897171878569506e-06   -0.00011653713170979682
-3.707866927393907e-05   2.897171878569506e-06   -0.00011653713170979682
-3.707866927393907e-05   2.897171878569506e-06   -0.00011653713170979682
-3.5647477172384755e-05   1.1211905472314869e-05   -0.00010693549141712472
-3.5647477172384755e-05   1.1211905472314869e-05   -0.00010693549141712472
-3.5647477172384755e-05   1.1211905472314869e-05   -0.00010693549141712472
-3.5647477172384755e-05   1.1211905472314869e-05   -0.00010693549141712472
-2.972282699084119e-05   6.2976367470402375e-06   -0.00011386134715119824
-2.972282699084119e-05   6.2976367470402375e-06   -0.00011386134715119824
-2.972282699084119e-05   6.2976367470402375e-06   -0.00011386134715119824
-2.972282699084119e-05   6.2976367470402375e-06   -0.00011386134715119824
-3.3446410594639524e-05   6.954064951216268e-06   -0.00010804923140070788
-3.3446410594639524e-05   6.954064951216268e-06   -0.00010804923140070788
-3.3446410594639524e-05   6.954064951216268e-06   -0.00010804923140070788
-3.3446410594639524e-05   6.954064951216268e-06   -0.00010804923140070788
-2.972282699084108e-05   1.1211905472314869e-05   -0.00010398693018195916
-2.972282699084108e-05   1.1211905472314869e-05   -0.00010398693018195916
-2.972282699084108e-05   1.1211905472314869e-05   -0.00010398693018195916
-2.972282699084108e-05   1.1211905472314869e-05   -0.00010398693018195916
-3.5647477172384646e-05   6.29763674703937e-06   -0.00011680990838636315
-3.5647477172384646e-05   6.29763674703937e-06   -0.00011680990838636315
-3.5647477172384646e-05   6.29763674703937e-06   -0.00011680990838636315
-3.5647477172384646e-05   6.29763674703937e-06   -0.00011680990838636315
-3.4297475334038434e-05   1.530122966294633e-05   -0.00010870490926038643
-3.4297475334038434e-05   1.530122966294633e-05   -0.00010870490926038643
-3.4297475334038434e-05   1.530122966294633e-05   -0.00010870490926038643
-3.4297475334038434e-05   1.530122966294633e-05   -0.00010870490926038643
-2.8048794544105124e-05   1.0176922533214512e-05   -0.00011604479296576905
-2.8048794544105124e-05   1.0176922533214512e-05   -0.00011604479296576905
-2.8048794544105124e-05   1.0176922533214512e-05   -0.00011604479296576905
-2.8048794544105124e-05   1.0176922533214512e-05   -0.00011604479296576905
-3.2229849905078e-05   9.935192620714496e-06   -0.00010893132941664787
-3.2229849905078e-05   9.935192620714496e-06   -0.00010893132941664787
-3.2229849905078e-05   9.935192620714496e-06   -0.00010893132941664787
-3.2229849905078e-05   9.935192620714496e-06   -0.00010893132941664787
-3.845526014250206e-05   2.0248363905867733e-06   -0.00012542685857435277
-3.845526014250206e-05   2.0248363905867733e-06   -0.00012542685857435277
-3.845526014250206e-05   2.0248363905867733e-06   -0.00012542685857435277
-3.845526014250206e-05   2.0248363905867733e-06   -0.00012542685857435277
-4.3642682220047734e-05   2.9074403965915e-06   -0.00013354299963332615
-4.3642682220047734e-05   2.9074403965915e-06   -0.00013354299963332615
-4.3642682220047734e-05   2.9074403965915e-06   -0.00013354299963332615
-4.3642682220047734e-05   2.9074403965915e-06   -0.00013354299963332615
-4.228841861197097e-05   6.05969850422548e-06   -0.0001235042667833211
-4.228841861197097e-05   6.05969850422548e-06   -0.0001235042667833211
-4.228841861197097e-05   6.05969850422548e-06   -0.0001235042667833211
-4.228841861197097e-05   6.05969850422548e-06   -0.0001235042667833211
-3.707866927393907e-05   6.557210409956736e-06   -0.00013248568949014608
-3.707866927393907e-05   6.557210409956736e-06   -0.00013248568949014608
-3.707866927393907e-05   6.557210409956736e-06   -0.00013248568949014608
-3.707866927393907e-05   6.557210409956736e-06   -0.00013248568949014608
-4.0123426632440146e-05   4.954391871051823e-06   -0.00012644940276930298
-4.0123426632440146e-05   4.954391871051823e-06   -0.00012644940276930298
-4.0123426632440146e-05   4.954391871051823e-06   -0.00012644940276930298
-4.0123426632440146e-05   4.954391871051823e-06   -0.00012644940276930298
-3.707866927393902e-05   6.059698504225046e-06   -0.0001238027739267596
-3.707866927393902e-05   6.059698504225046e-06   -0.0001238027739267596
-3.707866927393902e-05   6.059698504225046e-06   -0.0001238027739267596
-3.707866927393902e-05   6.059698504225046e-06   -0.0001238027739267596
-4.2288418611971054e-05   6.557210409956736e-06   -0.00013218718234670824
-4.2288418611971054e-05   6.557210409956736e-06   -0.00013218718234670824
-4.2288418611971054e-05   6.557210409956736e-06   -0.00013218718234670824
-4.2288418611971054e-05   6.557210409956736e-06   -0.00013218718234670824
-4.086614998494036e-05   1.0130110960721635e-05   -0.00012386668857395982
-4.086614998494036e-05   1.0130110960721635e-05   -0.00012386668857395982
-4.086614998494036e-05   1.0130110960721635e-05   -0.00012386668857395982
-4.086614998494036e-05   1.0130110960721635e-05   -0.00012386668857395982
-3.5647477172384755e-05   1.028794625358969e-05   -0.00013265917777060664
-3.5647477172384755e-05   1.028794625358969e-05   -0.00013265917777060664
-3.5647477172384755e-05   1.028794625358969e-05   -0.00013265917777060664
-3.5647477172384755e-05   1.028794625358969e-05   -0.00013265917777060664
-3.898382383559538e-05   8.073348654681449e-06   -0.0001257698414392455
-3.898382383559538e-05   8.073348654681449e-06   -0.0001257698414392455
-3.898382383559538e-05   8.073348654681449e-06   -0.0001257698414392455
-3.898382383559538e-05   8.073348654681449e-06   -0.0001257698414392455
-3.5647477172384646e-05   1.0130110960721635e-05   -0.00012396138974968014
-3.5647477172384646e-05   1.0130110960721635e-05   -0.00012396138974968014
-3.5647477172384646e-05   1.0130110960721635e-05   -0.00012396138974968014
-3.5647477172384646e-05   1.0130110960721635e-05   -0.00012396138974968014
-4.086614998494036e-05   1.028794625358969e-05   -0.00013256447659488546
-4.086614998494036e-05   1.028794625358969e-05   -0.00013256447659488546
-4.086614998494036e-05   1.028794625358969e-05   -0.00013256447659488546
-4.086614998494036e-05   1.028794625358969e-05   -0.00013256447659488546
-3.952420682231723e-05   1.4261716884630005e-05   -0.00012627067661311227
-3.952420682231723e-05   1.4261716884630005e-05   -0.00012627067661311227
-3.952420682231723e-05   1.4261716884630005e-05   -0.00012627067661311227
-3.952420682231723e-05   1.4261716884630005e-05   -0.00012627067661311227
-3.4297475334038434e-05   1.4069958458207132e-05   -0.00013486684070438944
-3.4297475334038434e-05   1.4069958458207132e-05   -0.00013486684070438944
-3.4297475334038434e-05   1.4069958458207132e-05   -0.00013486684070438944
-3.4297475334038434e-05   1.4069958458207132e-05   -0.00013486684070438944
-3.7932984929283926e-05   1.1235794125185813e-05   -0.00012710715944583414
-3.7932984929283926e-05   1.1235794125185813e-05   -0.00012710715944583414
-3.7932984929283926e-05   1.1235794125185813e-05   -0.00012710715944583414
-3.7932984929283926e-05   1.1235794125185813e-05   -0.00012710715944583414
-4.364268222004757e-05   8.352673057463594e-07   -0.00010823384633864381
-4.364268222004757e-05   8.352673057463594e-07   -0.00010823384633864381
-4.364268222004757e-05   8.352673057463594e-07   -0.00010823384633864381
-4.364268222004757e-05   8.352673057463594e-07   -0.00010823384633864381
-4.910038150270237e-05   6.472015651253285e-06   -0.00011394796280243119
-4.910038150270237e-05   6.472015651253285e-06   -0.00011394796280243119
-4.910038150270237e-05   6.472015651253285e-06   -0.00011394796280243119
-4.910038150270237e-05   6.472015651253285e-06   -0.00011394796280243119
-4.746587800606684e-05   4.74025987979047e-06   -0.00010349433953309693
-4.746587800606684e-05   4.74025987979047e-06   -0.00010349433953309693
-4.746587800606684e-05   4.74025987979047e-06   -0.00010349433953309693
-4.746587800606684e-05   4.74025987979047e-06   -0.00010349433953309693
-4.228841861197097e-05   1.0131664109635369e-05   -0.00011535828106116265
-4.228841861197097e-05   1.0131664109635369e-05   -0.00011535828106116265
-4.228841861197097e-05   1.0131664109635369e-05   -0.00011535828106116265
-4.228841861197097e-05   1.0131664109635369e-05   -0.00011535828106116265
-4.52723769041975e-05   5.9542881283344146e-06   -0.0001078785916520063
-4.52723769041975e-05   5.9542881283344146e-06   -0.0001078785916520063
-4.52723769041975e-05   5.9542881283344146e-06   -0.0001078785916520063
-4.52723769041975e-05   5.9542881283344146e-06   -0.0001078785916520063
-4.2288418611970905e-05   4.7402598797909035e-06   -0.00010672918207100396
-4.2288418611970905e-05   4.7402598797909035e-06   -0.00010672918207100396
-4.2288418611970905e-05   4.7402598797909035e-06   -0.00010672918207100396
-4.2288418611970905e-05   4.7402598797909035e-06   -0.00010672918207100396
-4.746587800606684e-05   1.0131664109636236e-05   -0.00011212343852325677
-4.746587800606684e-05   1.0131664109636236e-05   -0.00011212343852325677
-4.746587800606684e-05   1.0131664109636236e-05   -0.00011212343852325677
-4.746587800606684e-05   1.0131664109636236e-05   -0.00011212343852325677
-4.536306447460245e-05   8.423535085604755e-06   -0.00010395619125833609
-4.536306447460245e-05   8.423535085604755e-06   -0.00010395619125833609
-4.536306447460245e-05   8.423535085604755e-06   -0.00010395619125833609
-4.536306447460245e-05   8.423535085604755e-06   -0.00010395619125833609
-4.0866149984940305e-05   1.3510713101743017e-05   -0.00011450335555078862
-4.0866149984940305e-05   1.3510713101743017e-05   -0.00011450335555078862
-4.0866149984940305e-05   1.3510713101743017e-05   -0.00011450335555078862
-4.0866149984940305e-05   1.3510713101743017e-05   -0.00011450335555078862
-4.3812224011355296e-05   8.855174460109874e-06   -0.00010679990898845144
-4.3812224011355296e-05   8.855174460109874e-06   -0.00010679990898845144
-4.3812224011355296e-05   8.855174460109874e-06   -0.00010679990898845144
-4.3812224011355296e-05   8.855174460109874e-06   -0.00010679990898845144
-4.0866149984940196e-05   8.423535085604755e-06   -0.00010700849806801827
-4.0866149984940196e-05   8.423535085604755e-06   -0.00010700849806801827
-4.0866149984940196e-05   8.423535085604755e-06   -0.00010700849806801827
-4.0866149984940196e-05   8.423535085604755e-06   -0.00010700849806801827
-4.53630644746025e-05   1.3510713101743885e-05   -0.00011145104874110603
-4.53630644746025e-05   1.3510713101743885e-05   -0.00011145104874110603
-4.53630644746025e-05   1.3510713101743885e-05   -0.00011145104874110603
-4.53630644746025e-05   1.3510713101743885e-05   -0.00011145104874110603
-4.3708709153181756e-05   1.2592679690944658e-05   -0.00010684016604164048
-4.3708709153181756e-05   1.2592679690944658e-05   -0.00010684016604164048
-4.3708709153181756e-05   1.2592679690944658e-05   -0.00010684016604164048
-4.3708709153181756e-05   1.2592679690944658e-05   -0.00010684016604164048
-3.952420682231723e-05   1.7302254090263876e-05   -0.0001166400812326724
-3.952420682231723e-05   1.7302254090263876e-05   -0.0001166400812326724
-3.952420682231723e-05   1.7302254090263876e-05   -0.0001166400812326724
-3.952420682231723e-05   1.7302254090263876e-05   -0.0001166400812326724
-4.2710599873212196e-05   1.1823857144010498e-05   -0.00010804238798009405
-4.2710599873212196e-05   1.1823857144010498e-05   -0.00010804238798009405
-4.2710599873212196e-05   1.1823857144010498e-05   -0.00010804238798009405
-4.2710599873212196e-05   1.1823857144010498e-05   -0.00010804238798009405
-4.9100381502702206e-05   1.1244693027242028e-06   -5.7727470447885114e-05
-4.9100381502702206e-05   1.1244693027242028e-06   -5.7727470447885114e-05
-4.9100381502702206e-05   1.1244693027242028e-06   -5.7727470447885114e-05
-4.9100381502702206e-05   1.1244693027242028e-06   -5.7727470447885114e-05
-5.9289153038865456e-05   1.0857499407301505e-05   -6.88689382787439e-05
-5.9289153038865456e-05   1.0857499407301505e-05   -6.88689382787439e-05
-5.9289153038865456e-05   1.0857499407301505e-05   -6.88689382787439e-05
-5.9289153038865456e-05   1.0857499407301505e-05   -6.88689382787439e-05
-5.354463047889098e-05   4.206642255784234e-06   -4.769276649310922e-05
-5.354463047889098e-05   4.206642255784234e-06   -4.769276649310922e-05
-5.354463047889098e-05   4.206642255784234e-06   -4.769276649310922e-05
-5.354463047889098e-05   4.206642255784234e-06   -4.769276649310922e-05
-4.746587800606673e-05   1.4171214343306447e-05   -6.380276386699549e-05
-4.746587800606673e-05   1.4171214343306447e-05   -6.380276386699549e-05
-4.746587800606673e-05   1.4171214343306447e-05   -6.380276386699549e-05
-4.746587800606673e-05   1.4171214343306447e-05   -6.380276386699549e-05
-5.023105191073095e-05   7.995992185827645e-06   -5.54890073980695e-05
-5.023105191073095e-05   7.995992185827645e-06   -5.54890073980695e-05
-5.023105191073095e-05   7.995992185827645e-06   -5.54890073980695e-05
-5.023105191073095e-05   7.995992185827645e-06   -5.54890073980695e-05
-4.746587800606662e-05   4.206642255784234e-06   -5.367150974562151e-05
-4.746587800606662e-05   4.206642255784234e-06   -5.367150974562151e-05
-4.746587800606662e-05   4.206642255784234e-06   -5.367150974562151e-05
-4.746587800606662e-05   4.206642255784234e-06   -5.367150974562151e-05
-5.354463047889087e-05   1.417121434330558e-05   -5.7824020614482934e-05
-5.354463047889087e-05   1.417121434330558e-05   -5.7824020614482934e-05
-5.354463047889087e-05   1.417121434330558e-05   -5.7824020614482934e-05
-5.354463047889087e-05   1.417121434330558e-05   -5.7824020614482934e-05
-4.887225841555484e-05   5.942292152275996e-06   -4.696201851775699e-05
-4.887225841555484e-05   5.942292152275996e-06   -4.696201851775699e-05
-4.887225841555484e-05   5.942292152275996e-06   -4.696201851775699e-05
-4.887225841555484e-05   5.942292152275996e-06   -4.696201851775699e-05
-4.536306447460245e-05   1.5688842704197903e-05   -5.865860541716389e-05
-4.536306447460245e-05   1.5688842704197903e-05   -5.865860541716389e-05
-4.536306447460245e-05   1.5688842704197903e-05   -5.865860541716389e-05
-4.536306447460245e-05   1.5688842704197903e-05   -5.865860541716389e-05
-4.7758526892294374e-05   9.525317342481097e-06   -5.096805283731393e-05
-4.7758526892294374e-05   9.525317342481097e-06   -5.096805283731393e-05
-4.7758526892294374e-05   9.525317342481097e-06   -5.096805283731393e-05
-4.7758526892294374e-05   9.525317342481097e-06   -5.096805283731393e-05
-4.536306447460234e-05   5.942292152275996e-06   -5.280994884891048e-05
-4.536306447460234e-05   5.942292152275996e-06   -5.280994884891048e-05
-4.536306447460234e-05   5.942292152275996e-06   -5.280994884891048e-05
-4.536306447460234e-05   5.942292152275996e-06   -5.280994884891048e-05
-4.887225841555484e-05   1.5688842704197903e-05   -5.281067508601089e-05
-4.887225841555484e-05   1.5688842704197903e-05   -5.281067508601089e-05
-4.887225841555484e-05   1.5688842704197903e-05   -5.281067508601089e-05
-4.887225841555484e-05   1.5688842704197903e-05   -5.281067508601089e-05
-4.316793704897475e-05   9.030714478879855e-06   -4.851139573771885e-05
-4.316793704897475e-05   9.030714478879855e-06   -4.851139573771885e-05
-4.316793704897475e-05   9.030714478879855e-06   -4.851139573771885e-05
-4.316793704897475e-05   9.030714478879855e-06   -4.851139573771885e-05
-4.370870915318165e-05   1.8051831828137452e-05   -5.3022779306927646e-05
-4.370870915318165e-05   1.8051831828137452e-05   -5.3022779306927646e-05
-4.370870915318165e-05   1.8051831828137452e-05   -5.3022779306927646e-05
-4.370870915318165e-05   1.8051831828137452e-05   -5.3022779306927646e-05
-4.41577138204573e-05   1.07692227378723e-05   -4.79048727406433e-05
-4.41577138204573e-05   1.07692227378723e-05   -4.79048727406433e-05
-4.41577138204573e-05   1.07692227378723e-05   -4.79048727406433e-05
-4.41577138204573e-05   1.07692227378723e-05   -4.79048727406433e-05
2.8909848379945428e-05   -2.8656011449475216e-06   -3.0345669090649403e-05
2.8909848379945428e-05   -2.8656011449475216e-06   -3.0345669090649403e-05
2.8909848379945428e-05   -2.8656011449475216e-06   -3.0345669090649403e-05
2.8909848379945428e-05   -2.8656011449475216e-06   -3.0345669090649403e-05
2.916779872550162e-06   -1.2167622760618675e-05   -7.924866290571044e-05
2.916779872550162e-06   -1.2167622760618675e-05   -7.924866290571044e-05
2.916779872550162e-06   -1.2167622760618675e-05   -7.924866290571044e-05
2.916779872550162e-06   -1.2167622760618675e-05   -7.924866290571044e-05
5.246197463761905e-06   -6.061208048316336e-08   -3.3466757008837784e-05
5.246197463761905e-06   -6.061208048316336e-08   -3.3466757008837784e-05
5.246197463761905e-06   -6.061208048316336e-08   -3.3466757008837784e-05
5.246197463761905e-06   -6.061208048316336e-08   -3.3466757008837784e-05
3.536620497335426e-05   -9.992551031228793e-06   -7.770760615437885e-05
3.536620497335426e-05   -9.992551031228793e-06   -7.770760615437885e-05
3.536620497335426e-05   -9.992551031228793e-06   -7.770760615437885e-05
3.536620497335426e-05   -9.992551031228793e-06   -7.770760615437885e-05
1.743846092589358e-05   -5.06522988909415e-06   -5.0784425427223947e-05
1.743846092589358e-05   -5.06522988909415e-06   -5.0784425427223947e-05
1.743846092589358e-05   -5.06522988909415e-06   -5.0784425427223947e-05
1.743846092589358e-05   -5.06522988909415e-06   -5.0784425427223947e-05
3.536620497335426e-05   -6.061208048316336e-08   -2.7507593638391448e-05
3.536620497335426e-05   -6.061208048316336e-08   -2.7507593638391448e-05
3.536620497335426e-05   -6.061208048316336e-08   -2.7507593638391448e-05
3.536620497335426e-05   -6.061208048316336e-08   -2.7507593638391448e-05
5.246197463761905e-06   -9.992551031228793e-06   -8.366676952482584e-05
5.246197463761905e-06   -9.992551031228793e-06   -8.366676952482584e-05
5.246197463761905e-06   -9.992551031228793e-06   -8.366676952482584e-05
5.246197463761905e-06   -9.992551031228793e-06   -8.366676952482584e-05
7.989335522701332e-06   1.520707013699836e-06   -3.370361393921408e-05
7.989335522701332e-06   1.520707013699836e-06   -3.370361393921408e-05
7.989335522701332e-06   1.520707013699836e-06   -3.370361393921408e-05
7.989335522701332e-06   1.520707013699836e-06   -3.370361393921408e-05
4.0833025538800126e-05   -8.54880116081709e-06   -8.240139239466858e-05
4.0833025538800126e-05   -8.54880116081709e-06   -8.240139239466858e-05
4.0833025538800126e-05   -8.54880116081709e-06   -8.240139239466858e-05
4.0833025538800126e-05   -8.54880116081709e-06   -8.240139239466858e-05
2.1540793059343958e-05   -4.05281059329219e-06   -5.2945265936093014e-05
2.1540793059343958e-05   -4.05281059329219e-06   -5.2945265936093014e-05
2.1540793059343958e-05   -4.05281059329219e-06   -5.2945265936093014e-05
2.1540793059343958e-05   -4.05281059329219e-06   -5.2945265936093014e-05
4.0833025538800126e-05   1.520707013699836e-06   -2.766190903450436e-05
4.0833025538800126e-05   1.520707013699836e-06   -2.766190903450436e-05
4.0833025538800126e-05   1.520707013699836e-06   -2.766190903450436e-05
4.0833025538800126e-05   1.520707013699836e-06   -2.766190903450436e-05
7.989335522701332e-06   -8.54880116081709e-06   -8.84430972993796e-05
7.989335522701332e-06   -8.54880116081709e-06   -8.84430972993796e-05
7.989335522701332e-06   -8.54880116081709e-06   -8.84430972993796e-05
7.989335522701332e-06   -8.54880116081709e-06   -8.84430972993796e-05
1.0254806031535476e-05   4.676425769324644e-06   -3.687869986032655e-05
1.0254806031535476e-05   4.676425769324644e-06   -3.687869986032655e-05
1.0254806031535476e-05   4.676425769324644e-06   -3.687869986032655e-05
1.0254806031535476e-05   4.676425769324644e-06   -3.687869986032655e-05
4.739922806994818e-05   -4.9047313900327585e-06   -9.303737562873279e-05
4.739922806994818e-05   -4.9047313900327585e-06   -9.303737562873279e-05
4.739922806994818e-05   -4.9047313900327585e-06   -9.303737562873279e-05
4.739922806994818e-05   -4.9047313900327585e-06   -9.303737562873279e-05
2.4820151952045723e-05   -2.5716375380022485e-06   -5.680543841011555e-05
2.4820151952045723e-05   -2.5716375380022485e-06   -5.680543841011555e-05
2.4820151952045723e-05   -2.5716375380022485e-06   -5.680543841011555e-05
2.4820151952045723e-05   -2.5716375380022485e-06   -5.680543841011555e-05
2.916779872550162e-06   -6.384802388398683e-07   -8.663377260912037e-05
2.916779872550162e-06   -6.384802388398683e-07   -8.663377260912037e-05
2.916779872550162e-06   -6.384802388398683e-07   -8.663377260912037e-05
2.916779872550162e-06   -6.384802388398683e-07   -8.663377260912037e-05
-2.7534485483570728e-05   -4.838939366204678e-06   -0.0001399061570124074
-2.7534485483570728e-05   -4.838939366204678e-06   -0.0001399061570124074
-2.7534485483570728e-05   -4.838939366204678e-06   -0.0001399061570124074
-2.7534485483570728e-05   -4.838939366204678e-06   -0.0001399061570124074
-2.548568946360557e-05   2.897171878569506e-06   -8.712836387984434e-05
-2.548568946360557e-05   2.897171878569506e-06   -8.712836387984434e-05
-2.548568946360557e-05   2.897171878569506e-06   -8.712836387984434e-05
-2.548568946360557e-05   2.897171878569506e-06   -8.712836387984434e-05
5.246197463761905e-06   -1.8637710309772973e-06   -0.00013549160967972918
5.246197463761905e-06   -1.8637710309772973e-06   -0.00013549160967972918
5.246197463761905e-06   -1.8637710309772973e-06   -0.00013549160967972918
5.246197463761905e-06   -1.8637710309772973e-06   -0.00013549160967972918
-1.0953461964350794e-05   -2.0223810345311455e-07   -0.00010948909705605606
-1.0953461964350794e-05   -2.0223810345311455e-07   -0.00010948909705605606
-1.0953461964350794e-05   -2.0223810345311455e-07   -0.00010948909705605606
-1.0953461964350794e-05   -2.0223810345311455e-07   -0.00010948909705605606
5.2461974637617965e-06   2.897171878569506e-06   -8.427179813411644e-05
5.2461974637617965e-06   2.897171878569506e-06   -8.427179813411644e-05
5.2461974637617965e-06   2.897171878569506e-06   -8.427179813411644e-05
5.2461974637617965e-06   2.897171878569506e-06   -8.427179813411644e-05
-2.548568946360557e-05   -1.8637710309772973e-06   -0.00013834817542545752
-2.548568946360557e-05   -1.8637710309772973e-06   -0.00013834817542545752
-2.548568946360557e-05   -1.8637710309772973e-06   -0.00013834817542545752
-2.548568946360557e-05   -1.8637710309772973e-06   -0.00013834817542545752
-2.3425438886926788e-05   6.2976367470402375e-06   -8.725661843377985e-05
-2.3425438886926788e-05   6.2976367470402375e-06   -8.725661843377985e-05
-2.3425438886926788e-05   6.2976367470402375e-06   -8.725661843377985e-05
-2.3425438886926788e-05   6.2976367470402375e-06   -8.725661843377985e-05
7.989335522701332e-06   1.2103937624824423e-06   -0.0001365622299924253
7.989335522701332e-06   1.2103937624824423e-06   -0.0001365622299924253
7.989335522701332e-06   1.2103937624824423e-06   -0.0001365622299924253
7.989335522701332e-06   1.2103937624824423e-06   -0.0001365622299924253
-9.135283173831782e-06   2.236894235998696e-06   -0.00010863709911564665
-9.135283173831782e-06   2.236894235998696e-06   -0.00010863709911564665
-9.135283173831782e-06   2.236894235998696e-06   -0.00010863709911564665
-9.135283173831782e-06   2.236894235998696e-06   -0.00010863709911564665
7.989335522701332e-06   6.2976367470402375e-06   -8.420427264304534e-05
7.989335522701332e-06   6.2976367470402375e-06   -8.420427264304534e-05
7.989335522701332e-06   6.2976367470402375e-06   -8.420427264304534e-05
7.989335522701332e-06   6.2976367470402375e-06   -8.420427264304534e-05
-2.3425438886926788e-05   1.2103937624824423e-06   -0.00013961457578316044
-2.3425438886926788e-05   1.2103937624824423e-06   -0.00013961457578316044
-2.3425438886926788e-05   1.2103937624824423e-06   -0.00013961457578316044
-2.3425438886926788e-05   1.2103937624824423e-06   -0.00013961457578316044
-2.145499205254473e-05   1.0176922533214512e-05   -8.94368068288633e-05
-2.145499205254473e-05   1.0176922533214512e-05   -8.94368068288633e-05
-2.145499205254473e-05   1.0176922533214512e-05   -8.94368068288633e-05
-2.145499205254473e-05   1.0176922533214512e-05   -8.94368068288633e-05
1.0254806031535476e-05   4.847565501541959e-06   -0.00013908885608332694
1.0254806031535476e-05   4.847565501541959e-06   -0.00013908885608332694
1.0254806031535476e-05   4.847565501541959e-06   -0.00013908885608332694
1.0254806031535476e-05   4.847565501541959e-06   -0.00013908885608332694
-7.11454231175468e-06   4.9371512820346394e-06   -0.00011019369364614093
-7.11454231175468e-06   4.9371512820346394e-06   -0.00011019369364614093
-7.11454231175468e-06   4.9371512820346394e-06   -0.00011019369364614093
-7.11454231175468e-06   4.9371512820346394e-06   -0.00011019369364614093
-2.7534485483570782e-05   2.9074403965923673e-06   -0.00010479012681047662
-2.7534485483570782e-05   2.9074403965923673e-06   -0.00010479012681047662
-2.7534485483570782e-05   2.9074403965923673e-06   -0.00010479012681047662
-2.7534485483570782e-05   2.9074403965923673e-06   -0.00010479012681047662
-5.773144511041975e-05   3.6666435158615174e-06   -0.00015466287098366222
-5.773144511041975e-05   3.6666435158615174e-06   -0.00015466287098366222
-5.773144511041975e-05   3.6666435158615174e-06   -0.00015466287098366222
-5.773144511041975e-05   3.6666435158615174e-06   -0.00015466287098366222
-5.566686450713209e-05   6.557210409956736e-06   -0.00010292525635915333
-5.566686450713209e-05   6.557210409956736e-06   -0.00010292525635915333
-5.566686450713209e-05   6.557210409956736e-06   -0.00010292525635915333
-5.566686450713209e-05   6.557210409956736e-06   -0.00010292525635915333
-2.5485689463605678e-05   6.809985911690811e-06   -0.0001533788800660719
-2.5485689463605678e-05   6.809985911690811e-06   -0.0001533788800660719
-2.5485689463605678e-05   6.809985911690811e-06   -0.0001533788800660719
-2.5485689463605678e-05   6.809985911690811e-06   -0.0001533788800660719
-4.136342588079829e-05   5.627358794507362e-06   -0.00012620640976710677
-4.136342588079829e-05   5.627358794507362e-06   -0.00012620640976710677
-4.136342588079829e-05   5.627358794507362e-06   -0.00012620640976710677
-4.136342588079829e-05   5.627358794507362e-06   -0.00012620640976710677
-2.5485689463605678e-05   6.557210409956736e-06   -0.00010307692166019447
-2.5485689463605678e-05   6.557210409956736e-06   -0.00010307692166019447
-2.5485689463605678e-05   6.557210409956736e-06   -0.00010307692166019447
-2.5485689463605678e-05   6.557210409956736e-06   -0.00010307692166019447
-5.566686450713209e-05   6.809985911691678e-06   -0.00015322721476503142
-5.566686450713209e-05   6.809985911691678e-06   -0.00015322721476503142
-5.566686450713209e-05   6.809985911691678e-06   -0.00015322721476503142
-5.566686450713209e-05   6.809985911691678e-06   -0.00015322721476503142
-5.357085273818237e-05   1.028794625358969e-05   -0.00010319468853953488
-5.357085273818237e-05   1.028794625358969e-05   -0.00010319468853953488
-5.357085273818237e-05   1.028794625358969e-05   -0.00010319468853953488
-5.357085273818237e-05   1.028794625358969e-05   -0.00010319468853953488
-2.3425438886926788e-05   1.0139945051069674e-05   -0.00015334824423678171
-2.3425438886926788e-05   1.0139945051069674e-05   -0.00015334824423678171
-2.3425438886926788e-05   1.0139945051069674e-05   -0.00015334824423678171
-2.3425438886926788e-05   1.0139945051069674e-05   -0.00015334824423678171
-3.95441470443115e-05   8.368539108479997e-06   -0.00012542088707558877
-3.95441470443115e-05   8.368539108479997e-06   -0.00012542088707558877
-3.95441470443115e-05   8.368539108479997e-06   -0.00012542088707558877
-3.95441470443115e-05   8.368539108479997e-06   -0.00012542088707558877
-2.3425438886926788e-05   1.028794625358969e-05   -0.00010310588781802226
-2.3425438886926788e-05   1.028794625358969e-05   -0.00010310588781802226
-2.3425438886926788e-05   1.028794625358969e-05   -0.00010310588781802226
-2.3425438886926788e-05   1.028794625358969e-05   -0.00010310588781802226
-5.3570852738182276e-05   1.0139945051068806e-05   -0.00015343704495829422
-5.3570852738182276e-05   1.0139945051068806e-05   -0.00015343704495829422
-5.3570852738182276e-05   1.0139945051068806e-05   -0.00015343704495829422
-5.3570852738182276e-05   1.0139945051068806e-05   -0.00015343704495829422
-5.157184896627564e-05   1.4069958458207132e-05   -0.00010550990507940394
-5.157184896627564e-05   1.4069958458207132e-05   -0.00010550990507940394
-5.157184896627564e-05   1.4069958458207132e-05   -0.00010550990507940394
-5.157184896627564e-05   1.4069958458207132e-05   -0.00010550990507940394
-2.1454992052544783e-05   1.3527233808608048e-05   -0.0001553790318125297
-2.1454992052544783e-05   1.3527233808608048e-05   -0.0001553790318125297
-2.1454992052544783e-05   1.3527233808608048e-05   -0.0001553790318125297
-2.1454992052544783e-05   1.3527233808608048e-05   -0.0001553790318125297
-3.7849816196395744e-05   1.1151083165284598e-05   -0.0001266286345201191
-3.7849816196395744e-05   1.1151083165284598e-05   -0.0001266286345201191
-3.7849816196395744e-05   1.1151083165284598e-05   -0.0001266286345201191
-3.7849816196395744e-05   1.1151083165284598e-05   -0.0001266286345201191
-5.7731445110419856e-05   6.472015651252418e-06   -8.812161711532372e-05
-5.7731445110419856e-05   6.472015651252418e-06   -8.812161711532372e-05
-5.7731445110419856e-05   6.472015651252418e-06   -8.812161711532372e-05
-5.7731445110419856e-05   6.472015651252418e-06   -8.812161711532372e-05
-8.7530070113524e-05   1.1910787763941277e-05   -0.00013452272885288406
-8.7530070113524e-05   1.1910787763941277e-05   -0.00013452272885288406
-8.7530070113524e-05   1.1910787763941277e-05   -0.00013452272885288406
-8.7530070113524e-05   1.1910787763941277e-05   -0.00013452272885288406
-8.517413667238799e-05   1.0131664109635369e-05   -8.301596621900116e-05
-8.517413667238799e-05   1.0131664109635369e-05   -8.301596621900116e-05
-8.517413667238799e-05   1.0131664109635369e-05   -8.301596621900116e-05
-8.517413667238799e-05   1.0131664109635369e-05   -8.301596621900116e-05
-5.566686450713209e-05   1.5265645533983456e-05   -0.00013527514201570225
-5.566686450713209e-05   1.5265645533983456e-05   -0.00013527514201570225
-5.566686450713209e-05   1.5265645533983456e-05   -0.00013527514201570225
-5.566686450713209e-05   1.5265645533983456e-05   -0.00013527514201570225
-7.103076773826462e-05   1.138426242421487e-05   -0.00010733980676462074
-7.103076773826462e-05   1.138426242421487e-05   -0.00010733980676462074
-7.103076773826462e-05   1.138426242421487e-05   -0.00010733980676462074
-7.103076773826462e-05   1.138426242421487e-05   -0.00010733980676462074
-5.566686450713219e-05   1.0131664109636236e-05   -8.609635507360975e-05
-5.566686450713219e-05   1.0131664109636236e-05   -8.609635507360975e-05
-5.566686450713219e-05   1.0131664109636236e-05   -8.609635507360975e-05
-5.566686450713219e-05   1.0131664109636236e-05   -8.609635507360975e-05
-8.51741366723881e-05   1.526564553398259e-05   -0.00013219475316109466
-8.51741366723881e-05   1.526564553398259e-05   -0.00013219475316109466
-8.51741366723881e-05   1.526564553398259e-05   -0.00013219475316109466
-8.51741366723881e-05   1.526564553398259e-05   -0.00013219475316109466
-8.236191620469423e-05   1.3510713101743885e-05   -8.226602989222379e-05
-8.236191620469423e-05   1.3510713101743885e-05   -8.226602989222379e-05
-8.236191620469423e-05   1.3510713101743885e-05   -8.226602989222379e-05
-8.236191620469423e-05   1.3510713101743885e-05   -8.226602989222379e-05
-5.357085273818237e-05   1.828994244043331e-05   -0.00013311867327295802
-5.357085273818237e-05   1.828994244043331e-05   -0.00013311867327295802
-5.357085273818237e-05   1.828994244043331e-05   -0.00013311867327295802
-5.357085273818237e-05   1.828994244043331e-05   -0.00013311867327295802
-6.866060037176497e-05   1.4030376300874087e-05   -0.00010541335419991956
-6.866060037176497e-05   1.4030376300874087e-05   -0.00010541335419991956
-6.866060037176497e-05   1.4030376300874087e-05   -0.00010541335419991956
-6.866060037176497e-05   1.4030376300874087e-05   -0.00010541335419991956
-5.357085273818233e-05   1.3510713101743885e-05   -8.513356749543805e-05
-5.357085273818233e-05   1.3510713101743885e-05   -8.513356749543805e-05
-5.357085273818233e-05   1.3510713101743885e-05   -8.513356749543805e-05
-5.357085273818233e-05   1.3510713101743885e-05   -8.513356749543805e-05
-8.236191620469423e-05   1.828994244043418e-05   -0.00013025113566974373
-8.236191620469423e-05   1.828994244043418e-05   -0.00013025113566974373
-8.236191620469423e-05   1.828994244043418e-05   -0.00013025113566974373
-8.236191620469423e-05   1.828994244043418e-05   -0.00013025113566974373
-8.001677916213314e-05   1.7302254090263876e-05   -8.45421202298074e-05
-8.001677916213314e-05   1.7302254090263876e-05   -8.45421202298074e-05
-8.001677916213314e-05   1.7302254090263876e-05   -8.45421202298074e-05
-8.001677916213314e-05   1.7302254090263876e-05   -8.45421202298074e-05
-5.157184896627564e-05   2.1678871293641204e-05   -0.00013457630754492965
-5.157184896627564e-05   2.1678871293641204e-05   -0.00013457630754492965
-5.157184896627564e-05   2.1678871293641204e-05   -0.00013457630754492965
-5.157184896627564e-05   2.1678871293641204e-05   -0.00013457630754492965
-6.706078017491012e-05   1.6640923608338305e-05   -0.00010573865358602381
-6.706078017491012e-05   1.6640923608338305e-05   -0.00010573865358602381
-6.706078017491012e-05   1.6640923608338305e-05   -0.00010573865358602381
-6.706078017491012e-05   1.6640923608338305e-05   -0.00010573865358602381
-8.7530070113524e-05   1.0857499407301505e-05   -4.5619147386770104e-05
-8.7530070113524e-05   1.0857499407301505e-05   -4.5619147386770104e-05
-8.7530070113524e-05   1.0857499407301505e-05   -4.5619147386770104e-05
-8.7530070113524e-05   1.0857499407301505e-05   -4.5619147386770104e-05
-0.0001214490237765874   2.0470131513375574e-05   -9.638315756156516e-05
-0.0001214490237765874   2.0470131513375574e-05   -9.638315756156516e-05
-0.0001214490237765874   2.0470131513375574e-05   -9.638315756156516e-05
-0.0001214490237765874   2.0470131513375574e-05   -9.638315756156516e-05
-0.00011502796673006142   1.417121434330558e-05   -2.8828650531312252e-05
-0.00011502796673006142   1.417121434330558e-05   -2.8828650531312252e-05
-0.00011502796673006142   1.417121434330558e-05   -2.8828650531312252e-05
-0.00011502796673006142   1.417121434330558e-05   -2.8828650531312252e-05
-8.517413667238799e-05   2.3948949395686397e-05   -8.445167499219585e-05
-8.517413667238799e-05   2.3948949395686397e-05   -8.445167499219585e-05
-8.517413667238799e-05   2.3948949395686397e-05   -8.445167499219585e-05
-8.517413667238799e-05   2.3948949395686397e-05   -8.445167499219585e-05
-9.813255481005749e-05   1.77662608889205e-05   -5.914469832535426e-05
-9.813255481005749e-05   1.77662608889205e-05   -5.914469832535426e-05
-9.813255481005749e-05   1.77662608889205e-05   -5.914469832535426e-05
-9.813255481005749e-05   1.77662608889205e-05   -5.914469832535426e-05
-8.517413667238804e-05   1.417121434330558e-05   -3.469529156274048e-05
-8.517413667238804e-05   1.417121434330558e-05   -3.469529156274048e-05
-8.517413667238804e-05   1.417121434330558e-05   -3.469529156274048e-05
-8.517413667238804e-05   1.417121434330558e-05   -3.469529156274048e-05
-0.0001150279667300611   2.3948949395687265e-05   -7.858503396076773e-05
-0.0001150279667300611   2.3948949395687265e-05   -7.858503396076773e-05
-0.0001150279667300611   2.3948949395687265e-05   -7.858503396076773e-05
-0.0001150279667300611   2.3948949395687265e-05   -7.858503396076773e-05
-0.00010972055425663733   1.5688842704197903e-05   -2.377045827491823e-05
-0.00010972055425663733   1.5688842704197903e-05   -2.377045827491823e-05
-0.00010972055425663733   1.5688842704197903e-05   -2.377045827491823e-05
-0.00010972055425663733   1.5688842704197903e-05   -2.377045827491823e-05
-8.236191620469407e-05   2.519405652647109e-05   -7.507131665485388e-05
-8.236191620469407e-05   2.519405652647109e-05   -7.507131665485388e-05
-8.236191620469407e-05   2.519405652647109e-05   -7.507131665485388e-05
-8.236191620469407e-05   2.519405652647109e-05   -7.507131665485388e-05
-9.575202488006027e-05   1.9324832417899618e-05   -4.923293439743439e-05
-9.575202488006027e-05   1.9324832417899618e-05   -4.923293439743439e-05
-9.575202488006027e-05   1.9324832417899618e-05   -4.923293439743439e-05
-9.575202488006027e-05   1.9324832417899618e-05   -4.923293439743439e-05
-8.236191620469423e-05   1.5688842704197903e-05   -2.9473586568281706e-05
-8.236191620469423e-05   1.5688842704197903e-05   -2.9473586568281706e-05
-8.236191620469423e-05   1.5688842704197903e-05   -2.9473586568281706e-05
-8.236191620469423e-05   1.5688842704197903e-05   -2.9473586568281706e-05
-0.00010972055425663711   2.519405652647109e-05   -6.936818836149024e-05
-0.00010972055425663711   2.519405652647109e-05   -6.936818836149024e-05
-0.00010972055425663711   2.519405652647109e-05   -6.936818836149024e-05
-0.00010972055425663711   2.519405652647109e-05   -6.936818836149024e-05
-0.00010345511314518215   1.8051831828137452e-05   -1.8510405845382702e-05
-0.00010345511314518215   1.8051831828137452e-05   -1.8510405845382702e-05
-0.00010345511314518215   1.8051831828137452e-05   -1.8510405845382702e-05
-0.00010345511314518215   1.8051831828137452e-05   -1.8510405845382702e-05
-8.001677916213314e-05   2.6785426991924113e-05   -6.281445291540268e-05
-8.001677916213314e-05   2.6785426991924113e-05   -6.281445291540268e-05
-8.001677916213314e-05   2.6785426991924113e-05   -6.281445291540268e-05
-8.001677916213314e-05   2.6785426991924113e-05   -6.281445291540268e-05
-9.0775744711027e-05   2.0081960191049852e-05   -4.086076358672357e-05
-9.0775744711027e-05   2.0081960191049852e-05   -4.086076358672357e-05
-9.0775744711027e-05   2.0081960191049852e-05   -4.086076358672357e-05
-9.0775744711027e-05   2.0081960191049852e-05   -4.086076358672357e-05
9.262216805651661e-05   -1.2167622760618675e-05   -1.1345326736745577e-06
9.262216805651661e-05   -1.2167622760618675e-05   -1.1345326736745577e-06
9.262216805651661e-05   -1.2167622760618675e-05   -1.1345326736745577e-06
9.262216805651661e-05   -1.2167622760618675e-05   -1.1345326736745577e-06
3.95498599599966e-05   -2.2006611936486488e-05   -9.549177300672857e-05
3.95498599599966e-05   -2.2006611936486488e-05   -9.549177300672857e-05
3.95498599599966e-05   -2.2006611936486488e-05   -9.549177300672857e-05
3.95498599599966e-05   -2.2006611936486488e-05   -9.549177300672857e-05
4.2393788735187784e-05   -9.992551031228793e-06   -1.0897551676040083e-05
4.2393788735187784e-05   -9.992551031228793e-06   -1.0897551676040083e-05
4.2393788735187784e-05   -9.992551031228793e-06   -1.0897551676040083e-05
4.2393788735187784e-05   -9.992551031228793e-06   -1.0897551676040083e-05
9.969947374424215e-05   -2.045959797165528e-05   -0.00010012679852687469
9.969947374424215e-05   -2.045959797165528e-05   -0.00010012679852687469
9.969947374424215e-05   -2.045959797165528e-05   -0.00010012679852687469
9.969947374424215e-05   -2.045959797165528e-05   -0.00010012679852687469
6.580494689879357e-05   -1.448529301717634e-05   -4.722050342381408e-05
6.580494689879357e-05   -1.448529301717634e-05   -4.722050342381408e-05
6.580494689879357e-05   -1.448529301717634e-05   -4.722050342381408e-05
6.580494689879357e-05   -1.448529301717634e-05   -4.722050342381408e-05
9.969947374424248e-05   -9.992551031228793e-06   -4.617323511783497e-06
9.969947374424248e-05   -9.992551031228793e-06   -4.617323511783497e-06
9.969947374424248e-05   -9.992551031228793e-06   -4.617323511783497e-06
9.969947374424248e-05   -9.992551031228793e-06   -4.617323511783497e-06
4.2393788735187784e-05   -2.045959797165528e-05   -0.00010640702669113085
4.2393788735187784e-05   -2.045959797165528e-05   -0.00010640702669113085
4.2393788735187784e-05   -2.045959797165528e-05   -0.00010640702669113085
4.2393788735187784e-05   -2.045959797165528e-05   -0.00010640702669113085
4.554200562674026e-05   -8.54880116081709e-06   -1.5165932753378152e-05
4.554200562674026e-05   -8.54880116081709e-06   -1.5165932753378152e-05
4.554200562674026e-05   -8.54880116081709e-06   -1.5165932753378152e-05
4.554200562674026e-05   -8.54880116081709e-06   -1.5165932753378152e-05
0.0001056538894867484   -1.9138504670546813e-05   -0.00010899858374755346
0.0001056538894867484   -1.9138504670546813e-05   -0.00010899858374755346
0.0001056538894867484   -1.9138504670546813e-05   -0.00010899858374755346
0.0001056538894867484   -1.9138504670546813e-05   -0.00010899858374755346
7.112192124355415e-05   -1.3897799236414592e-05   -5.458972660270884e-05
7.112192124355415e-05   -1.3897799236414592e-05   -5.458972660270884e-05
7.112192124355415e-05   -1.3897799236414592e-05   -5.458972660270884e-05
7.112192124355415e-05   -1.3897799236414592e-05   -5.458972660270884e-05
0.00010565388948674851   -8.54880116081709e-06   -8.81211064753971e-06
0.00010565388948674851   -8.54880116081709e-06   -8.81211064753971e-06
0.00010565388948674851   -8.54880116081709e-06   -8.81211064753971e-06
0.00010565388948674851   -8.54880116081709e-06   -8.81211064753971e-06
4.554200562674026e-05   -1.9138504670546813e-05   -0.00011535240585339125
4.554200562674026e-05   -1.9138504670546813e-05   -0.00011535240585339125
4.554200562674026e-05   -1.9138504670546813e-05   -0.00011535240585339125
4.554200562674026e-05   -1.9138504670546813e-05   -0.00011535240585339125
4.815147261206696e-05   -4.9047313900327585e-06   -2.5044909317309925e-05
4.815147261206696e-05   -4.9047313900327585e-06   -2.5044909317309925e-05
4.815147261206696e-05   -4.9047313900327585e-06   -2.5044909317309925e-05
4.815147261206696e-05   -4.9047313900327585e-06   -2.5044909317309925e-05
0.00011256634099828238   -1.4951195638947777e-05   -0.00012637514474498701
0.00011256634099828238   -1.4951195638947777e-05   -0.00012637514474498701
0.00011256634099828238   -1.4951195638947777e-05   -0.00012637514474498701
0.00011256634099828238   -1.4951195638947777e-05   -0.00012637514474498701
7.40285512051287e-05   -1.2270404488350789e-05   -6.375396978009146e-05
7.40285512051287e-05   -1.2270404488350789e-05   -6.375396978009146e-05
7.40285512051287e-05   -1.2270404488350789e-05   -6.375396978009146e-05
7.40285512051287e-05   -1.2270404488350789e-05   -6.375396978009146e-05
3.954985995999671e-05   -4.838939366204678e-06   -6.517514480947322e-05
3.954985995999671e-05   -4.838939366204678e-06   -6.517514480947322e-05
3.954985995999671e-05   -4.838939366204678e-06   -6.517514480947322e-05
3.954985995999671e-05   -4.838939366204678e-06   -6.517514480947322e-05
-1.671114870112052e-05   -1.0349667028147769e-05   -0.00016224992917516752
-1.671114870112052e-05   -1.0349667028147769e-05   -0.00016224992917516752
-1.671114870112052e-05   -1.0349667028147769e-05   -0.00016224992917516752
-1.671114870112052e-05   -1.0349667028147769e-05   -0.00016224992917516752
-1.4060009281964558e-05   -1.86377103097643e-06   -6.653276060106413e-05
-1.4060009281964558e-05   -1.86377103097643e-06   -6.653276060106413e-05
-1.4060009281964558e-05   -1.86377103097643e-06   -6.653276060106413e-05
-1.4060009281964558e-05   -1.86377103097643e-06   -6.653276060106413e-05
4.2393788735187784e-05   -8.2143856478447e-06   -0.00015681205519286427
4.2393788735187784e-05   -8.2143856478447e-06   -0.00015681205519286427
4.2393788735187784e-05   -8.2143856478447e-06   -0.00015681205519286427
4.2393788735187784e-05   -8.2143856478447e-06   -0.00015681205519286427
1.2935607384569639e-05   -5.012374040342521e-06   -0.00010963629323966777
1.2935607384569639e-05   -5.012374040342521e-06   -0.00010963629323966777
1.2935607384569639e-05   -5.012374040342521e-06   -0.00010963629323966777
1.2935607384569639e-05   -5.012374040342521e-06   -0.00010963629323966777
4.2393788735187784e-05   -1.86377103097643e-06   -6.272239183094299e-05
4.2393788735187784e-05   -1.86377103097643e-06   -6.272239183094299e-05
4.2393788735187784e-05   -1.86377103097643e-06   -6.272239183094299e-05
4.2393788735187784e-05   -1.86377103097643e-06   -6.272239183094299e-05
-1.4060009281964558e-05   -8.2143856478447e-06   -0.0001606224239629841
-1.4060009281964558e-05   -8.2143856478447e-06   -0.0001606224239629841
-1.4060009281964558e-05   -8.2143856478447e-06   -0.0001606224239629841
-1.4060009281964558e-05   -8.2143856478447e-06   -0.0001606224239629841
-1.1528533996047266e-05   1.2103937624824423e-06   -6.737312753737814e-05
-1.1528533996047266e-05   1.2103937624824423e-06   -6.737312753737814e-05
-1.1528533996047266e-05   1.2103937624824423e-06   -6.737312753737814e-05
-1.1528533996047266e-05   1.2103937624824423e-06   -6.737312753737814e-05
4.554200562674026e-05   -5.603043055774949e-06   -0.00015840263148440272
4.554200562674026e-05   -5.603043055774949e-06   -0.00015840263148440272
4.554200562674026e-05   -5.603043055774949e-06   -0.00015840263148440272
4.554200562674026e-05   -5.603043055774949e-06   -0.00015840263148440272
1.5045521166190596e-05   -3.1270067135536622e-06   -0.00010906077918881743
1.5045521166190596e-05   -3.1270067135536622e-06   -0.00010906077918881743
1.5045521166190596e-05   -3.1270067135536622e-06   -0.00010906077918881743
1.5045521166190596e-05   -3.1270067135536622e-06   -0.00010906077918881743
4.554200562674026e-05   1.2103937624824423e-06   -6.328506544642362e-05
4.554200562674026e-05   1.2103937624824423e-06   -6.328506544642362e-05
4.554200562674026e-05   1.2103937624824423e-06   -6.328506544642362e-05
4.554200562674026e-05   1.2103937624824423e-06   -6.328506544642362e-05
-1.1528533996047266e-05   -5.603043055774949e-06   -0.00016249069357535768
-1.1528533996047266e-05   -5.603043055774949e-06   -0.00016249069357535768
-1.1528533996047266e-05   -5.603043055774949e-06   -0.00016249069357535768
-1.1528533996047266e-05   -5.603043055774949e-06   -0.00016249069357535768
-9.148869402899609e-06   4.8475655015410915e-06   -6.964839314883148e-05
-9.148869402899609e-06   4.8475655015410915e-06   -6.964839314883148e-05
-9.148869402899609e-06   4.8475655015410915e-06   -6.964839314883148e-05
-9.148869402899609e-06   4.8475655015410915e-06   -6.964839314883148e-05
4.815147261206685e-05   -2.3202639526957378e-06   -0.00016084826550123417
4.815147261206685e-05   -2.3202639526957378e-06   -0.00016084826550123417
4.815147261206685e-05   -2.3202639526957378e-06   -0.00016084826550123417
4.815147261206685e-05   -2.3202639526957378e-06   -0.00016084826550123417
1.7667342227861168e-05   -8.037215531685182e-07   -0.00011095130696727753
1.7667342227861168e-05   -8.037215531685182e-07   -0.00011095130696727753
1.7667342227861168e-05   -8.037215531685182e-07   -0.00011095130696727753
1.7667342227861168e-05   -8.037215531685182e-07   -0.00011095130696727753
-1.671114870112052e-05   3.6666435158623847e-06   -8.369381724945661e-05
-1.671114870112052e-05   3.6666435158623847e-06   -8.369381724945661e-05
-1.671114870112052e-05   3.6666435158623847e-06   -8.369381724945661e-05
-1.671114870112052e-05   3.6666435158623847e-06   -8.369381724945661e-05
-7.198152441639826e-05   1.7972454942234706e-06   -0.00017693274892123566
-7.198152441639826e-05   1.7972454942234706e-06   -0.00017693274892123566
-7.198152441639826e-05   1.7972454942234706e-06   -0.00017693274892123566
-7.198152441639826e-05   1.7972454942234706e-06   -0.00017693274892123566
-6.912730952907315e-05   6.809985911691678e-06   -8.313408801706619e-05
-6.912730952907315e-05   6.809985911691678e-06   -8.313408801706619e-05
-6.912730952907315e-05   6.809985911691678e-06   -8.313408801706619e-05
-6.912730952907315e-05   6.809985911691678e-06   -8.313408801706619e-05
-1.4060009281964558e-05   4.192281286045756e-06   -0.0001733422989868592
-1.4060009281964558e-05   4.192281286045756e-06   -0.0001733422989868592
-1.4060009281964558e-05   4.192281286045756e-06   -0.0001733422989868592
-1.4060009281964558e-05   4.192281286045756e-06   -0.0001733422989868592
-4.267408770888237e-05   5.023807390172781e-06   -0.00012615108393780605
-4.267408770888237e-05   5.023807390172781e-06   -0.00012615108393780605
-4.267408770888237e-05   5.023807390172781e-06   -0.00012615108393780605
-4.267408770888237e-05   5.023807390172781e-06   -0.00012615108393780605
-1.4060009281964558e-05   6.809985911690811e-06   -8.156346524167872e-05
-1.4060009281964558e-05   6.809985911690811e-06   -8.156346524167872e-05
-1.4060009281964558e-05   6.809985911690811e-06   -8.156346524167872e-05
-1.4060009281964558e-05   6.809985911690811e-06   -8.156346524167872e-05
-6.912730952907315e-05   4.192281286045756e-06   -0.00017491292176224698
-6.912730952907315e-05   4.192281286045756e-06   -0.00017491292176224698
-6.912730952907315e-05   4.192281286045756e-06   -0.00017491292176224698
-6.912730952907315e-05   4.192281286045756e-06   -0.00017491292176224698
-6.637550522873339e-05   1.0139945051069674e-05   -8.300848142413133e-05
-6.637550522873339e-05   1.0139945051069674e-05   -8.300848142413133e-05
-6.637550522873339e-05   1.0139945051069674e-05   -8.300848142413133e-05
-6.637550522873339e-05   1.0139945051069674e-05   -8.300848142413133e-05
-1.1528533996047266e-05   6.970469329183396e-06   -0.00017251841471214416
-1.1528533996047266e-05   6.970469329183396e-06   -0.00017251841471214416
-1.1528533996047266e-05   6.970469329183396e-06   -0.00017251841471214416
-1.1528533996047266e-05   6.970469329183396e-06   -0.00017251841471214416
-4.0215752602630966e-05   7.265216849563702e-06   -0.00012488323221339858
-4.0215752602630966e-05   7.265216849563702e-06   -0.00012488323221339858
-4.0215752602630966e-05   7.265216849563702e-06   -0.00012488323221339858
-4.0215752602630966e-05   7.265216849563702e-06   -0.00012488323221339858
-1.1528533996047266e-05   1.0139945051069674e-05   -8.110679599100017e-05
-1.1528533996047266e-05   1.0139945051069674e-05   -8.110679599100017e-05
-1.1528533996047266e-05   1.0139945051069674e-05   -8.110679599100017e-05
-1.1528533996047266e-05   1.0139945051069674e-05   -8.110679599100017e-05
-6.637550522873339e-05   6.970469329183396e-06   -0.00017442010014527554
-6.637550522873339e-05   6.970469329183396e-06   -0.00017442010014527554
-6.637550522873339e-05   6.970469329183396e-06   -0.00017442010014527554
-6.637550522873339e-05   6.970469329183396e-06   -0.00017442010014527554
-6.383249483731427e-05   1.3527233808608916e-05   -8.495178150707151e-05
-6.383249483731427e-05   1.3527233808608916e-05   -8.495178150707151e-05
-6.383249483731427e-05   1.3527233808608916e-05   -8.495178150707151e-05
-6.383249483731427e-05   1.3527233808608916e-05   -8.495178150707151e-05
-9.148869402899609e-06   9.842522395208178e-06   -0.00017388033038305605
-9.148869402899609e-06   9.842522395208178e-06   -0.00017388033038305605
-9.148869402899609e-06   9.842522395208178e-06   -0.00017388033038305605
-9.148869402899609e-06   9.842522395208178e-06   -0.00017388033038305605
-3.801740821771294e-05   9.565250947087336e-06   -0.00012559973615616348
-3.801740821771294e-05   9.565250947087336e-06   -0.00012559973615616348
-3.801740821771294e-05   9.565250947087336e-06   -0.00012559973615616348
-3.801740821771294e-05   9.565250947087336e-06   -0.00012559973615616348
-7.198152441639837e-05   1.1910787763941277e-05   -6.793857719927408e-05
-7.198152441639837e-05   1.1910787763941277e-05   -6.793857719927408e-05
-7.198152441639837e-05   1.1910787763941277e-05   -6.793857719927408e-05
-7.198152441639837e-05   1.1910787763941277e-05   -6.793857719927408e-05
-0.0001261784539417354   1.4377061688672713e-05   -0.0001567870287199971
-0.0001261784539417354   1.4377061688672713e-05   -0.0001567870287199971
-0.0001261784539417354   1.4377061688672713e-05   -0.0001567870287199971
-0.0001261784539417354   1.4377061688672713e-05   -0.0001567870287199971
-0.00012274136277745564   1.5265645533983456e-05   -6.388678286977289e-05
-0.00012274136277745564   1.5265645533983456e-05   -6.388678286977289e-05
-0.00012274136277745564   1.5265645533983456e-05   -6.388678286977289e-05
-0.00012274136277745564   1.5265645533983456e-05   -6.388678286977289e-05
-6.912730952907329e-05   1.7424366197257672e-05   -0.00015453877068170863
-6.912730952907329e-05   1.7424366197257672e-05   -0.00015453877068170863
-6.912730952907329e-05   1.7424366197257672e-05   -0.00015453877068170863
-6.912730952907329e-05   1.7424366197257672e-05   -0.00015453877068170863
-9.67937440248638e-05   1.538776866781555e-05   -0.00010720608800439272
-9.67937440248638e-05   1.538776866781555e-05   -0.00010720608800439272
-9.67937440248638e-05   1.538776866781555e-05   -0.00010720608800439272
-9.67937440248638e-05   1.538776866781555e-05   -0.00010720608800439272
-6.912730952907329e-05   1.5265645533983456e-05   -6.518201526773716e-05
-6.912730952907329e-05   1.5265645533983456e-05   -6.518201526773716e-05
-6.912730952907329e-05   1.5265645533983456e-05   -6.518201526773716e-05
-6.912730952907329e-05   1.5265645533983456e-05   -6.518201526773716e-05
-0.00012274136277745589   1.7424366197257672e-05   -0.00015324353828374392
-0.00012274136277745589   1.7424366197257672e-05   -0.00015324353828374392
-0.00012274136277745589   1.7424366197257672e-05   -0.00015324353828374392
-0.00012274136277745589   1.7424366197257672e-05   -0.00015324353828374392
-0.00011894496619222256   1.828994244043331e-05   -6.163431928182589e-05
-0.00011894496619222256   1.828994244043331e-05   -6.163431928182589e-05
-0.00011894496619222256   1.828994244043331e-05   -6.163431928182589e-05
-0.00011894496619222256   1.828994244043331e-05   -6.163431928182589e-05
-6.637550522873351e-05   2.0049593202050263e-05   -0.00015030587801127755
-6.637550522873351e-05   2.0049593202050263e-05   -0.00015030587801127755
-6.637550522873351e-05   2.0049593202050263e-05   -0.00015030587801127755
-6.637550522873351e-05   2.0049593202050263e-05   -0.00015030587801127755
-9.332424352712765e-05   1.7756723049022413e-05   -0.00010401559208880447
-9.332424352712765e-05   1.7756723049022413e-05   -0.00010401559208880447
-9.332424352712765e-05   1.7756723049022413e-05   -0.00010401559208880447
-9.332424352712765e-05   1.7756723049022413e-05   -0.00010401559208880447
-6.637550522873344e-05   1.828994244043331e-05   -6.26901097387951e-05
-6.637550522873344e-05   1.828994244043331e-05   -6.26901097387951e-05
-6.637550522873344e-05   1.828994244043331e-05   -6.26901097387951e-05
-6.637550522873344e-05   1.828994244043331e-05   -6.26901097387951e-05
-0.00011894496619222256   2.0049593202050263e-05   -0.00014925008755430806
-0.00011894496619222256   2.0049593202050263e-05   -0.00014925008755430806
-0.00011894496619222256   2.0049593202050263e-05   -0.00014925008755430806
-0.00011894496619222256   2.0049593202050263e-05   -0.00014925008755430806
-0.00011573520241716868   2.1678871293641204e-05   -6.305566026288409e-05
-0.00011573520241716868   2.1678871293641204e-05   -6.305566026288409e-05
-0.00011573520241716868   2.1678871293641204e-05   -6.305566026288409e-05
-0.00011573520241716868   2.1678871293641204e-05   -6.305566026288409e-05
-6.383249483731438e-05   2.2958474938354276e-05   -0.0001503279350828021
-6.383249483731438e-05   2.2958474938354276e-05   -0.0001503279350828021
-6.383249483731438e-05   2.2958474938354276e-05   -0.0001503279350828021
-6.383249483731438e-05   2.2958474938354276e-05   -0.0001503279350828021
-9.114925141237622e-05   1.9940608067586275e-05   -0.00010298928733523845
-9.114925141237622e-05   1.9940608067586275e-05   -0.00010298928733523845
-9.114925141237622e-05   1.9940608067586275e-05   -0.00010298928733523845
-9.114925141237622e-05   1.9940608067586275e-05   -0.00010298928733523845
-0.0001261784539417354   2.0470131513375574e-05   -3.408682081676049e-05
-0.0001261784539417354   2.0470131513375574e-05   -3.408682081676049e-05
-0.0001261784539417354   2.0470131513375574e-05   -3.408682081676049e-05
-0.0001261784539417354   2.0470131513375574e-05   -3.408682081676049e-05
-0.00018319712414433442   2.832612313047496e-05   -0.0001244043428508335
-0.00018319712414433442   2.832612313047496e-05   -0.0001244043428508335
-0.00018319712414433442   2.832612313047496e-05   -0.0001244043428508335
-0.00018319712414433442   2.832612313047496e-05   -0.0001244043428508335
-0.0001753507290394768   2.3948949395686397e-05   -1.108859319829368e-05
-0.0001753507290394768   2.3948949395686397e-05   -1.108859319829368e-05
-0.0001753507290394768   2.3948949395686397e-05   -1.108859319829368e-05
-0.0001753507290394768   2.3948949395686397e-05   -1.108859319829368e-05
-0.00012274136277745564   3.237413523332188e-05   -0.00010382598180424334
-0.00012274136277745564   3.237413523332188e-05   -0.00010382598180424334
-0.00012274136277745564   3.237413523332188e-05   -0.00010382598180424334
-0.00012274136277745564   3.237413523332188e-05   -0.00010382598180424334
-0.00014558556607617557   2.698854842983489e-05   -6.252095755761864e-05
-0.00014558556607617557   2.698854842983489e-05   -6.252095755761864e-05
-0.00014558556607617557   2.698854842983489e-05   -6.252095755761864e-05
-0.00014558556607617557   2.698854842983489e-05   -6.252095755761864e-05
-0.00012274136277745575   2.3948949395686397e-05   -1.6143704700873757e-05
-0.00012274136277745575   2.3948949395686397e-05   -1.6143704700873757e-05
-0.00012274136277745575   2.3948949395686397e-05   -1.6143704700873757e-05
-0.00012274136277745575   2.3948949395686397e-05   -1.6143704700873757e-05
-0.00017535072903947653   3.237413523332188e-05   -9.87708703016621e-05
-0.00017535072903947653   3.237413523332188e-05   -9.87708703016621e-05
-0.00017535072903947653   3.237413523332188e-05   -9.87708703016621e-05
-0.00017535072903947653   3.237413523332188e-05   -9.87708703016621e-05
-0.00016889303156692213   2.5194056526471956e-05   -1.5091944203975485e-06
-0.00016889303156692213   2.5194056526471956e-05   -1.5091944203975485e-06
-0.00016889303156692213   2.5194056526471956e-05   -1.5091944203975485e-06
-0.00016889303156692213   2.5194056526471956e-05   -1.5091944203975485e-06
-0.00011894496619222256   3.3436232937370317e-05   -8.970127589143577e-05
-0.00011894496619222256   3.3436232937370317e-05   -8.970127589143577e-05
-0.00011894496619222256   3.3436232937370317e-05   -8.970127589143577e-05
-0.00011894496619222256   3.3436232937370317e-05   -8.970127589143577e-05
-0.00014287428058487158   2.8592159896706146e-05   -4.6912641412621015e-05
-0.00014287428058487158   2.8592159896706146e-05   -4.6912641412621015e-05
-0.00014287428058487158   2.8592159896706146e-05   -4.6912641412621015e-05
-0.00014287428058487158   2.8592159896706146e-05   -4.6912641412621015e-05
-0.00011894496619222256   2.5194056526471956e-05   -6.4545002669367385e-06
-0.00011894496619222256   2.5194056526471956e-05   -6.4545002669367385e-06
-0.00011894496619222256   2.5194056526471956e-05   -6.4545002669367385e-06
-0.00011894496619222256   2.5194056526471956e-05   -6.4545002669367385e-06
-0.00016889303156692164   3.3436232937370317e-05   -8.475597004489743e-05
-0.00016889303156692164   3.3436232937370317e-05   -8.475597004489743e-05
-0.00016889303156692164   3.3436232937370317e-05   -8.475597004489743e-05
-0.00016889303156692164   3.3436232937370317e-05   -8.475597004489743e-05
-0.00016193840643976838   2.6785426991924113e-05   1.0628195039548687e-05
-0.00016193840643976838   2.6785426991924113e-05   1.0628195039548687e-05
-0.00016193840643976838   2.6785426991924113e-05   1.0628195039548687e-05
-0.00016193840643976838   2.6785426991924113e-05   1.0628195039548687e-05
-0.00011573520241716868   3.436537865014397e-05   -7.092511599305e-05
-0.00011573520241716868   3.436537865014397e-05   -7.092511599305e-05
-0.00011573520241716868   3.436537865014397e-05   -7.092511599305e-05
-0.00011573520241716868   3.436537865014397e-05   -7.092511599305e-05
-0.00013634876431763723   2.8856093408047637e-05   -3.3263608347012695e-05
-0.00013634876431763723   2.8856093408047637e-05   -3.3263608347012695e-05
-0.00013634876431763723   2.8856093408047637e-05   -3.3263608347012695e-05
-0.00013634876431763723   2.8856093408047637e-05   -3.3263608347012695e-05
0.00015763680919864012   -2.2006611936487355e-05   3.081572655740626e-05
0.00015763680919864012   -2.2006611936487355e-05   3.081572655740626e-05
0.00015763680919864012   -2.2006611936487355e-05   3.081572655740626e-05
0.00015763680919864012   -2.2006611936487355e-05   3.081572655740626e-05
7.606534253500941e-05   -3.265146731346036e-05   -0.00011152363110816278
7.606534253500941e-05   -3.265146731346036e-05   -0.00011152363110816278
7.606534253500941e-05   -3.265146731346036e-05   -0.00011152363110816278
7.606534253500941e-05   -3.265146731346036e-05   -0.00011152363110816278
7.921985170593804e-05   -2.045959797165528e-05   1.4630678670424398e-05
7.921985170593804e-05   -2.045959797165528e-05   1.4630678670424398e-05
7.921985170593804e-05   -2.045959797165528e-05   1.4630678670424398e-05
7.921985170593804e-05   -2.045959797165528e-05   1.4630678670424398e-05
0.00016492136970833085   -3.1881142588068186e-05   -0.00012135225789704934
0.00016492136970833085   -3.1881142588068186e-05   -0.00012135225789704934
0.00016492136970833085   -3.1881142588068186e-05   -0.00012135225789704934
0.00016492136970833085   -3.1881142588068186e-05   -0.00012135225789704934
0.00011460861049896305   -2.411031165620598e-05   -4.2160157773887125e-05
0.00011460861049896305   -2.411031165620598e-05   -4.2160157773887125e-05
0.00011460861049896305   -2.411031165620598e-05   -4.2160157773887125e-05
0.00011460861049896305   -2.411031165620598e-05   -4.2160157773887125e-05
0.00016492136970833128   -2.045959797165528e-05   2.1483605440271794e-05
0.00016492136970833128   -2.045959797165528e-05   2.1483605440271794e-05
0.00016492136970833128   -2.045959797165528e-05   2.1483605440271794e-05
0.00016492136970833128   -2.045959797165528e-05   2.1483605440271794e-05
7.921985170593804e-05   -3.1881142588068186e-05   -0.00012820518466689782
7.921985170593804e-05   -3.1881142588068186e-05   -0.00012820518466689782
7.921985170593804e-05   -3.1881142588068186e-05   -0.00012820518466689782
7.921985170593804e-05   -3.1881142588068186e-05   -0.00012820518466689782
8.235684889165273e-05   -1.9138504670546813e-05   6.730557521812501e-06
8.235684889165273e-05   -1.9138504670546813e-05   6.730557521812501e-06
8.235684889165273e-05   -1.9138504670546813e-05   6.730557521812501e-06
8.235684889165273e-05   -1.9138504670546813e-05   6.730557521812501e-06
0.00017051878387833554   -3.077694507810317e-05   -0.00013322293654479214
0.00017051878387833554   -3.077694507810317e-05   -0.00013322293654479214
0.00017051878387833554   -3.077694507810317e-05   -0.00013322293654479214
0.00017051878387833554   -3.077694507810317e-05   -0.00013322293654479214
0.00012073719143257806   -2.403237495477925e-05   -5.430035787585717e-05
0.00012073719143257806   -2.403237495477925e-05   -5.430035787585717e-05
0.00012073719143257806   -2.403237495477925e-05   -5.430035787585717e-05
0.00012073719143257806   -2.403237495477925e-05   -5.430035787585717e-05
0.00017051878387833554   -1.9138504670546813e-05   1.3713621766346142e-05
0.00017051878387833554   -1.9138504670546813e-05   1.3713621766346142e-05
0.00017051878387833554   -1.9138504670546813e-05   1.3713621766346142e-05
0.00017051878387833554   -1.9138504670546813e-05   1.3713621766346142e-05
8.235684889165273e-05   -3.07769450781023e-05   -0.000140206000789326
8.235684889165273e-05   -3.07769450781023e-05   -0.000140206000789326
8.235684889165273e-05   -3.07769450781023e-05   -0.000140206000789326
8.235684889165273e-05   -3.07769450781023e-05   -0.000140206000789326
8.44941943610681e-05   -1.4951195638947777e-05   -9.212944640240792e-06
8.44941943610681e-05   -1.4951195638947777e-05   -9.212944640240792e-06
8.44941943610681e-05   -1.4951195638947777e-05   -9.212944640240792e-06
8.44941943610681e-05   -1.4951195638947777e-05   -9.212944640240792e-06
0.00017643548232861158   -2.646052984090104e-05   -0.0001555428240649743
0.00017643548232861158   -2.646052984090104e-05   -0.0001555428240649743
0.00017643548232861158   -2.646052984090104e-05   -0.0001555428240649743
0.00017643548232861158   -2.646052984090104e-05   -0.0001555428240649743
0.0001224808670123193   -2.219026075084285e-05   -6.818062665852448e-05
0.0001224808670123193   -2.219026075084285e-05   -6.818062665852448e-05
0.0001224808670123193   -2.219026075084285e-05   -6.818062665852448e-05
0.0001224808670123193   -2.219026075084285e-05   -6.818062665852448e-05
7.606534253500952e-05   -1.0349667028147769e-05   -3.902290624005142e-05
7.606534253500952e-05   -1.0349667028147769e-05   -3.902290624005142e-05
7.606534253500952e-05   -1.0349667028147769e-05   -3.902290624005142e-05
7.606534253500952e-05   -1.0349667028147769e-05   -3.902290624005142e-05
-4.425881169473338e-06   -2.1267256818402643e-05   -0.000179725499621676
-4.425881169473338e-06   -2.1267256818402643e-05   -0.000179725499621676
-4.425881169473338e-06   -2.1267256818402643e-05   -0.000179725499621676
-4.425881169473338e-06   -2.1267256818402643e-05   -0.000179725499621676
-1.1839144475744444e-06   -8.214385647843832e-06   -4.300419058227579e-05
-1.1839144475744444e-06   -8.214385647843832e-06   -4.300419058227579e-05
-1.1839144475744444e-06   -8.214385647843832e-06   -4.300419058227579e-05
-1.1839144475744444e-06   -8.214385647843832e-06   -4.300419058227579e-05
7.921985170593804e-05   -2.0264120232788008e-05   -0.00016978062675383006
7.921985170593804e-05   -2.0264120232788008e-05   -0.00016978062675383006
7.921985170593804e-05   -2.0264120232788008e-05   -0.00016978062675383006
7.921985170593804e-05   -2.0264120232788008e-05   -0.00016978062675383006
3.7535001411253546e-05   -1.286167264411605e-05   -0.0001047473448158925
3.7535001411253546e-05   -1.286167264411605e-05   -0.0001047473448158925
3.7535001411253546e-05   -1.286167264411605e-05   -0.0001047473448158925
3.7535001411253546e-05   -1.286167264411605e-05   -0.0001047473448158925
7.921985170593804e-05   -8.214385647843832e-06   -3.5774349831309456e-05
7.921985170593804e-05   -8.214385647843832e-06   -3.5774349831309456e-05
7.921985170593804e-05   -8.214385647843832e-06   -3.5774349831309456e-05
7.921985170593804e-05   -8.214385647843832e-06   -3.5774349831309456e-05
-1.1839144475744444e-06   -2.0264120232788008e-05   -0.0001770104675047966
-1.1839144475744444e-06   -2.0264120232788008e-05   -0.0001770104675047966
-1.1839144475744444e-06   -2.0264120232788008e-05   -0.0001770104675047966
-1.1839144475744444e-06   -2.0264120232788008e-05   -0.0001770104675047966
1.6734810229875508e-06   -5.603043055774949e-06   -4.3989130111924193e-05
1.6734810229875508e-06   -5.603043055774949e-06   -4.3989130111924193e-05
1.6734810229875508e-06   -5.603043055774949e-06   -4.3989130111924193e-05
1.6734810229875508e-06   -5.603043055774949e-06   -4.3989130111924193e-05
8.235684889165273e-05   -1.8385479726983067e-05   -0.00017079194789030845
8.235684889165273e-05   -1.8385479726983067e-05   -0.00017079194789030845
8.235684889165273e-05   -1.8385479726983067e-05   -0.00017079194789030845
8.235684889165273e-05   -1.8385479726983067e-05   -0.00017079194789030845
3.9751189358265483e-05   -1.1822484012884334e-05   -0.0001037203127631193
3.9751189358265483e-05   -1.1822484012884334e-05   -0.0001037203127631193
3.9751189358265483e-05   -1.1822484012884334e-05   -0.0001037203127631193
3.9751189358265483e-05   -1.1822484012884334e-05   -0.0001037203127631193
8.235684889165273e-05   -5.603043055774949e-06   -3.6319668109198976e-05
8.235684889165273e-05   -5.603043055774949e-06   -3.6319668109198976e-05
8.235684889165273e-05   -5.603043055774949e-06   -3.6319668109198976e-05
8.235684889165273e-05   -5.603043055774949e-06   -3.6319668109198976e-05
1.673481022987605e-06   -1.8385479726983935e-05   -0.00017846140989303356
1.673481022987605e-06   -1.8385479726983935e-05   -0.00017846140989303356
1.673481022987605e-06   -1.8385479726983935e-05   -0.00017846140989303356
1.673481022987605e-06   -1.8385479726983935e-05   -0.00017846140989303356
3.7113628793254303e-06   -2.3202639526957378e-06   -4.569410197163403e-05
3.7113628793254303e-06   -2.3202639526957378e-06   -4.569410197163403e-05
3.7113628793254303e-06   -2.3202639526957378e-06   -4.569410197163403e-05
3.7113628793254303e-06   -2.3202639526957378e-06   -4.569410197163403e-05
8.449419436106832e-05   -1.5713455826853358e-05   -0.00017229623931671093
8.449419436106832e-05   -1.5713455826853358e-05   -0.00017229623931671093
8.449419436106832e-05   -1.5713455826853358e-05   -0.00017229623931671093
8.449419436106832e-05   -1.5713455826853358e-05   -0.00017229623931671093
4.238997880534045e-05   -9.98443983363153e-06   -0.00010555995631976651
4.238997880534045e-05   -9.98443983363153e-06   -0.00010555995631976651
4.238997880534045e-05   -9.98443983363153e-06   -0.00010555995631976651
4.238997880534045e-05   -9.98443983363153e-06   -0.00010555995631976651
-4.425881169473338e-06   1.7972454942234706e-06   -5.913464104728965e-05
-4.425881169473338e-06   1.7972454942234706e-06   -5.913464104728965e-05
-4.425881169473338e-06   1.7972454942234706e-06   -5.913464104728965e-05
-4.425881169473338e-06   1.7972454942234706e-06   -5.913464104728965e-05
-8.37275425579583e-05   -1.1335006477278253e-05   -0.00019918342787766594
-8.37275425579583e-05   -1.1335006477278253e-05   -0.00019918342787766594
-8.37275425579583e-05   -1.1335006477278253e-05   -0.00019918342787766594
-8.37275425579583e-05   -1.1335006477278253e-05   -0.00019918342787766594
-7.98392406867136e-05   4.192281286045756e-06   -6.43340948225735e-05
-7.98392406867136e-05   4.192281286045756e-06   -6.43340948225735e-05
-7.98392406867136e-05   4.192281286045756e-06   -6.43340948225735e-05
-7.98392406867136e-05   4.192281286045756e-06   -6.43340948225735e-05
-1.1839144475744444e-06   -1.0157767407991541e-05   -0.00018681627600471585
-1.1839144475744444e-06   -1.0157767407991541e-05   -0.00018681627600471585
-1.1839144475744444e-06   -1.0157767407991541e-05   -0.00018681627600471585
-1.1839144475744444e-06   -1.0157767407991541e-05   -0.00018681627600471585
-4.178588178779436e-05   -2.301112367876848e-06   -0.0001238603234617519
-4.178588178779436e-05   -2.301112367876848e-06   -0.0001238603234617519
-4.178588178779436e-05   -2.301112367876848e-06   -0.0001238603234617519
-4.178588178779436e-05   -2.301112367876848e-06   -0.0001238603234617519
-1.1839144475744444e-06   4.192281286044888e-06   -5.572406560615077e-05
-1.1839144475744444e-06   4.192281286044888e-06   -5.572406560615077e-05
-1.1839144475744444e-06   4.192281286044888e-06   -5.572406560615077e-05
-1.1839144475744444e-06   4.192281286044888e-06   -5.572406560615077e-05
-7.98392406867136e-05   -1.0157767407992409e-05   -0.000195426305221139
-7.98392406867136e-05   -1.0157767407992409e-05   -0.000195426305221139
-7.98392406867136e-05   -1.0157767407992409e-05   -0.000195426305221139
-7.98392406867136e-05   -1.0157767407992409e-05   -0.000195426305221139
-7.627174679485107e-05   6.970469329183396e-06   -6.318466240311845e-05
-7.627174679485107e-05   6.970469329183396e-06   -6.318466240311845e-05
-7.627174679485107e-05   6.970469329183396e-06   -6.318466240311845e-05
-7.627174679485107e-05   6.970469329183396e-06   -6.318466240311845e-05
1.673481022987605e-06   -8.309215928163118e-06   -0.0001839255642784414
1.673481022987605e-06   -8.309215928163118e-06   -0.0001839255642784414
1.673481022987605e-06   -8.309215928163118e-06   -0.0001839255642784414
1.673481022987605e-06   -8.309215928163118e-06   -0.0001839255642784414
-3.8615661461283515e-05   -9.473696896619699e-07   -0.00012119410121442338
-3.8615661461283515e-05   -9.473696896619699e-07   -0.00012119410121442338
-3.8615661461283515e-05   -9.473696896619699e-07   -0.00012119410121442338
-3.8615661461283515e-05   -9.473696896619699e-07   -0.00012119410121442338
1.673481022987605e-06   6.970469329183396e-06   -5.401685124871002e-05
1.673481022987605e-06   6.970469329183396e-06   -5.401685124871002e-05
1.673481022987605e-06   6.970469329183396e-06   -5.401685124871002e-05
1.673481022987605e-06   6.970469329183396e-06   -5.401685124871002e-05
-7.627174679485118e-05   -8.309215928163118e-06   -0.00019309337543285026
-7.627174679485118e-05   -8.309215928163118e-06   -0.00019309337543285026
-7.627174679485118e-05   -8.309215928163118e-06   -0.00019309337543285026
-7.627174679485118e-05   -8.309215928163118e-06   -0.00019309337543285026
-7.386500342269466e-05   9.842522395208178e-06   -6.426607796877412e-05
-7.386500342269466e-05   9.842522395208178e-06   -6.426607796877412e-05
-7.386500342269466e-05   9.842522395208178e-06   -6.426607796877412e-05
-7.386500342269466e-05   9.842522395208178e-06   -6.426607796877412e-05
3.711362879325376e-06   -6.5584922512270175e-06   -0.00018371941301761376
3.711362879325376e-06   -6.5584922512270175e-06   -0.00018371941301761376
3.711362879325376e-06   -6.5584922512270175e-06   -0.00018371941301761376
3.711362879325376e-06   -6.5584922512270175e-06   -0.00018371941301761376
-3.635098210174997e-05   5.744205451869294e-07   -0.00012122858572700371
-3.635098210174997e-05   5.744205451869294e-07   -0.00012122858572700371
-3.635098210174997e-05   5.744205451869294e-07   -0.00012122858572700371
-3.635098210174997e-05   5.744205451869294e-07   -0.00012122858572700371
-8.372754255795816e-05   1.4377061688672713e-05   -4.8348036383791086e-05
-8.372754255795816e-05   1.4377061688672713e-05   -4.8348036383791086e-05
-8.372754255795816e-05   1.4377061688672713e-05   -4.8348036383791086e-05
-8.372754255795816e-05   1.4377061688672713e-05   -4.8348036383791086e-05
-0.0001641127309121392   2.517458085462415e-06   -0.000189439112469352
-0.0001641127309121392   2.517458085462415e-06   -0.000189439112469352
-0.0001641127309121392   2.517458085462415e-06   -0.000189439112469352
-0.0001641127309121392   2.517458085462415e-06   -0.000189439112469352
-0.00015857907473541675   1.742436619725854e-05   -5.1584562639066765e-05
-0.00015857907473541675   1.742436619725854e-05   -5.1584562639066765e-05
-0.00015857907473541675   1.742436619725854e-05   -5.1584562639066765e-05
-0.00015857907473541675   1.742436619725854e-05   -5.1584562639066765e-05
-7.983924068671346e-05   4.716668035536706e-06   -0.00017519300048987363
-7.983924068671346e-05   4.716668035536706e-06   -0.00017519300048987363
-7.983924068671346e-05   4.716668035536706e-06   -0.00017519300048987363
-7.983924068671346e-05   4.716668035536706e-06   -0.00017519300048987363
-0.00012029417093614691   1.0817115089844544e-05   -0.0001114283849734019
-0.00012029417093614691   1.0817115089844544e-05   -0.0001114283849734019
-0.00012029417093614691   1.0817115089844544e-05   -0.0001114283849734019
-0.00012029417093614691   1.0817115089844544e-05   -0.0001114283849734019
-7.983924068671346e-05   1.742436619725854e-05   -4.3959943742034706e-05
-7.983924068671346e-05   1.742436619725854e-05   -4.3959943742034706e-05
-7.983924068671346e-05   1.742436619725854e-05   -4.3959943742034706e-05
-7.983924068671346e-05   1.742436619725854e-05   -4.3959943742034706e-05
-0.00015857907473541702   4.716668035536706e-06   -0.0001828176193869064
-0.00015857907473541702   4.716668035536706e-06   -0.0001828176193869064
-0.00015857907473541702   4.716668035536706e-06   -0.0001828176193869064
-0.00015857907473541702   4.716668035536706e-06   -0.0001828176193869064
-0.0001532372199856331   2.0049593202050263e-05   -4.705408448060517e-05
-0.0001532372199856331   2.0049593202050263e-05   -4.705408448060517e-05
-0.0001532372199856331   2.0049593202050263e-05   -4.705408448060517e-05
-0.0001532372199856331   2.0049593202050263e-05   -4.705408448060517e-05
-7.627174679485118e-05   6.743519516242552e-06   -0.00016734622892042485
-7.627174679485118e-05   6.743519516242552e-06   -0.00016734622892042485
-7.627174679485118e-05   6.743519516242552e-06   -0.00016734622892042485
-7.627174679485118e-05   6.743519516242552e-06   -0.00016734622892042485
-0.00011530403986020625   1.2730222206492649e-05   -0.00010588442875898154
-0.00011530403986020625   1.2730222206492649e-05   -0.00010588442875898154
-0.00011530403986020625   1.2730222206492649e-05   -0.00010588442875898154
-0.00011530403986020625   1.2730222206492649e-05   -0.00010588442875898154
-7.627174679485096e-05   2.0049593202050263e-05   -3.9070440269121064e-05
-7.627174679485096e-05   2.0049593202050263e-05   -3.9070440269121064e-05
-7.627174679485096e-05   2.0049593202050263e-05   -3.9070440269121064e-05
-7.627174679485096e-05   2.0049593202050263e-05   -3.9070440269121064e-05
-0.00015323721998563336   6.7435195162434194e-06   -0.0001753298731319089
-0.00015323721998563336   6.7435195162434194e-06   -0.0001753298731319089
-0.00015323721998563336   6.7435195162434194e-06   -0.0001753298731319089
-0.00015323721998563336   6.7435195162434194e-06   -0.0001753298731319089
-0.000149174148654913   2.2958474938354276e-05   -4.7200119292154126e-05
-0.000149174148654913   2.2958474938354276e-05   -4.7200119292154126e-05
-0.000149174148654913   2.2958474938354276e-05   -4.7200119292154126e-05
-0.000149174148654913   2.2958474938354276e-05   -4.7200119292154126e-05
-7.38650034226948e-05   8.463035818897548e-06   -0.00016401809787417772
-7.38650034226948e-05   8.463035818897548e-06   -0.00016401809787417772
-7.38650034226948e-05   8.463035818897548e-06   -0.00016401809787417772
-7.38650034226948e-05   8.463035818897548e-06   -0.00016401809787417772
-0.00011248346862248973   1.406408182213787e-05   -0.00010301461680979618
-0.00011248346862248973   1.406408182213787e-05   -0.00010301461680979618
-0.00011248346862248973   1.406408182213787e-05   -0.00010301461680979618
-0.00011248346862248973   1.406408182213787e-05   -0.00010301461680979618
-0.0001641127309121392   2.8326123130475826e-05   -2.77947076468138e-05
-0.0001641127309121392   2.8326123130475826e-05   -2.77947076468138e-05
-0.0001641127309121392   2.8326123130475826e-05   -2.77947076468138e-05
-0.0001641127309121392   2.8326123130475826e-05   -2.77947076468138e-05
-0.0002480335875895384   2.6672354382263272e-05   -0.00016865506335807332
-0.0002480335875895384   2.6672354382263272e-05   -0.00016865506335807332
-0.0002480335875895384   2.6672354382263272e-05   -0.00016865506335807332
-0.0002480335875895384   2.6672354382263272e-05   -0.00016865506335807332
-0.000237176886172195   3.2374135233321014e-05   -1.2753194508670351e-06
-0.000237176886172195   3.2374135233321014e-05   -1.2753194508670351e-06
-0.000237176886172195   3.2374135233321014e-05   -1.2753194508670351e-06
-0.000237176886172195   3.2374135233321014e-05   -1.2753194508670351e-06
-0.00015857907473541648   3.3860279747820535e-05   -0.00013316335855419762
-0.00015857907473541648   3.3860279747820535e-05   -0.00013316335855419762
-0.00015857907473541648   3.3860279747820535e-05   -0.00013316335855419762
-0.00015857907473541648   3.3860279747820535e-05   -0.00013316335855419762
-0.0001932611311574475   3.193940438763181e-05   -7.420740596803324e-05
-0.0001932611311574475   3.193940438763181e-05   -7.420740596803324e-05
-0.0001932611311574475   3.193940438763181e-05   -7.420740596803324e-05
-0.0001932611311574475   3.193940438763181e-05   -7.420740596803324e-05
-0.00015857907473541688   3.237413523332188e-05   -2.167006159566748e-06
-0.00015857907473541688   3.237413523332188e-05   -2.167006159566748e-06
-0.00015857907473541688   3.237413523332188e-05   -2.167006159566748e-06
-0.00015857907473541688   3.237413523332188e-05   -2.167006159566748e-06
-0.000237176886172195   3.3860279747820535e-05   -0.00013227167184549828
-0.000237176886172195   3.3860279747820535e-05   -0.00013227167184549828
-0.000237176886172195   3.3860279747820535e-05   -0.00013227167184549828
-0.000237176886172195   3.3860279747820535e-05   -0.00013227167184549828
-0.00022816337252762485   3.3436232937370317e-05   1.3715819971841375e-05
-0.00022816337252762485   3.3436232937370317e-05   1.3715819971841375e-05
-0.00022816337252762485   3.3436232937370317e-05   1.3715819971841375e-05
-0.00022816337252762485   3.3436232937370317e-05   1.3715819971841375e-05
-0.0001532372199856331   3.547138758666288e-05   -0.00011238219372105293
-0.0001532372199856331   3.547138758666288e-05   -0.00011238219372105293
-0.0001532372199856331   3.547138758666288e-05   -0.00011238219372105293
-0.0001532372199856331   3.547138758666288e-05   -0.00011238219372105293
-0.00018909765660054243   3.426985299768981e-05   -5.189387860948585e-05
-0.00018909765660054243   3.426985299768981e-05   -5.189387860948585e-05
-0.00018909765660054243   3.426985299768981e-05   -5.189387860948585e-05
-0.00018909765660054243   3.426985299768981e-05   -5.189387860948585e-05
-0.00015323721998563336   3.343623293736945e-05   1.2494727182265838e-05
-0.00015323721998563336   3.343623293736945e-05   1.2494727182265838e-05
-0.00015323721998563336   3.343623293736945e-05   1.2494727182265838e-05
-0.00015323721998563336   3.343623293736945e-05   1.2494727182265838e-05
-0.00022816337252762447   3.547138758666288e-05   -0.00011116110093147696
-0.00022816337252762447   3.547138758666288e-05   -0.00011116110093147696
-0.00022816337252762447   3.547138758666288e-05   -0.00011116110093147696
-0.00022816337252762447   3.547138758666288e-05   -0.00011116110093147696
-0.00021874611964896876   3.43653786501431e-05   3.377579584338316e-05
-0.00021874611964896876   3.43653786501431e-05   3.377579584338316e-05
-0.00021874611964896876   3.43653786501431e-05   3.377579584338316e-05
-0.00021874611964896876   3.43653786501431e-05   3.377579584338316e-05
-0.000149174148654913   3.826680903783186e-05   -8.451834737932358e-05
-0.000149174148654913   3.826680903783186e-05   -8.451834737932358e-05
-0.000149174148654913   3.826680903783186e-05   -8.451834737932358e-05
-0.000149174148654913   3.826680903783186e-05   -8.451834737932358e-05
-0.0001800263171428929   3.506460558243968e-05   -3.1176744492789846e-05
-0.0001800263171428929   3.506460558243968e-05   -3.1176744492789846e-05
-0.0001800263171428929   3.506460558243968e-05   -3.1176744492789846e-05
-0.0001800263171428929   3.506460558243968e-05   -3.1176744492789846e-05
0.00021706764078898268   -3.265146731346036e-05   7.370707860594652e-05
0.00021706764078898268   -3.265146731346036e-05   7.370707860594652e-05
0.00021706764078898268   -3.265146731346036e-05   7.370707860594652e-05
0.00021706764078898268   -3.265146731346036e-05   7.370707860594652e-05
0.00010921664764195491   -4.1344795549420194e-05   -0.00011126057358067706
0.00010921664764195491   -4.1344795549420194e-05   -0.00011126057358067706
0.00010921664764195491   -4.1344795549420194e-05   -0.00011126057358067706
0.00010921664764195491   -4.1344795549420194e-05   -0.00011126057358067706
0.00011192021595301209   -3.1881142588068186e-05   5.278548042473349e-05
0.00011192021595301209   -3.1881142588068186e-05   5.278548042473349e-05
0.00011192021595301209   -3.1881142588068186e-05   5.278548042473349e-05
0.00011192021595301209   -3.1881142588068186e-05   5.278548042473349e-05
0.00022252219937491508   -4.2378721616789794e-05   -0.00012525261119453776
0.00022252219937491508   -4.2378721616789794e-05   -0.00012525261119453776
0.00022252219937491508   -4.2378721616789794e-05   -0.00012525261119453776
0.00022252219937491508   -4.2378721616789794e-05   -0.00012525261119453776
0.00015860918274829025   -3.3354454483143156e-05   -2.4145477097018298e-05
0.00015860918274829025   -3.3354454483143156e-05   -2.4145477097018298e-05
0.00015860918274829025   -3.3354454483143156e-05   -2.4145477097018298e-05
0.00015860918274829025   -3.3354454483143156e-05   -2.4145477097018298e-05
0.00022252219937491508   -3.1881142588068186e-05   5.908402784196749e-05
0.00022252219937491508   -3.1881142588068186e-05   5.908402784196749e-05
0.00022252219937491508   -3.1881142588068186e-05   5.908402784196749e-05
0.00022252219937491508   -3.1881142588068186e-05   5.908402784196749e-05
0.00011192021595301209   -4.2378721616789794e-05   -0.00013155115861177144
0.00011192021595301209   -4.2378721616789794e-05   -0.00013155115861177144
0.00011192021595301209   -4.2378721616789794e-05   -0.00013155115861177144
0.00011192021595301209   -4.2378721616789794e-05   -0.00013155115861177144
0.00011420622166149005   -3.07769450781023e-05   4.160545264199605e-05
0.00011420622166149005   -3.07769450781023e-05   4.160545264199605e-05
0.00011420622166149005   -3.07769450781023e-05   4.160545264199605e-05
0.00011420622166149005   -3.07769450781023e-05   4.160545264199605e-05
0.0002259251063764815   -4.200164108252545e-05   -0.00013785787094700225
0.0002259251063764815   -4.200164108252545e-05   -0.00013785787094700225
0.0002259251063764815   -4.200164108252545e-05   -0.00013785787094700225
0.0002259251063764815   -4.200164108252545e-05   -0.00013785787094700225
0.00016423208415864384   -3.4416394389840885e-05   -3.958731526621569e-05
0.00016423208415864384   -3.4416394389840885e-05   -3.958731526621569e-05
0.00016423208415864384   -3.4416394389840885e-05   -3.958731526621569e-05
0.00016423208415864384   -3.4416394389840885e-05   -3.958731526621569e-05
0.0002259251063764815   -3.07769450781023e-05   4.834027024464959e-05
0.0002259251063764815   -3.07769450781023e-05   4.834027024464959e-05
0.0002259251063764815   -3.07769450781023e-05   4.834027024464959e-05
0.0002259251063764815   -3.07769450781023e-05   4.834027024464959e-05
0.00011420622166149005   -4.200164108252545e-05   -0.00014459268854965634
0.00011420622166149005   -4.200164108252545e-05   -0.00014459268854965634
0.00011420622166149005   -4.200164108252545e-05   -0.00014459268854965634
0.00011420622166149005   -4.200164108252545e-05   -0.00014459268854965634
0.00011659972872272208   -2.646052984090104e-05   1.9872117605235218e-05
0.00011659972872272208   -2.646052984090104e-05   1.9872117605235218e-05
0.00011659972872272208   -2.646052984090104e-05   1.9872117605235218e-05
0.00011659972872272208   -2.646052984090104e-05   1.9872117605235218e-05
0.0002292753779931083   -3.968494800897504e-05   -0.00015998598027789658
0.0002292753779931083   -3.968494800897504e-05   -0.00015998598027789658
0.0002292753779931083   -3.968494800897504e-05   -0.00015998598027789658
0.0002292753779931083   -3.968494800897504e-05   -0.00015998598027789658
0.00016434711895178865   -3.3133035220643536e-05   -5.570336288203046e-05
0.00016434711895178865   -3.3133035220643536e-05   -5.570336288203046e-05
0.00016434711895178865   -3.3133035220643536e-05   -5.570336288203046e-05
0.00016434711895178865   -3.3133035220643536e-05   -5.570336288203046e-05
0.00010921664764195491   -2.1267256818402643e-05   6.839767025009283e-06
0.00010921664764195491   -2.1267256818402643e-05   6.839767025009283e-06
0.00010921664764195491   -2.1267256818402643e-05   6.839767025009283e-06
0.00010921664764195491   -2.1267256818402643e-05   6.839767025009283e-06
1.3242075136764113e-05   -4.173932870225536e-05   -0.00016540109694728692
1.3242075136764113e-05   -4.173932870225536e-05   -0.00016540109694728692
1.3242075136764113e-05   -4.173932870225536e-05   -0.00016540109694728692
1.3242075136764113e-05   -4.173932870225536e-05   -0.00016540109694728692
1.6396431558236423e-05   -2.0264120232788008e-05   -1.5544839687461204e-06
1.6396431558236423e-05   -2.0264120232788008e-05   -1.5544839687461204e-06
1.6396431558236423e-05   -2.0264120232788008e-05   -1.5544839687461204e-06
1.6396431558236423e-05   -2.0264120232788008e-05   -1.5544839687461204e-06
0.0001119202159530122   -4.1538324077033256e-05   -0.00014799626898682452
0.0001119202159530122   -4.1538324077033256e-05   -0.00014799626898682452
0.0001119202159530122   -4.1538324077033256e-05   -0.00014799626898682452
0.0001119202159530122   -4.1538324077033256e-05   -0.00014799626898682452
6.294455574311686e-05   -2.8144275862116916e-05   -7.440659756594958e-05
6.294455574311686e-05   -2.8144275862116916e-05   -7.440659756594958e-05
6.294455574311686e-05   -2.8144275862116916e-05   -7.440659756594958e-05
6.294455574311686e-05   -2.8144275862116916e-05   -7.440659756594958e-05
0.00011192021595301198   -2.0264120232788008e-05   1.1210038337801896e-05
0.00011192021595301198   -2.0264120232788008e-05   1.1210038337801896e-05
0.00011192021595301198   -2.0264120232788008e-05   1.1210038337801896e-05
0.00011192021595301198   -2.0264120232788008e-05   1.1210038337801896e-05
1.6396431558236423e-05   -4.1538324077033256e-05   -0.00016076079129337222
1.6396431558236423e-05   -4.1538324077033256e-05   -0.00016076079129337222
1.6396431558236423e-05   -4.1538324077033256e-05   -0.00016076079129337222
1.6396431558236423e-05   -4.1538324077033256e-05   -0.00016076079129337222
1.92441805823373e-05   -1.8385479726983935e-05   -2.5482618972354557e-06
1.92441805823373e-05   -1.8385479726983935e-05   -2.5482618972354557e-06
1.92441805823373e-05   -1.8385479726983935e-05   -2.5482618972354557e-06
1.92441805823373e-05   -1.8385479726983935e-05   -2.5482618972354557e-06
0.00011420622166149005   -4.0998425457400636e-05   -0.00014725056292424045
0.00011420622166149005   -4.0998425457400636e-05   -0.00014725056292424045
0.00011420622166149005   -4.0998425457400636e-05   -0.00014725056292424045
0.00011420622166149005   -4.0998425457400636e-05   -0.00014725056292424045
6.474692040390115e-05   -2.8469833887490026e-05   -7.233554910353627e-05
6.474692040390115e-05   -2.8469833887490026e-05   -7.233554910353627e-05
6.474692040390115e-05   -2.8469833887490026e-05   -7.233554910353627e-05
6.474692040390115e-05   -2.8469833887490026e-05   -7.233554910353627e-05
0.00011420622166149005   -1.8385479726983935e-05   1.1019505541014565e-05
0.00011420622166149005   -1.8385479726983935e-05   1.1019505541014565e-05
0.00011420622166149005   -1.8385479726983935e-05   1.1019505541014565e-05
0.00011420622166149005   -1.8385479726983935e-05   1.1019505541014565e-05
1.9244180582337245e-05   -4.0998425457400636e-05   -0.00016081833036249004
1.9244180582337245e-05   -4.0998425457400636e-05   -0.00016081833036249004
1.9244180582337245e-05   -4.0998425457400636e-05   -0.00016081833036249004
1.9244180582337245e-05   -4.0998425457400636e-05   -0.00016081833036249004
2.3491537150072627e-05   -1.5713455826854225e-05   -4.492625157931536e-06
2.3491537150072627e-05   -1.5713455826854225e-05   -4.492625157931536e-06
2.3491537150072627e-05   -1.5713455826854225e-05   -4.492625157931536e-06
2.3491537150072627e-05   -1.5713455826854225e-05   -4.492625157931536e-06
0.00011659972872272198   -3.990833588119261e-05   -0.00014515601641307784
0.00011659972872272198   -3.990833588119261e-05   -0.00014515601641307784
0.00011659972872272198   -3.990833588119261e-05   -0.00014515601641307784
0.00011659972872272198   -3.990833588119261e-05   -0.00014515601641307784
6.815502051909399e-05   -2.8048857563019863e-05   -7.153052306460139e-05
6.815502051909399e-05   -2.8048857563019863e-05   -7.153052306460139e-05
6.815502051909399e-05   -2.8048857563019863e-05   -7.153052306460139e-05
6.815502051909399e-05   -2.8048857563019863e-05   -7.153052306460139e-05
1.3242075136764113e-05   -1.1335006477278253e-05   -1.7022053178390728e-05
1.3242075136764113e-05   -1.1335006477278253e-05   -1.7022053178390728e-05
1.3242075136764113e-05   -1.1335006477278253e-05   -1.7022053178390728e-05
1.3242075136764113e-05   -1.1335006477278253e-05   -1.7022053178390728e-05
-8.175195333416717e-05   -5.062947653020414e-05   -0.00019892211599503197
-8.175195333416717e-05   -5.062947653020414e-05   -0.00019892211599503197
-8.175195333416717e-05   -5.062947653020414e-05   -0.00019892211599503197
-8.175195333416717e-05   -5.062947653020414e-05   -0.00019892211599503197
-7.684152001707234e-05   -1.0157767407992409e-05   -3.632735488943387e-05
-7.684152001707234e-05   -1.0157767407992409e-05   -3.632735488943387e-05
-7.684152001707234e-05   -1.0157767407992409e-05   -3.632735488943387e-05
-7.684152001707234e-05   -1.0157767407992409e-05   -3.632735488943387e-05
1.6396431558236423e-05   -5.176953810927254e-05   -0.00016675687842751313
1.6396431558236423e-05   -5.176953810927254e-05   -0.00016675687842751313
1.6396431558236423e-05   -5.176953810927254e-05   -0.00016675687842751313
1.6396431558236423e-05   -5.176953810927254e-05   -0.00016675687842751313
-3.112987572518217e-05   -2.869482368787063e-05   -0.00010139119494132365
-3.112987572518217e-05   -2.869482368787063e-05   -0.00010139119494132365
-3.112987572518217e-05   -2.869482368787063e-05   -0.00010139119494132365
-3.112987572518217e-05   -2.869482368787063e-05   -0.00010139119494132365
1.6396431558236423e-05   -1.0157767407992409e-05   -1.1360292468664927e-05
1.6396431558236423e-05   -1.0157767407992409e-05   -1.1360292468664927e-05
1.6396431558236423e-05   -1.0157767407992409e-05   -1.1360292468664927e-05
1.6396431558236423e-05   -1.0157767407992409e-05   -1.1360292468664927e-05
-7.684152001707244e-05   -5.176953810927254e-05   -0.00019172394084828164
-7.684152001707244e-05   -5.176953810927254e-05   -0.00019172394084828164
-7.684152001707244e-05   -5.176953810927254e-05   -0.00019172394084828164
-7.684152001707244e-05   -5.176953810927254e-05   -0.00019172394084828164
-7.261362265988369e-05   -8.309215928163118e-06   -3.395804583778469e-05
-7.261362265988369e-05   -8.309215928163118e-06   -3.395804583778469e-05
-7.261362265988369e-05   -8.309215928163118e-06   -3.395804583778469e-05
-7.261362265988369e-05   -8.309215928163118e-06   -3.395804583778469e-05
1.9244180582337245e-05   -5.155193185339517e-05   -0.00016110875501968022
1.9244180582337245e-05   -5.155193185339517e-05   -0.00016110875501968022
1.9244180582337245e-05   -5.155193185339517e-05   -0.00016110875501968022
1.9244180582337245e-05   -5.155193185339517e-05   -0.00016110875501968022
-2.7641377180244166e-05   -2.9362781616176087e-05   -9.627964889104279e-05
-2.7641377180244166e-05   -2.9362781616176087e-05   -9.627964889104279e-05
-2.7641377180244166e-05   -2.9362781616176087e-05   -9.627964889104279e-05
-2.7641377180244166e-05   -2.9362781616176087e-05   -9.627964889104279e-05
1.9244180582337245e-05   -8.309215928163118e-06   -8.01241628264459e-06
1.9244180582337245e-05   -8.309215928163118e-06   -8.01241628264459e-06
1.9244180582337245e-05   -8.309215928163118e-06   -8.01241628264459e-06
1.9244180582337245e-05   -8.309215928163118e-06   -8.01241628264459e-06
-7.261362265988396e-05   -5.1551931853396904e-05   -0.00018705438457481977
-7.261362265988396e-05   -5.1551931853396904e-05   -0.00018705438457481977
-7.261362265988396e-05   -5.1551931853396904e-05   -0.00018705438457481977
-7.261362265988396e-05   -5.1551931853396904e-05   -0.00018705438457481977
-6.532116038316727e-05   -6.5584922512270175e-06   -3.380861264200546e-05
-6.532116038316727e-05   -6.5584922512270175e-06   -3.380861264200546e-05
-6.532116038316727e-05   -6.5584922512270175e-06   -3.380861264200546e-05
-6.532116038316727e-05   -6.5584922512270175e-06   -3.380861264200546e-05
2.349153715007268e-05   -4.977304043067045e-05   -0.00015590104628973968
2.349153715007268e-05   -4.977304043067045e-05   -0.00015590104628973968
2.349153715007268e-05   -4.977304043067045e-05   -0.00015590104628973968
2.349153715007268e-05   -4.977304043067045e-05   -0.00015590104628973968
-2.3109280044402217e-05   -2.8734045100307914e-05   -9.085641483049791e-05
-2.3109280044402217e-05   -2.8734045100307914e-05   -9.085641483049791e-05
-2.3109280044402217e-05   -2.8734045100307914e-05   -9.085641483049791e-05
-2.3109280044402217e-05   -2.8734045100307914e-05   -9.085641483049791e-05
-8.1751953334167e-05   2.517458085462415e-06   -2.3738657639905784e-05
-8.1751953334167e-05   2.517458085462415e-06   -2.3738657639905784e-05
-8.1751953334167e-05   2.517458085462415e-06   -2.3738657639905784e-05
-8.1751953334167e-05   2.517458085462415e-06   -2.3738657639905784e-05
-0.00018784600690158684   -6.339799993856574e-05   -0.00024011135506668904
-0.00018784600690158684   -6.339799993856574e-05   -0.00024011135506668904
-0.00018784600690158684   -6.339799993856574e-05   -0.00024011135506668904
-0.00018784600690158684   -6.339799993856574e-05   -0.00024011135506668904
-0.00018200300476647918   4.716668035537573e-06   -6.133187698146962e-05
-0.00018200300476647918   4.716668035537573e-06   -6.133187698146962e-05
-0.00018200300476647918   4.716668035537573e-06   -6.133187698146962e-05
-0.00018200300476647918   4.716668035537573e-06   -6.133187698146962e-05
-7.684152001707234e-05   -7.067971000329805e-05   -0.00019136319140717944
-7.684152001707234e-05   -7.067971000329805e-05   -0.00019136319140717944
-7.684152001707234e-05   -7.067971000329805e-05   -0.00019136319140717944
-7.684152001707234e-05   -7.067971000329805e-05   -0.00019136319140717944
-0.00013019566418704366   -3.2382327677691475e-05   -0.00012541804718592528
-0.00013019566418704366   -3.2382327677691475e-05   -0.00012541804718592528
-0.00013019566418704366   -3.2382327677691475e-05   -0.00012541804718592528
-0.00013019566418704366   -3.2382327677691475e-05   -0.00012541804718592528
-7.684152001707234e-05   4.716668035537573e-06   -1.609405015816877e-05
-7.684152001707234e-05   4.716668035537573e-06   -1.609405015816877e-05
-7.684152001707234e-05   4.716668035537573e-06   -1.609405015816877e-05
-7.684152001707234e-05   4.716668035537573e-06   -1.609405015816877e-05
-0.00018200300476647918   -7.067971000329805e-05   -0.00023660101823048084
-0.00018200300476647918   -7.067971000329805e-05   -0.00023660101823048084
-0.00018200300476647918   -7.067971000329805e-05   -0.00023660101823048084
-0.00018200300476647918   -7.067971000329805e-05   -0.00023660101823048084
-0.00017639958046426166   6.7435195162434194e-06   -5.4916382341201574e-05
-0.00017639958046426166   6.7435195162434194e-06   -5.4916382341201574e-05
-0.00017639958046426166   6.7435195162434194e-06   -5.4916382341201574e-05
-0.00017639958046426166   6.7435195162434194e-06   -5.4916382341201574e-05
-7.26136226598838e-05   -7.109895217682904e-05   -0.0001811874956659887
-7.26136226598838e-05   -7.109895217682904e-05   -0.0001811874956659887
-7.26136226598838e-05   -7.109895217682904e-05   -0.0001811874956659887
-7.26136226598838e-05   -7.109895217682904e-05   -0.0001811874956659887
-0.00012449917933573932   -3.2514546668103994e-05   -0.00011786221117813123
-0.00012449917933573932   -3.2514546668103994e-05   -0.00011786221117813123
-0.00012449917933573932   -3.2514546668103994e-05   -0.00011786221117813123
-0.00012449917933573932   -3.2514546668103994e-05   -0.00011786221117813123
-7.26136226598838e-05   6.7435195162434194e-06   -8.210899325357922e-06
-7.26136226598838e-05   6.7435195162434194e-06   -8.210899325357922e-06
-7.26136226598838e-05   6.7435195162434194e-06   -8.210899325357922e-06
-7.26136226598838e-05   6.7435195162434194e-06   -8.210899325357922e-06
-0.00017639958046426193   -7.109895217682904e-05   -0.00022789297868183213
-0.00017639958046426193   -7.109895217682904e-05   -0.00022789297868183213
-0.00017639958046426193   -7.109895217682904e-05   -0.00022789297868183213
-0.00017639958046426193   -7.109895217682904e-05   -0.00022789297868183213
-0.00016723144463095868   8.463035818897548e-06   -4.836495404174617e-05
-0.00016723144463095868   8.463035818897548e-06   -4.836495404174617e-05
-0.00016723144463095868   8.463035818897548e-06   -4.836495404174617e-05
-0.00016723144463095868   8.463035818897548e-06   -4.836495404174617e-05
-6.532116038316749e-05   -6.50340730661645e-05   -0.00017411716245702797
-6.532116038316749e-05   -6.50340730661645e-05   -0.00017411716245702797
-6.532116038316749e-05   -6.50340730661645e-05   -0.00017411716245702797
-6.532116038316749e-05   -6.50340730661645e-05   -0.00017411716245702797
-0.00011885489056374701   -2.8824109822959965e-05   -0.00010662025676864929
-0.00011885489056374701   -2.8824109822959965e-05   -0.00010662025676864929
-0.00011885489056374701   -2.8824109822959965e-05   -0.00010662025676864929
-0.00011885489056374701   -2.8824109822959965e-05   -0.00010662025676864929
-0.00018784600690158684   2.6672354382263272e-05   -4.151162209411856e-05
-0.00018784600690158684   2.6672354382263272e-05   -4.151162209411856e-05
-0.00018784600690158684   2.6672354382263272e-05   -4.151162209411856e-05
-0.00018784600690158684   2.6672354382263272e-05   -4.151162209411856e-05
-0.00032401032222500634   0.0   -0.0002844555602625094
-0.00032401032222500634   0.0   -0.0002844555602625094
-0.00032401032222500634   0.0   -0.0002844555602625094
-0.00032401032222500634   0.0   -0.0002844555602625094
-0.00031544173386136476   3.3860279747820535e-05   -3.199378399745389e-05
-0.00031544173386136476   3.3860279747820535e-05   -3.199378399745389e-05
-0.00031544173386136476   3.3860279747820535e-05   -3.199378399745389e-05
-0.00031544173386136476   3.3860279747820535e-05   -3.199378399745389e-05
-0.00018200300476647888   0.0   -0.00023407549797357187
-0.00018200300476647888   0.0   -0.00023407549797357187
-0.00018200300476647888   0.0   -0.00023407549797357187
-0.00018200300476647888   0.0   -0.00023407549797357187
-0.00024159867037644537   1.029451546495641e-05   -0.0001409260979026005
-0.00024159867037644537   1.029451546495641e-05   -0.0001409260979026005
-0.00024159867037644537   1.029451546495641e-05   -0.0001409260979026005
-0.00024159867037644537   1.029451546495641e-05   -0.0001409260979026005
-0.00018200300476647907   3.3860279747820535e-05   -1.167761614876122e-05
-0.00018200300476647907   3.3860279747820535e-05   -1.167761614876122e-05
-0.00018200300476647907   3.3860279747820535e-05   -1.167761614876122e-05
-0.00018200300476647907   3.3860279747820535e-05   -1.167761614876122e-05
-0.0003154417338613642   0.0   -0.0002543916658222633
-0.0003154417338613642   0.0   -0.0002543916658222633
-0.0003154417338613642   0.0   -0.0002543916658222633
-0.0003154417338613642   0.0   -0.0002543916658222633
-0.0003082053883148901   3.547138758666201e-05   -1.3251535482343944e-05
-0.0003082053883148901   3.547138758666201e-05   -1.3251535482343944e-05
-0.0003082053883148901   3.547138758666201e-05   -1.3251535482343944e-05
-0.0003082053883148901   3.547138758666201e-05   -1.3251535482343944e-05
-0.00017639958046426193   0.0   -0.0002116450493480608
-0.00017639958046426193   0.0   -0.0002116450493480608
-0.00017639958046426193   0.0   -0.0002116450493480608
-0.00017639958046426193   0.0   -0.0002116450493480608
-0.00023899480006231248   1.6383688449335757e-05   -0.00011714989642090754
-0.00023899480006231248   1.6383688449335757e-05   -0.00011714989642090754
-0.00023899480006231248   1.6383688449335757e-05   -0.00011714989642090754
-0.00023899480006231248   1.6383688449335757e-05   -0.00011714989642090754
-0.00017639958046426193   3.547138758666201e-05   8.031297069653956e-06
-0.00017639958046426193   3.547138758666201e-05   8.031297069653956e-06
-0.00017639958046426193   3.547138758666201e-05   8.031297069653956e-06
-0.00017639958046426193   3.547138758666201e-05   8.031297069653956e-06
-0.00030820538831488956   0.0   -0.00023292788190005728
-0.00030820538831488956   0.0   -0.00023292788190005728
-0.00030820538831488956   0.0   -0.00023292788190005728
-0.00030820538831488956   0.0   -0.00023292788190005728
-0.0002937799140819417   3.826680903783186e-05   1.6871974502083095e-05
-0.0002937799140819417   3.826680903783186e-05   1.6871974502083095e-05
-0.0002937799140819417   3.826680903783186e-05   1.6871974502083095e-05
-0.0002937799140819417   3.826680903783186e-05   1.6871974502083095e-05
-0.000167231444630959   0.0   -0.00017108205582685716
-0.000167231444630959   0.0   -0.00017108205582685716
-0.000167231444630959   0.0   -0.00017108205582685716
-0.000167231444630959   0.0   -0.00017108205582685716
-0.00022644730382472564   2.0229542149337656e-05   -8.452668246018095e-05
-0.00022644730382472564   2.0229542149337656e-05   -8.452668246018095e-05
-0.00022644730382472564   2.0229542149337656e-05   -8.452668246018095e-05
-0.00022644730382472564   2.0229542149337656e-05   -8.452668246018095e-05
0.0002401592493606918   -4.1344795549420194e-05   0.0001435508710498929
0.0002401592493606918   -4.1344795549420194e-05   0.0001435508710498929
0.0002401592493606918   -4.1344795549420194e-05   0.0001435508710498929
0.0002401592493606918   -4.1344795549420194e-05   0.0001435508710498929
0.00012473064633236467   -3.176102616591313e-05   -4.307987236721461e-05
0.00012473064633236467   -3.176102616591313e-05   -4.307987236721461e-05
0.00012473064633236467   -3.176102616591313e-05   -4.307987236721461e-05
0.00012473064633236467   -3.176102616591313e-05   -4.307987236721461e-05
0.00012156664920765013   -4.2378721616789794e-05   0.00012689684644486
0.00012156664920765013   -4.2378721616789794e-05   0.00012689684644486
0.00012156664920765013   -4.2378721616789794e-05   0.00012689684644486
0.00012156664920765013   -4.2378721616789794e-05   0.00012689684644486
0.00023755453752818278   -3.493848006477958e-05   -7.088044568723478e-05
0.00023755453752818278   -3.493848006477958e-05   -7.088044568723478e-05
0.00023755453752818278   -3.493848006477958e-05   -7.088044568723478e-05
0.00023755453752818278   -3.493848006477958e-05   -7.088044568723478e-05
0.00017360270852402623   -3.557277697578687e-05   3.608651413296478e-05
0.00017360270852402623   -3.557277697578687e-05   3.608651413296478e-05
0.00017360270852402623   -3.557277697578687e-05   3.608651413296478e-05
0.00017360270852402623   -3.557277697578687e-05   3.608651413296478e-05
0.00023755453752818278   -4.2378721616789794e-05   0.00012243270151365317
0.00023755453752818278   -4.2378721616789794e-05   0.00012243270151365317
0.00023755453752818278   -4.2378721616789794e-05   0.00012243270151365317
0.00023755453752818278   -4.2378721616789794e-05   0.00012243270151365317
0.00012156664920765013   -3.493848006477958e-05   -6.641630075602742e-05
0.00012156664920765013   -3.493848006477958e-05   -6.641630075602742e-05
0.00012156664920765013   -3.493848006477958e-05   -6.641630075602742e-05
0.00012156664920765013   -3.493848006477958e-05   -6.641630075602742e-05
0.00011870685768691102   -4.200164108252545e-05   0.00011398998594714087
0.00011870685768691102   -4.200164108252545e-05   0.00011398998594714087
0.00011870685768691102   -4.200164108252545e-05   0.00011398998594714087
0.00011870685768691102   -4.200164108252545e-05   0.00011398998594714087
0.00023455147853114505   -3.52382365520279e-05   -8.314242484488033e-05
0.00023455147853114505   -3.52382365520279e-05   -8.314242484488033e-05
0.00023455147853114505   -3.52382365520279e-05   -8.314242484488033e-05
0.00023455147853114505   -3.52382365520279e-05   -8.314242484488033e-05
0.00017344012060144394   -3.6196397082575646e-05   1.9284734689616924e-05
0.00017344012060144394   -3.6196397082575646e-05   1.9284734689616924e-05
0.00017344012060144394   -3.6196397082575646e-05   1.9284734689616924e-05
0.00017344012060144394   -3.6196397082575646e-05   1.9284734689616924e-05
0.00023455147853114548   -4.200164108252545e-05   0.000109931943228842
0.00023455147853114548   -4.200164108252545e-05   0.000109931943228842
0.00023455147853114548   -4.200164108252545e-05   0.000109931943228842
0.00023455147853114548   -4.200164108252545e-05   0.000109931943228842
0.00011870685768691102   -3.52382365520279e-05   -7.908438212658308e-05
0.00011870685768691102   -3.52382365520279e-05   -7.908438212658308e-05
0.00011870685768691102   -3.52382365520279e-05   -7.908438212658308e-05
0.00011870685768691102   -3.52382365520279e-05   -7.908438212658308e-05
0.00011521915114173114   -3.968494800897504e-05   9.299197771464509e-05
0.00011521915114173114   -3.968494800897504e-05   9.299197771464509e-05
0.00011521915114173114   -3.968494800897504e-05   9.299197771464509e-05
0.00011521915114173114   -3.968494800897504e-05   9.299197771464509e-05
0.0002298470756477643   -3.4528051132435775e-05   -0.00010114870125466785
0.0002298470756477643   -3.4528051132435775e-05   -0.00010114870125466785
0.0002298470756477643   -3.4528051132435775e-05   -0.00010114870125466785
0.0002298470756477643   -3.4528051132435775e-05   -0.00010114870125466785
0.00016749163396092767   -3.442193004227559e-05   2.7133622359635547e-06
0.00016749163396092767   -3.442193004227559e-05   2.7133622359635547e-06
0.00016749163396092767   -3.442193004227559e-05   2.7133622359635547e-06
0.00016749163396092767   -3.442193004227559e-05   2.7133622359635547e-06
0.00012473064633236467   -4.173932870225536e-05   0.00010744385244369943
0.00012473064633236467   -4.173932870225536e-05   0.00010744385244369943
0.00012473064633236467   -4.173932870225536e-05   0.00010744385244369943
0.00012473064633236467   -4.173932870225536e-05   0.00010744385244369943
2.692932831704567e-05   -1.9751339337020432e-05   -4.2365550629358886e-05
2.692932831704567e-05   -1.9751339337020432e-05   -4.2365550629358886e-05
2.692932831704567e-05   -1.9751339337020432e-05   -4.2365550629358886e-05
2.692932831704567e-05   -1.9751339337020432e-05   -4.2365550629358886e-05
2.1921293005967575e-05   -4.1538324077033256e-05   0.00012280057441277966
2.1921293005967575e-05   -4.1538324077033256e-05   0.00012280057441277966
2.1921293005967575e-05   -4.1538324077033256e-05   0.00012280057441277966
2.1921293005967575e-05   -4.1538324077033256e-05   0.00012280057441277966
0.00012156664920765013   -2.09569268387437e-05   -5.562385759966444e-05
0.00012156664920765013   -2.09569268387437e-05   -5.562385759966444e-05
0.00012156664920765013   -2.09569268387437e-05   -5.562385759966444e-05
0.00012156664920765013   -2.09569268387437e-05   -5.562385759966444e-05
7.368937986739488e-05   -2.985103085493407e-05   2.9508053710475442e-05
7.368937986739488e-05   -2.985103085493407e-05   2.9508053710475442e-05
7.368937986739488e-05   -2.985103085493407e-05   2.9508053710475442e-05
7.368937986739488e-05   -2.985103085493407e-05   2.9508053710475442e-05
0.00012156664920765024   -4.1538324077033256e-05   0.0001104517360698068
0.00012156664920765024   -4.1538324077033256e-05   0.0001104517360698068
0.00012156664920765024   -4.1538324077033256e-05   0.0001104517360698068
0.00012156664920765024   -4.1538324077033256e-05   0.0001104517360698068
2.1921293005967575e-05   -2.09569268387437e-05   -4.32750192566906e-05
2.1921293005967575e-05   -2.09569268387437e-05   -4.32750192566906e-05
2.1921293005967575e-05   -2.09569268387437e-05   -4.32750192566906e-05
2.1921293005967575e-05   -2.09569268387437e-05   -4.32750192566906e-05
1.835397782091959e-05   -4.0998425457400636e-05   0.00012302949471487343
1.835397782091959e-05   -4.0998425457400636e-05   0.00012302949471487343
1.835397782091959e-05   -4.0998425457400636e-05   0.00012302949471487343
1.835397782091959e-05   -4.0998425457400636e-05   0.00012302949471487343
0.00011870685768691102   -2.1502786886871267e-05   -5.5922688204096925e-05
0.00011870685768691102   -2.1502786886871267e-05   -5.5922688204096925e-05
0.00011870685768691102   -2.1502786886871267e-05   -5.5922688204096925e-05
0.00011870685768691102   -2.1502786886871267e-05   -5.5922688204096925e-05
6.940590730832269e-05   -2.9246891990875393e-05   3.089202548929018e-05
6.940590730832269e-05   -2.9246891990875393e-05   3.089202548929018e-05
6.940590730832269e-05   -2.9246891990875393e-05   3.089202548929018e-05
6.940590730832269e-05   -2.9246891990875393e-05   3.089202548929018e-05
0.00011870685768691118   -4.09984254573989e-05   0.00011133211157255633
0.00011870685768691118   -4.09984254573989e-05   0.00011133211157255633
0.00011870685768691118   -4.09984254573989e-05   0.00011133211157255633
0.00011870685768691118   -4.09984254573989e-05   0.00011133211157255633
1.835397782091959e-05   -2.1502786886871267e-05   -4.422530506177809e-05
1.835397782091959e-05   -2.1502786886871267e-05   -4.422530506177809e-05
1.835397782091959e-05   -2.1502786886871267e-05   -4.422530506177809e-05
1.835397782091959e-05   -2.1502786886871267e-05   -4.422530506177809e-05
1.4384047780764686e-05   -3.990833588119261e-05   0.0001270803955109607
1.4384047780764686e-05   -3.990833588119261e-05   0.0001270803955109607
1.4384047780764686e-05   -3.990833588119261e-05   0.0001270803955109607
1.4384047780764686e-05   -3.990833588119261e-05   0.0001270803955109607
0.00011521915114173098   -2.1035330830105475e-05   -5.230191312130192e-05
0.00011521915114173098   -2.1035330830105475e-05   -5.230191312130192e-05
0.00011521915114173098   -2.1035330830105475e-05   -5.230191312130192e-05
0.00011521915114173098   -2.1035330830105475e-05   -5.230191312130192e-05
6.677851860040218e-05   -2.7977215905524572e-05   3.259760549283218e-05
6.677851860040218e-05   -2.7977215905524572e-05   3.259760549283218e-05
6.677851860040218e-05   -2.7977215905524572e-05   3.259760549283218e-05
6.677851860040218e-05   -2.7977215905524572e-05   3.259760549283218e-05
2.6929328317045723e-05   -5.062947653020414e-05   0.00011069230904685052
2.6929328317045723e-05   -5.062947653020414e-05   0.00011069230904685052
2.6929328317045723e-05   -5.062947653020414e-05   0.00011069230904685052
2.6929328317045723e-05   -5.062947653020414e-05   0.00011069230904685052
-6.699532115308907e-05   -8.479561492530027e-06   -2.0558824380768025e-05
-6.699532115308907e-05   -8.479561492530027e-06   -2.0558824380768025e-05
-6.699532115308907e-05   -8.479561492530027e-06   -2.0558824380768025e-05
-6.699532115308907e-05   -8.479561492530027e-06   -2.0558824380768025e-05
-7.478888525332621e-05   -5.176953810927254e-05   0.0001424905192004538
-7.478888525332621e-05   -5.176953810927254e-05   0.0001424905192004538
-7.478888525332621e-05   -5.176953810927254e-05   0.0001424905192004538
-7.478888525332621e-05   -5.176953810927254e-05   0.0001424905192004538
2.1921293005967575e-05   -8.959484906248191e-06   -4.437914315351724e-05
2.1921293005967575e-05   -8.959484906248191e-06   -4.437914315351724e-05
2.1921293005967575e-05   -8.959484906248191e-06   -4.437914315351724e-05
2.1921293005967575e-05   -8.959484906248191e-06   -4.437914315351724e-05
-2.238189330535707e-05   -2.900067986613339e-05   4.14842176746223e-05
-2.238189330535707e-05   -2.900067986613339e-05   4.14842176746223e-05
-2.238189330535707e-05   -2.900067986613339e-05   4.14842176746223e-05
-2.238189330535707e-05   -2.900067986613339e-05   4.14842176746223e-05
2.1921293005967575e-05   -5.176953810927254e-05   0.00011680448727863831
2.1921293005967575e-05   -5.176953810927254e-05   0.00011680448727863831
2.1921293005967575e-05   -5.176953810927254e-05   0.00011680448727863831
2.1921293005967575e-05   -5.176953810927254e-05   0.00011680448727863831
-7.478888525332605e-05   -8.959484906248191e-06   -1.869311123170285e-05
-7.478888525332605e-05   -8.959484906248191e-06   -1.869311123170285e-05
-7.478888525332605e-05   -8.959484906248191e-06   -1.869311123170285e-05
-7.478888525332605e-05   -8.959484906248191e-06   -1.869311123170285e-05
-7.954579248941403e-05   -5.1551931853396904e-05   0.0001479434310499841
-7.954579248941403e-05   -5.1551931853396904e-05   0.0001479434310499841
-7.954579248941403e-05   -5.1551931853396904e-05   0.0001479434310499841
-7.954579248941403e-05   -5.1551931853396904e-05   0.0001479434310499841
1.835397782091959e-05   -9.544663532897249e-06   -4.042721379287056e-05
1.835397782091959e-05   -9.544663532897249e-06   -4.042721379287056e-05
1.835397782091959e-05   -9.544663532897249e-06   -4.042721379287056e-05
1.835397782091959e-05   -9.544663532897249e-06   -4.042721379287056e-05
-2.7654957204599874e-05   -2.8926316663889853e-05   4.788333646158936e-05
-2.7654957204599874e-05   -2.8926316663889853e-05   4.788333646158936e-05
-2.7654957204599874e-05   -2.8926316663889853e-05   4.788333646158936e-05
-2.7654957204599874e-05   -2.8926316663889853e-05   4.788333646158936e-05
1.8353977820919536e-05   -5.155193185339517e-05   0.0001227390700576838
1.8353977820919536e-05   -5.155193185339517e-05   0.0001227390700576838
1.8353977820919536e-05   -5.155193185339517e-05   0.0001227390700576838
1.8353977820919536e-05   -5.155193185339517e-05   0.0001227390700576838
-7.954579248941387e-05   -9.544663532897249e-06   -1.5222852800572846e-05
-7.954579248941387e-05   -9.544663532897249e-06   -1.5222852800572846e-05
-7.954579248941387e-05   -9.544663532897249e-06   -1.5222852800572846e-05
-7.954579248941387e-05   -9.544663532897249e-06   -1.5222852800572846e-05
-8.514838853224902e-05   -4.977304043067045e-05   0.00015501467198108382
-8.514838853224902e-05   -4.977304043067045e-05   0.00015501467198108382
-8.514838853224902e-05   -4.977304043067045e-05   0.00015501467198108382
-8.514838853224902e-05   -4.977304043067045e-05   0.00015501467198108382
1.4384047780764686e-05   -9.502409907035173e-06   -3.503510018812038e-05
1.4384047780764686e-05   -9.502409907035173e-06   -3.503510018812038e-05
1.4384047780764686e-05   -9.502409907035173e-06   -3.503510018812038e-05
1.4384047780764686e-05   -9.502409907035173e-06   -3.503510018812038e-05
-3.194544264516124e-05   -2.779882540170954e-05   5.315856648522828e-05
-3.194544264516124e-05   -2.779882540170954e-05   5.315856648522828e-05
-3.194544264516124e-05   -2.779882540170954e-05   5.315856648522828e-05
-3.194544264516124e-05   -2.779882540170954e-05   5.315856648522828e-05
-6.699532115308918e-05   -6.339799993856574e-05   0.00013434229381221584
-6.699532115308918e-05   -6.339799993856574e-05   0.00013434229381221584
-6.699532115308918e-05   -6.339799993856574e-05   0.00013434229381221584
-6.699532115308918e-05   -6.339799993856574e-05   0.00013434229381221584
-0.00017414544295272675   8.62125803977043e-06   -1.0296877335121135e-06
-0.00017414544295272675   8.62125803977043e-06   -1.0296877335121135e-06
-0.00017414544295272675   8.62125803977043e-06   -1.0296877335121135e-06
-0.00017414544295272675   8.62125803977043e-06   -1.0296877335121135e-06
-0.00018348643540428805   -7.067971000329805e-05   0.0001900958929393834
-0.00018348643540428805   -7.067971000329805e-05   0.0001900958929393834
-0.00018348643540428805   -7.067971000329805e-05   0.0001900958929393834
-0.00018348643540428805   -7.067971000329805e-05   0.0001900958929393834
-7.478888525332605e-05   8.061330493080998e-06   -3.831131494338091e-05
-7.478888525332605e-05   8.061330493080998e-06   -3.831131494338091e-05
-7.478888525332605e-05   8.061330493080998e-06   -3.831131494338091e-05
-7.478888525332605e-05   8.061330493080998e-06   -3.831131494338091e-05
-0.00012309277900640286   -2.654446478797534e-05   6.295865181371379e-05
-0.00012309277900640286   -2.654446478797534e-05   6.295865181371379e-05
-0.00012309277900640286   -2.654446478797534e-05   6.295865181371379e-05
-0.00012309277900640286   -2.654446478797534e-05   6.295865181371379e-05
-7.478888525332621e-05   -7.067971000329805e-05   0.00014285126864155458
-7.478888525332621e-05   -7.067971000329805e-05   0.00014285126864155458
-7.478888525332621e-05   -7.067971000329805e-05   0.00014285126864155458
-7.478888525332621e-05   -7.067971000329805e-05   0.00014285126864155458
-0.00018348643540428805   8.061330493080998e-06   8.933309354446604e-06
-0.00018348643540428805   8.061330493080998e-06   8.933309354446604e-06
-0.00018348643540428805   8.061330493080998e-06   8.933309354446604e-06
-0.00018348643540428805   8.061330493080998e-06   8.933309354446604e-06
-0.000189184732499479   -7.109895217682904e-05   0.00020070602140956437
-0.000189184732499479   -7.109895217682904e-05   0.00020070602140956437
-0.000189184732499479   -7.109895217682904e-05   0.00020070602140956437
-0.000189184732499479   -7.109895217682904e-05   0.00020070602140956437
-7.954579248941387e-05   7.060550241086774e-06   -2.8921246724627277e-05
-7.954579248941387e-05   7.060550241086774e-06   -2.8921246724627277e-05
-7.954579248941387e-05   7.060550241086774e-06   -2.8921246724627277e-05
-7.954579248941387e-05   7.060550241086774e-06   -2.8921246724627277e-05
-0.00012917767449896036   -3.0480188165172076e-05   7.632299966837302e-05
-0.00012917767449896036   -3.0480188165172076e-05   7.632299966837302e-05
-0.00012917767449896036   -3.0480188165172076e-05   7.632299966837302e-05
-0.00012917767449896036   -3.0480188165172076e-05   7.632299966837302e-05
-7.954579248941381e-05   -7.109895217682904e-05   0.00015381031995881367
-7.954579248941381e-05   -7.109895217682904e-05   0.00015381031995881367
-7.954579248941381e-05   -7.109895217682904e-05   0.00015381031995881367
-7.954579248941381e-05   -7.109895217682904e-05   0.00015381031995881367
-0.00018918473249947867   7.060550241086774e-06   1.797445472612267e-05
-0.00018918473249947867   7.060550241086774e-06   1.797445472612267e-05
-0.00018918473249947867   7.060550241086774e-06   1.797445472612267e-05
-0.00018918473249947867   7.060550241086774e-06   1.797445472612267e-05
-0.00019531878180497025   -6.50340730661645e-05   0.00020530663971331936
-0.00019531878180497025   -6.50340730661645e-05   0.00020530663971331936
-0.00019531878180497025   -6.50340730661645e-05   0.00020530663971331936
-0.00019531878180497025   -6.50340730661645e-05   0.00020530663971331936
-8.514838853224875e-05   5.931518586931028e-06   -2.0890037399740936e-05
-8.514838853224875e-05   5.931518586931028e-06   -2.0890037399740936e-05
-8.514838853224875e-05   5.931518586931028e-06   -2.0890037399740936e-05
-8.514838853224875e-05   5.931518586931028e-06   -2.0890037399740936e-05
-0.0001354268072872243   -3.07236902148747e-05   8.490045247297115e-05
-0.0001354268072872243   -3.07236902148747e-05   8.490045247297115e-05
-0.0001354268072872243   -3.07236902148747e-05   8.490045247297115e-05
-0.0001354268072872243   -3.07236902148747e-05   8.490045247297115e-05
-0.00017414544295272616   0.0   0.00014921305603275356
-0.00017414544295272616   0.0   0.00014921305603275356
-0.00017414544295272616   0.0   0.00014921305603275356
-0.00017414544295272616   0.0   0.00014921305603275356
-0.00030728820225590513   4.022497203507065e-05   -4.855655958483588e-05
-0.00030728820225590513   4.022497203507065e-05   -4.855655958483588e-05
-0.00030728820225590513   4.022497203507065e-05   -4.855655958483588e-05
-0.00030728820225590513   4.022497203507065e-05   -4.855655958483588e-05
-0.0003202165275314735   0.0   0.00021588258825507457
-0.0003202165275314735   0.0   0.00021588258825507457
-0.0003202165275314735   0.0   0.00021588258825507457
-0.0003202165275314735   0.0   0.00021588258825507457
-0.00018348643540428772   3.876862509797144e-05   -3.5262073682352526e-05
-0.00018348643540428772   3.876862509797144e-05   -3.5262073682352526e-05
-0.00018348643540428772   3.876862509797144e-05   -3.5262073682352526e-05
-0.00018348643540428772   3.876862509797144e-05   -3.5262073682352526e-05
-0.00023577299212280275   2.3869073742775054e-05   6.0821918328291414e-05
-0.00023577299212280275   2.3869073742775054e-05   6.0821918328291414e-05
-0.00023577299212280275   2.3869073742775054e-05   6.0821918328291414e-05
-0.00023577299212280275   2.3869073742775054e-05   6.0821918328291414e-05
-0.00018348643540428756   0.0   0.000192621413196291
-0.00018348643540428756   0.0   0.000192621413196291
-0.00018348643540428756   0.0   0.000192621413196291
-0.00018348643540428756   0.0   0.000192621413196291
-0.0003202165275314741   3.876862509797144e-05   -1.2000898623569511e-05
-0.0003202165275314741   3.876862509797144e-05   -1.2000898623569511e-05
-0.0003202165275314741   3.876862509797144e-05   -1.2000898623569511e-05
-0.0003202165275314741   3.876862509797144e-05   -1.2000898623569511e-05
-0.0003267333145246509   0.0   0.0002396063616938943
-0.0003267333145246509   0.0   0.0002396063616938943
-0.0003267333145246509   0.0   0.0002396063616938943
-0.0003267333145246509   0.0   0.0002396063616938943
-0.00018918473249947867   3.775401825093297e-05   -1.2293685965286227e-05
-0.00018918473249947867   3.775401825093297e-05   -1.2293685965286227e-05
-0.00018918473249947867   3.775401825093297e-05   -1.2293685965286227e-05
-0.00018918473249947867   3.775401825093297e-05   -1.2293685965286227e-05
-0.0002481840178639687   1.9915631802168432e-05   9.674148817812554e-05
-0.0002481840178639687   1.9915631802168432e-05   9.674148817812554e-05
-0.0002481840178639687   1.9915631802168432e-05   9.674148817812554e-05
-0.0002481840178639687   1.9915631802168432e-05   9.674148817812554e-05
-0.00018918473249947867   0.0   0.00021695395074333452
-0.00018918473249947867   0.0   0.00021695395074333452
-0.00018918473249947867   0.0   0.00021695395074333452
-0.00018918473249947867   0.0   0.00021695395074333452
-0.000326733314524652   3.775401825093297e-05   1.0358724985273446e-05
-0.000326733314524652   3.775401825093297e-05   1.0358724985273446e-05
-0.000326733314524652   3.775401825093297e-05   1.0358724985273446e-05
-0.000326733314524652   3.775401825093297e-05   1.0358724985273446e-05
-0.00033401187048810754   0.0   0.00027125296582394907
-0.00033401187048810754   0.0   0.00027125296582394907
-0.00033401187048810754   0.0   0.00027125296582394907
-0.00033401187048810754   0.0   0.00027125296582394907
-0.00019531878180497025   3.135492358236937e-05   2.128486386929814e-05
-0.00019531878180497025   3.135492358236937e-05   2.128486386929814e-05
-0.00019531878180497025   3.135492358236937e-05   2.128486386929814e-05
-0.00019531878180497025   3.135492358236937e-05   2.128486386929814e-05
-0.0002503271888455947   1.3940532988849716e-05   0.00012341417662645095
-0.0002503271888455947   1.3940532988849716e-05   0.00012341417662645095
-0.0002503271888455947   1.3940532988849716e-05   0.00012341417662645095
-0.0002503271888455947   1.3940532988849716e-05   0.00012341417662645095
0.00021080364022682714   -3.176102616591486e-05   0.00015003791060905214
0.00021080364022682714   -3.176102616591486e-05   0.00015003791060905214
0.00021080364022682714   -3.176102616591486e-05   0.00015003791060905214
0.00021080364022682714   -3.176102616591486e-05   0.00015003791060905214
0.00010670533867498879   -2.3873448328253638e-05   -1.8726711941415702e-05
0.00010670533867498879   -2.3873448328253638e-05   -1.8726711941415702e-05
0.00010670533867498879   -2.3873448328253638e-05   -1.8726711941415702e-05
0.00010670533867498879   -2.3873448328253638e-05   -1.8726711941415702e-05
0.00010386434851598875   -3.493848006477958e-05   0.00013104739229975217
0.00010386434851598875   -3.493848006477958e-05   0.00013104739229975217
0.00010386434851598875   -3.493848006477958e-05   0.00013104739229975217
0.00010386434851598875   -3.493848006477958e-05   0.00013104739229975217
0.00020572048061547914   -2.707942066955578e-05   -4.3428263503198216e-05
0.00020572048061547914   -2.707942066955578e-05   -4.3428263503198216e-05
0.00020572048061547914   -2.707942066955578e-05   -4.3428263503198216e-05
0.00020572048061547914   -2.707942066955578e-05   -4.3428263503198216e-05
0.00014979411096516056   -2.8231064466852085e-05   5.047333885904422e-05
0.00014979411096516056   -2.8231064466852085e-05   5.047333885904422e-05
0.00014979411096516056   -2.8231064466852085e-05   5.047333885904422e-05
0.00014979411096516056   -2.8231064466852085e-05   5.047333885904422e-05
0.00020572048061547881   -3.493848006477958e-05   0.0001263319566626184
0.00020572048061547881   -3.493848006477958e-05   0.0001263319566626184
0.00020572048061547881   -3.493848006477958e-05   0.0001263319566626184
0.00020572048061547881   -3.493848006477958e-05   0.0001263319566626184
0.00010386434851598897   -2.707942066955578e-05   -3.8712827866065405e-05
0.00010386434851598897   -2.707942066955578e-05   -3.8712827866065405e-05
0.00010386434851598897   -2.707942066955578e-05   -3.8712827866065405e-05
0.00010386434851598897   -2.707942066955578e-05   -3.8712827866065405e-05
0.00010020307132101538   -3.52382365520279e-05   0.00011767885054832228
0.00010020307132101538   -3.52382365520279e-05   0.00011767885054832228
0.00010020307132101538   -3.52382365520279e-05   0.00011767885054832228
0.00010020307132101538   -3.52382365520279e-05   0.00011767885054832228
0.00020058467012921022   -2.7561195074132794e-05   -5.423003901873971e-05
0.00020058467012921022   -2.7561195074132794e-05   -5.423003901873971e-05
0.00020058467012921022   -2.7561195074132794e-05   -5.423003901873971e-05
0.00020058467012921022   -2.7561195074132794e-05   -5.423003901873971e-05
0.00014834283270029336   -2.9468882103780153e-05   3.398430224724235e-05
0.00014834283270029336   -2.9468882103780153e-05   3.398430224724235e-05
0.00014834283270029336   -2.9468882103780153e-05   3.398430224724235e-05
0.00014834283270029336   -2.9468882103780153e-05   3.398430224724235e-05
0.00020058467012921022   -3.52382365520279e-05   0.00011307262566158469
0.00020058467012921022   -3.52382365520279e-05   0.00011307262566158469
0.00020058467012921022   -3.52382365520279e-05   0.00011307262566158469
0.00020058467012921022   -3.52382365520279e-05   0.00011307262566158469
0.00010020307132101538   -2.7561195074132794e-05   -4.962381413200264e-05
0.00010020307132101538   -2.7561195074132794e-05   -4.962381413200264e-05
0.00010020307132101538   -2.7561195074132794e-05   -4.962381413200264e-05
0.00010020307132101538   -2.7561195074132794e-05   -4.962381413200264e-05
9.636364024480961e-05   -3.452805113243404e-05   9.786833584103476e-05
9.636364024480961e-05   -3.452805113243404e-05   9.786833584103476e-05
9.636364024480961e-05   -3.452805113243404e-05   9.786833584103476e-05
9.636364024480961e-05   -3.452805113243404e-05   9.786833584103476e-05
0.00019415731135673936   -2.7410139439711795e-05   -6.939186302781653e-05
0.00019415731135673936   -2.7410139439711795e-05   -6.939186302781653e-05
0.00019415731135673936   -2.7410139439711795e-05   -6.939186302781653e-05
0.00019415731135673936   -2.7410139439711795e-05   -6.939186302781653e-05
0.0001416888224806002   -2.870523895266014e-05   1.8832678140186677e-05
0.0001416888224806002   -2.870523895266014e-05   1.8832678140186677e-05
0.0001416888224806002   -2.870523895266014e-05   1.8832678140186677e-05
0.0001416888224806002   -2.870523895266014e-05   1.8832678140186677e-05
0.000106705338674989   -1.9751339337020432e-05   0.00014229198543036416
0.000106705338674989   -1.9751339337020432e-05   0.00014229198543036416
0.000106705338674989   -1.9751339337020432e-05   0.00014229198543036416
0.000106705338674989   -1.9751339337020432e-05   0.00014229198543036416
1.191536780180706e-05   -8.451744484855306e-06   -8.91154244697396e-06
1.191536780180706e-05   -8.451744484855306e-06   -8.91154244697396e-06
1.191536780180706e-05   -8.451744484855306e-06   -8.91154244697396e-06
1.191536780180706e-05   -8.451744484855306e-06   -8.91154244697396e-06
9.095712236477837e-06   -2.0956926838745435e-05   0.0001483062271525129
9.095712236477837e-06   -2.0956926838745435e-05   0.0001483062271525129
9.095712236477837e-06   -2.0956926838745435e-05   0.0001483062271525129
9.095712236477837e-06   -2.0956926838745435e-05   0.0001483062271525129
0.00010386434851598897   -1.017960734474993e-05   -1.6107891676402325e-05
0.00010386434851598897   -1.017960734474993e-05   -1.6107891676402325e-05
0.00010386434851598897   -1.017960734474993e-05   -1.6107891676402325e-05
0.00010386434851598897   -1.017960734474993e-05   -1.6107891676402325e-05
5.7341916560780214e-05   -1.3790573611222393e-05   6.359607467549492e-05
5.7341916560780214e-05   -1.3790573611222393e-05   6.359607467549492e-05
5.7341916560780214e-05   -1.3790573611222393e-05   6.359607467549492e-05
5.7341916560780214e-05   -1.3790573611222393e-05   6.359607467549492e-05
0.00010386434851598886   -2.0956926838745435e-05   0.00014183983545611525
0.00010386434851598886   -2.0956926838745435e-05   0.00014183983545611525
0.00010386434851598886   -2.0956926838745435e-05   0.00014183983545611525
0.00010386434851598886   -2.0956926838745435e-05   0.00014183983545611525
9.095712236477837e-06   -1.017960734474993e-05   -9.641499980006518e-06
9.095712236477837e-06   -1.017960734474993e-05   -9.641499980006518e-06
9.095712236477837e-06   -1.017960734474993e-05   -9.641499980006518e-06
9.095712236477837e-06   -1.017960734474993e-05   -9.641499980006518e-06
5.493597621263426e-06   -2.1502786886869532e-05   0.0001469504612377128
5.493597621263426e-06   -2.1502786886869532e-05   0.0001469504612377128
5.493597621263426e-06   -2.1502786886869532e-05   0.0001469504612377128
5.493597621263426e-06   -2.1502786886869532e-05   0.0001469504612377128
0.00010020307132101538   -1.1319592275363388e-05   -1.700857836211086e-05
0.00010020307132101538   -1.1319592275363388e-05   -1.700857836211086e-05
0.00010020307132101538   -1.1319592275363388e-05   -1.700857836211086e-05
0.00010020307132101538   -1.1319592275363388e-05   -1.700857836211086e-05
5.377080503050959e-05   -1.444831305004099e-05   6.225576458687362e-05
5.377080503050959e-05   -1.444831305004099e-05   6.225576458687362e-05
5.377080503050959e-05   -1.444831305004099e-05   6.225576458687362e-05
5.377080503050959e-05   -1.444831305004099e-05   6.225576458687362e-05
0.00010020307132101522   -2.1502786886871267e-05   0.00014084054447080843
0.00010020307132101522   -2.1502786886871267e-05   0.00014084054447080843
0.00010020307132101522   -2.1502786886871267e-05   0.00014084054447080843
0.00010020307132101522   -2.1502786886871267e-05   0.00014084054447080843
5.493597621263426e-06   -1.1319592275363388e-05   -1.0898661595207075e-05
5.493597621263426e-06   -1.1319592275363388e-05   -1.0898661595207075e-05
5.493597621263426e-06   -1.1319592275363388e-05   -1.0898661595207075e-05
5.493597621263426e-06   -1.1319592275363388e-05   -1.0898661595207075e-05
1.5140781749548309e-06   -2.103533083010721e-05   0.0001491513213672819
1.5140781749548309e-06   -2.103533083010721e-05   0.0001491513213672819
1.5140781749548309e-06   -2.103533083010721e-05   0.0001491513213672819
1.5140781749548309e-06   -2.103533083010721e-05   0.0001491513213672819
9.636364024480956e-05   -1.1818104965428955e-05   -1.4461617601282354e-05
9.636364024480956e-05   -1.1818104965428955e-05   -1.4461617601282354e-05
9.636364024480956e-05   -1.1818104965428955e-05   -1.4461617601282354e-05
9.636364024480956e-05   -1.1818104965428955e-05   -1.4461617601282354e-05
5.0850528867061895e-05   -1.4321061775525099e-05   6.289534211435799e-05
5.0850528867061895e-05   -1.4321061775525099e-05   6.289534211435799e-05
5.0850528867061895e-05   -1.4321061775525099e-05   6.289534211435799e-05
5.0850528867061895e-05   -1.4321061775525099e-05   6.289534211435799e-05
1.191536780180706e-05   -8.479561492530027e-06   0.0001455885195676479
1.191536780180706e-05   -8.479561492530027e-06   0.0001455885195676479
1.191536780180706e-05   -8.479561492530027e-06   0.0001455885195676479
1.191536780180706e-05   -8.479561492530027e-06   0.0001455885195676479
-7.989448365442993e-05   7.4504954769190335e-06   2.130134655588256e-06
-7.989448365442993e-05   7.4504954769190335e-06   2.130134655588256e-06
-7.989448365442993e-05   7.4504954769190335e-06   2.130134655588256e-06
-7.989448365442993e-05   7.4504954769190335e-06   2.130134655588256e-06
-8.307040422153361e-05   -8.959484906248191e-06   0.00015624921412195
-8.307040422153361e-05   -8.959484906248191e-06   0.00015624921412195
-8.307040422153361e-05   -8.959484906248191e-06   0.00015624921412195
-8.307040422153361e-05   -8.959484906248191e-06   0.00015624921412195
9.095712236477837e-06   6.119033204191743e-06   -6.408090840999609e-06
9.095712236477837e-06   6.119033204191743e-06   -6.408090840999609e-06
9.095712236477837e-06   6.119033204191743e-06   -6.408090840999609e-06
9.095712236477837e-06   6.119033204191743e-06   -6.408090840999609e-06
-3.542239744165954e-05   -2.665020935911644e-07   7.162007980123257e-05
-3.542239744165954e-05   -2.665020935911644e-07   7.162007980123257e-05
-3.542239744165954e-05   -2.665020935911644e-07   7.162007980123257e-05
-3.542239744165954e-05   -2.665020935911644e-07   7.162007980123257e-05
9.095712236477892e-06   -8.959484906248191e-06   0.00014720210325568604
9.095712236477892e-06   -8.959484906248191e-06   0.00014720210325568604
9.095712236477892e-06   -8.959484906248191e-06   0.00014720210325568604
9.095712236477892e-06   -8.959484906248191e-06   0.00014720210325568604
-8.307040422153361e-05   6.119033204191743e-06   2.639020025264026e-06
-8.307040422153361e-05   6.119033204191743e-06   2.639020025264026e-06
-8.307040422153361e-05   6.119033204191743e-06   2.639020025264026e-06
-8.307040422153361e-05   6.119033204191743e-06   2.639020025264026e-06
-8.733433258918124e-05   -9.544663532898984e-06   0.00015940306323687994
-8.733433258918124e-05   -9.544663532898984e-06   0.00015940306323687994
-8.733433258918124e-05   -9.544663532898984e-06   0.00015940306323687994
-8.733433258918124e-05   -9.544663532898984e-06   0.00015940306323687994
5.493597621263426e-06   4.879521017533972e-06   -3.964664510788156e-06
5.493597621263426e-06   4.879521017533972e-06   -3.964664510788156e-06
5.493597621263426e-06   4.879521017533972e-06   -3.964664510788156e-06
5.493597621263426e-06   4.879521017533972e-06   -3.964664510788156e-06
-3.855681366474829e-05   -6.47097878588368e-07   7.276865897023858e-05
-3.855681366474829e-05   -6.47097878588368e-07   7.276865897023858e-05
-3.855681366474829e-05   -6.47097878588368e-07   7.276865897023858e-05
-3.855681366474829e-05   -6.47097878588368e-07   7.276865897023858e-05
5.493597621263426e-06   -9.544663532897249e-06   0.00015074855250661948
5.493597621263426e-06   -9.544663532897249e-06   0.00015074855250661948
5.493597621263426e-06   -9.544663532897249e-06   0.00015074855250661948
5.493597621263426e-06   -9.544663532897249e-06   0.00015074855250661948
-8.733433258918113e-05   4.879521017533972e-06   4.689846219471661e-06
-8.733433258918113e-05   4.879521017533972e-06   4.689846219471661e-06
-8.733433258918113e-05   4.879521017533972e-06   4.689846219471661e-06
-8.733433258918113e-05   4.879521017533972e-06   4.689846219471661e-06
-9.187739607713759e-05   -9.502409907035173e-06   0.00016318646331718416
-9.187739607713759e-05   -9.502409907035173e-06   0.00016318646331718416
-9.187739607713759e-05   -9.502409907035173e-06   0.00016318646331718416
-9.187739607713759e-05   -9.502409907035173e-06   0.00016318646331718416
1.5140781749548309e-06   3.984476838586257e-06   -5.581258170091587e-07
1.5140781749548309e-06   3.984476838586257e-06   -5.581258170091587e-07
1.5140781749548309e-06   3.984476838586257e-06   -5.581258170091587e-07
1.5140781749548309e-06   3.984476838586257e-06   -5.581258170091587e-07
-4.255646951877365e-05   -9.236935699478976e-07   7.583768925099356e-05
-4.255646951877365e-05   -9.236935699478976e-07   7.583768925099356e-05
-4.255646951877365e-05   -9.236935699478976e-07   7.583768925099356e-05
-4.255646951877365e-05   -9.236935699478976e-07   7.583768925099356e-05
-7.989448365442972e-05   8.62125803977043e-06   0.00013146413560957172
-7.989448365442972e-05   8.62125803977043e-06   0.00013146413560957172
-7.989448365442972e-05   8.62125803977043e-06   0.00013146413560957172
-7.989448365442972e-05   8.62125803977043e-06   0.00013146413560957172
-0.00016976733687420982   2.4350769003526895e-05   -8.886246511808412e-06
-0.00016976733687420982   2.4350769003526895e-05   -8.886246511808412e-06
-0.00016976733687420982   2.4350769003526895e-05   -8.886246511808412e-06
-0.00016976733687420982   2.4350769003526895e-05   -8.886246511808412e-06
-0.00017440582134293023   8.061330493080998e-06   0.00014560078869995437
-0.00017440582134293023   8.061330493080998e-06   0.00014560078869995437
-0.00017440582134293023   8.061330493080998e-06   0.00014560078869995437
-0.00017440582134293023   8.061330493080998e-06   0.00014560078869995437
-8.307040422153339e-05   2.3010960975886063e-05   -1.5594684792055594e-05
-8.307040422153339e-05   2.3010960975886063e-05   -1.5594684792055594e-05
-8.307040422153339e-05   2.3010960975886063e-05   -1.5594684792055594e-05
-8.307040422153339e-05   2.3010960975886063e-05   -1.5594684792055594e-05
-0.00012577576740205627   1.6304102128900794e-05   5.960503581700638e-05
-0.00012577576740205627   1.6304102128900794e-05   5.960503581700638e-05
-0.00012577576740205627   1.6304102128900794e-05   5.960503581700638e-05
-0.00012577576740205627   1.6304102128900794e-05   5.960503581700638e-05
-8.30704042215335e-05   8.061330493080998e-06   0.00013663101041027238
-8.30704042215335e-05   8.061330493080998e-06   0.00013663101041027238
-8.30704042215335e-05   8.061330493080998e-06   0.00013663101041027238
-8.30704042215335e-05   8.061330493080998e-06   0.00013663101041027238
-0.00017440582134292996   2.301096097588433e-05   -6.624906502373379e-06
-0.00017440582134292996   2.301096097588433e-05   -6.624906502373379e-06
-0.00017440582134292996   2.301096097588433e-05   -6.624906502373379e-06
-0.00017440582134292996   2.301096097588433e-05   -6.624906502373379e-06
-0.0001800858525293644   7.060550241086774e-06   0.00015453420043698863
-0.0001800858525293644   7.060550241086774e-06   0.00015453420043698863
-0.0001800858525293644   7.060550241086774e-06   0.00015453420043698863
-0.0001800858525293644   7.060550241086774e-06   0.00015453420043698863
-8.733433258918113e-05   2.1776435448024253e-05   -8.881197254146473e-06
-8.733433258918113e-05   2.1776435448024253e-05   -8.881197254146473e-06
-8.733433258918113e-05   2.1776435448024253e-05   -8.881197254146473e-06
-8.733433258918113e-05   2.1776435448024253e-05   -8.881197254146473e-06
-0.00012923968892755854   1.5984600256318746e-05   6.443616442483938e-05
-0.00012923968892755854   1.5984600256318746e-05   6.443616442483938e-05
-0.00012923968892755854   1.5984600256318746e-05   6.443616442483938e-05
-0.00012923968892755854   1.5984600256318746e-05   6.443616442483938e-05
-8.733433258918102e-05   7.060550241086774e-06   0.00014570466931282562
-8.733433258918102e-05   7.060550241086774e-06   0.00014570466931282562
-8.733433258918102e-05   7.060550241086774e-06   0.00014570466931282562
-8.733433258918102e-05   7.060550241086774e-06   0.00014570466931282562
-0.0001800858525293644   2.1776435448025988e-05   -5.166612998368236e-08
-0.0001800858525293644   2.1776435448025988e-05   -5.166612998368236e-08
-0.0001800858525293644   2.1776435448025988e-05   -5.166612998368236e-08
-0.0001800858525293644   2.1776435448025988e-05   -5.166612998368236e-08
-0.00018610080755181635   5.931518586931028e-06   0.000161683493324692
-0.00018610080755181635   5.931518586931028e-06   0.000161683493324692
-0.00018610080755181635   5.931518586931028e-06   0.000161683493324692
-0.00018610080755181635   5.931518586931028e-06   0.000161683493324692
-9.187739607713721e-05   2.012209447578052e-05   -3.869871333081628e-06
-9.187739607713721e-05   2.012209447578052e-05   -3.869871333081628e-06
-9.187739607713721e-05   2.012209447578052e-05   -3.869871333081628e-06
-9.187739607713721e-05   2.012209447578052e-05   -3.869871333081628e-06
-0.00013497781684185928   1.4979073233237217e-05   7.104997602031893e-05
-0.00013497781684185928   1.4979073233237217e-05   7.104997602031893e-05
-0.00013497781684185928   1.4979073233237217e-05   7.104997602031893e-05
-0.00013497781684185928   1.4979073233237217e-05   7.104997602031893e-05
-0.00016976733687420982   4.022497203507065e-05   6.92399871154584e-05
-0.00016976733687420982   4.022497203507065e-05   6.92399871154584e-05
-0.00016976733687420982   4.022497203507065e-05   6.92399871154584e-05
-0.00016976733687420982   4.022497203507065e-05   6.92399871154584e-05
-0.0002557520238725353   3.96020295347823e-05   -7.44415900485909e-05
-0.0002557520238725353   3.96020295347823e-05   -7.44415900485909e-05
-0.0002557520238725353   3.96020295347823e-05   -7.44415900485909e-05
-0.0002557520238725353   3.96020295347823e-05   -7.44415900485909e-05
-0.00026407117437078924   3.876862509797144e-05   0.00010234733561772721
-0.00026407117437078924   3.876862509797144e-05   0.00010234733561772721
-0.00026407117437078924   3.876862509797144e-05   0.00010234733561772721
-0.00026407117437078924   3.876862509797144e-05   0.00010234733561772721
-0.00017440582134292996   4.0338508355591135e-05   -4.803684938327725e-05
-0.00017440582134292996   4.0338508355591135e-05   -4.803684938327725e-05
-0.00017440582134292996   4.0338508355591135e-05   -4.803684938327725e-05
-0.00017440582134292996   4.0338508355591135e-05   -4.803684938327725e-05
-0.000207304928915206   4.037979257592861e-05   6.770226038312977e-06
-0.000207304928915206   4.037979257592861e-05   6.770226038312977e-06
-0.000207304928915206   4.037979257592861e-05   6.770226038312977e-06
-0.000207304928915206   4.037979257592861e-05   6.770226038312977e-06
-0.0001744058213429298   3.876862509797144e-05   0.00010140540566315557
-0.0001744058213429298   3.876862509797144e-05   0.00010140540566315557
-0.0001744058213429298   3.876862509797144e-05   0.00010140540566315557
-0.0001744058213429298   3.876862509797144e-05   0.00010140540566315557
-0.00026407117437078924   4.033850835559027e-05   -4.709491942870604e-05
-0.00026407117437078924   4.033850835559027e-05   -4.709491942870604e-05
-0.00026407117437078924   4.033850835559027e-05   -4.709491942870604e-05
-0.00026407117437078924   4.033850835559027e-05   -4.709491942870604e-05
-0.00027222987736439015   3.775401825093297e-05   0.00012563781634158337
-0.00027222987736439015   3.775401825093297e-05   0.00012563781634158337
-0.00027222987736439015   3.775401825093297e-05   0.00012563781634158337
-0.00027222987736439015   3.775401825093297e-05   0.00012563781634158337
-0.00018008585252936407   4.0040279244273405e-05   -2.9307314979465588e-05
-0.00018008585252936407   4.0040279244273405e-05   -2.9307314979465588e-05
-0.00018008585252936407   4.0040279244273405e-05   -2.9307314979465588e-05
-0.00018008585252936407   4.0040279244273405e-05   -2.9307314979465588e-05
-0.0002168012372021525   4.035329681895475e-05   3.169718226370957e-05
-0.0002168012372021525   4.035329681895475e-05   3.169718226370957e-05
-0.0002168012372021525   4.035329681895475e-05   3.169718226370957e-05
-0.0002168012372021525   4.035329681895475e-05   3.169718226370957e-05
-0.00018008585252936407   3.775401825093297e-05   0.00012426605974557962
-0.00018008585252936407   3.775401825093297e-05   0.00012426605974557962
-0.00018008585252936407   3.775401825093297e-05   0.00012426605974557962
-0.00018008585252936407   3.775401825093297e-05   0.00012426605974557962
-0.00027222987736439015   4.004027924427254e-05   -2.7935558383460762e-05
-0.00027222987736439015   4.004027924427254e-05   -2.7935558383460762e-05
-0.00027222987736439015   4.004027924427254e-05   -2.7935558383460762e-05
-0.00027222987736439015   4.004027924427254e-05   -2.7935558383460762e-05
-0.00028184796345391485   3.135492358236937e-05   0.00016456805207291578
-0.00028184796345391485   3.135492358236937e-05   0.00016456805207291578
-0.00028184796345391485   3.135492358236937e-05   0.00016456805207291578
-0.00028184796345391485   3.135492358236937e-05   0.00016456805207291578
-0.0001861008075518157   3.683661103410889e-05   1.7004464317063681e-06
-0.0001861008075518157   3.683661103410889e-05   1.7004464317063681e-06
-0.0001861008075518157   3.683661103410889e-05   1.7004464317063681e-06
-0.0001861008075518157   3.683661103410889e-05   1.7004464317063681e-06
-0.00022026804867242376   3.8420410858280504e-05   5.769556840488606e-05
-0.00022026804867242376   3.8420410858280504e-05   5.769556840488606e-05
-0.00022026804867242376   3.8420410858280504e-05   5.769556840488606e-05
-0.00022026804867242376   3.8420410858280504e-05   5.769556840488606e-05
0.00017049373821347757   -2.3873448328253638e-05   0.00013195065484280719
0.00017049373821347757   -2.3873448328253638e-05   0.00013195065484280719
0.00017049373821347757   -2.3873448328253638e-05   0.00013195065484280719
0.00017049373821347757   -2.3873448328253638e-05   0.00013195065484280719
8.448346702068205e-05   -1.7440577354195345e-05   -7.5400745607502595e-06
8.448346702068205e-05   -1.7440577354195345e-05   -7.5400745607502595e-06
8.448346702068205e-05   -1.7440577354195345e-05   -7.5400745607502595e-06
8.448346702068205e-05   -1.7440577354195345e-05   -7.5400745607502595e-06
8.121224639970098e-05   -2.707942066955578e-05   0.00011480215965467555
8.121224639970098e-05   -2.707942066955578e-05   0.00011480215965467555
8.121224639970098e-05   -2.707942066955578e-05   0.00011480215965467555
8.121224639970098e-05   -2.707942066955578e-05   0.00011480215965467555
0.00016447409470395075   -2.025545429702822e-05   -2.806196734258925e-05
0.00016447409470395075   -2.025545429702822e-05   -2.806196734258925e-05
0.00016447409470395075   -2.025545429702822e-05   -2.806196734258925e-05
0.00016447409470395075   -2.025545429702822e-05   -2.806196734258925e-05
0.0001194341936265158   -2.1936850822142952e-05   4.801337236820394e-05
0.0001194341936265158   -2.1936850822142952e-05   4.801337236820394e-05
0.0001194341936265158   -2.1936850822142952e-05   4.801337236820394e-05
0.0001194341936265158   -2.1936850822142952e-05   4.801337236820394e-05
0.00016447409470395045   -2.707942066955578e-05   0.00011070777983115954
0.00016447409470395045   -2.707942066955578e-05   0.00011070777983115954
0.00016447409470395045   -2.707942066955578e-05   0.00011070777983115954
0.00016447409470395045   -2.707942066955578e-05   0.00011070777983115954
8.121224639970128e-05   -2.025545429702822e-05   -2.3967587519072193e-05
8.121224639970128e-05   -2.025545429702822e-05   -2.3967587519072193e-05
8.121224639970128e-05   -2.025545429702822e-05   -2.3967587519072193e-05
8.121224639970128e-05   -2.025545429702822e-05   -2.3967587519072193e-05
7.757944011222673e-05   -2.756119507413106e-05   0.00010292190997210349
7.757944011222673e-05   -2.756119507413106e-05   0.00010292190997210349
7.757944011222673e-05   -2.756119507413106e-05   0.00010292190997210349
7.757944011222673e-05   -2.756119507413106e-05   0.00010292190997210349
0.00015902759323383186   -2.0824549547901992e-05   -3.686699921297619e-05
0.00015902759323383186   -2.0824549547901992e-05   -3.686699921297619e-05
0.00015902759323383186   -2.0824549547901992e-05   -3.686699921297619e-05
0.00015902759323383186   -2.0824549547901992e-05   -3.686699921297619e-05
0.00011714509078578262   -2.3026097692429442e-05   3.425810042048845e-05
0.00011714509078578262   -2.3026097692429442e-05   3.425810042048845e-05
0.00011714509078578262   -2.3026097692429442e-05   3.425810042048845e-05
0.00011714509078578262   -2.3026097692429442e-05   3.425810042048845e-05
0.00015902759323383132   -2.7561195074132794e-05   9.8879922656365e-05
0.00015902759323383132   -2.7561195074132794e-05   9.8879922656365e-05
0.00015902759323383132   -2.7561195074132794e-05   9.8879922656365e-05
0.00015902759323383132   -2.7561195074132794e-05   9.8879922656365e-05
7.757944011222687e-05   -2.0824549547901992e-05   -3.282501189723862e-05
7.757944011222687e-05   -2.0824549547901992e-05   -3.282501189723862e-05
7.757944011222687e-05   -2.0824549547901992e-05   -3.282501189723862e-05
7.757944011222687e-05   -2.0824549547901992e-05   -3.282501189723862e-05
7.408740879624192e-05   -2.7410139439711795e-05   8.638482869070818e-05
7.408740879624192e-05   -2.7410139439711795e-05   8.638482869070818e-05
7.408740879624192e-05   -2.7410139439711795e-05   8.638482869070818e-05
7.408740879624192e-05   -2.7410139439711795e-05   8.638482869070818e-05
0.00015286319682094747   -2.1072926031398716e-05   -4.871047939545625e-05
0.00015286319682094747   -2.1072926031398716e-05   -4.871047939545625e-05
0.00015286319682094747   -2.1072926031398716e-05   -4.871047939545625e-05
0.00015286319682094747   -2.1072926031398716e-05   -4.871047939545625e-05
0.00011106613215675948   -2.2644443177529013e-05   2.1894205332538032e-05
0.00011106613215675948   -2.2644443177529013e-05   2.1894205332538032e-05
0.00011106613215675948   -2.2644443177529013e-05   2.1894205332538032e-05
0.00011106613215675948   -2.2644443177529013e-05   2.1894205332538032e-05
8.448346702068205e-05   -8.451744484855306e-06   0.00013884579001038552
8.448346702068205e-05   -8.451744484855306e-06   0.00013884579001038552
8.448346702068205e-05   -8.451744484855306e-06   0.00013884579001038552
8.448346702068205e-05   -8.451744484855306e-06   0.00013884579001038552
3.753469436057087e-06   -3.3286006560035927e-06   7.369680333321922e-06
3.753469436057087e-06   -3.3286006560035927e-06   7.369680333321922e-06
3.753469436057087e-06   -3.3286006560035927e-06   7.369680333321922e-06
3.753469436057087e-06   -3.3286006560035927e-06   7.369680333321922e-06
6.154576476537481e-07   -1.0179607344751665e-05   0.00014031734016889917
6.154576476537481e-07   -1.0179607344751665e-05   0.00014031734016889917
6.154576476537481e-07   -1.0179607344751665e-05   0.00014031734016889917
6.154576476537481e-07   -1.0179607344751665e-05   0.00014031734016889917
8.121224639970128e-05   -5.3292001371491385e-06   3.0791145909254145e-06
8.121224639970128e-05   -5.3292001371491385e-06   3.0791145909254145e-06
8.121224639970128e-05   -5.3292001371491385e-06   3.0791145909254145e-06
8.121224639970128e-05   -5.3292001371491385e-06   3.0791145909254145e-06
4.200152073605011e-05   -6.567324121269612e-06   6.917319842081673e-05
4.200152073605011e-05   -6.567324121269612e-06   6.917319842081673e-05
4.200152073605011e-05   -6.567324121269612e-06   6.917319842081673e-05
4.200152073605011e-05   -6.567324121269612e-06   6.917319842081673e-05
8.121224639970117e-05   -1.017960734474993e-05   0.00013740709584433852
8.121224639970117e-05   -1.017960734474993e-05   0.00013740709584433852
8.121224639970117e-05   -1.017960734474993e-05   0.00013740709584433852
8.121224639970117e-05   -1.017960734474993e-05   0.00013740709584433852
6.154576476536939e-07   -5.3292001371491385e-06   5.989358915487256e-06
6.154576476536939e-07   -5.3292001371491385e-06   5.989358915487256e-06
6.154576476536939e-07   -5.3292001371491385e-06   5.989358915487256e-06
6.154576476536939e-07   -5.3292001371491385e-06   5.989358915487256e-06
-2.6461380782229833e-06   -1.1319592275365123e-05   0.0001382362147883823
-2.6461380782229833e-06   -1.1319592275365123e-05   0.0001382362147883823
-2.6461380782229833e-06   -1.1319592275365123e-05   0.0001382362147883823
-2.6461380782229833e-06   -1.1319592275365123e-05   0.0001382362147883823
7.757944011222687e-05   -6.821143864716751e-06   1.8278487579112654e-06
7.757944011222687e-05   -6.821143864716751e-06   1.8278487579112654e-06
7.757944011222687e-05   -6.821143864716751e-06   1.8278487579112654e-06
7.757944011222687e-05   -6.821143864716751e-06   1.8278487579112654e-06
3.840446741250205e-05   -7.618148611584011e-06   6.75976727722411e-05
3.840446741250205e-05   -7.618148611584011e-06   6.75976727722411e-05
3.840446741250205e-05   -7.618148611584011e-06   6.75976727722411e-05
3.840446741250205e-05   -7.618148611584011e-06   6.75976727722411e-05
7.757944011222673e-05   -1.1319592275365123e-05   0.00013553714574199467
7.757944011222673e-05   -1.1319592275365123e-05   0.00013553714574199467
7.757944011222673e-05   -1.1319592275365123e-05   0.00013553714574199467
7.757944011222673e-05   -1.1319592275365123e-05   0.00013553714574199467
-2.6461380782229833e-06   -6.821143864716751e-06   4.5269178042999306e-06
-2.6461380782229833e-06   -6.821143864716751e-06   4.5269178042999306e-06
-2.6461380782229833e-06   -6.821143864716751e-06   4.5269178042999306e-06
-2.6461380782229833e-06   -6.821143864716751e-06   4.5269178042999306e-06
-6.041623817975661e-06   -1.1818104965428955e-05   0.00013933216318703055
-6.041623817975661e-06   -1.1818104965428955e-05   0.00013933216318703055
-6.041623817975661e-06   -1.1818104965428955e-05   0.00013933216318703055
-6.041623817975661e-06   -1.1818104965428955e-05   0.00013933216318703055
7.408740879624211e-05   -8.005044823056022e-06   3.495939411244655e-06
7.408740879624211e-05   -8.005044823056022e-06   3.495939411244655e-06
7.408740879624211e-05   -8.005044823056022e-06   3.495939411244655e-06
7.408740879624211e-05   -8.005044823056022e-06   3.495939411244655e-06
3.56908180811508e-05   -8.189417232932691e-06   6.760088071565851e-05
3.56908180811508e-05   -8.189417232932691e-06   6.760088071565851e-05
3.56908180811508e-05   -8.189417232932691e-06   6.760088071565851e-05
3.56908180811508e-05   -8.189417232932691e-06   6.760088071565851e-05
3.753469436057087e-06   7.4504954769190335e-06   0.00014340331922858916
3.753469436057087e-06   7.4504954769190335e-06   0.00014340331922858916
3.753469436057087e-06   7.4504954769190335e-06   0.00014340331922858916
3.753469436057087e-06   7.4504954769190335e-06   0.00014340331922858916
-7.4602852790867e-05   1.086126944741233e-05   1.4855913232678531e-05
-7.4602852790867e-05   1.086126944741233e-05   1.4855913232678531e-05
-7.4602852790867e-05   1.086126944741233e-05   1.4855913232678531e-05
-7.4602852790867e-05   1.086126944741233e-05   1.4855913232678531e-05
-7.788026180274648e-05   6.1190332041934775e-06   0.0001453932286829135
-7.788026180274648e-05   6.1190332041934775e-06   0.0001453932286829135
-7.788026180274648e-05   6.1190332041934775e-06   0.0001453932286829135
-7.788026180274648e-05   6.1190332041934775e-06   0.0001453932286829135
6.154576476536939e-07   9.189832162538256e-06   1.2724550223904832e-05
6.154576476536939e-07   9.189832162538256e-06   1.2724550223904832e-05
6.154576476536939e-07   9.189832162538256e-06   1.2724550223904832e-05
6.154576476536939e-07   9.189832162538256e-06   1.2724550223904832e-05
-3.708640791602827e-05   8.506943698836228e-06   7.59707259082637e-05
-3.708640791602827e-05   8.506943698836228e-06   7.59707259082637e-05
-3.708640791602827e-05   8.506943698836228e-06   7.59707259082637e-05
-3.708640791602827e-05   8.506943698836228e-06   7.59707259082637e-05
6.154576476537481e-07   6.1190332041934775e-06   0.00014355074930790575
6.154576476537481e-07   6.1190332041934775e-06   0.00014355074930790575
6.154576476537481e-07   6.1190332041934775e-06   0.00014355074930790575
6.154576476537481e-07   6.1190332041934775e-06   0.00014355074930790575
-7.788026180274648e-05   9.189832162538256e-06   1.4567029598913216e-05
-7.788026180274648e-05   9.189832162538256e-06   1.4567029598913216e-05
-7.788026180274648e-05   9.189832162538256e-06   1.4567029598913216e-05
-7.788026180274648e-05   9.189832162538256e-06   1.4567029598913216e-05
-8.134288566179172e-05   4.879521017533972e-06   0.0001467824384949355
-8.134288566179172e-05   4.879521017533972e-06   0.0001467824384949355
-8.134288566179172e-05   4.879521017533972e-06   0.0001467824384949355
-8.134288566179172e-05   4.879521017533972e-06   0.0001467824384949355
-2.6461380782229833e-06   7.566565387756227e-06   1.4008965900187231e-05
-2.6461380782229833e-06   7.566565387756227e-06   1.4008965900187231e-05
-2.6461380782229833e-06   7.566565387756227e-06   1.4008965900187231e-05
-2.6461380782229833e-06   7.566565387756227e-06   1.4008965900187231e-05
-4.013212437168224e-05   7.549046890648406e-06   7.649612082088575e-05
-4.013212437168224e-05   7.549046890648406e-06   7.649612082088575e-05
-4.013212437168224e-05   7.549046890648406e-06   7.649612082088575e-05
-4.013212437168224e-05   7.549046890648406e-06   7.649612082088575e-05
-2.6461380782229833e-06   4.879521017533972e-06   0.00014517021187280318
-2.6461380782229833e-06   4.879521017533972e-06   0.00014517021187280318
-2.6461380782229833e-06   4.879521017533972e-06   0.00014517021187280318
-2.6461380782229833e-06   4.879521017533972e-06   0.00014517021187280318
-8.134288566179193e-05   7.566565387756227e-06   1.5621192522320953e-05
-8.134288566179193e-05   7.566565387756227e-06   1.5621192522320953e-05
-8.134288566179193e-05   7.566565387756227e-06   1.5621192522320953e-05
-8.134288566179193e-05   7.566565387756227e-06   1.5621192522320953e-05
-8.491702887514826e-05   3.984476838586257e-06   0.0001489873795429142
-8.491702887514826e-05   3.984476838586257e-06   0.0001489873795429142
-8.491702887514826e-05   3.984476838586257e-06   0.0001489873795429142
-8.491702887514826e-05   3.984476838586257e-06   0.0001489873795429142
-6.041623817975661e-06   6.121243655947406e-06   1.624631102387715e-05
-6.041623817975661e-06   6.121243655947406e-06   1.624631102387715e-05
-6.041623817975661e-06   6.121243655947406e-06   1.624631102387715e-05
-6.041623817975661e-06   6.121243655947406e-06   1.624631102387715e-05
-4.342792578834623e-05   6.630589518880417e-06   7.82512067900702e-05
-4.342792578834623e-05   6.630589518880417e-06   7.82512067900702e-05
-4.342792578834623e-05   6.630589518880417e-06   7.82512067900702e-05
-4.342792578834623e-05   6.630589518880417e-06   7.82512067900702e-05
-7.460285279086733e-05   2.4350769003526895e-05   0.0001249956958652345
-7.460285279086733e-05   2.4350769003526895e-05   0.0001249956958652345
-7.460285279086733e-05   2.4350769003526895e-05   0.0001249956958652345
-7.460285279086733e-05   2.4350769003526895e-05   0.0001249956958652345
-0.0001504229571197578   2.4657371347870834e-05   -1.1871832763092095e-06
-0.0001504229571197578   2.4657371347870834e-05   -1.1871832763092095e-06
-0.0001504229571197578   2.4657371347870834e-05   -1.1871832763092095e-06
-0.0001504229571197578   2.4657371347870834e-05   -1.1871832763092095e-06
-0.00015422868061101434   2.301096097588433e-05   0.00012718611990648887
-0.00015422868061101434   2.301096097588433e-05   0.00012718611990648887
-0.00015422868061101434   2.301096097588433e-05   0.00012718611990648887
-0.00015422868061101434   2.301096097588433e-05   0.00012718611990648887
-7.78802618027467e-05   2.3055287710709547e-05   -8.784081485194856e-08
-7.78802618027467e-05   2.3055287710709547e-05   -8.784081485194856e-08
-7.78802618027467e-05   2.3055287710709547e-05   -8.784081485194856e-08
-7.78802618027467e-05   2.3055287710709547e-05   -8.784081485194856e-08
-0.00011377266355512501   2.371982073015068e-05   5.933410896077993e-05
-0.00011377266355512501   2.371982073015068e-05   5.933410896077993e-05
-0.00011377266355512501   2.371982073015068e-05   5.933410896077993e-05
-0.00011377266355512501   2.371982073015068e-05   5.933410896077993e-05
-7.78802618027467e-05   2.301096097588433e-05   0.00012715952386559409
-7.78802618027467e-05   2.301096097588433e-05   0.00012715952386559409
-7.78802618027467e-05   2.301096097588433e-05   0.00012715952386559409
-7.78802618027467e-05   2.301096097588433e-05   0.00012715952386559409
-0.00015422868061101401   2.3055287710709547e-05   -6.124477395759789e-08
-0.00015422868061101401   2.3055287710709547e-05   -6.124477395759789e-08
-0.00015422868061101401   2.3055287710709547e-05   -6.124477395759789e-08
-0.00015422868061101401   2.3055287710709547e-05   -6.124477395759789e-08
-0.00015844992090133356   2.1776435448024253e-05   0.00013309563219506253
-0.00015844992090133356   2.1776435448024253e-05   0.00013309563219506253
-0.00015844992090133356   2.1776435448024253e-05   0.00013309563219506253
-0.00015844992090133356   2.1776435448024253e-05   0.00013309563219506253
-8.134288566179193e-05   2.158349740426658e-05   4.699669622080702e-06
-8.134288566179193e-05   2.158349740426658e-05   4.699669622080702e-06
-8.134288566179193e-05   2.158349740426658e-05   4.699669622080702e-06
-8.134288566179193e-05   2.158349740426658e-05   4.699669622080702e-06
-0.00011653470331354294   2.2811599490686445e-05   6.261583778981411e-05
-0.00011653470331354294   2.2811599490686445e-05   6.261583778981411e-05
-0.00011653470331354294   2.2811599490686445e-05   6.261583778981411e-05
-0.00011653470331354294   2.2811599490686445e-05   6.261583778981411e-05
-8.134288566179182e-05   2.1776435448024253e-05   0.000133211395021318
-8.134288566179182e-05   2.1776435448024253e-05   0.000133211395021318
-8.134288566179182e-05   2.1776435448024253e-05   0.000133211395021318
-8.134288566179182e-05   2.1776435448024253e-05   0.000133211395021318
-0.00015844992090133334   2.158349740426658e-05   4.583906795826206e-06
-0.00015844992090133334   2.158349740426658e-05   4.583906795826206e-06
-0.00015844992090133334   2.158349740426658e-05   4.583906795826206e-06
-0.00015844992090133334   2.158349740426658e-05   4.583906795826206e-06
-0.00016247491584132825   2.012209447578052e-05   0.00013738470931043151
-0.00016247491584132825   2.012209447578052e-05   0.00013738470931043151
-0.00016247491584132825   2.012209447578052e-05   0.00013738470931043151
-0.00016247491584132825   2.012209447578052e-05   0.00013738470931043151
-8.491702887514858e-05   1.9790773360717044e-05   8.320357035836797e-06
-8.491702887514858e-05   1.9790773360717044e-05   8.320357035836797e-06
-8.491702887514858e-05   1.9790773360717044e-05   8.320357035836797e-06
-8.491702887514858e-05   1.9790773360717044e-05   8.320357035836797e-06
-0.00012090509329016832   2.163867281007939e-05   6.71917247245901e-05
-0.00012090509329016832   2.163867281007939e-05   6.71917247245901e-05
-0.00012090509329016832   2.163867281007939e-05   6.71917247245901e-05
-0.00012090509329016832   2.163867281007939e-05   6.71917247245901e-05
-0.00015042295711975746   3.96020295347823e-05   5.9998079235232434e-05
-0.00015042295711975746   3.96020295347823e-05   5.9998079235232434e-05
-0.00015042295711975746   3.96020295347823e-05   5.9998079235232434e-05
-0.00015042295711975746   3.96020295347823e-05   5.9998079235232434e-05
-0.00022234632142168126   3.5441548763106775e-05   -6.23704830643116e-05
-0.00022234632142168126   3.5441548763106775e-05   -6.23704830643116e-05
-0.00022234632142168126   3.5441548763106775e-05   -6.23704830643116e-05
-0.00022234632142168126   3.5441548763106775e-05   -6.23704830643116e-05
-0.00022833804216952375   4.0338508355592e-05   8.305008582486836e-05
-0.00022833804216952375   4.0338508355592e-05   8.305008582486836e-05
-0.00022833804216952375   4.0338508355592e-05   8.305008582486836e-05
-0.00022833804216952375   4.0338508355592e-05   8.305008582486836e-05
-0.00015422868061101434   3.5798356354399194e-05   -3.774142557193337e-05
-0.00015422868061101434   3.5798356354399194e-05   -3.774142557193337e-05
-0.00015422868061101434   3.5798356354399194e-05   -3.774142557193337e-05
-0.00015422868061101434   3.5798356354399194e-05   -3.774142557193337e-05
-0.00018160650595211387   3.758584751286341e-05   6.815788634821152e-06
-0.00018160650595211387   3.758584751286341e-05   6.815788634821152e-06
-0.00018160650595211387   3.758584751286341e-05   6.815788634821152e-06
-0.00018160650595211387   3.758584751286341e-05   6.815788634821152e-06
-0.0001542286806110138   4.0338508355591135e-05   8.57741770255837e-05
-0.0001542286806110138   4.0338508355591135e-05   8.57741770255837e-05
-0.0001542286806110138   4.0338508355591135e-05   8.57741770255837e-05
-0.0001542286806110138   4.0338508355591135e-05   8.57741770255837e-05
-0.00022833804216952462   3.5798356354399194e-05   -4.046551677264849e-05
-0.00022833804216952462   3.5798356354399194e-05   -4.046551677264849e-05
-0.00022833804216952462   3.5798356354399194e-05   -4.046551677264849e-05
-0.00022833804216952462   3.5798356354399194e-05   -4.046551677264849e-05
-0.00023419355288136628   4.004027924427427e-05   0.00010105521316419383
-0.00023419355288136628   4.004027924427427e-05   0.00010105521316419383
-0.00023419355288136628   4.004027924427427e-05   0.00010105521316419383
-0.00023419355288136628   4.004027924427427e-05   0.00010105521316419383
-0.00015844992090133356   3.539899560862838e-05   -2.2399403287807432e-05
-0.00015844992090133356   3.539899560862838e-05   -2.2399403287807432e-05
-0.00015844992090133356   3.539899560862838e-05   -2.2399403287807432e-05
-0.00015844992090133356   3.539899560862838e-05   -2.2399403287807432e-05
-0.0001889338404982659   3.82644898934293e-05   2.668783280286818e-05
-0.0001889338404982659   3.82644898934293e-05   2.668783280286818e-05
-0.0001889338404982659   3.82644898934293e-05   2.668783280286818e-05
-0.0001889338404982659   3.82644898934293e-05   2.668783280286818e-05
-0.00015844992090133356   4.0040279244273405e-05   0.00010383998334558171
-0.00015844992090133356   4.0040279244273405e-05   0.00010383998334558171
-0.00015844992090133356   4.0040279244273405e-05   0.00010383998334558171
-0.00015844992090133356   4.0040279244273405e-05   0.00010383998334558171
-0.00023419355288136704   3.539899560862838e-05   -2.5184173469195315e-05
-0.00023419355288136704   3.539899560862838e-05   -2.5184173469195315e-05
-0.00023419355288136704   3.539899560862838e-05   -2.5184173469195315e-05
-0.00023419355288136704   3.539899560862838e-05   -2.5184173469195315e-05
-0.00024103701931264398   3.683661103410889e-05   0.0001319322175701073
-0.00024103701931264398   3.683661103410889e-05   0.0001319322175701073
-0.00024103701931264398   3.683661103410889e-05   0.0001319322175701073
-0.00024103701931264398   3.683661103410889e-05   0.0001319322175701073
-0.00016247491584132825   3.265583774776995e-05   3.5038424230501245e-06
-0.00016247491584132825   3.265583774776995e-05   3.5038424230501245e-06
-0.00016247491584132825   3.265583774776995e-05   3.5038424230501245e-06
-0.00016247491584132825   3.265583774776995e-05   3.5038424230501245e-06
-0.0001908461763213089   3.713393536607795e-05   4.8102417985369144e-05
-0.0001908461763213089   3.713393536607795e-05   4.8102417985369144e-05
-0.0001908461763213089   3.713393536607795e-05   4.8102417985369144e-05
-0.0001908461763213089   3.713393536607795e-05   4.8102417985369144e-05
0.0001289706506210314   -1.7440577354195345e-05   0.00010983917135744953
0.0001289706506210314   -1.7440577354195345e-05   0.00010983917135744953
0.0001289706506210314   -1.7440577354195345e-05   0.00010983917135744953
0.0001289706506210314   -1.7440577354195345e-05   0.00010983917135744953
6.075736276527087e-05   -1.146949264967112e-05   -2.6699091276987524e-07
6.075736276527087e-05   -1.146949264967112e-05   -2.6699091276987524e-07
6.075736276527087e-05   -1.146949264967112e-05   -2.6699091276987524e-07
6.075736276527087e-05   -1.146949264967112e-05   -2.6699091276987524e-07
5.783963143335902e-05   -2.025545429702822e-05   9.656027281882557e-05
5.783963143335902e-05   -2.025545429702822e-05   9.656027281882557e-05
5.783963143335902e-05   -2.025545429702822e-05   9.656027281882557e-05
5.783963143335902e-05   -2.025545429702822e-05   9.656027281882557e-05
0.00012332868290677168   -1.3941696378934505e-05   -1.637640105438471e-05
0.00012332868290677168   -1.3941696378934505e-05   -1.637640105438471e-05
0.00012332868290677168   -1.3941696378934505e-05   -1.637640105438471e-05
0.00012332868290677168   -1.3941696378934505e-05   -1.637640105438471e-05
8.836055379139485e-05   -1.5901022286129995e-05   4.307940968222793e-05
8.836055379139485e-05   -1.5901022286129995e-05   4.307940968222793e-05
8.836055379139485e-05   -1.5901022286129995e-05   4.307940968222793e-05
8.836055379139485e-05   -1.5901022286129995e-05   4.307940968222793e-05
0.00012332868290677168   -2.025545429702822e-05   9.277201806797038e-05
0.00012332868290677168   -2.025545429702822e-05   9.277201806797038e-05
0.00012332868290677168   -2.025545429702822e-05   9.277201806797038e-05
0.00012332868290677168   -2.025545429702822e-05   9.277201806797038e-05
5.7839631433359145e-05   -1.3941696378934505e-05   -1.2588146303528329e-05
5.7839631433359145e-05   -1.3941696378934505e-05   -1.2588146303528329e-05
5.7839631433359145e-05   -1.3941696378934505e-05   -1.2588146303528329e-05
5.7839631433359145e-05   -1.3941696378934505e-05   -1.2588146303528329e-05
5.4622348475552606e-05   -2.0824549547901992e-05   8.722114512270309e-05
5.4622348475552606e-05   -2.0824549547901992e-05   8.722114512270309e-05
5.4622348475552606e-05   -2.0824549547901992e-05   8.722114512270309e-05
5.4622348475552606e-05   -2.0824549547901992e-05   8.722114512270309e-05
0.00011838813334650603   -1.4605256214317991e-05   -2.2786738995703127e-05
0.00011838813334650603   -1.4605256214317991e-05   -2.2786738995703127e-05
0.00011838813334650603   -1.4605256214317991e-05   -2.2786738995703127e-05
0.00011838813334650603   -1.4605256214317991e-05   -2.2786738995703127e-05
8.60006866601783e-05   -1.6902315401895636e-05   3.257057432739206e-05
8.60006866601783e-05   -1.6902315401895636e-05   3.257057432739206e-05
8.60006866601783e-05   -1.6902315401895636e-05   3.257057432739206e-05
8.60006866601783e-05   -1.6902315401895636e-05   3.257057432739206e-05
0.00011838813334650583   -2.082454954790286e-05   8.348956912255373e-05
0.00011838813334650583   -2.082454954790286e-05   8.348956912255373e-05
0.00011838813334650583   -2.082454954790286e-05   8.348956912255373e-05
0.00011838813334650583   -2.082454954790286e-05   8.348956912255373e-05
5.46223484755527e-05   -1.4605256214317991e-05   -1.9055162995551544e-05
5.46223484755527e-05   -1.4605256214317991e-05   -1.9055162995551544e-05
5.46223484755527e-05   -1.4605256214317991e-05   -1.9055162995551544e-05
5.46223484755527e-05   -1.4605256214317991e-05   -1.9055162995551544e-05
5.165341479907664e-05   -2.1072926031398716e-05   7.460189477238172e-05
5.165341479907664e-05   -2.1072926031398716e-05   7.460189477238172e-05
5.165341479907664e-05   -2.1072926031398716e-05   7.460189477238172e-05
5.165341479907664e-05   -2.1072926031398716e-05   7.460189477238172e-05
0.00011287398323017119   -1.5239833884808651e-05   -3.0932241234063224e-05
0.00011287398323017119   -1.5239833884808651e-05   -3.0932241234063224e-05
0.00011287398323017119   -1.5239833884808651e-05   -3.0932241234063224e-05
0.00011287398323017119   -1.5239833884808651e-05   -3.0932241234063224e-05
8.086558776296374e-05   -1.681294888749088e-05   2.3358953546227454e-05
8.086558776296374e-05   -1.681294888749088e-05   2.3358953546227454e-05
8.086558776296374e-05   -1.681294888749088e-05   2.3358953546227454e-05
8.086558776296374e-05   -1.681294888749088e-05   2.3358953546227454e-05
6.0757362765270664e-05   -3.3286006560035927e-06   0.00012525769077692452
6.0757362765270664e-05   -3.3286006560035927e-06   0.00012525769077692452
6.0757362765270664e-05   -3.3286006560035927e-06   0.00012525769077692452
6.0757362765270664e-05   -3.3286006560035927e-06   0.00012525769077692452
-3.831178108305324e-06   -2.8936382072582145e-08   1.9589921218656457e-05
-3.831178108305324e-06   -2.8936382072582145e-08   1.9589921218656457e-05
-3.831178108305324e-06   -2.8936382072582145e-08   1.9589921218656457e-05
-3.831178108305324e-06   -2.8936382072582145e-08   1.9589921218656457e-05
-6.572473041538277e-06   -5.3292001371491385e-06   0.00012549361419726332
-6.572473041538277e-06   -5.3292001371491385e-06   0.00012549361419726332
-6.572473041538277e-06   -5.3292001371491385e-06   0.00012549361419726332
-6.572473041538277e-06   -5.3292001371491385e-06   0.00012549361419726332
5.7839631433359145e-05   -2.1848013564175484e-06   1.625346747066264e-05
5.7839631433359145e-05   -2.1848013564175484e-06   1.625346747066264e-05
5.7839631433359145e-05   -2.1848013564175484e-06   1.625346747066264e-05
5.7839631433359145e-05   -2.1848013564175484e-06   1.625346747066264e-05
2.6611107680037284e-05   -2.7952498189908956e-06   6.866727613707578e-05
2.6611107680037284e-05   -2.7952498189908956e-06   6.866727613707578e-05
2.6611107680037284e-05   -2.7952498189908956e-06   6.866727613707578e-05
2.6611107680037284e-05   -2.7952498189908956e-06   6.866727613707578e-05
5.7839631433358996e-05   -5.3292001371491385e-06   0.00012360697492882437
5.7839631433358996e-05   -5.3292001371491385e-06   0.00012360697492882437
5.7839631433358996e-05   -5.3292001371491385e-06   0.00012360697492882437
5.7839631433358996e-05   -5.3292001371491385e-06   0.00012360697492882437
-6.572473041538277e-06   -2.1848013564175484e-06   1.814010673910132e-05
-6.572473041538277e-06   -2.1848013564175484e-06   1.814010673910132e-05
-6.572473041538277e-06   -2.1848013564175484e-06   1.814010673910132e-05
-6.572473041538277e-06   -2.1848013564175484e-06   1.814010673910132e-05
-9.371364241444666e-06   -6.821143864716751e-06   0.00012363302366076318
-9.371364241444666e-06   -6.821143864716751e-06   0.00012363302366076318
-9.371364241444666e-06   -6.821143864716751e-06   0.00012363302366076318
-9.371364241444666e-06   -6.821143864716751e-06   0.00012363302366076318
5.46223484755527e-05   -3.889447393200587e-06   1.5217817916191278e-05
5.46223484755527e-05   -3.889447393200587e-06   1.5217817916191278e-05
5.46223484755527e-05   -3.889447393200587e-06   1.5217817916191278e-05
5.46223484755527e-05   -3.889447393200587e-06   1.5217817916191278e-05
2.3541152128518987e-05   -4.128516203653551e-06   6.716325311418875e-05
2.3541152128518987e-05   -4.128516203653551e-06   6.716325311418875e-05
2.3541152128518987e-05   -4.128516203653551e-06   6.716325311418875e-05
2.3541152128518987e-05   -4.128516203653551e-06   6.716325311418875e-05
5.4622348475552606e-05   -6.821143864716751e-06   0.00012187400577785314
5.4622348475552606e-05   -6.821143864716751e-06   0.00012187400577785314
5.4622348475552606e-05   -6.821143864716751e-06   0.00012187400577785314
5.4622348475552606e-05   -6.821143864716751e-06   0.00012187400577785314
-9.371364241444666e-06   -3.889447393200587e-06   1.6976835799100212e-05
-9.371364241444666e-06   -3.889447393200587e-06   1.6976835799100212e-05
-9.371364241444666e-06   -3.889447393200587e-06   1.6976835799100212e-05
-9.371364241444666e-06   -3.889447393200587e-06   1.6976835799100212e-05
-1.2184994154187836e-05   -8.005044823056022e-06   0.0001245241656707488
-1.2184994154187836e-05   -8.005044823056022e-06   0.0001245241656707488
-1.2184994154187836e-05   -8.005044823056022e-06   0.0001245241656707488
-1.2184994154187836e-05   -8.005044823056022e-06   0.0001245241656707488
5.1653414799076694e-05   -5.474744595296115e-06   1.6608637278652444e-05
5.1653414799076694e-05   -5.474744595296115e-06   1.6608637278652444e-05
5.1653414799076694e-05   -5.474744595296115e-06   1.6608637278652444e-05
5.1653414799076694e-05   -5.474744595296115e-06   1.6608637278652444e-05
2.1188859882823665e-05   -5.121801994639394e-06   6.717112991201581e-05
2.1188859882823665e-05   -5.121801994639394e-06   6.717112991201581e-05
2.1188859882823665e-05   -5.121801994639394e-06   6.717112991201581e-05
2.1188859882823665e-05   -5.121801994639394e-06   6.717112991201581e-05
-3.831178108305324e-06   1.086126944741233e-05   0.00013267725785834437
-3.831178108305324e-06   1.086126944741233e-05   0.00013267725785834437
-3.831178108305324e-06   1.086126944741233e-05   0.00013267725785834437
-3.831178108305324e-06   1.086126944741233e-05   0.00013267725785834437
-6.706534785629243e-05   1.1167653721972683e-05   2.7470805509768187e-05
-6.706534785629243e-05   1.1167653721972683e-05   2.7470805509768187e-05
-6.706534785629243e-05   1.1167653721972683e-05   2.7470805509768187e-05
-6.706534785629243e-05   1.1167653721972683e-05   2.7470805509768187e-05
-6.98196117126426e-05   9.189832162538256e-06   0.00013227534815212806
-6.98196117126426e-05   9.189832162538256e-06   0.00013227534815212806
-6.98196117126426e-05   9.189832162538256e-06   0.00013227534815212806
-6.98196117126426e-05   9.189832162538256e-06   0.00013227534815212806
-6.572473041538277e-06   9.267403239947812e-06   2.6816907720507844e-05
-6.572473041538277e-06   9.267403239947812e-06   2.6816907720507844e-05
-6.572473041538277e-06   9.267403239947812e-06   2.6816907720507844e-05
-6.572473041538277e-06   9.267403239947812e-06   2.6816907720507844e-05
-3.6918105254895526e-05   9.948154784299168e-06   7.698451048282571e-05
-3.6918105254895526e-05   9.948154784299168e-06   7.698451048282571e-05
-3.6918105254895526e-05   9.948154784299168e-06   7.698451048282571e-05
-3.6918105254895526e-05   9.948154784299168e-06   7.698451048282571e-05
-6.572473041538277e-06   9.189832162538256e-06   0.00013222880550568198
-6.572473041538277e-06   9.189832162538256e-06   0.00013222880550568198
-6.572473041538277e-06   9.189832162538256e-06   0.00013222880550568198
-6.572473041538277e-06   9.189832162538256e-06   0.00013222880550568198
-6.98196117126426e-05   9.267403239946945e-06   2.68634503669536e-05
-6.98196117126426e-05   9.267403239946945e-06   2.68634503669536e-05
-6.98196117126426e-05   9.267403239946945e-06   2.68634503669536e-05
-6.98196117126426e-05   9.267403239946945e-06   2.68634503669536e-05
-7.264362716732757e-05   7.566565387756227e-06   0.00013301335361448445
-7.264362716732757e-05   7.566565387756227e-06   0.00013301335361448445
-7.264362716732757e-05   7.566565387756227e-06   0.00013301335361448445
-7.264362716732757e-05   7.566565387756227e-06   0.00013301335361448445
-9.371364241444666e-06   7.397035150812949e-06   2.7661300213512583e-05
-9.371364241444666e-06   7.397035150812949e-06   2.7661300213512583e-05
-9.371364241444666e-06   7.397035150812949e-06   2.7661300213512583e-05
-9.371364241444666e-06   7.397035150812949e-06   2.7661300213512583e-05
-3.947697453563043e-05   8.667890063590068e-06   7.707480442282512e-05
-3.947697453563043e-05   8.667890063590068e-06   7.707480442282512e-05
-3.947697453563043e-05   8.667890063590068e-06   7.707480442282512e-05
-3.947697453563043e-05   8.667890063590068e-06   7.707480442282512e-05
-9.371364241444666e-06   7.566565387757095e-06   0.0001331150717566506
-9.371364241444666e-06   7.566565387757095e-06   0.0001331150717566506
-9.371364241444666e-06   7.566565387757095e-06   0.0001331150717566506
-9.371364241444666e-06   7.566565387757095e-06   0.0001331150717566506
-7.264362716732757e-05   7.397035150813816e-06   2.7559582071346768e-05
-7.264362716732757e-05   7.397035150813816e-06   2.7559582071346768e-05
-7.264362716732757e-05   7.397035150813816e-06   2.7559582071346768e-05
-7.264362716732757e-05   7.397035150813816e-06   2.7559582071346768e-05
-7.546740770915026e-05   6.1212436559465386e-06   0.00013468700744659248
-7.546740770915026e-05   6.1212436559465386e-06   0.00013468700744659248
-7.546740770915026e-05   6.1212436559465386e-06   0.00013468700744659248
-7.546740770915026e-05   6.1212436559465386e-06   0.00013468700744659248
-1.2184994154187836e-05   5.621754070337347e-06   2.9516011939687025e-05
-1.2184994154187836e-05   5.621754070337347e-06   2.9516011939687025e-05
-1.2184994154187836e-05   5.621754070337347e-06   2.9516011939687025e-05
-1.2184994154187836e-05   5.621754070337347e-06   2.9516011939687025e-05
-4.215505702376e-05   7.41960384253483e-06   7.838740685899102e-05
-4.215505702376e-05   7.41960384253483e-06   7.838740685899102e-05
-4.215505702376e-05   7.41960384253483e-06   7.838740685899102e-05
-4.215505702376e-05   7.41960384253483e-06   7.838740685899102e-05
-6.706534785629232e-05   2.4657371347870834e-05   0.00011663403050748544
-6.706534785629232e-05   2.4657371347870834e-05   0.00011663403050748544
-6.706534785629232e-05   2.4657371347870834e-05   0.00011663403050748544
-6.706534785629232e-05   2.4657371347870834e-05   0.00011663403050748544
-0.00012885217404214261   2.1934035470967672e-05   1.2021985338260717e-05
-0.00012885217404214261   2.1934035470967672e-05   1.2021985338260717e-05
-0.00012885217404214261   2.1934035470967672e-05   1.2021985338260717e-05
-0.00012885217404214261   2.1934035470967672e-05   1.2021985338260717e-05
-0.00013181430341526953   2.3055287710709547e-05   0.00011585271128788412
-0.00013181430341526953   2.3055287710709547e-05   0.00011585271128788412
-0.00013181430341526953   2.3055287710709547e-05   0.00011585271128788412
-0.00013181430341526953   2.3055287710709547e-05   0.00011585271128788412
-6.981961171264271e-05   2.0109010293245348e-05   1.429599156731816e-05
-6.981961171264271e-05   2.0109010293245348e-05   1.429599156731816e-05
-6.981961171264271e-05   2.0109010293245348e-05   1.429599156731816e-05
-6.981961171264271e-05   2.0109010293245348e-05   1.429599156731816e-05
-9.906087972965386e-05   2.2152602662601356e-05   6.180528284072248e-05
-9.906087972965386e-05   2.2152602662601356e-05   6.180528284072248e-05
-9.906087972965386e-05   2.2152602662601356e-05   6.180528284072248e-05
-9.906087972965386e-05   2.2152602662601356e-05   6.180528284072248e-05
-6.98196117126426e-05   2.3055287710709547e-05   0.00011762047773836246
-6.98196117126426e-05   2.3055287710709547e-05   0.00011762047773836246
-6.98196117126426e-05   2.3055287710709547e-05   0.00011762047773836246
-6.98196117126426e-05   2.3055287710709547e-05   0.00011762047773836246
-0.00013181430341526953   2.0109010293245348e-05   1.2528225116839164e-05
-0.00013181430341526953   2.0109010293245348e-05   1.2528225116839164e-05
-0.00013181430341526953   2.0109010293245348e-05   1.2528225116839164e-05
-0.00013181430341526953   2.0109010293245348e-05   1.2528225116839164e-05
-0.00013507759878719197   2.158349740426658e-05   0.0001201897594287557
-0.00013507759878719197   2.158349740426658e-05   0.0001201897594287557
-0.00013507759878719197   2.158349740426658e-05   0.0001201897594287557
-0.00013507759878719197   2.158349740426658e-05   0.0001201897594287557
-7.264362716732757e-05   1.841337859511804e-05   1.8035211347804938e-05
-7.264362716732757e-05   1.841337859511804e-05   1.8035211347804938e-05
-7.264362716732757e-05   1.841337859511804e-05   1.8035211347804938e-05
-7.264362716732757e-05   1.841337859511804e-05   1.8035211347804938e-05
-0.00010119752542705698   2.0985238902652276e-05   6.408192559616884e-05
-0.00010119752542705698   2.0985238902652276e-05   6.408192559616884e-05
-0.00010119752542705698   2.0985238902652276e-05   6.408192559616884e-05
-0.00010119752542705698   2.0985238902652276e-05   6.408192559616884e-05
-7.264362716732757e-05   2.158349740426658e-05   0.00012209183071424518
-7.264362716732757e-05   2.158349740426658e-05   0.00012209183071424518
-7.264362716732757e-05   2.158349740426658e-05   0.00012209183071424518
-7.264362716732757e-05   2.158349740426658e-05   0.00012209183071424518
-0.00013507759878719197   1.841337859511804e-05   1.613314006231525e-05
-0.00013507759878719197   1.841337859511804e-05   1.613314006231525e-05
-0.00013507759878719197   1.841337859511804e-05   1.613314006231525e-05
-0.00013507759878719197   1.841337859511804e-05   1.613314006231525e-05
-0.00013806431778246508   1.9790773360717044e-05   0.00012347047901983474
-0.00013806431778246508   1.9790773360717044e-05   0.00012347047901983474
-0.00013806431778246508   1.9790773360717044e-05   0.00012347047901983474
-0.00013806431778246508   1.9790773360717044e-05   0.00012347047901983474
-7.546740770915036e-05   1.6443249446882087e-05   2.115080991261153e-05
-7.546740770915036e-05   1.6443249446882087e-05   2.115080991261153e-05
-7.546740770915036e-05   1.6443249446882087e-05   2.115080991261153e-05
-7.546740770915036e-05   1.6443249446882087e-05   2.115080991261153e-05
-0.00010457559087682331   1.9673837864730287e-05   6.772609547469623e-05
-0.00010457559087682331   1.9673837864730287e-05   6.772609547469623e-05
-0.00010457559087682331   1.9673837864730287e-05   6.772609547469623e-05
-0.00010457559087682331   1.9673837864730287e-05   6.772609547469623e-05
-0.00012885217404214261   3.5441548763106775e-05   5.6313017656346546e-05
-0.00012885217404214261   3.5441548763106775e-05   5.6313017656346546e-05
-0.00012885217404214261   3.5441548763106775e-05   5.6313017656346546e-05
-0.00012885217404214261   3.5441548763106775e-05   5.6313017656346546e-05
-0.00018740799475250032   3.0164825511226276e-05   -4.4446050812044745e-05
-0.00018740799475250032   3.0164825511226276e-05   -4.4446050812044745e-05
-0.00018740799475250032   3.0164825511226276e-05   -4.4446050812044745e-05
-0.00018740799475250032   3.0164825511226276e-05   -4.4446050812044745e-05
-0.00019272566985789065   3.5798356354398327e-05   7.469063032325331e-05
-0.00019272566985789065   3.5798356354398327e-05   7.469063032325331e-05
-0.00019272566985789065   3.5798356354398327e-05   7.469063032325331e-05
-0.00019272566985789065   3.5798356354398327e-05   7.469063032325331e-05
-0.00013181430341526953   2.999518940997436e-05   -2.3346413581127722e-05
-0.00013181430341526953   2.999518940997436e-05   -2.3346413581127722e-05
-0.00013181430341526953   2.999518940997436e-05   -2.3346413581127722e-05
-0.00013181430341526953   2.999518940997436e-05   -2.3346413581127722e-05
-0.00015410792688578309   3.237631015830331e-05   1.2380953087397402e-05
-0.00015410792688578309   3.237631015830331e-05   1.2380953087397402e-05
-0.00015410792688578309   3.237631015830331e-05   1.2380953087397402e-05
-0.00015410792688578309   3.237631015830331e-05   1.2380953087397402e-05
-0.00013181430341526953   3.5798356354398327e-05   7.817253048990943e-05
-0.00013181430341526953   3.5798356354398327e-05   7.817253048990943e-05
-0.00013181430341526953   3.5798356354398327e-05   7.817253048990943e-05
-0.00013181430341526953   3.5798356354398327e-05   7.817253048990943e-05
-0.0001927256698578911   2.999518940997349e-05   -2.6828313747782537e-05
-0.0001927256698578911   2.999518940997349e-05   -2.6828313747782537e-05
-0.0001927256698578911   2.999518940997349e-05   -2.6828313747782537e-05
-0.0001927256698578911   2.999518940997349e-05   -2.6828313747782537e-05
-0.00019749227090087233   3.539899560862838e-05   8.959366670748328e-05
-0.00019749227090087233   3.539899560862838e-05   8.959366670748328e-05
-0.00019749227090087233   3.539899560862838e-05   8.959366670748328e-05
-0.00019749227090087233   3.539899560862838e-05   8.959366670748328e-05
-0.00013507759878719197   2.9377691212566052e-05   -1.0818004177680666e-05
-0.00013507759878719197   2.9377691212566052e-05   -1.0818004177680666e-05
-0.00013507759878719197   2.9377691212566052e-05   -1.0818004177680666e-05
-0.00013507759878719197   2.9377691212566052e-05   -1.0818004177680666e-05
-0.00016019314612090811   3.2727008837377634e-05   2.903165080363158e-05
-0.00016019314612090811   3.2727008837377634e-05   2.903165080363158e-05
-0.00016019314612090811   3.2727008837377634e-05   2.903165080363158e-05
-0.00016019314612090811   3.2727008837377634e-05   2.903165080363158e-05
-0.00013507759878719197   3.539899560862838e-05   9.32064493451212e-05
-0.00013507759878719197   3.539899560862838e-05   9.32064493451212e-05
-0.00013507759878719197   3.539899560862838e-05   9.32064493451212e-05
-0.00013507759878719197   3.539899560862838e-05   9.32064493451212e-05
-0.00019749227090087276   2.9377691212566052e-05   -1.4430786815318366e-05
-0.00019749227090087276   2.9377691212566052e-05   -1.4430786815318366e-05
-0.00019749227090087276   2.9377691212566052e-05   -1.4430786815318366e-05
-0.00019749227090087276   2.9377691212566052e-05   -1.4430786815318366e-05
-0.0002029745163444948   3.265583774776995e-05   0.00011526054491623611
-0.0002029745163444948   3.265583774776995e-05   0.00011526054491623611
-0.0002029745163444948   3.265583774776995e-05   0.00011526054491623611
-0.0002029745163444948   3.265583774776995e-05   0.00011526054491623611
-0.00013806431778246508   2.6668817481353968e-05   1.066909280603612e-05
-0.00013806431778246508   2.6668817481353968e-05   1.066909280603612e-05
-0.00013806431778246508   2.6668817481353968e-05   1.066909280603612e-05
-0.00013806431778246508   2.6668817481353968e-05   1.066909280603612e-05
-0.00016153799952580523   3.1605668431803485e-05   4.682978514133581e-05
-0.00016153799952580523   3.1605668431803485e-05   4.682978514133581e-05
-0.00016153799952580523   3.1605668431803485e-05   4.682978514133581e-05
-0.00016153799952580523   3.1605668431803485e-05   4.682978514133581e-05
8.842068713055774e-05   -1.146949264967112e-05   8.911923983118434e-05
8.842068713055774e-05   -1.146949264967112e-05   8.911923983118434e-05
8.842068713055774e-05   -1.146949264967112e-05   8.911923983118434e-05
8.842068713055774e-05   -1.146949264967112e-05   8.911923983118434e-05
3.666180188478211e-05   -5.57543906560664e-06   6.390863238663492e-06
3.666180188478211e-05   -5.57543906560664e-06   6.390863238663492e-06
3.666180188478211e-05   -5.57543906560664e-06   6.390863238663492e-06
3.666180188478211e-05   -5.57543906560664e-06   6.390863238663492e-06
3.432069577483293e-05   -1.3941696378934505e-05   8.01767424963894e-05
3.432069577483293e-05   -1.3941696378934505e-05   8.01767424963894e-05
3.432069577483293e-05   -1.3941696378934505e-05   8.01767424963894e-05
3.432069577483293e-05   -1.3941696378934505e-05   8.01767424963894e-05
8.34446020384857e-05   -7.779648724079088e-06   -5.393663202611068e-06
8.34446020384857e-05   -7.779648724079088e-06   -5.393663202611068e-06
8.34446020384857e-05   -7.779648724079088e-06   -5.393663202611068e-06
8.34446020384857e-05   -7.779648724079088e-06   -5.393663202611068e-06
5.768822240806898e-05   -9.92859494711e-06   3.882300391523717e-05
5.768822240806898e-05   -9.92859494711e-06   3.882300391523717e-05
5.768822240806898e-05   -9.92859494711e-06   3.882300391523717e-05
5.768822240806898e-05   -9.92859494711e-06   3.882300391523717e-05
8.344460203848586e-05   -1.3941696378933638e-05   7.647951390347702e-05
8.344460203848586e-05   -1.3941696378933638e-05   7.647951390347702e-05
8.344460203848586e-05   -1.3941696378933638e-05   7.647951390347702e-05
8.344460203848586e-05   -1.3941696378933638e-05   7.647951390347702e-05
3.4320695774832805e-05   -7.779648724079088e-06   -1.6964346096983059e-06
3.4320695774832805e-05   -7.779648724079088e-06   -1.6964346096983059e-06
3.4320695774832805e-05   -7.779648724079088e-06   -1.6964346096983059e-06
3.4320695774832805e-05   -7.779648724079088e-06   -1.6964346096983059e-06
3.1694914705747044e-05   -1.4605256214318858e-05   7.352909171223906e-05
3.1694914705747044e-05   -1.4605256214318858e-05   7.352909171223906e-05
3.1694914705747044e-05   -1.4605256214318858e-05   7.352909171223906e-05
3.1694914705747044e-05   -1.4605256214318858e-05   7.352909171223906e-05
7.917668850369888e-05   -8.54229093113449e-06   -9.24497712092437e-06
7.917668850369888e-05   -8.54229093113449e-06   -9.24497712092437e-06
7.917668850369888e-05   -8.54229093113449e-06   -9.24497712092437e-06
7.917668850369888e-05   -8.54229093113449e-06   -9.24497712092437e-06
5.545656264236233e-05   -1.0862173317781505e-05   3.16804954132938e-05
5.545656264236233e-05   -1.0862173317781505e-05   3.16804954132938e-05
5.545656264236233e-05   -1.0862173317781505e-05   3.16804954132938e-05
5.545656264236233e-05   -1.0862173317781505e-05   3.16804954132938e-05
7.917668850369902e-05   -1.4605256214318858e-05   6.989131254232827e-05
7.917668850369902e-05   -1.4605256214318858e-05   6.989131254232827e-05
7.917668850369902e-05   -1.4605256214318858e-05   6.989131254232827e-05
7.917668850369902e-05   -1.4605256214318858e-05   6.989131254232827e-05
3.1694914705747e-05   -8.54229093113449e-06   -5.607197951014008e-06
3.1694914705747e-05   -8.54229093113449e-06   -5.607197951014008e-06
3.1694914705747e-05   -8.54229093113449e-06   -5.607197951014008e-06
3.1694914705747e-05   -8.54229093113449e-06   -5.607197951014008e-06
2.9342705838381264e-05   -1.5239833884808651e-05   6.492547082975145e-05
2.9342705838381264e-05   -1.5239833884808651e-05   6.492547082975145e-05
2.9342705838381264e-05   -1.5239833884808651e-05   6.492547082975145e-05
2.9342705838381264e-05   -1.5239833884808651e-05   6.492547082975145e-05
7.434228910920882e-05   -9.562801150568914e-06   -1.3480054262171863e-05
7.434228910920882e-05   -9.562801150568914e-06   -1.3480054262171863e-05
7.434228910920882e-05   -9.562801150568914e-06   -1.3480054262171863e-05
7.434228910920882e-05   -9.562801150568914e-06   -1.3480054262171863e-05
5.1377119081142055e-05   -1.105358511588328e-05   2.5689699497127936e-05
5.1377119081142055e-05   -1.105358511588328e-05   2.5689699497127936e-05
5.1377119081142055e-05   -1.105358511588328e-05   2.5689699497127936e-05
5.1377119081142055e-05   -1.105358511588328e-05   2.5689699497127936e-05
3.666180188478224e-05   -2.8936382072582145e-08   0.00011053278554869076
3.666180188478224e-05   -2.8936382072582145e-08   0.00011053278554869076
3.666180188478224e-05   -2.8936382072582145e-08   0.00011053278554869076
3.666180188478224e-05   -2.8936382072582145e-08   0.00011053278554869076
-1.1941728267526376e-05   2.952785285655589e-06   3.131593496214684e-05
-1.1941728267526376e-05   2.952785285655589e-06   3.131593496214684e-05
-1.1941728267526376e-05   2.952785285655589e-06   3.131593496214684e-05
-1.1941728267526376e-05   2.952785285655589e-06   3.131593496214684e-05
-1.4091295794680888e-05   -2.1848013564175484e-06   0.00011075794944149283
-1.4091295794680888e-05   -2.1848013564175484e-06   0.00011075794944149283
-1.4091295794680888e-05   -2.1848013564175484e-06   0.00011075794944149283
-1.4091295794680888e-05   -2.1848013564175484e-06   0.00011075794944149283
3.4320695774832805e-05   7.145205951041012e-07   2.8331703654724017e-05
3.4320695774832805e-05   7.145205951041012e-07   2.8331703654724017e-05
3.4320695774832805e-05   7.145205951041012e-07   2.8331703654724017e-05
3.4320695774832805e-05   7.145205951041012e-07   2.8331703654724017e-05
1.089213406256105e-05   1.7276488167503046e-07   6.770435993656908e-05
1.089213406256105e-05   1.7276488167503046e-07   6.770435993656908e-05
1.089213406256105e-05   1.7276488167503046e-07   6.770435993656908e-05
1.089213406256105e-05   1.7276488167503046e-07   6.770435993656908e-05
3.43206957748329e-05   -2.1848013564175484e-06   0.0001090183562705801
3.43206957748329e-05   -2.1848013564175484e-06   0.0001090183562705801
3.43206957748329e-05   -2.1848013564175484e-06   0.0001090183562705801
3.43206957748329e-05   -2.1848013564175484e-06   0.0001090183562705801
-1.4091295794680888e-05   7.145205951032338e-07   3.007129682563699e-05
-1.4091295794680888e-05   7.145205951032338e-07   3.007129682563699e-05
-1.4091295794680888e-05   7.145205951032338e-07   3.007129682563699e-05
-1.4091295794680888e-05   7.145205951032338e-07   3.007129682563699e-05
-1.6288253618357697e-05   -3.889447393200587e-06   0.00010946251217852296
-1.6288253618357697e-05   -3.889447393200587e-06   0.00010946251217852296
-1.6288253618357697e-05   -3.889447393200587e-06   0.00010946251217852296
-1.6288253618357697e-05   -3.889447393200587e-06   0.00010946251217852296
3.1694914705747e-05   -1.1220481356327347e-06   2.7830125417141336e-05
3.1694914705747e-05   -1.1220481356327347e-06   2.7830125417141336e-05
3.1694914705747e-05   -1.1220481356327347e-06   2.7830125417141336e-05
3.1694914705747e-05   -1.1220481356327347e-06   2.7830125417141336e-05
8.532435489749438e-06   -1.3231455946094081e-06   6.655491591919284e-05
8.532435489749438e-06   -1.3231455946094081e-06   6.655491591919284e-05
8.532435489749438e-06   -1.3231455946094081e-06   6.655491591919284e-05
8.532435489749438e-06   -1.3231455946094081e-06   6.655491591919284e-05
3.16949147057471e-05   -3.889447393200587e-06   0.00010780207262398207
3.16949147057471e-05   -3.889447393200587e-06   0.00010780207262398207
3.16949147057471e-05   -3.889447393200587e-06   0.00010780207262398207
3.16949147057471e-05   -3.889447393200587e-06   0.00010780207262398207
-1.628825361835775e-05   -1.122048135633602e-06   2.949056497168149e-05
-1.628825361835775e-05   -1.122048135633602e-06   2.949056497168149e-05
-1.628825361835775e-05   -1.122048135633602e-06   2.949056497168149e-05
-1.628825361835775e-05   -1.122048135633602e-06   2.949056497168149e-05
-1.8466130793202734e-05   -5.474744595296115e-06   0.00011048833957446377
-1.8466130793202734e-05   -5.474744595296115e-06   0.00011048833957446377
-1.8466130793202734e-05   -5.474744595296115e-06   0.00011048833957446377
-1.8466130793202734e-05   -5.474744595296115e-06   0.00011048833957446377
2.9342705838381142e-05   -2.9383353953782096e-06   2.9285099668540065e-05
2.9342705838381142e-05   -2.9383353953782096e-06   2.9285099668540065e-05
2.9342705838381142e-05   -2.9383353953782096e-06   2.9285099668540065e-05
2.9342705838381142e-05   -2.9383353953782096e-06   2.9285099668540065e-05
6.6622265602797785e-06   -2.576414102201975e-06   6.686874568946947e-05
6.6622265602797785e-06   -2.576414102201975e-06   6.686874568946947e-05
6.6622265602797785e-06   -2.576414102201975e-06   6.686874568946947e-05
6.6622265602797785e-06   -2.576414102201975e-06   6.686874568946947e-05
-1.1941728267526321e-05   1.1167653721972683e-05   0.00012001887227570257
-1.1941728267526321e-05   1.1167653721972683e-05   0.00012001887227570257
-1.1941728267526321e-05   1.1167653721972683e-05   0.00012001887227570257
-1.1941728267526321e-05   1.1167653721972683e-05   0.00012001887227570257
-5.9757361339359385e-05   1.0972656520769758e-05   4.020915216859308e-05
-5.9757361339359385e-05   1.0972656520769758e-05   4.020915216859308e-05
-5.9757361339359385e-05   1.0972656520769758e-05   4.020915216859308e-05
-5.9757361339359385e-05   1.0972656520769758e-05   4.020915216859308e-05
-6.187629689916757e-05   9.267403239947812e-06   0.00011923417230418933
-6.187629689916757e-05   9.267403239947812e-06   0.00011923417230418933
-6.187629689916757e-05   9.267403239947812e-06   0.00011923417230418933
-6.187629689916757e-05   9.267403239947812e-06   0.00011923417230418933
-1.4091295794680888e-05   8.933106375430197e-06   3.979308191542181e-05
-1.4091295794680888e-05   8.933106375430197e-06   3.979308191542181e-05
-1.4091295794680888e-05   8.933106375430197e-06   3.979308191542181e-05
-1.4091295794680888e-05   8.933106375430197e-06   3.979308191542181e-05
-3.7008207389327115e-05   9.83915296575745e-06   7.744430661897161e-05
-3.7008207389327115e-05   9.83915296575745e-06   7.744430661897161e-05
-3.7008207389327115e-05   9.83915296575745e-06   7.744430661897161e-05
-3.7008207389327115e-05   9.83915296575745e-06   7.744430661897161e-05
-1.4091295794680888e-05   9.267403239947812e-06   0.00011943475042290033
-1.4091295794680888e-05   9.267403239947812e-06   0.00011943475042290033
-1.4091295794680888e-05   9.267403239947812e-06   0.00011943475042290033
-1.4091295794680888e-05   9.267403239947812e-06   0.00011943475042290033
-6.187629689916757e-05   8.933106375431064e-06   3.9592503796712e-05
-6.187629689916757e-05   8.933106375431064e-06   3.9592503796712e-05
-6.187629689916757e-05   8.933106375431064e-06   3.9592503796712e-05
-6.187629689916757e-05   8.933106375431064e-06   3.9592503796712e-05
-6.404692505563442e-05   7.397035150812949e-06   0.00011985881936059806
-6.404692505563442e-05   7.397035150812949e-06   0.00011985881936059806
-6.404692505563442e-05   7.397035150812949e-06   0.00011985881936059806
-6.404692505563442e-05   7.397035150812949e-06   0.00011985881936059806
-1.6288253618357697e-05   6.916773096918988e-06   4.054919086414076e-05
-1.6288253618357697e-05   6.916773096918988e-06   4.054919086414076e-05
-1.6288253618357697e-05   6.916773096918988e-06   4.054919086414076e-05
-1.6288253618357697e-05   6.916773096918988e-06   4.054919086414076e-05
-3.895059698374434e-05   8.356405972872669e-06   7.745598341421436e-05
-3.895059698374434e-05   8.356405972872669e-06   7.745598341421436e-05
-3.895059698374434e-05   8.356405972872669e-06   7.745598341421436e-05
-3.895059698374434e-05   8.356405972872669e-06   7.745598341421436e-05
-1.628825361835775e-05   7.397035150812949e-06   0.00012014697659293435
-1.628825361835775e-05   7.397035150812949e-06   0.00012014697659293435
-1.628825361835775e-05   7.397035150812949e-06   0.00012014697659293435
-1.628825361835775e-05   7.397035150812949e-06   0.00012014697659293435
-6.404692505563442e-05   6.916773096919855e-06   4.026103363180414e-05
-6.404692505563442e-05   6.916773096919855e-06   4.026103363180414e-05
-6.404692505563442e-05   6.916773096919855e-06   4.026103363180414e-05
-6.404692505563442e-05   6.916773096919855e-06   4.026103363180414e-05
-6.619301341654563e-05   5.621754070337347e-06   0.00012148934378443995
-6.619301341654563e-05   5.621754070337347e-06   0.00012148934378443995
-6.619301341654563e-05   5.621754070337347e-06   0.00012148934378443995
-6.619301341654563e-05   5.621754070337347e-06   0.00012148934378443995
-1.8466130793202734e-05   4.974770212999753e-06   4.233272972660495e-05
-1.8466130793202734e-05   4.974770212999753e-06   4.233272972660495e-05
-1.8466130793202734e-05   4.974770212999753e-06   4.233272972660495e-05
-1.8466130793202734e-05   4.974770212999753e-06   4.233272972660495e-05
-4.098137988045388e-05   6.907884945170535e-06   7.869827603272151e-05
-4.098137988045388e-05   6.907884945170535e-06   7.869827603272151e-05
-4.098137988045388e-05   6.907884945170535e-06   7.869827603272151e-05
-4.098137988045388e-05   6.907884945170535e-06   7.869827603272151e-05
-5.9757361339359385e-05   2.193403547096854e-05   0.00010608705530961576
-5.9757361339359385e-05   2.193403547096854e-05   0.00010608705530961576
-5.9757361339359385e-05   2.193403547096854e-05   0.00010608705530961576
-5.9757361339359385e-05   2.193403547096854e-05   0.00010608705530961576
-0.00010673135770544794   1.8770331949696448e-05   2.5898839253371553e-05
-0.00010673135770544794   1.8770331949696448e-05   2.5898839253371553e-05
-0.00010673135770544794   1.8770331949696448e-05   2.5898839253371553e-05
-0.00010673135770544794   1.8770331949696448e-05   2.5898839253371553e-05
-0.00010900214217082608   2.0109010293245348e-05   0.00010466565546452498
-0.00010900214217082608   2.0109010293245348e-05   0.00010466565546452498
-0.00010900214217082608   2.0109010293245348e-05   0.00010466565546452498
-0.00010900214217082608   2.0109010293245348e-05   0.00010466565546452498
-6.187629689916735e-05   1.6773913559865218e-05   2.812363805178926e-05
-6.187629689916735e-05   1.6773913559865218e-05   2.812363805178926e-05
-6.187629689916735e-05   1.6773913559865218e-05   2.812363805178926e-05
-6.187629689916735e-05   1.6773913559865218e-05   2.812363805178926e-05
-8.410473860735393e-05   1.9073097600816845e-05   6.379153047419875e-05
-8.410473860735393e-05   1.9073097600816845e-05   6.379153047419875e-05
-8.410473860735393e-05   1.9073097600816845e-05   6.379153047419875e-05
-8.410473860735393e-05   1.9073097600816845e-05   6.379153047419875e-05
-6.187629689916757e-05   2.0109010293245348e-05   0.00010666671350455324
-6.187629689916757e-05   2.0109010293245348e-05   0.00010666671350455324
-6.187629689916757e-05   2.0109010293245348e-05   0.00010666671350455324
-6.187629689916757e-05   2.0109010293245348e-05   0.00010666671350455324
-0.00010900214217082597   1.6773913559866085e-05   2.612258001176166e-05
-0.00010900214217082597   1.6773913559866085e-05   2.612258001176166e-05
-0.00010900214217082597   1.6773913559866085e-05   2.612258001176166e-05
-0.00010900214217082597   1.6773913559866085e-05   2.612258001176166e-05
-0.00011155973714426209   1.841337859511804e-05   0.00010824496569670876
-0.00011155973714426209   1.841337859511804e-05   0.00010824496569670876
-0.00011155973714426209   1.841337859511804e-05   0.00010824496569670876
-0.00011155973714426209   1.841337859511804e-05   0.00010824496569670876
-6.40469250556342e-05   1.4930907027871886e-05   3.114642848934331e-05
-6.40469250556342e-05   1.4930907027871886e-05   3.114642848934331e-05
-6.40469250556342e-05   1.4930907027871886e-05   3.114642848934331e-05
-6.40469250556342e-05   1.4930907027871886e-05   3.114642848934331e-05
-8.568657715747315e-05   1.7711293870310146e-05   6.554428322028192e-05
-8.568657715747315e-05   1.7711293870310146e-05   6.554428322028192e-05
-8.568657715747315e-05   1.7711293870310146e-05   6.554428322028192e-05
-8.568657715747315e-05   1.7711293870310146e-05   6.554428322028192e-05
-6.404692505563431e-05   1.841337859511804e-05   0.00011033444863705602
-6.404692505563431e-05   1.841337859511804e-05   0.00011033444863705602
-6.404692505563431e-05   1.841337859511804e-05   0.00011033444863705602
-6.404692505563431e-05   1.841337859511804e-05   0.00011033444863705602
-0.00011155973714426176   1.4930907027872753e-05   2.9056945548996266e-05
-0.00011155973714426176   1.4930907027872753e-05   2.9056945548996266e-05
-0.00011155973714426176   1.4930907027872753e-05   2.9056945548996266e-05
-0.00011155973714426176   1.4930907027872753e-05   2.9056945548996266e-05
-0.00011383684885849833   1.6443249446882087e-05   0.00011128281361140035
-0.00011383684885849833   1.6443249446882087e-05   0.00011128281361140035
-0.00011383684885849833   1.6443249446882087e-05   0.00011128281361140035
-0.00011383684885849833   1.6443249446882087e-05   0.00011128281361140035
-6.619301341654542e-05   1.287487961799949e-05   3.401744310547626e-05
-6.619301341654542e-05   1.287487961799949e-05   3.401744310547626e-05
-6.619301341654542e-05   1.287487961799949e-05   3.401744310547626e-05
-6.619301341654542e-05   1.287487961799949e-05   3.401744310547626e-05
-8.824497458571851e-05   1.6282750468100265e-05   6.872598921070592e-05
-8.824497458571851e-05   1.6282750468100265e-05   6.872598921070592e-05
-8.824497458571851e-05   1.6282750468100265e-05   6.872598921070592e-05
-8.824497458571851e-05   1.6282750468100265e-05   6.872598921070592e-05
-0.00010673135770544794   3.0164825511226276e-05   5.0886830997675606e-05
-0.00010673135770544794   3.0164825511226276e-05   5.0886830997675606e-05
-0.00010673135770544794   3.0164825511226276e-05   5.0886830997675606e-05
-0.00010673135770544794   3.0164825511226276e-05   5.0886830997675606e-05
-0.00015066228293907058   2.4558398813492692e-05   -2.5695233743668576e-05
-0.00015066228293907058   2.4558398813492692e-05   -2.5695233743668576e-05
-0.00015066228293907058   2.4558398813492692e-05   -2.5695233743668576e-05
-0.00015066228293907058   2.4558398813492692e-05   -2.5695233743668576e-05
-0.00015540188827949022   2.999518940997349e-05   6.513806084957555e-05
-0.00015540188827949022   2.999518940997349e-05   6.513806084957555e-05
-0.00015540188827949022   2.999518940997349e-05   6.513806084957555e-05
-0.00015540188827949022   2.999518940997349e-05   6.513806084957555e-05
-0.00010900214217082565   2.3906929548336495e-05   -8.54189341454887e-06
-0.00010900214217082565   2.3906929548336495e-05   -8.54189341454887e-06
-0.00010900214217082565   2.3906929548336495e-05   -8.54189341454887e-06
-0.00010900214217082565   2.3906929548336495e-05   -8.54189341454887e-06
-0.00012556340079436745   2.66693040091269e-05   1.7402779614882763e-05
-0.00012556340079436745   2.66693040091269e-05   1.7402779614882763e-05
-0.00012556340079436745   2.66693040091269e-05   1.7402779614882763e-05
-0.00012556340079436745   2.66693040091269e-05   1.7402779614882763e-05
-0.00010900214217082597   2.999518940997436e-05   6.87910167665581e-05
-0.00010900214217082597   2.999518940997436e-05   6.87910167665581e-05
-0.00010900214217082597   2.999518940997436e-05   6.87910167665581e-05
-0.00010900214217082597   2.999518940997436e-05   6.87910167665581e-05
-0.00015540188827949043   2.3906929548336495e-05   -1.2194849331531414e-05
-0.00015540188827949043   2.3906929548336495e-05   -1.2194849331531414e-05
-0.00015540188827949043   2.3906929548336495e-05   -1.2194849331531414e-05
-0.00015540188827949043   2.3906929548336495e-05   -1.2194849331531414e-05
-0.00015954263026246042   2.9377691212566052e-05   7.75431506556028e-05
-0.00015954263026246042   2.9377691212566052e-05   7.75431506556028e-05
-0.00015954263026246042   2.9377691212566052e-05   7.75431506556028e-05
-0.00015954263026246042   2.9377691212566052e-05   7.75431506556028e-05
-0.00011155973714426165   2.312657321071592e-05   1.322332926381991e-06
-0.00011155973714426165   2.312657321071592e-05   1.322332926381991e-06
-0.00011155973714426165   2.312657321071592e-05   1.322332926381991e-06
-0.00011155973714426165   2.312657321071592e-05   1.322332926381991e-06
-0.00013056389801501005   2.6678529103163658e-05   3.086476084216512e-05
-0.00013056389801501005   2.6678529103163658e-05   3.086476084216512e-05
-0.00013056389801501005   2.6678529103163658e-05   3.086476084216512e-05
-0.00013056389801501005   2.6678529103163658e-05   3.086476084216512e-05
-0.00011155973714426209   2.9377691212566052e-05   8.129382145671306e-05
-0.00011155973714426209   2.9377691212566052e-05   8.129382145671306e-05
-0.00011155973714426209   2.9377691212566052e-05   8.129382145671306e-05
-0.00011155973714426209   2.9377691212566052e-05   8.129382145671306e-05
-0.00015954263026246042   2.312657321071592e-05   -2.4283378747280444e-06
-0.00015954263026246042   2.312657321071592e-05   -2.4283378747280444e-06
-0.00015954263026246042   2.312657321071592e-05   -2.4283378747280444e-06
-0.00015954263026246042   2.312657321071592e-05   -2.4283378747280444e-06
-0.00016435069693626733   2.6668817481353968e-05   9.912051625218712e-05
-0.00016435069693626733   2.6668817481353968e-05   9.912051625218712e-05
-0.00016435069693626733   2.6668817481353968e-05   9.912051625218712e-05
-0.00016435069693626733   2.6668817481353968e-05   9.912051625218712e-05
-0.00011383684885849779   2.0520326479789817e-05   1.861986405684332e-05
-0.00011383684885849779   2.0520326479789817e-05   1.861986405684332e-05
-0.00011383684885849779   2.0520326479789817e-05   1.861986405684332e-05
-0.00011383684885849779   2.0520326479789817e-05   1.861986405684332e-05
-0.00013171492222440124   2.5544681076901214e-05   4.5402040241748244e-05
-0.00013171492222440124   2.5544681076901214e-05   4.5402040241748244e-05
-0.00013171492222440124   2.5544681076901214e-05   4.5402040241748244e-05
-0.00013171492222440124   2.5544681076901214e-05   4.5402040241748244e-05
4.862665158408873e-05   -5.57543906560664e-06   6.984989731140126e-05
4.862665158408873e-05   -5.57543906560664e-06   6.984989731140126e-05
4.862665158408873e-05   -5.57543906560664e-06   6.984989731140126e-05
4.862665158408873e-05   -5.57543906560664e-06   6.984989731140126e-05
1.2529559976651002e-05   2.3671126184697522e-07   1.3175368162144686e-05
1.2529559976651002e-05   2.3671126184697522e-07   1.3175368162144686e-05
1.2529559976651002e-05   2.3671126184697522e-07   1.3175368162144686e-05
1.2529559976651002e-05   2.3671126184697522e-07   1.3175368162144686e-05
1.0786112893242783e-05   -7.779648724079956e-06   6.518916544050657e-05
1.0786112893242783e-05   -7.779648724079956e-06   6.518916544050657e-05
1.0786112893242783e-05   -7.779648724079956e-06   6.518916544050657e-05
1.0786112893242783e-05   -7.779648724079956e-06   6.518916544050657e-05
4.4322677030124305e-05   -1.7338053193705072e-06   5.667385836212804e-06
4.4322677030124305e-05   -1.7338053193705072e-06   5.667385836212804e-06
4.4322677030124305e-05   -1.7338053193705072e-06   5.667385836212804e-06
4.4322677030124305e-05   -1.7338053193705072e-06   5.667385836212804e-06
2.7341402685100747e-05   -3.9920994717923194e-06   3.5324486236040786e-05
2.7341402685100747e-05   -3.9920994717923194e-06   3.5324486236040786e-05
2.7341402685100747e-05   -3.9920994717923194e-06   3.5324486236040786e-05
2.7341402685100747e-05   -3.9920994717923194e-06   3.5324486236040786e-05
4.432267703012436e-05   -7.779648724079088e-06   6.15616593976822e-05
4.432267703012436e-05   -7.779648724079088e-06   6.15616593976822e-05
4.432267703012436e-05   -7.779648724079088e-06   6.15616593976822e-05
4.432267703012436e-05   -7.779648724079088e-06   6.15616593976822e-05
1.078611289324277e-05   -1.7338053193705072e-06   9.29489187903804e-06
1.078611289324277e-05   -1.7338053193705072e-06   9.29489187903804e-06
1.078611289324277e-05   -1.7338053193705072e-06   9.29489187903804e-06
1.078611289324277e-05   -1.7338053193705072e-06   9.29489187903804e-06
8.757801627532947e-06   -8.54229093113449e-06   6.122568905422105e-05
8.757801627532947e-06   -8.54229093113449e-06   6.122568905422105e-05
8.757801627532947e-06   -8.54229093113449e-06   6.122568905422105e-05
8.757801627532947e-06   -8.54229093113449e-06   6.122568905422105e-05
4.0682632053349384e-05   -2.588913537036365e-06   4.445611908068597e-06
4.0682632053349384e-05   -2.588913537036365e-06   4.445611908068597e-06
4.0682632053349384e-05   -2.588913537036365e-06   4.445611908068597e-06
4.0682632053349384e-05   -2.588913537036365e-06   4.445611908068597e-06
2.5248109831925035e-05   -4.851696511314063e-06   3.152748539500907e-05
2.5248109831925035e-05   -4.851696511314063e-06   3.152748539500907e-05
2.5248109831925035e-05   -4.851696511314063e-06   3.152748539500907e-05
2.5248109831925035e-05   -4.851696511314063e-06   3.152748539500907e-05
4.068263205334944e-05   -8.542290931133623e-06   5.765366261776183e-05
4.068263205334944e-05   -8.542290931133623e-06   5.765366261776183e-05
4.068263205334944e-05   -8.542290931133623e-06   5.765366261776183e-05
4.068263205334944e-05   -8.542290931133623e-06   5.765366261776183e-05
8.757801627532906e-06   -2.588913537036365e-06   8.01763834452733e-06
8.757801627532906e-06   -2.588913537036365e-06   8.01763834452733e-06
8.757801627532906e-06   -2.588913537036365e-06   8.01763834452733e-06
8.757801627532906e-06   -2.588913537036365e-06   8.01763834452733e-06
7.002286523667949e-06   -9.562801150569782e-06   5.6678869640984335e-05
7.002286523667949e-06   -9.562801150569782e-06   5.6678869640984335e-05
7.002286523667949e-06   -9.562801150569782e-06   5.6678869640984335e-05
7.002286523667949e-06   -9.562801150569782e-06   5.6678869640984335e-05
3.6425999843819044e-05   -4.023690746656622e-06   4.315881198385598e-06
3.6425999843819044e-05   -4.023690746656622e-06   4.315881198385598e-06
3.6425999843819044e-05   -4.023690746656622e-06   4.315881198385598e-06
3.6425999843819044e-05   -4.023690746656622e-06   4.315881198385598e-06
2.220097646217276e-05   -5.305199003898149e-06   2.879315845547535e-05
2.220097646217276e-05   -5.305199003898149e-06   2.879315845547535e-05
2.220097646217276e-05   -5.305199003898149e-06   2.879315845547535e-05
2.220097646217276e-05   -5.305199003898149e-06   2.879315845547535e-05
1.2529559976651029e-05   2.952785285655589e-06   9.647322623072092e-05
1.2529559976651029e-05   2.952785285655589e-06   9.647322623072092e-05
1.2529559976651029e-05   2.952785285655589e-06   9.647322623072092e-05
1.2529559976651029e-05   2.952785285655589e-06   9.647322623072092e-05
-2.0387736275276824e-05   5.573255506523961e-06   4.3183347943361646e-05
-2.0387736275276824e-05   5.573255506523961e-06   4.3183347943361646e-05
-2.0387736275276824e-05   5.573255506523961e-06   4.3183347943361646e-05
-2.0387736275276824e-05   5.573255506523961e-06   4.3183347943361646e-05
-2.1917365163709966e-05   7.145205951032338e-07   9.679213502391875e-05
-2.1917365163709966e-05   7.145205951032338e-07   9.679213502391875e-05
-2.1917365163709966e-05   7.145205951032338e-07   9.679213502391875e-05
-2.1917365163709966e-05   7.145205951032338e-07   9.679213502391875e-05
1.078611289324277e-05   3.3392394600869485e-06   4.071150694334201e-05
1.078611289324277e-05   3.3392394600869485e-06   4.071150694334201e-05
1.078611289324277e-05   3.3392394600869485e-06   4.071150694334201e-05
1.078611289324277e-05   3.3392394600869485e-06   4.071150694334201e-05
-4.991252284621667e-06   2.925381632194572e-06   6.725543026985404e-05
-4.991252284621667e-06   2.925381632194572e-06   6.725543026985404e-05
-4.991252284621667e-06   2.925381632194572e-06   6.725543026985404e-05
-4.991252284621667e-06   2.925381632194572e-06   6.725543026985404e-05
1.0786112893242783e-05   7.145205951032338e-07   9.521730370492913e-05
1.0786112893242783e-05   7.145205951032338e-07   9.521730370492913e-05
1.0786112893242783e-05   7.145205951032338e-07   9.521730370492913e-05
1.0786112893242783e-05   7.145205951032338e-07   9.521730370492913e-05
-2.1917365163709966e-05   3.339239460086081e-06   4.228633826233209e-05
-2.1917365163709966e-05   3.339239460086081e-06   4.228633826233209e-05
-2.1917365163709966e-05   3.339239460086081e-06   4.228633826233209e-05
-2.1917365163709966e-05   3.339239460086081e-06   4.228633826233209e-05
-2.349084322139357e-05   -1.122048135633602e-06   9.620054313522934e-05
-2.349084322139357e-05   -1.122048135633602e-06   9.620054313522934e-05
-2.349084322139357e-05   -1.122048135633602e-06   9.620054313522934e-05
-2.349084322139357e-05   -1.122048135633602e-06   9.620054313522934e-05
8.757801627532906e-06   1.440503052455716e-06   4.091527100749868e-05
8.757801627532906e-06   1.440503052455716e-06   4.091527100749868e-05
8.757801627532906e-06   1.440503052455716e-06   4.091527100749868e-05
8.757801627532906e-06   1.440503052455716e-06   4.091527100749868e-05
-6.6217391298590325e-06   1.3638634377187778e-06   6.659382270532942e-05
-6.6217391298590325e-06   1.3638634377187778e-06   6.659382270532942e-05
-6.6217391298590325e-06   1.3638634377187778e-06   6.659382270532942e-05
-6.6217391298590325e-06   1.3638634377187778e-06   6.659382270532942e-05
8.757801627532947e-06   -1.1220481356327347e-06   9.46630124223761e-05
8.757801627532947e-06   -1.1220481356327347e-06   9.46630124223761e-05
8.757801627532947e-06   -1.1220481356327347e-06   9.46630124223761e-05
8.757801627532947e-06   -1.1220481356327347e-06   9.46630124223761e-05
-2.3490843221393623e-05   1.4405030524565834e-06   4.245280172035255e-05
-2.3490843221393623e-05   1.4405030524565834e-06   4.245280172035255e-05
-2.3490843221393623e-05   1.4405030524565834e-06   4.245280172035255e-05
-2.3490843221393623e-05   1.4405030524565834e-06   4.245280172035255e-05
-2.5039912202389825e-05   -2.9383353953782096e-06   9.749691788938373e-05
-2.5039912202389825e-05   -2.9383353953782096e-06   9.749691788938373e-05
-2.5039912202389825e-05   -2.9383353953782096e-06   9.749691788938373e-05
-2.5039912202389825e-05   -2.9383353953782096e-06   9.749691788938373e-05
7.002286523667936e-06   -5.064787983264513e-07   4.263413938772337e-05
7.002286523667936e-06   -5.064787983264513e-07   4.263413938772337e-05
7.002286523667936e-06   -5.064787983264513e-07   4.263413938772337e-05
7.002286523667936e-06   -5.064787983264513e-07   4.263413938772337e-05
-8.006054837160465e-06   -4.3605127074235195e-08   6.737031745302109e-05
-8.006054837160465e-06   -4.3605127074235195e-08   6.737031745302109e-05
-8.006054837160465e-06   -4.3605127074235195e-08   6.737031745302109e-05
-8.006054837160465e-06   -4.3605127074235195e-08   6.737031745302109e-05
-2.0387736275276824e-05   1.0972656520769758e-05   0.00010705572389040942
-2.0387736275276824e-05   1.0972656520769758e-05   0.00010705572389040942
-2.0387736275276824e-05   1.0972656520769758e-05   0.00010705572389040942
-2.0387736275276824e-05   1.0972656520769758e-05   0.00010705572389040942
-5.276851652851703e-05   1.0326393696688703e-05   5.2699999107226874e-05
-5.276851652851703e-05   1.0326393696688703e-05   5.2699999107226874e-05
-5.276851652851703e-05   1.0326393696688703e-05   5.2699999107226874e-05
-5.276851652851703e-05   1.0326393696688703e-05   5.2699999107226874e-05
-5.4234435936436156e-05   8.933106375431064e-06   0.00010611081214164037
-5.4234435936436156e-05   8.933106375431064e-06   0.00010611081214164037
-5.4234435936436156e-05   8.933106375431064e-06   0.00010611081214164037
-5.4234435936436156e-05   8.933106375431064e-06   0.00010611081214164037
-2.1917365163709858e-05   8.26125975532388e-06   5.265213549249476e-05
-2.1917365163709858e-05   8.26125975532388e-06   5.265213549249476e-05
-2.1917365163709858e-05   8.26125975532388e-06   5.265213549249476e-05
-2.1917365163709858e-05   8.26125975532388e-06   5.265213549249476e-05
-3.7394964928163415e-05   9.398451719428227e-06   7.776581992145824e-05
-3.7394964928163415e-05   9.398451719428227e-06   7.776581992145824e-05
-3.7394964928163415e-05   9.398451719428227e-06   7.776581992145824e-05
-3.7394964928163415e-05   9.398451719428227e-06   7.776581992145824e-05
-2.1917365163709966e-05   8.933106375430197e-06   0.00010651392011370433
-2.1917365163709966e-05   8.933106375430197e-06   0.00010651392011370433
-2.1917365163709966e-05   8.933106375430197e-06   0.00010651392011370433
-2.1917365163709966e-05   8.933106375430197e-06   0.00010651392011370433
-5.423443593643605e-05   8.26125975532388e-06   5.2249027520430685e-05
-5.423443593643605e-05   8.26125975532388e-06   5.2249027520430685e-05
-5.423443593643605e-05   8.26125975532388e-06   5.2249027520430685e-05
-5.423443593643605e-05   8.26125975532388e-06   5.2249027520430685e-05
-5.574909325613839e-05   6.916773096918988e-06   0.00010683302738415329
-5.574909325613839e-05   6.916773096918988e-06   0.00010683302738415329
-5.574909325613839e-05   6.916773096918988e-06   0.00010683302738415329
-5.574909325613839e-05   6.916773096918988e-06   0.00010683302738415329
-2.3490843221393514e-05   6.206537024360664e-06   5.349541896978083e-05
-2.3490843221393514e-05   6.206537024360664e-06   5.349541896978083e-05
-2.3490843221393514e-05   6.206537024360664e-06   5.349541896978083e-05
-2.3490843221393514e-05   6.206537024360664e-06   5.349541896978083e-05
-3.870155093490586e-05   7.825089475386668e-06   7.787546702168568e-05
-3.870155093490586e-05   7.825089475386668e-06   7.787546702168568e-05
-3.870155093490586e-05   7.825089475386668e-06   7.787546702168568e-05
-3.870155093490586e-05   7.825089475386668e-06   7.787546702168568e-05
-2.3490843221393623e-05   6.916773096918988e-06   0.00010725916902768829
-2.3490843221393623e-05   6.916773096918988e-06   0.00010725916902768829
-2.3490843221393623e-05   6.916773096918988e-06   0.00010725916902768829
-2.3490843221393623e-05   6.916773096918988e-06   0.00010725916902768829
-5.574909325613828e-05   6.206537024360664e-06   5.306927732624594e-05
-5.574909325613828e-05   6.206537024360664e-06   5.306927732624594e-05
-5.574909325613828e-05   6.206537024360664e-06   5.306927732624594e-05
-5.574909325613828e-05   6.206537024360664e-06   5.306927732624594e-05
-5.72405539984069e-05   4.9747702130006205e-06   0.00010858041859703035
-5.72405539984069e-05   4.9747702130006205e-06   0.00010858041859703035
-5.72405539984069e-05   4.9747702130006205e-06   0.00010858041859703035
-5.72405539984069e-05   4.9747702130006205e-06   0.00010858041859703035
-2.503991220238977e-05   4.237630495554021e-06   5.535496610080382e-05
-2.503991220238977e-05   4.237630495554021e-06   5.535496610080382e-05
-2.503991220238977e-05   4.237630495554021e-06   5.535496610080382e-05
-2.503991220238977e-05   4.237630495554021e-06   5.535496610080382e-05
-4.0090550565935565e-05   6.282512840622215e-06   7.92124339663398e-05
-4.0090550565935565e-05   6.282512840622215e-06   7.92124339663398e-05
-4.0090550565935565e-05   6.282512840622215e-06   7.92124339663398e-05
-4.0090550565935565e-05   6.282512840622215e-06   7.92124339663398e-05
-5.276851652851703e-05   1.8770331949696448e-05   9.425587539350216e-05
-5.276851652851703e-05   1.8770331949696448e-05   9.425587539350216e-05
-5.276851652851703e-05   1.8770331949696448e-05   9.425587539350216e-05
-5.276851652851703e-05   1.8770331949696448e-05   9.425587539350216e-05
-8.453005353558155e-05   1.53006765007584e-05   3.92381871123647e-05
-8.453005353558155e-05   1.53006765007584e-05   3.92381871123647e-05
-8.453005353558155e-05   1.53006765007584e-05   3.92381871123647e-05
-8.453005353558155e-05   1.53006765007584e-05   3.92381871123647e-05
-8.612593596449302e-05   1.6773913559865218e-05   9.250687034392108e-05
-8.612593596449302e-05   1.6773913559865218e-05   9.250687034392108e-05
-8.612593596449302e-05   1.6773913559865218e-05   9.250687034392108e-05
-8.612593596449302e-05   1.6773913559865218e-05   9.250687034392108e-05
-5.423443593643594e-05   1.3215453471870746e-05   4.148944634995637e-05
-5.423443593643594e-05   1.3215453471870746e-05   4.148944634995637e-05
-5.423443593643594e-05   1.3215453471870746e-05   4.148944634995637e-05
-5.423443593643594e-05   1.3215453471870746e-05   4.148944634995637e-05
-6.924813755155115e-05   1.5761594394152374e-05   6.498459782178397e-05
-6.924813755155115e-05   1.5761594394152374e-05   6.498459782178397e-05
-6.924813755155115e-05   1.5761594394152374e-05   6.498459782178397e-05
-6.924813755155115e-05   1.5761594394152374e-05   6.498459782178397e-05
-5.4234435936436156e-05   1.6773913559865218e-05   9.464194639671785e-05
-5.4234435936436156e-05   1.6773913559865218e-05   9.464194639671785e-05
-5.4234435936436156e-05   1.6773913559865218e-05   9.464194639671785e-05
-5.4234435936436156e-05   1.6773913559865218e-05   9.464194639671785e-05
-8.61259359644928e-05   1.3215453471870746e-05   3.9354370297160464e-05
-8.61259359644928e-05   1.3215453471870746e-05   3.9354370297160464e-05
-8.61259359644928e-05   1.3215453471870746e-05   3.9354370297160464e-05
-8.61259359644928e-05   1.3215453471870746e-05   3.9354370297160464e-05
-8.80182389692754e-05   1.4930907027871886e-05   9.555389761919334e-05
-8.80182389692754e-05   1.4930907027871886e-05   9.555389761919334e-05
-8.80182389692754e-05   1.4930907027871886e-05   9.555389761919334e-05
-8.80182389692754e-05   1.4930907027871886e-05   9.555389761919334e-05
-5.5749093256138174e-05   1.132336599037314e-05   4.393651271979832e-05
-5.5749093256138174e-05   1.132336599037314e-05   4.393651271979832e-05
-5.5749093256138174e-05   1.132336599037314e-05   4.393651271979832e-05
-5.5749093256138174e-05   1.132336599037314e-05   4.393651271979832e-05
-7.028838099709878e-05   1.4284712824384413e-05   6.639185085432564e-05
-7.028838099709878e-05   1.4284712824384413e-05   6.639185085432564e-05
-7.028838099709878e-05   1.4284712824384413e-05   6.639185085432564e-05
-7.028838099709878e-05   1.4284712824384413e-05   6.639185085432564e-05
-5.574909325613839e-05   1.4930907027871886e-05   9.771842224169224e-05
-5.574909325613839e-05   1.4930907027871886e-05   9.771842224169224e-05
-5.574909325613839e-05   1.4930907027871886e-05   9.771842224169224e-05
-5.574909325613839e-05   1.4930907027871886e-05   9.771842224169224e-05
-8.801823896927518e-05   1.132336599037314e-05   4.1771988097298986e-05
-8.801823896927518e-05   1.132336599037314e-05   4.1771988097298986e-05
-8.801823896927518e-05   1.132336599037314e-05   4.1771988097298986e-05
-8.801823896927518e-05   1.132336599037314e-05   4.1771988097298986e-05
-8.964500792513165e-05   1.287487961799949e-05   9.851157928027036e-05
-8.964500792513165e-05   1.287487961799949e-05   9.851157928027036e-05
-8.964500792513165e-05   1.287487961799949e-05   9.851157928027036e-05
-8.964500792513165e-05   1.287487961799949e-05   9.851157928027036e-05
-5.724055399840668e-05   9.305307934610353e-06   4.664589907909665e-05
-5.724055399840668e-05   9.305307934610353e-06   4.664589907909665e-05
-5.724055399840668e-05   9.305307934610353e-06   4.664589907909665e-05
-5.724055399840668e-05   9.305307934610353e-06   4.664589907909665e-05
-7.206564989594978e-05   1.2809966703184426e-05   6.925159698052707e-05
-7.206564989594978e-05   1.2809966703184426e-05   6.925159698052707e-05
-7.206564989594978e-05   1.2809966703184426e-05   6.925159698052707e-05
-7.206564989594978e-05   1.2809966703184426e-05   6.925159698052707e-05
-8.453005353558176e-05   2.4558398813492692e-05   4.394386514573875e-05
-8.453005353558176e-05   2.4558398813492692e-05   4.394386514573875e-05
-8.453005353558176e-05   2.4558398813492692e-05   4.394386514573875e-05
-8.453005353558176e-05   2.4558398813492692e-05   4.394386514573875e-05
-0.00011305449082664801   1.876323032107708e-05   -7.0739647681538394e-06
-0.00011305449082664801   1.876323032107708e-05   -7.0739647681538394e-06
-0.00011305449082664801   1.876323032107708e-05   -7.0739647681538394e-06
-0.00011305449082664801   1.876323032107708e-05   -7.0739647681538394e-06
-0.00011714047166831005   2.3906929548336495e-05   5.411108906539213e-05
-0.00011714047166831005   2.3906929548336495e-05   5.411108906539213e-05
-0.00011714047166831005   2.3906929548336495e-05   5.411108906539213e-05
-0.00011714047166831005   2.3906929548336495e-05   5.411108906539213e-05
-8.61259359644928e-05   1.7688083127973334e-05   6.15150407791594e-06
-8.61259359644928e-05   1.7688083127973334e-05   6.15150407791594e-06
-8.61259359644928e-05   1.7688083127973334e-05   6.15150407791594e-06
-8.61259359644928e-05   1.7688083127973334e-05   6.15150407791594e-06
-9.656645084136508e-05   2.0847540334573145e-05   2.165668788208083e-05
-9.656645084136508e-05   2.0847540334573145e-05   2.165668788208083e-05
-9.656645084136508e-05   2.0847540334573145e-05   2.165668788208083e-05
-9.656645084136508e-05   2.0847540334573145e-05   2.165668788208083e-05
-8.61259359644928e-05   2.3906929548336495e-05   5.784239691761055e-05
-8.61259359644928e-05   2.3906929548336495e-05   5.784239691761055e-05
-8.61259359644928e-05   2.3906929548336495e-05   5.784239691761055e-05
-8.61259359644928e-05   2.3906929548336495e-05   5.784239691761055e-05
-0.00011714047166831048   1.76880831279742e-05   2.4201962256982816e-06
-0.00011714047166831048   1.76880831279742e-05   2.4201962256982816e-06
-0.00011714047166831048   1.76880831279742e-05   2.4201962256982816e-06
-0.00011714047166831048   1.76880831279742e-05   2.4201962256982816e-06
-0.00012066372188678127   2.312657321071592e-05   6.402180782305675e-05
-0.00012066372188678127   2.312657321071592e-05   6.402180782305675e-05
-0.00012066372188678127   2.312657321071592e-05   6.402180782305675e-05
-0.00012066372188678127   2.312657321071592e-05   6.402180782305675e-05
-8.801823896927518e-05   1.6797444588181193e-05   1.3410146800735137e-05
-8.801823896927518e-05   1.6797444588181193e-05   1.3410146800735137e-05
-8.801823896927518e-05   1.6797444588181193e-05   1.3410146800735137e-05
-8.801823896927518e-05   1.6797444588181193e-05   1.3410146800735137e-05
-0.000100477914228771   2.056371964277194e-05   3.191650720047595e-05
-0.000100477914228771   2.056371964277194e-05   3.191650720047595e-05
-0.000100477914228771   2.056371964277194e-05   3.191650720047595e-05
-0.000100477914228771   2.056371964277194e-05   3.191650720047595e-05
-8.80182389692754e-05   2.312657321071592e-05   6.781928499657863e-05
-8.80182389692754e-05   2.312657321071592e-05   6.781928499657863e-05
-8.80182389692754e-05   2.312657321071592e-05   6.781928499657863e-05
-8.80182389692754e-05   2.312657321071592e-05   6.781928499657863e-05
-0.00012066372188678171   1.6797444588180326e-05   9.612669627214344e-06
-0.00012066372188678171   1.6797444588180326e-05   9.612669627214344e-06
-0.00012066372188678171   1.6797444588180326e-05   9.612669627214344e-06
-0.00012066372188678171   1.6797444588180326e-05   9.612669627214344e-06
-0.00012488634962640622   2.0520326479790685e-05   8.157531917396196e-05
-0.00012488634962640622   2.0520326479790685e-05   8.157531917396196e-05
-0.00012488634962640622   2.0520326479790685e-05   8.157531917396196e-05
-0.00012488634962640622   2.0520326479790685e-05   8.157531917396196e-05
-8.964500792513143e-05   1.4387488221447031e-05   2.651945262684228e-05
-8.964500792513143e-05   1.4387488221447031e-05   2.651945262684228e-05
-8.964500792513143e-05   1.4387488221447031e-05   2.651945262684228e-05
-8.964500792513143e-05   1.4387488221447031e-05   2.651945262684228e-05
-0.00010147747696176272   1.946787461507872e-05   4.3192002518383996e-05
-0.00010147747696176272   1.946787461507872e-05   4.3192002518383996e-05
-0.00010147747696176272   1.946787461507872e-05   4.3192002518383996e-05
-0.00010147747696176272   1.946787461507872e-05   4.3192002518383996e-05
8.99886131746822e-06   2.3671126184697522e-07   5.186467739891993e-05
8.99886131746822e-06   2.3671126184697522e-07   5.186467739891993e-05
8.99886131746822e-06   2.3671126184697522e-07   5.186467739891993e-05
8.99886131746822e-06   2.3671126184697522e-07   5.186467739891993e-05
-1.1433429856990508e-05   5.79831092520312e-06   2.1147818572835823e-05
-1.1433429856990508e-05   5.79831092520312e-06   2.1147818572835823e-05
-1.1433429856990508e-05   5.79831092520312e-06   2.1147818572835823e-05
-1.1433429856990508e-05   5.79831092520312e-06   2.1147818572835823e-05
-1.2656776843036224e-05   -1.7338053193705072e-06   5.125169103301422e-05
-1.2656776843036224e-05   -1.7338053193705072e-06   5.125169103301422e-05
-1.2656776843036224e-05   -1.7338053193705072e-06   5.125169103301422e-05
-1.2656776843036224e-05   -1.7338053193705072e-06   5.125169103301422e-05
5.2663670697628505e-06   3.960847914422604e-06   1.7962992571406307e-05
5.2663670697628505e-06   3.960847914422604e-06   1.7962992571406307e-05
5.2663670697628505e-06   3.960847914422604e-06   1.7962992571406307e-05
5.2663670697628505e-06   3.960847914422604e-06   1.7962992571406307e-05
-2.9136735810709495e-06   1.7537304948921778e-06   3.292066410784801e-05
-2.9136735810709495e-06   1.7537304948921778e-06   3.292066410784801e-05
-2.9136735810709495e-06   1.7537304948921778e-06   3.292066410784801e-05
-2.9136735810709495e-06   1.7537304948921778e-06   3.292066410784801e-05
5.2663670697628505e-06   -1.7338053193705072e-06   4.7834899092738265e-05
5.2663670697628505e-06   -1.7338053193705072e-06   4.7834899092738265e-05
5.2663670697628505e-06   -1.7338053193705072e-06   4.7834899092738265e-05
5.2663670697628505e-06   -1.7338053193705072e-06   4.7834899092738265e-05
-1.2656776843036224e-05   3.960847914422604e-06   2.1379784511681935e-05
-1.2656776843036224e-05   3.960847914422604e-06   2.1379784511681935e-05
-1.2656776843036224e-05   3.960847914422604e-06   2.1379784511681935e-05
-1.2656776843036224e-05   3.960847914422604e-06   2.1379784511681935e-05
-1.4166086113291492e-05   -2.588913537036365e-06   4.997187628043558e-05
-1.4166086113291492e-05   -2.588913537036365e-06   4.997187628043558e-05
-1.4166086113291492e-05   -2.588913537036365e-06   4.997187628043558e-05
-1.4166086113291492e-05   -2.588913537036365e-06   4.997187628043558e-05
2.0325216886777275e-06   2.9415484278398282e-06   1.9655919431560984e-05
2.0325216886777275e-06   2.9415484278398282e-06   1.9655919431560984e-05
2.0325216886777275e-06   2.9415484278398282e-06   1.9655919431560984e-05
2.0325216886777275e-06   2.9415484278398282e-06   1.9655919431560984e-05
-4.936122163135383e-06   9.70184454242122e-07   3.245314423540812e-05
-4.936122163135383e-06   9.70184454242122e-07   3.245314423540812e-05
-4.936122163135383e-06   9.70184454242122e-07   3.245314423540812e-05
-4.936122163135383e-06   9.70184454242122e-07   3.245314423540812e-05
2.0325216886777275e-06   -2.588913537036365e-06   4.6653599101509086e-05
2.0325216886777275e-06   -2.588913537036365e-06   4.6653599101509086e-05
2.0325216886777275e-06   -2.588913537036365e-06   4.6653599101509086e-05
2.0325216886777275e-06   -2.588913537036365e-06   4.6653599101509086e-05
-1.4166086113291465e-05   2.9415484278398282e-06   2.297419661048683e-05
-1.4166086113291465e-05   2.9415484278398282e-06   2.297419661048683e-05
-1.4166086113291465e-05   2.9415484278398282e-06   2.297419661048683e-05
-1.4166086113291465e-05   2.9415484278398282e-06   2.297419661048683e-05
-1.542426642655434e-05   -4.0236907466557545e-06   4.960661765281583e-05
-1.542426642655434e-05   -4.0236907466557545e-06   4.960661765281583e-05
-1.542426642655434e-05   -4.0236907466557545e-06   4.960661765281583e-05
-1.542426642655434e-05   -4.0236907466557545e-06   4.960661765281583e-05
-2.0206005396836125e-06   7.72063567603884e-07   2.438972191947541e-05
-2.0206005396836125e-06   7.72063567603884e-07   2.438972191947541e-05
-2.0206005396836125e-06   7.72063567603884e-07   2.438972191947541e-05
-2.0206005396836125e-06   7.72063567603884e-07   2.438972191947541e-05
-7.086796642441575e-06   2.404474106409635e-07   3.315235178491657e-05
-7.086796642441575e-06   2.404474106409635e-07   3.315235178491657e-05
-7.086796642441575e-06   2.404474106409635e-07   3.315235178491657e-05
-7.086796642441575e-06   2.404474106409635e-07   3.315235178491657e-05
-1.1433429856990508e-05   5.573255506523961e-06   8.363733484562921e-05
-1.1433429856990508e-05   5.573255506523961e-06   8.363733484562921e-05
-1.1433429856990508e-05   5.573255506523961e-06   8.363733484562921e-05
-1.1433429856990508e-05   5.573255506523961e-06   8.363733484562921e-05
-2.855104077356175e-05   6.655592600411393e-06   5.575738557434375e-05
-2.855104077356175e-05   6.655592600411393e-06   5.575738557434375e-05
-2.855104077356175e-05   6.655592600411393e-06   5.575738557434375e-05
-2.855104077356175e-05   6.655592600411393e-06   5.575738557434375e-05
-2.9469610779820287e-05   3.3392394600869485e-06   8.342439351788963e-05
-2.9469610779820287e-05   3.3392394600869485e-06   8.342439351788963e-05
-2.9469610779820287e-05   3.3392394600869485e-06   8.342439351788963e-05
-2.9469610779820287e-05   3.3392394600869485e-06   8.342439351788963e-05
-1.2656776843036224e-05   4.599385161039443e-06   5.4646916202677926e-05
-1.2656776843036224e-05   4.599385161039443e-06   5.4646916202677926e-05
-1.2656776843036224e-05   4.599385161039443e-06   5.4646916202677926e-05
-1.2656776843036224e-05   4.599385161039443e-06   5.4646916202677926e-05
-2.0641960912010045e-05   4.807798025757357e-06   6.783050859880387e-05
-2.0641960912010045e-05   4.807798025757357e-06   6.783050859880387e-05
-2.0641960912010045e-05   4.807798025757357e-06   6.783050859880387e-05
-2.0641960912010045e-05   4.807798025757357e-06   6.783050859880387e-05
-1.2656776843036237e-05   3.3392394600869485e-06   8.266830609731735e-05
-1.2656776843036237e-05   3.3392394600869485e-06   8.266830609731735e-05
-1.2656776843036237e-05   3.3392394600869485e-06   8.266830609731735e-05
-1.2656776843036237e-05   3.3392394600869485e-06   8.266830609731735e-05
-2.9469610779820287e-05   4.599385161039443e-06   5.540300362324958e-05
-2.9469610779820287e-05   4.599385161039443e-06   5.540300362324958e-05
-2.9469610779820287e-05   4.599385161039443e-06   5.540300362324958e-05
-2.9469610779820287e-05   4.599385161039443e-06   5.540300362324958e-05
-3.0416486679428055e-05   1.440503052455716e-06   8.362173123232586e-05
-3.0416486679428055e-05   1.440503052455716e-06   8.362173123232586e-05
-3.0416486679428055e-05   1.440503052455716e-06   8.362173123232586e-05
-3.0416486679428055e-05   1.440503052455716e-06   8.362173123232586e-05
-1.4166086113291465e-05   2.69420686732115e-06   5.578550799984603e-05
-1.4166086113291465e-05   2.69420686732115e-06   5.578550799984603e-05
-1.4166086113291465e-05   2.69420686732115e-06   5.578550799984603e-05
-1.4166086113291465e-05   2.69420686732115e-06   5.578550799984603e-05
-2.1578589123002655e-05   3.3009404292513173e-06   6.777563954554061e-05
-2.1578589123002655e-05   3.3009404292513173e-06   6.777563954554061e-05
-2.1578589123002655e-05   3.3009404292513173e-06   6.777563954554061e-05
-2.1578589123002655e-05   3.3009404292513173e-06   6.777563954554061e-05
-1.4166086113291492e-05   1.440503052455716e-06   8.286950894340625e-05
-1.4166086113291492e-05   1.440503052455716e-06   8.286950894340625e-05
-1.4166086113291492e-05   1.440503052455716e-06   8.286950894340625e-05
-1.4166086113291492e-05   1.440503052455716e-06   8.286950894340625e-05
-3.0416486679428055e-05   2.69420686732115e-06   5.653773028876496e-05
-3.0416486679428055e-05   2.69420686732115e-06   5.653773028876496e-05
-3.0416486679428055e-05   2.69420686732115e-06   5.653773028876496e-05
-3.0416486679428055e-05   2.69420686732115e-06   5.653773028876496e-05
-3.1343797375402605e-05   -5.064787983264513e-07   8.527886905159224e-05
-3.1343797375402605e-05   -5.064787983264513e-07   8.527886905159224e-05
-3.1343797375402605e-05   -5.064787983264513e-07   8.527886905159224e-05
-3.1343797375402605e-05   -5.064787983264513e-07   8.527886905159224e-05
-1.5424266426554314e-05   6.226202879837731e-07   5.806885801839268e-05
-1.5424266426554314e-05   6.226202879837731e-07   5.806885801839268e-05
-1.5424266426554314e-05   6.226202879837731e-07   5.806885801839268e-05
-1.5424266426554314e-05   6.226202879837731e-07   5.806885801839268e-05
-2.251671823264469e-05   1.8130802402682375e-06   6.917533505717264e-05
-2.251671823264469e-05   1.8130802402682375e-06   6.917533505717264e-05
-2.251671823264469e-05   1.8130802402682375e-06   6.917533505717264e-05
-2.251671823264469e-05   1.8130802402682375e-06   6.917533505717264e-05
-2.8551040773561697e-05   1.0326393696688703e-05   9.41911459602764e-05
-2.8551040773561697e-05   1.0326393696688703e-05   9.41911459602764e-05
-2.8551040773561697e-05   1.0326393696688703e-05   9.41911459602764e-05
-2.8551040773561697e-05   1.0326393696688703e-05   9.41911459602764e-05
-4.564969476260729e-05   7.934388387174224e-06   6.425818612615874e-05
-4.564969476260729e-05   7.934388387174224e-06   6.425818612615874e-05
-4.564969476260729e-05   7.934388387174224e-06   6.425818612615874e-05
-4.564969476260729e-05   7.934388387174224e-06   6.425818612615874e-05
-4.642446668069928e-05   8.26125975532388e-06   9.244739800231324e-05
-4.642446668069928e-05   8.26125975532388e-06   9.244739800231324e-05
-4.642446668069928e-05   8.26125975532388e-06   9.244739800231324e-05
-4.642446668069928e-05   8.26125975532388e-06   9.244739800231324e-05
-2.9469610779820287e-05   6.0232718457581096e-06   6.553209757992101e-05
-2.9469610779820287e-05   6.0232718457581096e-06   6.553209757992101e-05
-2.9469610779820287e-05   6.0232718457581096e-06   6.553209757992101e-05
-2.9469610779820287e-05   6.0232718457581096e-06   6.553209757992101e-05
-3.753977780918046e-05   7.985214766731592e-06   7.780521020960387e-05
-3.753977780918046e-05   7.985214766731592e-06   7.780521020960387e-05
-3.753977780918046e-05   7.985214766731592e-06   7.780521020960387e-05
-3.753977780918046e-05   7.985214766731592e-06   7.780521020960387e-05
-2.9469610779820287e-05   8.26125975532388e-06   9.379019074805262e-05
-2.9469610779820287e-05   8.26125975532388e-06   9.379019074805262e-05
-2.9469610779820287e-05   8.26125975532388e-06   9.379019074805262e-05
-2.9469610779820287e-05   8.26125975532388e-06   9.379019074805262e-05
-4.642446668069928e-05   6.0232718457581096e-06   6.418930483418164e-05
-4.642446668069928e-05   6.0232718457581096e-06   6.418930483418164e-05
-4.642446668069928e-05   6.0232718457581096e-06   6.418930483418164e-05
-4.642446668069928e-05   6.0232718457581096e-06   6.418930483418164e-05
-4.725571615940105e-05   6.206537024360664e-06   9.338862164091953e-05
-4.725571615940105e-05   6.206537024360664e-06   9.338862164091953e-05
-4.725571615940105e-05   6.206537024360664e-06   9.338862164091953e-05
-4.725571615940105e-05   6.206537024360664e-06   9.338862164091953e-05
-3.0416486679428055e-05   4.080325622968315e-06   6.659896601513297e-05
-3.0416486679428055e-05   4.080325622968315e-06   6.659896601513297e-05
-3.0416486679428055e-05   4.080325622968315e-06   6.659896601513297e-05
-3.0416486679428055e-05   4.080325622968315e-06   6.659896601513297e-05
-3.820157482560172e-05   6.4517890116504856e-06   7.815123489221315e-05
-3.820157482560172e-05   6.4517890116504856e-06   7.815123489221315e-05
-3.820157482560172e-05   6.4517890116504856e-06   7.815123489221315e-05
-3.820157482560172e-05   6.4517890116504856e-06   7.815123489221315e-05
-3.0416486679428055e-05   6.206537024359797e-06   9.466434848175425e-05
-3.0416486679428055e-05   6.206537024359797e-06   9.466434848175425e-05
-3.0416486679428055e-05   6.206537024359797e-06   9.466434848175425e-05
-3.0416486679428055e-05   6.206537024359797e-06   9.466434848175425e-05
-4.725571615940094e-05   4.080325622968749e-06   6.532323917429815e-05
-4.725571615940094e-05   4.080325622968749e-06   6.532323917429815e-05
-4.725571615940094e-05   4.080325622968749e-06   6.532323917429815e-05
-4.725571615940094e-05   4.080325622968749e-06   6.532323917429815e-05
-4.806973833927381e-05   4.237630495554021e-06   9.533936522988047e-05
-4.806973833927381e-05   4.237630495554021e-06   9.533936522988047e-05
-4.806973833927381e-05   4.237630495554021e-06   9.533936522988047e-05
-4.806973833927381e-05   4.237630495554021e-06   9.533936522988047e-05
-3.134379737540255e-05   2.2356028679514778e-06   6.86640135333233e-05
-3.134379737540255e-05   2.2356028679514778e-06   6.86640135333233e-05
-3.134379737540255e-05   2.2356028679514778e-06   6.86640135333233e-05
-3.134379737540255e-05   2.2356028679514778e-06   6.86640135333233e-05
-3.8939160346022444e-05   4.9402861519278266e-06   7.970014184730369e-05
-3.8939160346022444e-05   4.9402861519278266e-06   7.970014184730369e-05
-3.8939160346022444e-05   4.9402861519278266e-06   7.970014184730369e-05
-3.8939160346022444e-05   4.9402861519278266e-06   7.970014184730369e-05
-4.564969476260751e-05   1.53006765007584e-05   8.137592404906888e-05
-4.564969476260751e-05   1.53006765007584e-05   8.137592404906888e-05
-4.564969476260751e-05   1.53006765007584e-05   8.137592404906888e-05
-4.564969476260751e-05   1.53006765007584e-05   8.137592404906888e-05
-6.244809335392886e-05   1.0696057644972706e-05   5.0615821750061175e-05
-6.244809335392886e-05   1.0696057644972706e-05   5.0615821750061175e-05
-6.244809335392886e-05   1.0696057644972706e-05   5.0615821750061175e-05
-6.244809335392886e-05   1.0696057644972706e-05   5.0615821750061175e-05
-6.329848769501246e-05   1.3215453471870746e-05   7.896937446323117e-05
-6.329848769501246e-05   1.3215453471870746e-05   7.896937446323117e-05
-6.329848769501246e-05   1.3215453471870746e-05   7.896937446323117e-05
-6.329848769501246e-05   1.3215453471870746e-05   7.896937446323117e-05
-4.642446668069928e-05   8.684716190856742e-06   5.356444847465095e-05
-4.642446668069928e-05   8.684716190856742e-06   5.356444847465095e-05
-4.642446668069928e-05   8.684716190856742e-06   5.356444847465095e-05
-4.642446668069928e-05   8.684716190856742e-06   5.356444847465095e-05
-5.433998404435206e-05   1.1880087041289678e-05   6.483975490381277e-05
-5.433998404435206e-05   1.1880087041289678e-05   6.483975490381277e-05
-5.433998404435206e-05   1.1880087041289678e-05   6.483975490381277e-05
-5.433998404435206e-05   1.1880087041289678e-05   6.483975490381277e-05
-4.642446668069928e-05   1.3215453471871613e-05   8.168781683183957e-05
-4.642446668069928e-05   1.3215453471871613e-05   8.168781683183957e-05
-4.642446668069928e-05   1.3215453471871613e-05   8.168781683183957e-05
-4.642446668069928e-05   1.3215453471871613e-05   8.168781683183957e-05
-6.329848769501224e-05   8.684716190856742e-06   5.0846006106042545e-05
-6.329848769501224e-05   8.684716190856742e-06   5.0846006106042545e-05
-6.329848769501224e-05   8.684716190856742e-06   5.0846006106042545e-05
-6.329848769501224e-05   8.684716190856742e-06   5.0846006106042545e-05
-6.447910770773779e-05   1.132336599037314e-05   8.160078294463472e-05
-6.447910770773779e-05   1.132336599037314e-05   8.160078294463472e-05
-6.447910770773779e-05   1.132336599037314e-05   8.160078294463472e-05
-6.447910770773779e-05   1.132336599037314e-05   8.160078294463472e-05
-4.725571615940105e-05   6.89824250730978e-06   5.555020445391096e-05
-4.725571615940105e-05   6.89824250730978e-06   5.555020445391096e-05
-4.725571615940105e-05   6.89824250730978e-06   5.555020445391096e-05
-4.725571615940105e-05   6.89824250730978e-06   5.555020445391096e-05
-5.480265358100177e-05   1.0393732566181361e-05   6.603113945458897e-05
-5.480265358100177e-05   1.0393732566181361e-05   6.603113945458897e-05
-5.480265358100177e-05   1.0393732566181361e-05   6.603113945458897e-05
-5.480265358100177e-05   1.0393732566181361e-05   6.603113945458897e-05
-4.725571615940094e-05   1.1323365990374007e-05   8.425585703447083e-05
-4.725571615940094e-05   1.1323365990374007e-05   8.425585703447083e-05
-4.725571615940094e-05   1.1323365990374007e-05   8.425585703447083e-05
-4.725571615940094e-05   1.1323365990374007e-05   8.425585703447083e-05
-6.447910770773758e-05   6.89824250730978e-06   5.289513036407269e-05
-6.447910770773758e-05   6.89824250730978e-06   5.289513036407269e-05
-6.447910770773758e-05   6.89824250730978e-06   5.289513036407269e-05
-6.447910770773758e-05   6.89824250730978e-06   5.289513036407269e-05
-6.542683685368676e-05   9.305307934610353e-06   8.453825765613113e-05
-6.542683685368676e-05   9.305307934610353e-06   8.453825765613113e-05
-6.542683685368676e-05   9.305307934610353e-06   8.453825765613113e-05
-6.542683685368676e-05   9.305307934610353e-06   8.453825765613113e-05
-4.806973833927381e-05   5.081433963761723e-06   5.8144084514619035e-05
-4.806973833927381e-05   5.081433963761723e-06   5.8144084514619035e-05
-4.806973833927381e-05   5.081433963761723e-06   5.8144084514619035e-05
-4.806973833927381e-05   5.081433963761723e-06   5.8144084514619035e-05
-5.577752991865249e-05   8.983708069733656e-06   6.864903935000248e-05
-5.577752991865249e-05   8.983708069733656e-06   6.864903935000248e-05
-5.577752991865249e-05   8.983708069733656e-06   6.864903935000248e-05
-5.577752991865249e-05   8.983708069733656e-06   6.864903935000248e-05
-6.244809335392886e-05   1.876323032107708e-05   3.5778101950527646e-05
-6.244809335392886e-05   1.876323032107708e-05   3.5778101950527646e-05
-6.244809335392886e-05   1.876323032107708e-05   3.5778101950527646e-05
-6.244809335392886e-05   1.876323032107708e-05   3.5778101950527646e-05
-7.549404941272972e-05   1.2584201148883086e-05   1.0327424349210086e-05
-7.549404941272972e-05   1.2584201148883086e-05   1.0327424349210086e-05
-7.549404941272972e-05   1.2584201148883086e-05   1.0327424349210086e-05
-7.549404941272972e-05   1.2584201148883086e-05   1.0327424349210086e-05
-7.873910670525854e-05   1.76880831279742e-05   4.190065870727025e-05
-7.873910670525854e-05   1.76880831279742e-05   4.190065870727025e-05
-7.873910670525854e-05   1.76880831279742e-05   4.190065870727025e-05
-7.873910670525854e-05   1.76880831279742e-05   4.190065870727025e-05
-6.329848769501224e-05   1.1245000566780568e-05   2.0032143226909188e-05
-6.329848769501224e-05   1.1245000566780568e-05   2.0032143226909188e-05
-6.329848769501224e-05   1.1245000566780568e-05   2.0032143226909188e-05
-6.329848769501224e-05   1.1245000566780568e-05   2.0032143226909188e-05
-6.756983747538859e-05   1.4928446926795909e-05   2.4940991711526472e-05
-6.756983747538859e-05   1.4928446926795909e-05   2.4940991711526472e-05
-6.756983747538859e-05   1.4928446926795909e-05   2.4940991711526472e-05
-6.756983747538859e-05   1.4928446926795909e-05   2.4940991711526472e-05
-6.329848769501202e-05   1.7688083127973334e-05   4.576650824398556e-05
-6.329848769501202e-05   1.7688083127973334e-05   4.576650824398556e-05
-6.329848769501202e-05   1.7688083127973334e-05   4.576650824398556e-05
-6.329848769501202e-05   1.7688083127973334e-05   4.576650824398556e-05
-7.873910670525876e-05   1.1245000566780568e-05   1.616629369019319e-05
-7.873910670525876e-05   1.1245000566780568e-05   1.616629369019319e-05
-7.873910670525876e-05   1.1245000566780568e-05   1.616629369019319e-05
-7.873910670525876e-05   1.1245000566780568e-05   1.616629369019319e-05
-8.152921963061241e-05   1.6797444588180326e-05   4.935729620467091e-05
-8.152921963061241e-05   1.6797444588180326e-05   4.935729620467091e-05
-8.152921963061241e-05   1.6797444588180326e-05   4.935729620467091e-05
-8.152921963061241e-05   1.6797444588180326e-05   4.935729620467091e-05
-6.447910770773758e-05   1.0328035515849363e-05   2.4822088443278607e-05
-6.447910770773758e-05   1.0328035515849363e-05   2.4822088443278607e-05
-6.447910770773758e-05   1.0328035515849363e-05   2.4822088443278607e-05
-6.447910770773758e-05   1.0328035515849363e-05   2.4822088443278607e-05
-7.03124125727905e-05   1.4397750797478202e-05   3.210243404939148e-05
-7.03124125727905e-05   1.4397750797478202e-05   3.210243404939148e-05
-7.03124125727905e-05   1.4397750797478202e-05   3.210243404939148e-05
-7.03124125727905e-05   1.4397750797478202e-05   3.210243404939148e-05
-6.447910770773758e-05   1.6797444588180326e-05   5.3238941648070005e-05
-6.447910770773758e-05   1.6797444588180326e-05   5.3238941648070005e-05
-6.447910770773758e-05   1.6797444588180326e-05   5.3238941648070005e-05
-6.447910770773758e-05   1.6797444588180326e-05   5.3238941648070005e-05
-8.152921963061263e-05   1.0328035515849363e-05   2.0940442999880133e-05
-8.152921963061263e-05   1.0328035515849363e-05   2.0940442999880133e-05
-8.152921963061263e-05   1.0328035515849363e-05   2.0940442999880133e-05
-8.152921963061263e-05   1.0328035515849363e-05   2.0940442999880133e-05
-8.509101237385674e-05   1.4387488221447899e-05   6.286267814824883e-05
-8.509101237385674e-05   1.4387488221447899e-05   6.286267814824883e-05
-8.509101237385674e-05   1.4387488221447899e-05   6.286267814824883e-05
-8.509101237385674e-05   1.4387488221447899e-05   6.286267814824883e-05
-6.542683685368655e-05   8.236028112009689e-06   3.377992834696121e-05
-6.542683685368655e-05   8.236028112009689e-06   3.377992834696121e-05
-6.542683685368655e-05   8.236028112009689e-06   3.377992834696121e-05
-6.542683685368655e-05   8.236028112009689e-06   3.377992834696121e-05
-7.110817209660363e-05   1.3398669198868597e-05   4.015123576637343e-05
-7.110817209660363e-05   1.3398669198868597e-05   4.015123576637343e-05
-7.110817209660363e-05   1.3398669198868597e-05   4.015123576637343e-05
-7.110817209660363e-05   1.3398669198868597e-05   4.015123576637343e-05
-3.221461605801268e-05   5.79831092520312e-06   3.675206226621316e-05
-3.221461605801268e-05   5.79831092520312e-06   3.675206226621316e-05
-3.221461605801268e-05   5.79831092520312e-06   3.675206226621316e-05
-3.221461605801268e-05   5.79831092520312e-06   3.675206226621316e-05
-3.465825239849465e-05   1.0847727402255643e-05   3.570898491830768e-05
-3.465825239849465e-05   1.0847727402255643e-05   3.570898491830768e-05
-3.465825239849465e-05   1.0847727402255643e-05   3.570898491830768e-05
-3.465825239849465e-05   1.0847727402255643e-05   3.570898491830768e-05
-3.55208687140871e-05   3.960847914422604e-06   3.963623688576926e-05
-3.55208687140871e-05   3.960847914422604e-06   3.963623688576926e-05
-3.55208687140871e-05   3.960847914422604e-06   3.963623688576926e-05
-3.55208687140871e-05   3.960847914422604e-06   3.963623688576926e-05
-3.5901382678121254e-05   8.495711460037008e-06   3.754950869845695e-05
-3.5901382678121254e-05   8.495711460037008e-06   3.754950869845695e-05
-3.5901382678121254e-05   8.495711460037008e-06   3.754950869845695e-05
-3.5901382678121254e-05   8.495711460037008e-06   3.754950869845695e-05
-3.369788457350701e-05   6.811231012379595e-06   3.488770012602816e-05
-3.369788457350701e-05   6.811231012379595e-06   3.488770012602816e-05
-3.369788457350701e-05   6.811231012379595e-06   3.488770012602816e-05
-3.369788457350701e-05   6.811231012379595e-06   3.488770012602816e-05
-3.590138267812131e-05   3.960847914422604e-06   3.6915318758400095e-05
-3.590138267812131e-05   3.960847914422604e-06   3.6915318758400095e-05
-3.590138267812131e-05   3.960847914422604e-06   3.6915318758400095e-05
-3.590138267812131e-05   3.960847914422604e-06   3.6915318758400095e-05
-3.55208687140871e-05   8.495711460037008e-06   4.0270426825826005e-05
-3.55208687140871e-05   8.495711460037008e-06   4.0270426825826005e-05
-3.55208687140871e-05   8.495711460037008e-06   4.0270426825826005e-05
-3.55208687140871e-05   8.495711460037008e-06   4.0270426825826005e-05
-3.664156314918542e-05   2.941548427840262e-06   4.098040324647303e-05
-3.664156314918542e-05   2.941548427840262e-06   4.098040324647303e-05
-3.664156314918542e-05   2.941548427840262e-06   4.098040324647303e-05
-3.664156314918542e-05   2.941548427840262e-06   4.098040324647303e-05
-3.94804707035265e-05   6.86158567025745e-06   4.33598934915901e-05
-3.94804707035265e-05   6.86158567025745e-06   4.33598934915901e-05
-3.94804707035265e-05   6.86158567025745e-06   4.33598934915901e-05
-3.94804707035265e-05   6.86158567025745e-06   4.33598934915901e-05
-3.589546749960951e-05   5.794309094401054e-06   3.8025254097241745e-05
-3.589546749960951e-05   5.794309094401054e-06   3.8025254097241745e-05
-3.589546749960951e-05   5.794309094401054e-06   3.8025254097241745e-05
-3.589546749960951e-05   5.794309094401054e-06   3.8025254097241745e-05
-3.948047070352655e-05   2.941548427840262e-06   3.8628380901021414e-05
-3.948047070352655e-05   2.941548427840262e-06   3.8628380901021414e-05
-3.948047070352655e-05   2.941548427840262e-06   3.8628380901021414e-05
-3.948047070352655e-05   2.941548427840262e-06   3.8628380901021414e-05
-3.664156314918542e-05   6.86158567025745e-06   4.57119158370409e-05
-3.664156314918542e-05   6.86158567025745e-06   4.57119158370409e-05
-3.664156314918542e-05   6.86158567025745e-06   4.57119158370409e-05
-3.664156314918542e-05   6.86158567025745e-06   4.57119158370409e-05
-3.7344422378465605e-05   7.72063567603884e-07   4.519851648713755e-05
-3.7344422378465605e-05   7.72063567603884e-07   4.519851648713755e-05
-3.7344422378465605e-05   7.72063567603884e-07   4.519851648713755e-05
-3.7344422378465605e-05   7.72063567603884e-07   4.519851648713755e-05
-4.328702083046198e-05   2.83777782332734e-06   5.386341868703022e-05
-4.328702083046198e-05   2.83777782332734e-06   5.386341868703022e-05
-4.328702083046198e-05   2.83777782332734e-06   5.386341868703022e-05
-4.328702083046198e-05   2.83777782332734e-06   5.386341868703022e-05
-3.7405899856950074e-05   4.5359559749102996e-06   4.30426435068926e-05
-3.7405899856950074e-05   4.5359559749102996e-06   4.30426435068926e-05
-3.7405899856950074e-05   4.5359559749102996e-06   4.30426435068926e-05
-3.7405899856950074e-05   4.5359559749102996e-06   4.30426435068926e-05
-3.4658252398494594e-05   6.655592600411826e-06   7.374187689761962e-05
-3.4658252398494594e-05   6.655592600411826e-06   7.374187689761962e-05
-3.4658252398494594e-05   6.655592600411826e-06   7.374187689761962e-05
-3.4658252398494594e-05   6.655592600411826e-06   7.374187689761962e-05
-3.478135912159157e-05   2.802532329339129e-06   7.122486286314784e-05
-3.478135912159157e-05   2.802532329339129e-06   7.122486286314784e-05
-3.478135912159157e-05   2.802532329339129e-06   7.122486286314784e-05
-3.478135912159157e-05   2.802532329339129e-06   7.122486286314784e-05
-3.503256814636204e-05   4.599385161039443e-06   7.0959063243762e-05
-3.503256814636204e-05   4.599385161039443e-06   7.0959063243762e-05
-3.503256814636204e-05   4.599385161039443e-06   7.0959063243762e-05
-3.503256814636204e-05   4.599385161039443e-06   7.0959063243762e-05
-3.55208687140871e-05   1.3588762727005828e-06   7.371720285630692e-05
-3.55208687140871e-05   1.3588762727005828e-06   7.371720285630692e-05
-3.55208687140871e-05   1.3588762727005828e-06   7.371720285630692e-05
-3.55208687140871e-05   1.3588762727005828e-06   7.371720285630692e-05
-3.488346237613943e-05   3.414177790596676e-06   7.142167804898968e-05
-3.488346237613943e-05   3.414177790596676e-06   7.142167804898968e-05
-3.488346237613943e-05   3.414177790596676e-06   7.142167804898968e-05
-3.488346237613943e-05   3.414177790596676e-06   7.142167804898968e-05
-3.5520868714087074e-05   4.5993851610390095e-06   7.290336857676332e-05
-3.5520868714087074e-05   4.5993851610390095e-06   7.290336857676332e-05
-3.5520868714087074e-05   4.5993851610390095e-06   7.290336857676332e-05
-3.5520868714087074e-05   4.5993851610390095e-06   7.290336857676332e-05
-3.503256814636204e-05   1.3588762727005828e-06   7.17728975233034e-05
-3.503256814636204e-05   1.3588762727005828e-06   7.17728975233034e-05
-3.503256814636204e-05   1.3588762727005828e-06   7.17728975233034e-05
-3.503256814636204e-05   1.3588762727005828e-06   7.17728975233034e-05
-3.53468370528223e-05   2.69420686732115e-06   7.197785849874516e-05
-3.53468370528223e-05   2.69420686732115e-06   7.197785849874516e-05
-3.53468370528223e-05   2.69420686732115e-06   7.197785849874516e-05
-3.53468370528223e-05   2.69420686732115e-06   7.197785849874516e-05
-3.664156314918542e-05   -3.288866944907952e-07   7.594959146310385e-05
-3.664156314918542e-05   -3.288866944907952e-07   7.594959146310385e-05
-3.664156314918542e-05   -3.288866944907952e-07   7.594959146310385e-05
-3.664156314918542e-05   -3.288866944907952e-07   7.594959146310385e-05
-3.5194593559901454e-05   2.210928383736526e-06   7.201408643402673e-05
-3.5194593559901454e-05   2.210928383736526e-06   7.201408643402673e-05
-3.5194593559901454e-05   2.210928383736526e-06   7.201408643402673e-05
-3.5194593559901454e-05   2.210928383736526e-06   7.201408643402673e-05
-3.664156314918542e-05   2.6942068673207163e-06   7.379171463583111e-05
-3.664156314918542e-05   2.6942068673207163e-06   7.379171463583111e-05
-3.664156314918542e-05   2.6942068673207163e-06   7.379171463583111e-05
-3.664156314918542e-05   2.6942068673207163e-06   7.379171463583111e-05
-3.5346837052822194e-05   -3.288866944907952e-07   7.413573532601657e-05
-3.5346837052822194e-05   -3.288866944907952e-07   7.413573532601657e-05
-3.5346837052822194e-05   -3.288866944907952e-07   7.413573532601657e-05
-3.5346837052822194e-05   -3.288866944907952e-07   7.413573532601657e-05
-3.556669531699111e-05   6.226202879837731e-07   7.409350569198862e-05
-3.556669531699111e-05   6.226202879837731e-07   7.409350569198862e-05
-3.556669531699111e-05   6.226202879837731e-07   7.409350569198862e-05
-3.556669531699111e-05   6.226202879837731e-07   7.409350569198862e-05
-3.734442237846559e-05   -2.5552035545330434e-06   7.896307843328895e-05
-3.734442237846559e-05   -2.5552035545330434e-06   7.896307843328895e-05
-3.734442237846559e-05   -2.5552035545330434e-06   7.896307843328895e-05
-3.734442237846559e-05   -2.5552035545330434e-06   7.896307843328895e-05
-3.570047091274179e-05   7.886330123732521e-07   7.421685738360378e-05
-3.570047091274179e-05   7.886330123732521e-07   7.421685738360378e-05
-3.570047091274179e-05   7.886330123732521e-07   7.421685738360378e-05
-3.570047091274179e-05   7.886330123732521e-07   7.421685738360378e-05
-3.478135912159168e-05   7.934388387174657e-06   8.136604447249972e-05
-3.478135912159168e-05   7.934388387174657e-06   8.136604447249972e-05
-3.478135912159168e-05   7.934388387174657e-06   8.136604447249972e-05
-3.478135912159168e-05   7.934388387174657e-06   8.136604447249972e-05
-3.7174631749948965e-05   7.721898470668988e-07   7.307993763450594e-05
-3.7174631749948965e-05   7.721898470668988e-07   7.307993763450594e-05
-3.7174631749948965e-05   7.721898470668988e-07   7.307993763450594e-05
-3.7174631749948965e-05   7.721898470668988e-07   7.307993763450594e-05
-3.724352704102905e-05   6.0232718457581096e-06   7.72007243194533e-05
-3.724352704102905e-05   6.0232718457581096e-06   7.72007243194533e-05
-3.724352704102905e-05   6.0232718457581096e-06   7.72007243194533e-05
-3.724352704102905e-05   6.0232718457581096e-06   7.72007243194533e-05
-3.503256814636204e-05   -4.557829558745133e-07   7.740322570932122e-05
-3.503256814636204e-05   -4.557829558745133e-07   7.740322570932122e-05
-3.503256814636204e-05   -4.557829558745133e-07   7.740322570932122e-05
-3.503256814636204e-05   -4.557829558745133e-07   7.740322570932122e-05
-3.599256811927693e-05   3.452521761057245e-06   7.665824283402032e-05
-3.599256811927693e-05   3.452521761057245e-06   7.665824283402032e-05
-3.599256811927693e-05   3.452521761057245e-06   7.665824283402032e-05
-3.599256811927693e-05   3.452521761057245e-06   7.665824283402032e-05
-3.503256814636204e-05   6.023271845758543e-06   8.108815720043235e-05
-3.503256814636204e-05   6.023271845758543e-06   8.108815720043235e-05
-3.503256814636204e-05   6.023271845758543e-06   8.108815720043235e-05
-3.503256814636204e-05   6.023271845758543e-06   8.108815720043235e-05
-3.724352704102894e-05   -4.5578295587494697e-07   7.351579282834152e-05
-3.724352704102894e-05   -4.5578295587494697e-07   7.351579282834152e-05
-3.724352704102894e-05   -4.5578295587494697e-07   7.351579282834152e-05
-3.724352704102894e-05   -4.5578295587494697e-07   7.351579282834152e-05
-3.738665038970719e-05   4.080325622968749e-06   7.843476805357436e-05
-3.738665038970719e-05   4.080325622968749e-06   7.843476805357436e-05
-3.738665038970719e-05   4.080325622968749e-06   7.843476805357436e-05
-3.738665038970719e-05   4.080325622968749e-06   7.843476805357436e-05
-3.534683705282225e-05   -1.926884662930336e-06   7.863940533030505e-05
-3.534683705282225e-05   -1.926884662930336e-06   7.863940533030505e-05
-3.534683705282225e-05   -1.926884662930336e-06   7.863940533030505e-05
-3.534683705282225e-05   -1.926884662930336e-06   7.863940533030505e-05
-3.5990707413572666e-05   2.2325804051393297e-06   7.721684355737777e-05
-3.5990707413572666e-05   2.2325804051393297e-06   7.721684355737777e-05
-3.5990707413572666e-05   2.2325804051393297e-06   7.721684355737777e-05
-3.5990707413572666e-05   2.2325804051393297e-06   7.721684355737777e-05
-3.53468370528223e-05   4.080325622968749e-06   8.203909422511264e-05
-3.53468370528223e-05   4.080325622968749e-06   8.203909422511264e-05
-3.53468370528223e-05   4.080325622968749e-06   8.203909422511264e-05
-3.53468370528223e-05   4.080325622968749e-06   8.203909422511264e-05
-3.738665038970708e-05   -1.926884662930336e-06   7.503507915876514e-05
-3.738665038970708e-05   -1.926884662930336e-06   7.503507915876514e-05
-3.738665038970708e-05   -1.926884662930336e-06   7.503507915876514e-05
-3.738665038970708e-05   -1.926884662930336e-06   7.503507915876514e-05
-3.7469294433549634e-05   2.2356028679514778e-06   8.062417835248475e-05
-3.7469294433549634e-05   2.2356028679514778e-06   8.062417835248475e-05
-3.7469294433549634e-05   2.2356028679514778e-06   8.062417835248475e-05
-3.7469294433549634e-05   2.2356028679514778e-06   8.062417835248475e-05
-3.556669531699111e-05   -3.409436136462239e-06   8.08402032275343e-05
-3.556669531699111e-05   -3.409436136462239e-06   8.08402032275343e-05
-3.556669531699111e-05   -3.409436136462239e-06   8.08402032275343e-05
-3.556669531699111e-05   -3.409436136462239e-06   8.08402032275343e-05
-3.604746932180653e-05   9.772109588802348e-07   7.900950497835265e-05
-3.604746932180653e-05   9.772109588802348e-07   7.900950497835265e-05
-3.604746932180653e-05   9.772109588802348e-07   7.900950497835265e-05
-3.604746932180653e-05   9.772109588802348e-07   7.900950497835265e-05
-3.7174631749948965e-05   1.0696057644972706e-05   6.618913228580896e-05
-3.7174631749948965e-05   1.0696057644972706e-05   6.618913228580896e-05
-3.7174631749948965e-05   1.0696057644972706e-05   6.618913228580896e-05
-3.7174631749948965e-05   1.0696057644972706e-05   6.618913228580896e-05
-4.075621045621677e-05   3.4977663296805774e-06   5.590085965285455e-05
-4.075621045621677e-05   3.4977663296805774e-06   5.590085965285455e-05
-4.075621045621677e-05   3.4977663296805774e-06   5.590085965285455e-05
-4.075621045621677e-05   3.4977663296805774e-06   5.590085965285455e-05
-4.0799910769040264e-05   8.684716190856742e-06   6.249474706867186e-05
-4.0799910769040264e-05   8.684716190856742e-06   6.249474706867186e-05
-4.0799910769040264e-05   8.684716190856742e-06   6.249474706867186e-05
-4.0799910769040264e-05   8.684716190856742e-06   6.249474706867186e-05
-3.724352704102905e-05   1.8828480387715098e-06   6.0648561746570436e-05
-3.724352704102905e-05   1.8828480387715098e-06   6.0648561746570436e-05
-3.724352704102905e-05   1.8828480387715098e-06   6.0648561746570436e-05
-3.724352704102905e-05   1.8828480387715098e-06   6.0648561746570436e-05
-3.889097528653261e-05   6.3442437565168486e-06   6.071747139176271e-05
-3.889097528653261e-05   6.3442437565168486e-06   6.071747139176271e-05
-3.889097528653261e-05   6.3442437565168486e-06   6.071747139176271e-05
-3.889097528653261e-05   6.3442437565168486e-06   6.071747139176271e-05
-3.724352704102905e-05   8.684716190856308e-06   6.657586795992196e-05
-3.724352704102905e-05   8.684716190856308e-06   6.657586795992196e-05
-3.724352704102905e-05   8.684716190856308e-06   6.657586795992196e-05
-3.724352704102905e-05   8.684716190856308e-06   6.657586795992196e-05
-4.0799910769040264e-05   1.8828480387719435e-06   5.656744085531974e-05
-4.0799910769040264e-05   1.8828480387719435e-06   5.656744085531974e-05
-4.0799910769040264e-05   1.8828480387719435e-06   5.656744085531974e-05
-4.0799910769040264e-05   1.8828480387719435e-06   5.656744085531974e-05
-4.122347141733047e-05   6.898242507309346e-06   6.482379167115256e-05
-4.122347141733047e-05   6.898242507309346e-06   6.482379167115256e-05
-4.122347141733047e-05   6.898242507309346e-06   6.482379167115256e-05
-4.122347141733047e-05   6.898242507309346e-06   6.482379167115256e-05
-3.738665038970719e-05   5.016730705853512e-07   6.226703162048094e-05
-3.738665038970719e-05   5.016730705853512e-07   6.226703162048094e-05
-3.738665038970719e-05   5.016730705853512e-07   6.226703162048094e-05
-3.738665038970719e-05   5.016730705853512e-07   6.226703162048094e-05
-3.875905088297478e-05   5.013503702313692e-06   6.184726739688726e-05
-3.875905088297478e-05   5.013503702313692e-06   6.184726739688726e-05
-3.875905088297478e-05   5.013503702313692e-06   6.184726739688726e-05
-3.875905088297478e-05   5.013503702313692e-06   6.184726739688726e-05
-3.738665038970719e-05   6.89824250730978e-06   6.866173333318565e-05
-3.738665038970719e-05   6.89824250730978e-06   6.866173333318565e-05
-3.738665038970719e-05   6.89824250730978e-06   6.866173333318565e-05
-3.738665038970719e-05   6.89824250730978e-06   6.866173333318565e-05
-4.122347141733047e-05   5.016730705853512e-07   5.84290899584465e-05
-4.122347141733047e-05   5.016730705853512e-07   5.84290899584465e-05
-4.122347141733047e-05   5.016730705853512e-07   5.84290899584465e-05
-4.122347141733047e-05   5.016730705853512e-07   5.84290899584465e-05
-4.1469626620887915e-05   5.081433963761723e-06   6.772286989900232e-05
-4.1469626620887915e-05   5.081433963761723e-06   6.772286989900232e-05
-4.1469626620887915e-05   5.081433963761723e-06   6.772286989900232e-05
-4.1469626620887915e-05   5.081433963761723e-06   6.772286989900232e-05
-3.7469294433549525e-05   -8.895593884721865e-07   6.463824559811118e-05
-3.7469294433549525e-05   -8.895593884721865e-07   6.463824559811118e-05
-3.7469294433549525e-05   -8.895593884721865e-07   6.463824559811118e-05
-3.7469294433549525e-05   -8.895593884721865e-07   6.463824559811118e-05
-3.893124540044424e-05   3.827193415788244e-06   6.424477886037764e-05
-3.893124540044424e-05   3.827193415788244e-06   6.424477886037764e-05
-3.893124540044424e-05   3.827193415788244e-06   6.424477886037764e-05
-3.893124540044424e-05   3.827193415788244e-06   6.424477886037764e-05
-4.075621045621677e-05   1.2584201148883086e-05   2.5289177599099443e-05
-4.075621045621677e-05   1.2584201148883086e-05   2.5289177599099443e-05
-4.075621045621677e-05   1.2584201148883086e-05   2.5289177599099443e-05
-4.075621045621677e-05   1.2584201148883086e-05   2.5289177599099443e-05
-3.9924577422868843e-05   5.726266901007106e-06   2.2560472105953534e-05
-3.9924577422868843e-05   5.726266901007106e-06   2.2560472105953534e-05
-3.9924577422868843e-05   5.726266901007106e-06   2.2560472105953534e-05
-3.9924577422868843e-05   5.726266901007106e-06   2.2560472105953534e-05
-4.1975964211027296e-05   1.1245000566780135e-05   2.7686858674855035e-05
-4.1975964211027296e-05   1.1245000566780135e-05   2.7686858674855035e-05
-4.1975964211027296e-05   1.1245000566780135e-05   2.7686858674855035e-05
-4.1975964211027296e-05   1.1245000566780135e-05   2.7686858674855035e-05
-4.0799910769040264e-05   4.588291375641311e-06   2.972079511955961e-05
-4.0799910769040264e-05   4.588291375641311e-06   2.972079511955961e-05
-4.0799910769040264e-05   4.588291375641311e-06   2.972079511955961e-05
-4.0799910769040264e-05   4.588291375641311e-06   2.972079511955961e-05
-3.953965625513975e-05   8.839248758510387e-06   2.5069796500004366e-05
-3.953965625513975e-05   8.839248758510387e-06   2.5069796500004366e-05
-3.953965625513975e-05   8.839248758510387e-06   2.5069796500004366e-05
-3.953965625513975e-05   8.839248758510387e-06   2.5069796500004366e-05
-4.0799910769040264e-05   1.1245000566780568e-05   3.16808841895372e-05
-4.0799910769040264e-05   1.1245000566780568e-05   3.16808841895372e-05
-4.0799910769040264e-05   1.1245000566780568e-05   3.16808841895372e-05
-4.0799910769040264e-05   1.1245000566780568e-05   3.16808841895372e-05
-4.197596421102751e-05   4.588291375640877e-06   2.5726769604876468e-05
-4.197596421102751e-05   4.588291375640877e-06   2.5726769604876468e-05
-4.197596421102751e-05   4.588291375640877e-06   2.5726769604876468e-05
-4.197596421102751e-05   4.588291375640877e-06   2.5726769604876468e-05
-4.377975258302506e-05   1.0328035515849363e-05   3.2859706631509916e-05
-4.377975258302506e-05   1.0328035515849363e-05   3.2859706631509916e-05
-4.377975258302506e-05   1.0328035515849363e-05   3.2859706631509916e-05
-4.377975258302506e-05   1.0328035515849363e-05   3.2859706631509916e-05
-4.122347141733047e-05   3.842963651102052e-06   3.24902811408667e-05
-4.122347141733047e-05   3.842963651102052e-06   3.24902811408667e-05
-4.122347141733047e-05   3.842963651102052e-06   3.24902811408667e-05
-4.122347141733047e-05   3.842963651102052e-06   3.24902811408667e-05
-4.09931370423251e-05   8.166940538213707e-06   2.951200438358918e-05
-4.09931370423251e-05   8.166940538213707e-06   2.951200438358918e-05
-4.09931370423251e-05   8.166940538213707e-06   2.951200438358918e-05
-4.09931370423251e-05   8.166940538213707e-06   2.951200438358918e-05
-4.1223471417330257e-05   1.0328035515849363e-05   3.675074975035761e-05
-4.1223471417330257e-05   1.0328035515849363e-05   3.675074975035761e-05
-4.1223471417330257e-05   1.0328035515849363e-05   3.675074975035761e-05
-4.1223471417330257e-05   1.0328035515849363e-05   3.675074975035761e-05
-4.377975258302528e-05   3.842963651101618e-06   2.8599238022018357e-05
-4.377975258302528e-05   3.842963651101618e-06   2.8599238022018357e-05
-4.377975258302528e-05   3.842963651101618e-06   2.8599238022018357e-05
-4.377975258302528e-05   3.842963651101618e-06   2.8599238022018357e-05
-4.648145158969892e-05   8.236028112009689e-06   4.236633719308103e-05
-4.648145158969892e-05   8.236028112009689e-06   4.236633719308103e-05
-4.648145158969892e-05   8.236028112009689e-06   4.236633719308103e-05
-4.648145158969892e-05   8.236028112009689e-06   4.236633719308103e-05
-4.1469626620887915e-05   2.358193244056655e-06   3.75399964991671e-05
-4.1469626620887915e-05   2.358193244056655e-06   3.75399964991671e-05
-4.1469626620887915e-05   2.358193244056655e-06   3.75399964991671e-05
-4.1469626620887915e-05   2.358193244056655e-06   3.75399964991671e-05
-4.148260535796874e-05   7.378754278567282e-06   3.454929110692463e-05
-4.148260535796874e-05   7.378754278567282e-06   3.454929110692463e-05
-4.148260535796874e-05   7.378754278567282e-06   3.454929110692463e-05
-4.148260535796874e-05   7.378754278567282e-06   3.454929110692463e-05
-8.197422109229918e-05   1.0847727402255643e-05   3.0531045495282546e-05
-8.197422109229918e-05   1.0847727402255643e-05   3.0531045495282546e-05
-8.197422109229918e-05   1.0847727402255643e-05   3.0531045495282546e-05
-8.197422109229918e-05   1.0847727402255643e-05   3.0531045495282546e-05
-5.506607098383668e-05   1.5054548818808997e-05   7.790205519265245e-05
-5.506607098383668e-05   1.5054548818808997e-05   7.790205519265245e-05
-5.506607098383668e-05   1.5054548818808997e-05   7.790205519265245e-05
-5.506607098383668e-05   1.5054548818808997e-05   7.790205519265245e-05
-5.5020452511945665e-05   8.495711460037008e-06   3.494216627719887e-05
-5.5020452511945665e-05   8.495711460037008e-06   3.494216627719887e-05
-5.5020452511945665e-05   8.495711460037008e-06   3.494216627719887e-05
-5.5020452511945665e-05   8.495711460037008e-06   3.494216627719887e-05
-9.013994445878512e-05   6.237836038323072e-06   9.482937810829375e-05
-9.013994445878512e-05   6.237836038323072e-06   9.482937810829375e-05
-9.013994445878512e-05   6.237836038323072e-06   9.482937810829375e-05
-9.013994445878512e-05   6.237836038323072e-06   9.482937810829375e-05
-6.691540383732162e-05   8.953395180519514e-06   5.449247492053688e-05
-6.691540383732162e-05   8.953395180519514e-06   5.449247492053688e-05
-6.691540383732162e-05   8.953395180519514e-06   5.449247492053688e-05
-6.691540383732162e-05   8.953395180519514e-06   5.449247492053688e-05
-9.013994445878525e-05   8.495711460037008e-06   3.629689153022758e-05
-9.013994445878525e-05   8.495711460037008e-06   3.629689153022758e-05
-9.013994445878525e-05   8.495711460037008e-06   3.629689153022758e-05
-9.013994445878525e-05   8.495711460037008e-06   3.629689153022758e-05
-5.5020452511945665e-05   6.237836038323072e-06   9.347465285526526e-05
-5.5020452511945665e-05   6.237836038323072e-06   9.347465285526526e-05
-5.5020452511945665e-05   6.237836038323072e-06   9.347465285526526e-05
-5.5020452511945665e-05   6.237836038323072e-06   9.347465285526526e-05
-5.5722013237737234e-05   6.86158567025745e-06   3.9206917713248564e-05
-5.5722013237737234e-05   6.86158567025745e-06   3.9206917713248564e-05
-5.5722013237737234e-05   6.86158567025745e-06   3.9206917713248564e-05
-5.5722013237737234e-05   6.86158567025745e-06   3.9206917713248564e-05
-9.041276764281918e-05   4.525536036364616e-06   9.842647150205413e-05
-9.041276764281918e-05   4.525536036364616e-06   9.842647150205413e-05
-9.041276764281918e-05   4.525536036364616e-06   9.842647150205413e-05
-9.041276764281918e-05   4.525536036364616e-06   9.842647150205413e-05
-7.132577663906392e-05   5.644775358781698e-06   6.594327623567751e-05
-7.132577663906392e-05   5.644775358781698e-06   6.594327623567751e-05
-7.132577663906392e-05   5.644775358781698e-06   6.594327623567751e-05
-7.132577663906392e-05   5.644775358781698e-06   6.594327623567751e-05
-9.041276764281932e-05   6.86158567025745e-06   4.060854749358424e-05
-9.041276764281932e-05   6.86158567025745e-06   4.060854749358424e-05
-9.041276764281932e-05   6.86158567025745e-06   4.060854749358424e-05
-9.041276764281932e-05   6.86158567025745e-06   4.060854749358424e-05
-5.572201323773715e-05   4.525536036364616e-06   9.702484172171818e-05
-5.572201323773715e-05   4.525536036364616e-06   9.702484172171818e-05
-5.572201323773715e-05   4.525536036364616e-06   9.702484172171818e-05
-5.572201323773715e-05   4.525536036364616e-06   9.702484172171818e-05
-5.5078929548630604e-05   2.83777782332734e-06   4.6675882883000035e-05
-5.5078929548630604e-05   2.83777782332734e-06   4.6675882883000035e-05
-5.5078929548630604e-05   2.83777782332734e-06   4.6675882883000035e-05
-5.5078929548630604e-05   2.83777782332734e-06   4.6675882883000035e-05
-9.131465554262932e-05   -2.727044197506443e-06   0.00011040765275216436
-9.131465554262932e-05   -2.727044197506443e-06   0.00011040765275216436
-9.131465554262932e-05   -2.727044197506443e-06   0.00011040765275216436
-9.131465554262932e-05   -2.727044197506443e-06   0.00011040765275216436
-7.018745646285133e-05   2.7991497577677625e-06   7.18799379127034e-05
-7.018745646285133e-05   2.7991497577677625e-06   7.18799379127034e-05
-7.018745646285133e-05   2.7991497577677625e-06   7.18799379127034e-05
-7.018745646285133e-05   2.7991497577677625e-06   7.18799379127034e-05
-5.5066070983836773e-05   2.802532329339129e-06   7.088285245269847e-05
-5.5066070983836773e-05   2.802532329339129e-06   7.088285245269847e-05
-5.5066070983836773e-05   2.802532329339129e-06   7.088285245269847e-05
-5.5066070983836773e-05   2.802532329339129e-06   7.088285245269847e-05
-3.3655365024701494e-05   -1.6552408252637615e-05   9.495439803540483e-05
-3.3655365024701494e-05   -1.6552408252637615e-05   9.495439803540483e-05
-3.3655365024701494e-05   -1.6552408252637615e-05   9.495439803540483e-05
-3.3655365024701494e-05   -1.6552408252637615e-05   9.495439803540483e-05
-3.369241186609276e-05   1.3588762727010165e-06   5.946603768650538e-05
-3.369241186609276e-05   1.3588762727010165e-06   5.946603768650538e-05
-3.369241186609276e-05   1.3588762727010165e-06   5.946603768650538e-05
-3.369241186609276e-05   1.3588762727010165e-06   5.946603768650538e-05
-5.5020452511945665e-05   -1.3512631429256784e-05   0.00010393567671743506
-5.5020452511945665e-05   -1.3512631429256784e-05   0.00010393567671743506
-5.5020452511945665e-05   -1.3512631429256784e-05   0.00010393567671743506
-5.5020452511945665e-05   -1.3512631429256784e-05   0.00010393567671743506
-4.411158988326483e-05   -8.176784508862533e-06   8.25527308507309e-05
-4.411158988326483e-05   -8.176784508862533e-06   8.25527308507309e-05
-4.411158988326483e-05   -8.176784508862533e-06   8.25527308507309e-05
-4.411158988326483e-05   -8.176784508862533e-06   8.25527308507309e-05
-5.502045251194572e-05   1.3588762727010165e-06   6.838894230767911e-05
-5.502045251194572e-05   1.3588762727010165e-06   6.838894230767911e-05
-5.502045251194572e-05   1.3588762727010165e-06   6.838894230767911e-05
-5.502045251194572e-05   1.3588762727010165e-06   6.838894230767911e-05
-3.369241186609265e-05   -1.3512631429256784e-05   9.501277209626057e-05
-3.369241186609265e-05   -1.3512631429256784e-05   9.501277209626057e-05
-3.369241186609265e-05   -1.3512631429256784e-05   9.501277209626057e-05
-3.369241186609265e-05   -1.3512631429256784e-05   9.501277209626057e-05
-3.378047183504604e-05   -3.288866944907952e-07   6.134225774737535e-05
-3.378047183504604e-05   -3.288866944907952e-07   6.134225774737535e-05
-3.378047183504604e-05   -3.288866944907952e-07   6.134225774737535e-05
-3.378047183504604e-05   -3.288866944907952e-07   6.134225774737535e-05
-5.572201323773715e-05   -1.3832779347717518e-05   0.00010601382901046262
-5.572201323773715e-05   -1.3832779347717518e-05   0.00010601382901046262
-5.572201323773715e-05   -1.3832779347717518e-05   0.00010601382901046262
-5.572201323773715e-05   -1.3832779347717518e-05   0.00010601382901046262
-4.375799008562363e-05   -7.141887033017356e-06   8.205925503478614e-05
-4.375799008562363e-05   -7.141887033017356e-06   8.205925503478614e-05
-4.375799008562363e-05   -7.141887033017356e-06   8.205925503478614e-05
-4.375799008562363e-05   -7.141887033017356e-06   8.205925503478614e-05
-5.5722013237737234e-05   -3.288866944907952e-07   6.944459333931138e-05
-5.5722013237737234e-05   -3.288866944907952e-07   6.944459333931138e-05
-5.5722013237737234e-05   -3.288866944907952e-07   6.944459333931138e-05
-5.5722013237737234e-05   -3.288866944907952e-07   6.944459333931138e-05
-3.378047183504604e-05   -1.3832779347717518e-05   9.791149341852669e-05
-3.378047183504604e-05   -1.3832779347717518e-05   9.791149341852669e-05
-3.378047183504604e-05   -1.3832779347717518e-05   9.791149341852669e-05
-3.378047183504604e-05   -1.3832779347717518e-05   9.791149341852669e-05
-3.3397606697385803e-05   -2.5552035545330434e-06   6.367121390706064e-05
-3.3397606697385803e-05   -2.5552035545330434e-06   6.367121390706064e-05
-3.3397606697385803e-05   -2.5552035545330434e-06   6.367121390706064e-05
-3.3397606697385803e-05   -2.5552035545330434e-06   6.367121390706064e-05
-5.507892954863044e-05   -1.3996703835806321e-05   0.00010667165216123216
-5.507892954863044e-05   -1.3996703835806321e-05   0.00010667165216123216
-5.507892954863044e-05   -1.3996703835806321e-05   0.00010667165216123216
-5.507892954863044e-05   -1.3996703835806321e-05   0.00010667165216123216
-4.39146511646593e-05   -8.045302437226665e-06   8.449368068213267e-05
-4.39146511646593e-05   -8.045302437226665e-06   8.449368068213267e-05
-4.39146511646593e-05   -8.045302437226665e-06   8.449368068213267e-05
-4.39146511646593e-05   -8.045302437226665e-06   8.449368068213267e-05
-3.3655365024701494e-05   7.721898470668988e-07   6.542228199893536e-05
-3.3655365024701494e-05   7.721898470668988e-07   6.542228199893536e-05
-3.3655365024701494e-05   7.721898470668988e-07   6.542228199893536e-05
-3.3655365024701494e-05   7.721898470668988e-07   6.542228199893536e-05
-2.4611688251271742e-05   -1.2926173771756226e-05   7.227605845002435e-05
-2.4611688251271742e-05   -1.2926173771756226e-05   7.227605845002435e-05
-2.4611688251271742e-05   -1.2926173771756226e-05   7.227605845002435e-05
-2.4611688251271742e-05   -1.2926173771756226e-05   7.227605845002435e-05
-2.4357120806858357e-05   -4.557829558745133e-07   5.775294274529188e-05
-2.4357120806858357e-05   -4.557829558745133e-07   5.775294274529188e-05
-2.4357120806858357e-05   -4.557829558745133e-07   5.775294274529188e-05
-2.4357120806858357e-05   -4.557829558745133e-07   5.775294274529188e-05
-3.369241186609265e-05   -1.2694821501260624e-05   8.065518430458093e-05
-3.369241186609265e-05   -1.2694821501260624e-05   8.065518430458093e-05
-3.369241186609265e-05   -1.2694821501260624e-05   8.065518430458093e-05
-3.369241186609265e-05   -1.2694821501260624e-05   8.065518430458093e-05
-2.889521108690135e-05   -6.541334345991096e-06   6.896775737943398e-05
-2.889521108690135e-05   -6.541334345991096e-06   6.896775737943398e-05
-2.889521108690135e-05   -6.541334345991096e-06   6.896775737943398e-05
-2.889521108690135e-05   -6.541334345991096e-06   6.896775737943398e-05
-3.369241186609265e-05   -4.557829558745133e-07   6.50963658725232e-05
-3.369241186609265e-05   -4.557829558745133e-07   6.50963658725232e-05
-3.369241186609265e-05   -4.557829558745133e-07   6.50963658725232e-05
-3.369241186609265e-05   -4.557829558745133e-07   6.50963658725232e-05
-2.4357120806858357e-05   -1.2694821501260624e-05   7.331176117734952e-05
-2.4357120806858357e-05   -1.2694821501260624e-05   7.331176117734952e-05
-2.4357120806858357e-05   -1.2694821501260624e-05   7.331176117734952e-05
-2.4357120806858357e-05   -1.2694821501260624e-05   7.331176117734952e-05
-2.4127074996610682e-05   -1.926884662930336e-06   5.914784633190761e-05
-2.4127074996610682e-05   -1.926884662930336e-06   5.914784633190761e-05
-2.4127074996610682e-05   -1.926884662930336e-06   5.914784633190761e-05
-2.4127074996610682e-05   -1.926884662930336e-06   5.914784633190761e-05
-3.378047183504604e-05   -1.3090353695856998e-05   8.19349224823883e-05
-3.378047183504604e-05   -1.3090353695856998e-05   8.19349224823883e-05
-3.378047183504604e-05   -1.3090353695856998e-05   8.19349224823883e-05
-3.378047183504604e-05   -1.3090353695856998e-05   8.19349224823883e-05
-2.860526879799874e-05   -6.994196297009647e-06   6.965188964799937e-05
-2.860526879799874e-05   -6.994196297009647e-06   6.965188964799937e-05
-2.860526879799874e-05   -6.994196297009647e-06   6.965188964799937e-05
-2.860526879799874e-05   -6.994196297009647e-06   6.965188964799937e-05
-3.378047183504604e-05   -1.926884662930336e-06   6.584592775166318e-05
-3.378047183504604e-05   -1.926884662930336e-06   6.584592775166318e-05
-3.378047183504604e-05   -1.926884662930336e-06   6.584592775166318e-05
-3.378047183504604e-05   -1.926884662930336e-06   6.584592775166318e-05
-2.41270749966109e-05   -1.3090353695856998e-05   7.523684106263236e-05
-2.41270749966109e-05   -1.3090353695856998e-05   7.523684106263236e-05
-2.41270749966109e-05   -1.3090353695856998e-05   7.523684106263236e-05
-2.41270749966109e-05   -1.3090353695856998e-05   7.523684106263236e-05
-2.360533062662417e-05   -3.409436136462239e-06   6.130253168367891e-05
-2.360533062662417e-05   -3.409436136462239e-06   6.130253168367891e-05
-2.360533062662417e-05   -3.409436136462239e-06   6.130253168367891e-05
-2.360533062662417e-05   -3.409436136462239e-06   6.130253168367891e-05
-3.3397606697385803e-05   -1.3663605008358646e-05   8.377549312475242e-05
-3.3397606697385803e-05   -1.3663605008358646e-05   8.377549312475242e-05
-3.3397606697385803e-05   -1.3663605008358646e-05   8.377549312475242e-05
-3.3397606697385803e-05   -1.3663605008358646e-05   8.377549312475242e-05
-2.826369769929249e-05   -7.64655582174631e-06   7.160874861596319e-05
-2.826369769929249e-05   -7.64655582174631e-06   7.160874861596319e-05
-2.826369769929249e-05   -7.64655582174631e-06   7.160874861596319e-05
-2.826369769929249e-05   -7.64655582174631e-06   7.160874861596319e-05
-2.4611688251271742e-05   3.4977663296805774e-06   4.434316063516453e-05
-2.4611688251271742e-05   3.4977663296805774e-06   4.434316063516453e-05
-2.4611688251271742e-05   3.4977663296805774e-06   4.434316063516453e-05
-2.4611688251271742e-05   3.4977663296805774e-06   4.434316063516453e-05
-2.0345343642596322e-05   -5.2890705018739884e-06   4.618163288402455e-05
-2.0345343642596322e-05   -5.2890705018739884e-06   4.618163288402455e-05
-2.0345343642596322e-05   -5.2890705018739884e-06   4.618163288402455e-05
-2.0345343642596322e-05   -5.2890705018739884e-06   4.618163288402455e-05
-1.986843985880165e-05   1.8828480387715098e-06   4.0032775197043884e-05
-1.986843985880165e-05   1.8828480387715098e-06   4.0032775197043884e-05
-1.986843985880165e-05   1.8828480387715098e-06   4.0032775197043884e-05
-1.986843985880165e-05   1.8828480387715098e-06   4.0032775197043884e-05
-2.4357120806858357e-05   -6.205379405356103e-06   5.236684657694904e-05
-2.4357120806858357e-05   -6.205379405356103e-06   5.236684657694904e-05
-2.4357120806858357e-05   -6.205379405356103e-06   5.236684657694904e-05
-2.4357120806858357e-05   -6.205379405356103e-06   5.236684657694904e-05
-2.2131170592946503e-05   -1.2041625200133813e-06   4.5656199422557716e-05
-2.2131170592946503e-05   -1.2041625200133813e-06   4.5656199422557716e-05
-2.2131170592946503e-05   -1.2041625200133813e-06   4.5656199422557716e-05
-2.2131170592946503e-05   -1.2041625200133813e-06   4.5656199422557716e-05
-2.4357120806858357e-05   1.8828480387715098e-06   4.488571166352058e-05
-2.4357120806858357e-05   1.8828480387715098e-06   4.488571166352058e-05
-2.4357120806858357e-05   1.8828480387715098e-06   4.488571166352058e-05
-2.4357120806858357e-05   1.8828480387715098e-06   4.488571166352058e-05
-1.986843985880165e-05   -6.205379405356103e-06   4.751391011047245e-05
-1.986843985880165e-05   -6.205379405356103e-06   4.751391011047245e-05
-1.986843985880165e-05   -6.205379405356103e-06   4.751391011047245e-05
-1.986843985880165e-05   -6.205379405356103e-06   4.751391011047245e-05
-1.9630488084653504e-05   5.016730705853512e-07   4.193654813288957e-05
-1.9630488084653504e-05   5.016730705853512e-07   4.193654813288957e-05
-1.9630488084653504e-05   5.016730705853512e-07   4.193654813288957e-05
-1.9630488084653504e-05   5.016730705853512e-07   4.193654813288957e-05
-2.4127074996610682e-05   -6.903744697303333e-06   5.3874110313551025e-05
-2.4127074996610682e-05   -6.903744697303333e-06   5.3874110313551025e-05
-2.4127074996610682e-05   -6.903744697303333e-06   5.3874110313551025e-05
-2.4127074996610682e-05   -6.903744697303333e-06   5.3874110313551025e-05
-2.1659574749356984e-05   -2.193791544179537e-06   4.693563800958517e-05
-2.1659574749356984e-05   -2.193791544179537e-06   4.693563800958517e-05
-2.1659574749356984e-05   -2.193791544179537e-06   4.693563800958517e-05
-2.1659574749356984e-05   -2.193791544179537e-06   4.693563800958517e-05
-2.4127074996610682e-05   5.016730705853512e-07   4.637979879362265e-05
-2.4127074996610682e-05   5.016730705853512e-07   4.637979879362265e-05
-2.4127074996610682e-05   5.016730705853512e-07   4.637979879362265e-05
-2.4127074996610682e-05   5.016730705853512e-07   4.637979879362265e-05
-1.9630488084653504e-05   -6.903744697303333e-06   4.943085965281773e-05
-1.9630488084653504e-05   -6.903744697303333e-06   4.943085965281773e-05
-1.9630488084653504e-05   -6.903744697303333e-06   4.943085965281773e-05
-1.9630488084653504e-05   -6.903744697303333e-06   4.943085965281773e-05
-1.9262766452366777e-05   -8.895593884721865e-07   4.43274260813779e-05
-1.9262766452366777e-05   -8.895593884721865e-07   4.43274260813779e-05
-1.9262766452366777e-05   -8.895593884721865e-07   4.43274260813779e-05
-1.9262766452366777e-05   -8.895593884721865e-07   4.43274260813779e-05
-2.360533062662417e-05   -7.82317834768136e-06   5.5725204413998274e-05
-2.360533062662417e-05   -7.82317834768136e-06   5.5725204413998274e-05
-2.360533062662417e-05   -7.82317834768136e-06   5.5725204413998274e-05
-2.360533062662417e-05   -7.82317834768136e-06   5.5725204413998274e-05
-2.127978319949297e-05   -3.0574135441343697e-06   4.898983315331992e-05
-2.127978319949297e-05   -3.0574135441343697e-06   4.898983315331992e-05
-2.127978319949297e-05   -3.0574135441343697e-06   4.898983315331992e-05
-2.127978319949297e-05   -3.0574135441343697e-06   4.898983315331992e-05
-2.0345343642596322e-05   5.726266901007106e-06   9.845431538057321e-06
-2.0345343642596322e-05   5.726266901007106e-06   9.845431538057321e-06
-2.0345343642596322e-05   5.726266901007106e-06   9.845431538057321e-06
-2.0345343642596322e-05   5.726266901007106e-06   9.845431538057321e-06
-1.1496385015594439e-05   -6.162335228583268e-07   2.0788195662073882e-05
-1.1496385015594439e-05   -6.162335228583268e-07   2.0788195662073882e-05
-1.1496385015594439e-05   -6.162335228583268e-07   2.0788195662073882e-05
-1.1496385015594439e-05   -6.162335228583268e-07   2.0788195662073882e-05
-1.2118036235326136e-05   4.588291375640877e-06   9.92376924321579e-06
-1.2118036235326136e-05   4.588291375640877e-06   9.92376924321579e-06
-1.2118036235326136e-05   4.588291375640877e-06   9.92376924321579e-06
-1.2118036235326136e-05   4.588291375640877e-06   9.92376924321579e-06
-1.986843985880165e-05   -8.48975654472485e-07   2.6103468833743506e-05
-1.986843985880165e-05   -8.48975654472485e-07   2.6103468833743506e-05
-1.986843985880165e-05   -8.48975654472485e-07   2.6103468833743506e-05
-1.986843985880165e-05   -8.48975654472485e-07   2.6103468833743506e-05
-1.5409102098146426e-05   2.9375943348052772e-06   1.6399297239085616e-05
-1.5409102098146426e-05   2.9375943348052772e-06   1.6399297239085616e-05
-1.5409102098146426e-05   2.9375943348052772e-06   1.6399297239085616e-05
-1.5409102098146426e-05   2.9375943348052772e-06   1.6399297239085616e-05
-1.986843985880165e-05   4.588291375641311e-06   1.3186129461283374e-05
-1.986843985880165e-05   4.588291375641311e-06   1.3186129461283374e-05
-1.986843985880165e-05   4.588291375641311e-06   1.3186129461283374e-05
-1.986843985880165e-05   4.588291375641311e-06   1.3186129461283374e-05
-1.2118036235326136e-05   -8.48975654472485e-07   2.284110861567549e-05
-1.2118036235326136e-05   -8.48975654472485e-07   2.284110861567549e-05
-1.2118036235326136e-05   -8.48975654472485e-07   2.284110861567549e-05
-1.2118036235326136e-05   -8.48975654472485e-07   2.284110861567549e-05
-1.2623122176609559e-05   3.842963651102052e-06   1.2991498453871885e-05
-1.2623122176609559e-05   3.842963651102052e-06   1.2991498453871885e-05
-1.2623122176609559e-05   3.842963651102052e-06   1.2991498453871885e-05
-1.2623122176609559e-05   3.842963651102052e-06   1.2991498453871885e-05
-1.9630488084653504e-05   -1.167437784628262e-06   2.767668249538304e-05
-1.9630488084653504e-05   -1.167437784628262e-06   2.767668249538304e-05
-1.9630488084653504e-05   -1.167437784628262e-06   2.767668249538304e-05
-1.9630488084653504e-05   -1.167437784628262e-06   2.767668249538304e-05
-1.5639200245851927e-05   2.3684884187121467e-06   1.8902980375374526e-05
-1.5639200245851927e-05   2.3684884187121467e-06   1.8902980375374526e-05
-1.5639200245851927e-05   2.3684884187121467e-06   1.8902980375374526e-05
-1.5639200245851927e-05   2.3684884187121467e-06   1.8902980375374526e-05
-1.9630488084653504e-05   3.842963651101618e-06   1.599773931531016e-05
-1.9630488084653504e-05   3.842963651101618e-06   1.599773931531016e-05
-1.9630488084653504e-05   3.842963651101618e-06   1.599773931531016e-05
-1.9630488084653504e-05   3.842963651101618e-06   1.599773931531016e-05
-1.2623122176609559e-05   -1.167437784628262e-06   2.4670441633944983e-05
-1.2623122176609559e-05   -1.167437784628262e-06   2.4670441633944983e-05
-1.2623122176609559e-05   -1.167437784628262e-06   2.4670441633944983e-05
-1.2623122176609559e-05   -1.167437784628262e-06   2.4670441633944983e-05
-1.3934423467834101e-05   2.358193244056655e-06   1.847142625765628e-05
-1.3934423467834101e-05   2.358193244056655e-06   1.847142625765628e-05
-1.3934423467834101e-05   2.358193244056655e-06   1.847142625765628e-05
-1.3934423467834101e-05   2.358193244056655e-06   1.847142625765628e-05
-1.9262766452366777e-05   -1.5423846494726397e-06   2.9692344634660653e-05
-1.9262766452366777e-05   -1.5423846494726397e-06   2.9692344634660653e-05
-1.9262766452366777e-05   -1.5423846494726397e-06   2.9692344634660653e-05
-1.9262766452366777e-05   -1.5423846494726397e-06   2.9692344634660653e-05
-1.564037153225595e-05   1.9895279995678795e-06   2.1535872178385547e-05
-1.564037153225595e-05   1.9895279995678795e-06   2.1535872178385547e-05
-1.564037153225595e-05   1.9895279995678795e-06   2.1535872178385547e-05
-1.564037153225595e-05   1.9895279995678795e-06   2.1535872178385547e-05
-0.00019047597280811969   1.5054548818809214e-05   7.978252319042266e-05
-0.00019047597280811969   1.5054548818809214e-05   7.978252319042266e-05
-0.00019047597280811969   1.5054548818809214e-05   7.978252319042266e-05
-0.00019047597280811969   1.5054548818809214e-05   7.978252319042266e-05
-4.4991017510327827e-05   -9.081839884391326e-05   0.00025873368008910914
-4.4991017510327827e-05   -9.081839884391326e-05   0.00025873368008910914
-4.4991017510327827e-05   -9.081839884391326e-05   0.00025873368008910914
-4.4991017510327827e-05   -9.081839884391326e-05   0.00025873368008910914
-5.2662819821634494e-05   6.237836038323289e-06   4.3980394766609426e-05
-5.2662819821634494e-05   6.237836038323289e-06   4.3980394766609426e-05
-5.2662819821634494e-05   6.237836038323289e-06   4.3980394766609426e-05
-5.2662819821634494e-05   6.237836038323289e-06   4.3980394766609426e-05
-0.0001737181097482783   -7.02474492702626e-05   0.00029163038249616676
-0.0001737181097482783   -7.02474492702626e-05   0.00029163038249616676
-0.0001737181097482783   -7.02474492702626e-05   0.00029163038249616676
-0.0001737181097482783   -7.02474492702626e-05   0.00029163038249616676
-0.00011588179243088753   -3.4987814269026875e-05   0.00017408073929977403
-0.00011588179243088753   -3.4987814269026875e-05   0.00017408073929977403
-0.00011588179243088753   -3.4987814269026875e-05   0.00017408073929977403
-0.00011588179243088753   -3.4987814269026875e-05   0.00017408073929977403
-0.00017371810974827796   6.237836038323289e-06   8.987156595176076e-05
-0.00017371810974827796   6.237836038323289e-06   8.987156595176076e-05
-0.00017371810974827796   6.237836038323289e-06   8.987156595176076e-05
-0.00017371810974827796   6.237836038323289e-06   8.987156595176076e-05
-5.26628198216346e-05   -7.02474492702626e-05   0.0002457392113110153
-5.26628198216346e-05   -7.02474492702626e-05   0.0002457392113110153
-5.26628198216346e-05   -7.02474492702626e-05   0.0002457392113110153
-5.26628198216346e-05   -7.02474492702626e-05   0.0002457392113110153
-5.378107925723923e-05   4.525536036364833e-06   4.8316213764465076e-05
-5.378107925723923e-05   4.525536036364833e-06   4.8316213764465076e-05
-5.378107925723923e-05   4.525536036364833e-06   4.8316213764465076e-05
-5.378107925723923e-05   4.525536036364833e-06   4.8316213764465076e-05
-0.00016389185299436405   -6.0289726933689884e-05   0.00027072332777503883
-0.00016389185299436405   -6.0289726933689884e-05   0.00027072332777503883
-0.00016389185299436405   -6.0289726933689884e-05   0.00027072332777503883
-0.00016389185299436405   -6.0289726933689884e-05   0.00027072332777503883
-0.00011235876106443997   -3.3111200336287546e-05   0.00016852772526672406
-0.00011235876106443997   -3.3111200336287546e-05   0.00016852772526672406
-0.00011235876106443997   -3.3111200336287546e-05   0.00016852772526672406
-0.00011235876106443997   -3.3111200336287546e-05   0.00016852772526672406
-0.00016389185299436378   4.525536036364833e-06   8.720537154649781e-05
-0.00016389185299436378   4.525536036364833e-06   8.720537154649781e-05
-0.00016389185299436378   4.525536036364833e-06   8.720537154649781e-05
-0.00016389185299436378   4.525536036364833e-06   8.720537154649781e-05
-5.3781079257239313e-05   -6.0289726933689884e-05   0.0002318341699930061
-5.3781079257239313e-05   -6.0289726933689884e-05   0.0002318341699930061
-5.3781079257239313e-05   -6.0289726933689884e-05   0.0002318341699930061
-5.3781079257239313e-05   -6.0289726933689884e-05   0.0002318341699930061
-5.876314240568255e-05   -2.727044197506443e-06   6.0570979697857586e-05
-5.876314240568255e-05   -2.727044197506443e-06   6.0570979697857586e-05
-5.876314240568255e-05   -2.727044197506443e-06   6.0570979697857586e-05
-5.876314240568255e-05   -2.727044197506443e-06   6.0570979697857586e-05
-0.0001513204549240182   -4.709511787551073e-05   0.00024145401143521914
-0.0001513204549240182   -4.709511787551073e-05   0.00024145401143521914
-0.0001513204549240182   -4.709511787551073e-05   0.00024145401143521914
-0.0001513204549240182   -4.709511787551073e-05   0.00024145401143521914
-0.00010799661977269114   -3.054851930813776e-05   0.00015931966037591703
-0.00010799661977269114   -3.054851930813776e-05   0.00015931966037591703
-0.00010799661977269114   -3.054851930813776e-05   0.00015931966037591703
-0.00010799661977269114   -3.054851930813776e-05   0.00015931966037591703
-4.4991017510327745e-05   -1.6552408252637615e-05   4.492406178472751e-05
-4.4991017510327745e-05   -1.6552408252637615e-05   4.492406178472751e-05
-4.4991017510327745e-05   -1.6552408252637615e-05   4.492406178472751e-05
-4.4991017510327745e-05   -1.6552408252637615e-05   4.492406178472751e-05
-1.5734293018923248e-05   -2.7529699891743682e-05   8.709889428693842e-05
-1.5734293018923248e-05   -2.7529699891743682e-05   8.709889428693842e-05
-1.5734293018923248e-05   -2.7529699891743682e-05   8.709889428693842e-05
-1.5734293018923248e-05   -2.7529699891743682e-05   8.709889428693842e-05
-1.7491488082126594e-05   -1.3512631429256784e-05   4.049279211157256e-05
-1.7491488082126594e-05   -1.3512631429256784e-05   4.049279211157256e-05
-1.7491488082126594e-05   -1.3512631429256784e-05   4.049279211157256e-05
-1.7491488082126594e-05   -1.3512631429256784e-05   4.049279211157256e-05
-5.26628198216346e-05   -3.676034229126755e-05   0.00011306030486129203
-5.26628198216346e-05   -3.676034229126755e-05   0.00011306030486129203
-5.26628198216346e-05   -3.676034229126755e-05   0.00011306030486129203
-5.26628198216346e-05   -3.676034229126755e-05   0.00011306030486129203
-3.101493391116837e-05   -1.93539081381845e-05   6.6536634518665e-05
-3.101493391116837e-05   -1.93539081381845e-05   6.6536634518665e-05
-3.101493391116837e-05   -1.93539081381845e-05   6.6536634518665e-05
-3.101493391116837e-05   -1.93539081381845e-05   6.6536634518665e-05
-5.2662819821634466e-05   -1.3512631429256784e-05   5.444141862877858e-05
-5.2662819821634466e-05   -1.3512631429256784e-05   5.444141862877858e-05
-5.2662819821634466e-05   -1.3512631429256784e-05   5.444141862877858e-05
-5.2662819821634466e-05   -1.3512631429256784e-05   5.444141862877858e-05
-1.7491488082126702e-05   -3.676034229126755e-05   9.911167834408561e-05
-1.7491488082126702e-05   -3.676034229126755e-05   9.911167834408561e-05
-1.7491488082126702e-05   -3.676034229126755e-05   9.911167834408561e-05
-1.7491488082126702e-05   -3.676034229126755e-05   9.911167834408561e-05
-1.8990414015353555e-05   -1.3832779347717518e-05   4.551957622139107e-05
-1.8990414015353555e-05   -1.3832779347717518e-05   4.551957622139107e-05
-1.8990414015353555e-05   -1.3832779347717518e-05   4.551957622139107e-05
-1.8990414015353555e-05   -1.3832779347717518e-05   4.551957622139107e-05
-5.3781079257239313e-05   -3.347548740074867e-05   0.000115289643123019
-5.3781079257239313e-05   -3.347548740074867e-05   0.000115289643123019
-5.3781079257239313e-05   -3.347548740074867e-05   0.000115289643123019
-5.3781079257239313e-05   -3.347548740074867e-05   0.000115289643123019
-3.48773944522026e-05   -2.3744303134341435e-05   7.794479122144745e-05
-3.48773944522026e-05   -2.3744303134341435e-05   7.794479122144745e-05
-3.48773944522026e-05   -2.3744303134341435e-05   7.794479122144745e-05
-3.48773944522026e-05   -2.3744303134341435e-05   7.794479122144745e-05
-5.378107925723923e-05   -1.3832779347717518e-05   5.730520105320968e-05
-5.378107925723923e-05   -1.3832779347717518e-05   5.730520105320968e-05
-5.378107925723923e-05   -1.3832779347717518e-05   5.730520105320968e-05
-5.378107925723923e-05   -1.3832779347717518e-05   5.730520105320968e-05
-1.8990414015353555e-05   -3.347548740074867e-05   0.00010350401829120037
-1.8990414015353555e-05   -3.347548740074867e-05   0.00010350401829120037
-1.8990414015353555e-05   -3.347548740074867e-05   0.00010350401829120037
-1.8990414015353555e-05   -3.347548740074867e-05   0.00010350401829120037
-2.141439904668912e-05   -1.3996703835806538e-05   4.972051883405922e-05
-2.141439904668912e-05   -1.3996703835806538e-05   4.972051883405922e-05
-2.141439904668912e-05   -1.3996703835806538e-05   4.972051883405922e-05
-2.141439904668912e-05   -1.3996703835806538e-05   4.972051883405922e-05
-5.87631424056826e-05   -3.141895964475057e-05   0.0001224217779177478
-5.87631424056826e-05   -3.141895964475057e-05   0.0001224217779177478
-5.87631424056826e-05   -3.141895964475057e-05   0.0001224217779177478
-5.87631424056826e-05   -3.141895964475057e-05   0.0001224217779177478
-3.7082689624785075e-05   -2.1666003238773662e-05   8.043591610599945e-05
-3.7082689624785075e-05   -2.1666003238773662e-05   8.043591610599945e-05
-3.7082689624785075e-05   -2.1666003238773662e-05   8.043591610599945e-05
-3.7082689624785075e-05   -2.1666003238773662e-05   8.043591610599945e-05
-1.573429301892314e-05   -1.2926173771756226e-05   2.3878365387177292e-05
-1.573429301892314e-05   -1.2926173771756226e-05   2.3878365387177292e-05
-1.573429301892314e-05   -1.2926173771756226e-05   2.3878365387177292e-05
-1.573429301892314e-05   -1.2926173771756226e-05   2.3878365387177292e-05
-8.740158970490554e-06   -7.338526038484002e-06   3.888784410786177e-05
-8.740158970490554e-06   -7.338526038484002e-06   3.888784410786177e-05
-8.740158970490554e-06   -7.338526038484002e-06   3.888784410786177e-05
-8.740158970490554e-06   -7.338526038484002e-06   3.888784410786177e-05
-8.356860416745718e-06   -1.2694821501260624e-05   2.791908838380543e-05
-8.356860416745718e-06   -1.2694821501260624e-05   2.791908838380543e-05
-8.356860416745718e-06   -1.2694821501260624e-05   2.791908838380543e-05
-8.356860416745718e-06   -1.2694821501260624e-05   2.791908838380543e-05
-1.7491488082126702e-05   -9.72168139474004e-06   4.135958376219433e-05
-1.7491488082126702e-05   -9.72168139474004e-06   4.135958376219433e-05
-1.7491488082126702e-05   -9.72168139474004e-06   4.135958376219433e-05
-1.7491488082126702e-05   -9.72168139474004e-06   4.135958376219433e-05
-1.1788737746053527e-05   -1.0156670060932293e-05   3.211599306845439e-05
-1.1788737746053527e-05   -1.0156670060932293e-05   3.211599306845439e-05
-1.1788737746053527e-05   -1.0156670060932293e-05   3.211599306845439e-05
-1.1788737746053527e-05   -1.0156670060932293e-05   3.211599306845439e-05
-1.7491488082126594e-05   -1.2694821501260624e-05   2.613520431989319e-05
-1.7491488082126594e-05   -1.2694821501260624e-05   2.613520431989319e-05
-1.7491488082126594e-05   -1.2694821501260624e-05   2.613520431989319e-05
-1.7491488082126594e-05   -1.2694821501260624e-05   2.613520431989319e-05
-8.356860416745718e-06   -9.72168139474004e-06   4.3143467826106566e-05
-8.356860416745718e-06   -9.72168139474004e-06   4.3143467826106566e-05
-8.356860416745718e-06   -9.72168139474004e-06   4.3143467826106566e-05
-8.356860416745718e-06   -9.72168139474004e-06   4.3143467826106566e-05
-8.326990446588908e-06   -1.3090353695856998e-05   2.9822228617367753e-05
-8.326990446588908e-06   -1.3090353695856998e-05   2.9822228617367753e-05
-8.326990446588908e-06   -1.3090353695856998e-05   2.9822228617367753e-05
-8.326990446588908e-06   -1.3090353695856998e-05   2.9822228617367753e-05
-1.8990414015353555e-05   -1.2624981475665124e-05   4.731537789985987e-05
-1.8990414015353555e-05   -1.2624981475665124e-05   4.731537789985987e-05
-1.8990414015353555e-05   -1.2624981475665124e-05   4.731537789985987e-05
-1.8990414015353555e-05   -1.2624981475665124e-05   4.731537789985987e-05
-1.2445711741404346e-05   -1.1107643803311769e-05   3.549713817319923e-05
-1.2445711741404346e-05   -1.1107643803311769e-05   3.549713817319923e-05
-1.2445711741404346e-05   -1.1107643803311769e-05   3.549713817319923e-05
-1.2445711741404346e-05   -1.1107643803311769e-05   3.549713817319923e-05
-1.8990414015353447e-05   -1.3090353695856781e-05   2.9543005285252635e-05
-1.8990414015353447e-05   -1.3090353695856781e-05   2.9543005285252635e-05
-1.8990414015353447e-05   -1.3090353695856781e-05   2.9543005285252635e-05
-1.8990414015353447e-05   -1.3090353695856781e-05   2.9543005285252635e-05
-8.326990446588908e-06   -1.2624981475665124e-05   4.759460123197499e-05
-8.326990446588908e-06   -1.2624981475665124e-05   4.759460123197499e-05
-8.326990446588908e-06   -1.2624981475665124e-05   4.759460123197499e-05
-8.326990446588908e-06   -1.2624981475665124e-05   4.759460123197499e-05
-8.374227955727114e-06   -1.3663605008358646e-05   3.265293454567716e-05
-8.374227955727114e-06   -1.3663605008358646e-05   3.265293454567716e-05
-8.374227955727114e-06   -1.3663605008358646e-05   3.265293454567716e-05
-8.374227955727114e-06   -1.3663605008358646e-05   3.265293454567716e-05
-2.1414399046689012e-05   -1.5390814042802025e-05   5.542287845127934e-05
-2.1414399046689012e-05   -1.5390814042802025e-05   5.542287845127934e-05
-2.1414399046689012e-05   -1.5390814042802025e-05   5.542287845127934e-05
-2.1414399046689012e-05   -1.5390814042802025e-05   5.542287845127934e-05
-1.318367783783458e-05   -1.2170491489825659e-05   3.977281623806952e-05
-1.318367783783458e-05   -1.2170491489825659e-05   3.977281623806952e-05
-1.318367783783458e-05   -1.2170491489825659e-05   3.977281623806952e-05
-1.318367783783458e-05   -1.2170491489825659e-05   3.977281623806952e-05
-8.740158970490554e-06   -5.2890705018739884e-06   6.40863056007373e-06
-8.740158970490554e-06   -5.2890705018739884e-06   6.40863056007373e-06
-8.740158970490554e-06   -5.2890705018739884e-06   6.40863056007373e-06
-8.740158970490554e-06   -5.2890705018739884e-06   6.40863056007373e-06
-6.40660056462454e-06   1.6655921208849351e-06   1.4470692143505855e-05
-6.40660056462454e-06   1.6655921208849351e-06   1.4470692143505855e-05
-6.40660056462454e-06   1.6655921208849351e-06   1.4470692143505855e-05
-6.40660056462454e-06   1.6655921208849351e-06   1.4470692143505855e-05
-5.148050183939861e-06   -6.205379405356103e-06   1.1202987952149863e-05
-5.148050183939861e-06   -6.205379405356103e-06   1.1202987952149863e-05
-5.148050183939861e-06   -6.205379405356103e-06   1.1202987952149863e-05
-5.148050183939861e-06   -6.205379405356103e-06   1.1202987952149863e-05
-8.356860416745718e-06   8.426442092185793e-07   1.2322190838080305e-05
-8.356860416745718e-06   8.426442092185793e-07   1.2322190838080305e-05
-8.356860416745718e-06   8.426442092185793e-07   1.2322190838080305e-05
-8.356860416745718e-06   8.426442092185793e-07   1.2322190838080305e-05
-6.724042945434317e-06   -2.363209437387698e-06   1.152434057385813e-05
-6.724042945434317e-06   -2.363209437387698e-06   1.152434057385813e-05
-6.724042945434317e-06   -2.363209437387698e-06   1.152434057385813e-05
-6.724042945434317e-06   -2.363209437387698e-06   1.152434057385813e-05
-8.356860416745718e-06   -6.205379405356103e-06   6.974173783405179e-06
-8.356860416745718e-06   -6.205379405356103e-06   6.974173783405179e-06
-8.356860416745718e-06   -6.205379405356103e-06   6.974173783405179e-06
-8.356860416745718e-06   -6.205379405356103e-06   6.974173783405179e-06
-5.148050183939861e-06   8.426442092185793e-07   1.6551005006825315e-05
-5.148050183939861e-06   8.426442092185793e-07   1.6551005006825315e-05
-5.148050183939861e-06   8.426442092185793e-07   1.6551005006825315e-05
-5.148050183939861e-06   8.426442092185793e-07   1.6551005006825315e-05
-4.442130979018331e-06   -6.903744697303333e-06   1.2303173512626976e-05
-4.442130979018331e-06   -6.903744697303333e-06   1.2303173512626976e-05
-4.442130979018331e-06   -6.903744697303333e-06   1.2303173512626976e-05
-4.442130979018331e-06   -6.903744697303333e-06   1.2303173512626976e-05
-8.326990446588908e-06   -4.976186234028078e-07   1.4934263647570657e-05
-8.326990446588908e-06   -4.976186234028078e-07   1.4934263647570657e-05
-8.326990446588908e-06   -4.976186234028078e-07   1.4934263647570657e-05
-8.326990446588908e-06   -4.976186234028078e-07   1.4934263647570657e-05
-6.0613130195327335e-06   -3.0531252723927597e-06   1.2691438591871159e-05
-6.0613130195327335e-06   -3.0531252723927597e-06   1.2691438591871159e-05
-6.0613130195327335e-06   -3.0531252723927597e-06   1.2691438591871159e-05
-6.0613130195327335e-06   -3.0531252723927597e-06   1.2691438591871159e-05
-8.326990446589017e-06   -6.903744697303333e-06   8.459497868285927e-06
-8.326990446589017e-06   -6.903744697303333e-06   8.459497868285927e-06
-8.326990446589017e-06   -6.903744697303333e-06   8.459497868285927e-06
-8.326990446589017e-06   -6.903744697303333e-06   8.459497868285927e-06
-4.442130979018331e-06   -4.976186234028078e-07   1.8777939291910947e-05
-4.442130979018331e-06   -4.976186234028078e-07   1.8777939291910947e-05
-4.442130979018331e-06   -4.976186234028078e-07   1.8777939291910947e-05
-4.442130979018331e-06   -4.976186234028078e-07   1.8777939291910947e-05
-3.3571252788097347e-06   -7.82317834768136e-06   1.3472040456691866e-05
-3.3571252788097347e-06   -7.82317834768136e-06   1.3472040456691866e-05
-3.3571252788097347e-06   -7.82317834768136e-06   1.3472040456691866e-05
-3.3571252788097347e-06   -7.82317834768136e-06   1.3472040456691866e-05
-8.374227955727114e-06   -3.295022849964042e-06   1.911698495292262e-05
-8.374227955727114e-06   -3.295022849964042e-06   1.911698495292262e-05
-8.374227955727114e-06   -3.295022849964042e-06   1.911698495292262e-05
-8.374227955727114e-06   -3.295022849964042e-06   1.911698495292262e-05
-5.503931706553615e-06   -4.125582021447536e-06   1.4831493373858133e-05
-5.503931706553615e-06   -4.125582021447536e-06   1.4831493373858133e-05
-5.503931706553615e-06   -4.125582021447536e-06   1.4831493373858133e-05
-5.503931706553615e-06   -4.125582021447536e-06   1.4831493373858133e-05
-6.40660056462454e-06   -6.162335228583268e-07   -1.100650883390235e-05
-6.40660056462454e-06   -6.162335228583268e-07   -1.100650883390235e-05
-6.40660056462454e-06   -6.162335228583268e-07   -1.100650883390235e-05
-6.40660056462454e-06   -6.162335228583268e-07   -1.100650883390235e-05
-1.1030846454676297e-06   9.529794305246939e-07   -1.2257878632777539e-06
-1.1030846454676297e-06   9.529794305246939e-07   -1.2257878632777539e-06
-1.1030846454676297e-06   9.529794305246939e-07   -1.2257878632777539e-06
-1.1030846454676297e-06   9.529794305246939e-07   -1.2257878632777539e-06
1.360450679296129e-07   -8.489756544727018e-07   -8.700407688815373e-06
1.360450679296129e-07   -8.489756544727018e-07   -8.700407688815373e-06
1.360450679296129e-07   -8.489756544727018e-07   -8.700407688815373e-06
1.360450679296129e-07   -8.489756544727018e-07   -8.700407688815373e-06
-5.148050183939861e-06   1.6627670718002963e-06   -1.4006279047966592e-06
-5.148050183939861e-06   1.6627670718002963e-06   -1.4006279047966592e-06
-5.148050183939861e-06   1.6627670718002963e-06   -1.4006279047966592e-06
-5.148050183939861e-06   1.6627670718002963e-06   -1.4006279047966592e-06
-2.861967409295736e-06   4.299509793188709e-07   -4.471076207049167e-06
-2.861967409295736e-06   4.299509793188709e-07   -4.471076207049167e-06
-2.861967409295736e-06   4.299509793188709e-07   -4.471076207049167e-06
-2.861967409295736e-06   4.299509793188709e-07   -4.471076207049167e-06
-5.148050183939861e-06   -8.48975654472485e-07   -1.0207453324579513e-05
-5.148050183939861e-06   -8.48975654472485e-07   -1.0207453324579513e-05
-5.148050183939861e-06   -8.48975654472485e-07   -1.0207453324579513e-05
-5.148050183939861e-06   -8.48975654472485e-07   -1.0207453324579513e-05
1.360450679296129e-07   1.6627670718002963e-06   1.0641773096715587e-07
1.360450679296129e-07   1.6627670718002963e-06   1.0641773096715587e-07
1.360450679296129e-07   1.6627670718002963e-06   1.0641773096715587e-07
1.360450679296129e-07   1.6627670718002963e-06   1.0641773096715587e-07
8.01149891583447e-07   -1.1674377846284788e-06   -7.8733613443965e-06
8.01149891583447e-07   -1.1674377846284788e-06   -7.8733613443965e-06
8.01149891583447e-07   -1.1674377846284788e-06   -7.8733613443965e-06
8.01149891583447e-07   -1.1674377846284788e-06   -7.8733613443965e-06
-4.442130979018331e-06   1.4619660493910274e-06   -7.122021938059039e-07
-4.442130979018331e-06   1.4619660493910274e-06   -7.122021938059039e-07
-4.442130979018331e-06   1.4619660493910274e-06   -7.122021938059039e-07
-4.442130979018331e-06   1.4619660493910274e-06   -7.122021938059039e-07
-1.9383882320402057e-06   2.8392016910888836e-07   -4.1782792439314445e-06
-1.9383882320402057e-06   2.8392016910888836e-07   -4.1782792439314445e-06
-1.9383882320402057e-06   2.8392016910888836e-07   -4.1782792439314445e-06
-1.9383882320402057e-06   2.8392016910888836e-07   -4.1782792439314445e-06
-4.442130979018331e-06   -1.167437784628262e-06   -9.451003644808144e-06
-4.442130979018331e-06   -1.167437784628262e-06   -9.451003644808144e-06
-4.442130979018331e-06   -1.167437784628262e-06   -9.451003644808144e-06
-4.442130979018331e-06   -1.167437784628262e-06   -9.451003644808144e-06
8.01149891583447e-07   1.4619660493910274e-06   8.654401066057402e-07
8.01149891583447e-07   1.4619660493910274e-06   8.654401066057402e-07
8.01149891583447e-07   1.4619660493910274e-06   8.654401066057402e-07
8.01149891583447e-07   1.4619660493910274e-06   8.654401066057402e-07
1.639352413416919e-06   -1.5423846494726397e-06   -6.67906006417314e-06
1.639352413416919e-06   -1.5423846494726397e-06   -6.67906006417314e-06
1.639352413416919e-06   -1.5423846494726397e-06   -6.67906006417314e-06
1.639352413416919e-06   -1.5423846494726397e-06   -6.67906006417314e-06
-3.3571252788097347e-06   1.3269284887726905e-06   -7.318512674310204e-08
-3.3571252788097347e-06   1.3269284887726905e-06   -7.318512674310204e-08
-3.3571252788097347e-06   1.3269284887726905e-06   -7.318512674310204e-08
-3.3571252788097347e-06   1.3269284887726905e-06   -7.318512674310204e-08
-1.0988165005684867e-06   1.145618161667826e-07   -3.1096130869148406e-06
-1.0988165005684867e-06   1.145618161667826e-07   -3.1096130869148406e-06
-1.0988165005684867e-06   1.145618161667826e-07   -3.1096130869148406e-06
-1.0988165005684867e-06   1.145618161667826e-07   -3.1096130869148406e-06
              </DataArray>   
             <DataArray type="Float64" NumberOfComponents="3" Name="Stress" format="ascii">   
-9.855447475298636   -2.463861868824659   -2.463861868824659
-9.855447475298636   -2.463861868824659   -2.463861868824659
-9.855447475298636   -2.463861868824659   -2.463861868824659
-9.855447475298636   -2.463861868824659   -2.463861868824659
-5.7042341113902255   -0.17866610435424302   -0.11356000852081077
-5.7042341113902255   -0.17866610435424302   -0.11356000852081077
-5.7042341113902255   -0.17866610435424302   -0.11356000852081077
-5.7042341113902255   -0.17866610435424302   -0.11356000852081077
-6.150360358699438   -1.5375900896748596   -1.5375900896748596
-6.150360358699438   -1.5375900896748596   -1.5375900896748596
-6.150360358699438   -1.5375900896748596   -1.5375900896748596
-6.150360358699438   -1.5375900896748596   -1.5375900896748596
-9.499383576861735   -0.7784832685577106   -0.29720652860281543
-9.499383576861735   -0.7784832685577106   -0.29720652860281543
-9.499383576861735   -0.7784832685577106   -0.29720652860281543
-9.499383576861735   -0.7784832685577106   -0.29720652860281543
-7.450817159302115   -1.2205565011636486   -0.0204616688513182
-7.450817159302115   -1.2205565011636486   -0.0204616688513182
-7.450817159302115   -1.2205565011636486   -0.0204616688513182
-7.450817159302115   -1.2205565011636486   -0.0204616688513182
-10.315828463810718   -2.5789571159526794   -2.5789571159526794
-10.315828463810718   -2.5789571159526794   -2.5789571159526794
-10.315828463810718   -2.5789571159526794   -2.5789571159526794
-10.315828463810718   -2.5789571159526794   -2.5789571159526794
-5.527370369462031   0.0694288600085482   -0.029659093171234274
-5.527370369462031   0.0694288600085482   -0.029659093171234274
-5.527370369462031   0.0694288600085482   -0.029659093171234274
-5.527370369462031   0.0694288600085482   -0.029659093171234274
-6.1691362617914995   -1.5422840654478749   -1.5422840654478749
-6.1691362617914995   -1.5422840654478749   -1.5422840654478749
-6.1691362617914995   -1.5422840654478749   -1.5422840654478749
-6.1691362617914995   -1.5422840654478749   -1.5422840654478749
-9.820246600084014   -0.7863997989100497   -0.4357045262294826
-9.820246600084014   -0.7863997989100497   -0.4357045262294826
-9.820246600084014   -0.7863997989100497   -0.4357045262294826
-9.820246600084014   -0.7863997989100497   -0.4357045262294826
-7.730250710318626   -1.1496891869045884   -0.410393732083615
-7.730250710318626   -1.1496891869045884   -0.410393732083615
-7.730250710318626   -1.1496891869045884   -0.410393732083615
-7.730250710318626   -1.1496891869045884   -0.410393732083615
-10.639806372284582   -2.6599515930711455   -2.6599515930711455
-10.639806372284582   -2.6599515930711455   -2.6599515930711455
-10.639806372284582   -2.6599515930711455   -2.6599515930711455
-10.639806372284582   -2.6599515930711455   -2.6599515930711455
-5.512639461998547   0.16820475630562148   0.029711111763391196
-5.512639461998547   0.16820475630562148   0.029711111763391196
-5.512639461998547   0.16820475630562148   0.029711111763391196
-5.512639461998547   0.16820475630562148   0.029711111763391196
-6.16750653709223   -1.5418766342730574   -1.5418766342730574
-6.16750653709223   -1.5418766342730574   -1.5418766342730574
-6.16750653709223   -1.5418766342730574   -1.5418766342730574
-6.16750653709223   -1.5418766342730574   -1.5418766342730574
-10.392979833491015   -0.6907941708001495   -0.26064641416624856
-10.392979833491015   -0.6907941708001495   -0.26064641416624856
-10.392979833491015   -0.6907941708001495   -0.26064641416624856
-10.392979833491015   -0.6907941708001495   -0.26064641416624856
-7.9381365851817   -1.1322353831681218   -0.7419934966426152
-7.9381365851817   -1.1322353831681218   -0.7419934966426152
-7.9381365851817   -1.1322353831681218   -0.7419934966426152
-7.9381365851817   -1.1322353831681218   -0.7419934966426152
-6.273098765350251   -1.5682746913375627   -1.5682746913375627
-6.273098765350251   -1.5682746913375627   -1.5682746913375627
-6.273098765350251   -1.5682746913375627   -1.5682746913375627
-6.273098765350251   -1.5682746913375627   -1.5682746913375627
-2.6154164040302534   -0.17267223326550835   -0.056241600575835396
-2.6154164040302534   -0.17267223326550835   -0.056241600575835396
-2.6154164040302534   -0.17267223326550835   -0.056241600575835396
-2.6154164040302534   -0.17267223326550835   -0.056241600575835396
-2.7474359323086013   -0.6868589830771503   -0.6868589830771503
-2.7474359323086013   -0.6868589830771503   -0.6868589830771503
-2.7474359323086013   -0.6868589830771503   -0.6868589830771503
-2.7474359323086013   -0.6868589830771503   -0.6868589830771503
-5.712260179318659   -0.6710394010084806   -0.2136398814373427
-5.712260179318659   -0.6710394010084806   -0.2136398814373427
-5.712260179318659   -0.6710394010084806   -0.2136398814373427
-5.712260179318659   -0.6710394010084806   -0.2136398814373427
-4.212103347759146   -0.7974668276167354   0.03315315855338884
-4.212103347759146   -0.7974668276167354   0.03315315855338884
-4.212103347759146   -0.7974668276167354   0.03315315855338884
-4.212103347759146   -0.7974668276167354   0.03315315855338884
-6.150360358699433   -1.5375900896748582   -1.5375900896748582
-6.150360358699433   -1.5375900896748582   -1.5375900896748582
-6.150360358699433   -1.5375900896748582   -1.5375900896748582
-6.150360358699433   -1.5375900896748582   -1.5375900896748582
-2.4688644229110897   0.02016303560596089   -0.0010234547727043797
-2.4688644229110897   0.02016303560596089   -0.0010234547727043797
-2.4688644229110897   0.02016303560596089   -0.0010234547727043797
-2.4688644229110897   0.02016303560596089   -0.0010234547727043797
-2.6875261202698364   -0.6718815300674591   -0.6718815300674591
-2.6875261202698364   -0.6718815300674591   -0.6718815300674591
-2.6875261202698364   -0.6718815300674591   -0.6718815300674591
-2.6875261202698364   -0.6718815300674591   -0.6718815300674591
-5.699281660340449   -0.5478066669098921   -0.18748845673060585
-5.699281660340449   -0.5478066669098921   -0.18748845673060585
-5.699281660340449   -0.5478066669098921   -0.18748845673060585
-5.699281660340449   -0.5478066669098921   -0.18748845673060585
-4.154856686368211   -0.6716525871210576   -0.21738626703916908
-4.154856686368211   -0.6716525871210576   -0.21738626703916908
-4.154856686368211   -0.6716525871210576   -0.21738626703916908
-4.154856686368211   -0.6716525871210576   -0.21738626703916908
-6.1691362617914995   -1.5422840654478749   -1.5422840654478749
-6.1691362617914995   -1.5422840654478749   -1.5422840654478749
-6.1691362617914995   -1.5422840654478749   -1.5422840654478749
-6.1691362617914995   -1.5422840654478749   -1.5422840654478749
-2.3721804582391073   0.16808692905020273   0.06487832096852578
-2.3721804582391073   0.16808692905020273   0.06487832096852578
-2.3721804582391073   0.16808692905020273   0.06487832096852578
-2.3721804582391073   0.16808692905020273   0.06487832096852578
-2.633209903653907   -0.6583024759134768   -0.6583024759134768
-2.633209903653907   -0.6583024759134768   -0.6583024759134768
-2.633209903653907   -0.6583024759134768   -0.6583024759134768
-2.633209903653907   -0.6583024759134768   -0.6583024759134768
-5.6589386394192855   -0.4231034209996536   -0.11781035918181398
-5.6589386394192855   -0.4231034209996536   -0.11781035918181398
-5.6589386394192855   -0.4231034209996536   -0.11781035918181398
-5.6589386394192855   -0.4231034209996536   -0.11781035918181398
-4.176918053255254   -0.5947727333959791   -0.4845386606281384
-4.176918053255254   -0.5947727333959791   -0.4845386606281384
-4.176918053255254   -0.5947727333959791   -0.4845386606281384
-4.176918053255254   -0.5947727333959791   -0.4845386606281384
-2.855148485846655   -0.7137871214616638   -0.7137871214616638
-2.855148485846655   -0.7137871214616638   -0.7137871214616638
-2.855148485846655   -0.7137871214616638   -0.7137871214616638
-2.855148485846655   -0.7137871214616638   -0.7137871214616638
0.3430362101089299   0.02315382693423803   0.002748576476994424
0.3430362101089299   0.02315382693423803   0.002748576476994424
0.3430362101089299   0.02315382693423803   0.002748576476994424
0.3430362101089299   0.02315382693423803   0.002748576476994424
0.4434847450707229   0.11087118626768072   0.11087118626768072
0.4434847450707229   0.11087118626768072   0.11087118626768072
0.4434847450707229   0.11087118626768072   0.11087118626768072
0.4434847450707229   0.11087118626768072   0.11087118626768072
-2.582885725184411   -0.44647159364983824   -0.10449533688353202
-2.582885725184411   -0.44647159364983824   -0.10449533688353202
-2.582885725184411   -0.44647159364983824   -0.10449533688353202
-2.582885725184411   -0.44647159364983824   -0.10449533688353202
-1.103579565497887   -0.28004246622488593   0.18838805548127566
-1.103579565497887   -0.28004246622488593   0.18838805548127566
-1.103579565497887   -0.28004246622488593   0.18838805548127566
-1.103579565497887   -0.28004246622488593   0.18838805548127566
-2.7474359323086013   -0.6868589830771503   -0.6868589830771503
-2.7474359323086013   -0.6868589830771503   -0.6868589830771503
-2.7474359323086013   -0.6868589830771503   -0.6868589830771503
-2.7474359323086013   -0.6868589830771503   -0.6868589830771503
0.4511808910920756   0.19440451459215807   0.06581858804996328
0.4511808910920756   0.19440451459215807   0.06581858804996328
0.4511808910920756   0.19440451459215807   0.06581858804996328
0.4511808910920756   0.19440451459215807   0.06581858804996328
0.497036171877071   0.12425904296926775   0.12425904296926775
0.497036171877071   0.12425904296926775   0.12425904296926775
0.497036171877071   0.12425904296926775   0.12425904296926775
0.497036171877071   0.12425904296926775   0.12425904296926775
-2.492999479351832   -0.30103898530241024   -0.07009087024252783
-2.492999479351832   -0.30103898530241024   -0.07009087024252783
-2.492999479351832   -0.30103898530241024   -0.07009087024252783
-2.492999479351832   -0.30103898530241024   -0.07009087024252783
-1.0601192157329793   -0.17328993865674952   -0.06390667903721498
-1.0601192157329793   -0.17328993865674952   -0.06390667903721498
-1.0601192157329793   -0.17328993865674952   -0.06390667903721498
-1.0601192157329793   -0.17328993865674952   -0.06390667903721498
-2.6875261202698364   -0.6718815300674591   -0.6718815300674591
-2.6875261202698364   -0.6718815300674591   -0.6718815300674591
-2.6875261202698364   -0.6718815300674591   -0.6718815300674591
-2.6875261202698364   -0.6718815300674591   -0.6718815300674591
0.5378625141282144   0.3414012890674619   0.11124850812678663
0.5378625141282144   0.3414012890674619   0.11124850812678663
0.5378625141282144   0.3414012890674619   0.11124850812678663
0.5378625141282144   0.3414012890674619   0.11124850812678663
0.5695648348125347   0.14239120870313368   0.14239120870313368
0.5695648348125347   0.14239120870313368   0.14239120870313368
0.5695648348125347   0.14239120870313368   0.14239120870313368
0.5695648348125347   0.14239120870313368   0.14239120870313368
-2.3951519492830498   -0.12748484743532906   0.0011696674626300585
-2.3951519492830498   -0.12748484743532906   0.0011696674626300585
-2.3951519492830498   -0.12748484743532906   0.0011696674626300585
-2.3951519492830498   -0.12748484743532906   0.0011696674626300585
-1.0299486011082837   -0.07037917273436686   -0.3139509405281336
-1.0299486011082837   -0.07037917273436686   -0.3139509405281336
-1.0299486011082837   -0.07037917273436686   -0.3139509405281336
-1.0299486011082837   -0.07037917273436686   -0.3139509405281336
0.3753952549185377   0.09384881372963443   0.09384881372963443
0.3753952549185377   0.09384881372963443   0.09384881372963443
0.3753952549185377   0.09384881372963443   0.09384881372963443
0.3753952549185377   0.09384881372963443   0.09384881372963443
3.5803711535430134   0.3283225019878868   0.10955383965497667
3.5803711535430134   0.3283225019878868   0.10955383965497667
3.5803711535430134   0.3283225019878868   0.10955383965497667
3.5803711535430134   0.3283225019878868   0.10955383965497667
3.885928516624592   0.971482129156148   0.971482129156148
3.885928516624592   0.971482129156148   0.971482129156148
3.885928516624592   0.971482129156148   0.971482129156148
3.885928516624592   0.971482129156148   0.971482129156148
0.33801704718569137   -0.2522584128294187   -0.05333770406038463
0.33801704718569137   -0.2522584128294187   -0.05333770406038463
0.33801704718569137   -0.2522584128294187   -0.05333770406038463
0.33801704718569137   -0.2522584128294187   -0.05333770406038463
2.0427280407737487   0.25423184331396603   0.37142987458273663
2.0427280407737487   0.25423184331396603   0.37142987458273663
2.0427280407737487   0.25423184331396603   0.37142987458273663
2.0427280407737487   0.25423184331396603   0.37142987458273663
0.44348474507072444   0.11087118626768111   0.11087118626768111
0.44348474507072444   0.11087118626768111   0.11087118626768111
0.44348474507072444   0.11087118626768111   0.11087118626768111
0.44348474507072444   0.11087118626768111   0.11087118626768111
3.6210606120868007   0.4489523234062901   0.16967241221705
3.6210606120868007   0.4489523234062901   0.16967241221705
3.6210606120868007   0.4489523234062901   0.16967241221705
3.6210606120868007   0.4489523234062901   0.16967241221705
3.867685609272226   0.9669214023180565   0.9669214023180565
3.867685609272226   0.9669214023180565   0.9669214023180565
3.867685609272226   0.9669214023180565   0.9669214023180565
3.867685609272226   0.9669214023180565   0.9669214023180565
0.4252567695344025   -0.11010982216233978   -0.00026910361247091397
0.4252567695344025   -0.11010982216233978   -0.00026910361247091397
0.4252567695344025   -0.11010982216233978   -0.00026910361247091397
0.4252567695344025   -0.11010982216233978   -0.00026910361247091397
2.0260231713471084   0.333050332836878   0.09693222662702616
2.0260231713471084   0.333050332836878   0.09693222662702616
2.0260231713471084   0.333050332836878   0.09693222662702616
2.0260231713471084   0.333050332836878   0.09693222662702616
0.4970361718770714   0.12425904296926785   0.12425904296926785
0.4970361718770714   0.12425904296926785   0.12425904296926785
0.4970361718770714   0.12425904296926785   0.12425904296926785
0.4970361718770714   0.12425904296926785   0.12425904296926785
3.6380288119555844   0.5746751422124767   0.21088367584042944
3.6380288119555844   0.5746751422124767   0.21088367584042944
3.6380288119555844   0.5746751422124767   0.21088367584042944
3.6380288119555844   0.5746751422124767   0.21088367584042944
3.9410536164094907   0.9852634041023727   0.9852634041023727
3.9410536164094907   0.9852634041023727   0.9852634041023727
3.9410536164094907   0.9852634041023727   0.9852634041023727
3.9410536164094907   0.9852634041023727   0.9852634041023727
0.5400324739310367   0.07809864227076124   0.05902197072801173
0.5400324739310367   0.07809864227076124   0.05902197072801173
0.5400324739310367   0.07809864227076124   0.05902197072801173
0.5400324739310367   0.07809864227076124   0.05902197072801173
2.0559041399186246   0.451416360939634   -0.15759768499126986
2.0559041399186246   0.451416360939634   -0.15759768499126986
2.0559041399186246   0.451416360939634   -0.15759768499126986
2.0559041399186246   0.451416360939634   -0.15759768499126986
3.8808843169049343   0.9702210792262336   0.9702210792262336
3.8808843169049343   0.9702210792262336   0.9702210792262336
3.8808843169049343   0.9702210792262336   0.9702210792262336
3.8808843169049343   0.9702210792262336   0.9702210792262336
8.040753837899285   0.6124049658747077   0.20811295607218971
8.040753837899285   0.6124049658747077   0.20811295607218971
8.040753837899285   0.6124049658747077   0.20811295607218971
8.040753837899285   0.6124049658747077   0.20811295607218971
8.216972449094444   2.054243112273611   2.054243112273611
8.216972449094444   2.054243112273611   2.054243112273611
8.216972449094444   2.054243112273611   2.054243112273611
8.216972449094444   2.054243112273611   2.054243112273611
3.4537888225206754   -0.19692257105018052   -0.02081164115710521
3.4537888225206754   -0.19692257105018052   -0.02081164115710521
3.4537888225206754   -0.19692257105018052   -0.02081164115710521
3.4537888225206754   -0.19692257105018052   -0.02081164115710521
5.735914429535729   0.8112785630418601   0.6481158611381846
5.735914429535729   0.8112785630418601   0.6481158611381846
5.735914429535729   0.8112785630418601   0.6481158611381846
5.735914429535729   0.8112785630418601   0.6481158611381846
3.8859285166245883   0.9714821291561471   0.9714821291561471
3.8859285166245883   0.9714821291561471   0.9714821291561471
3.8859285166245883   0.9714821291561471   0.9714821291561471
3.8859285166245883   0.9714821291561471   0.9714821291561471
7.614027996667772   0.715033653744553   0.37873030866945007
7.614027996667772   0.715033653744553   0.37873030866945007
7.614027996667772   0.715033653744553   0.37873030866945007
7.614027996667772   0.715033653744553   0.37873030866945007
7.969603857834613   1.9924009644586533   1.9924009644586533
7.969603857834613   1.9924009644586533   1.9924009644586533
7.969603857834613   1.9924009644586533   1.9924009644586533
7.969603857834613   1.9924009644586533   1.9924009644586533
3.4643578823539145   -0.10944769295388113   0.026651862998437748
3.4643578823539145   -0.10944769295388113   0.026651862998437748
3.4643578823539145   -0.10944769295388113   0.026651862998437748
3.4643578823539145   -0.10944769295388113   0.026651862998437748
5.564005151284841   0.8342068216602387   0.3108710922307752
5.564005151284841   0.8342068216602387   0.3108710922307752
5.564005151284841   0.8342068216602387   0.3108710922307752
5.564005151284841   0.8342068216602387   0.3108710922307752
3.867685609272226   0.9669214023180565   0.9669214023180565
3.867685609272226   0.9669214023180565   0.9669214023180565
3.867685609272226   0.9669214023180565   0.9669214023180565
3.867685609272226   0.9669214023180565   0.9669214023180565
7.367166921824247   0.7169226600946833   0.25569458877091233
7.367166921824247   0.7169226600946833   0.25569458877091233
7.367166921824247   0.7169226600946833   0.25569458877091233
7.367166921824247   0.7169226600946833   0.25569458877091233
7.6024599423226835   1.9006149855806709   1.9006149855806709
7.6024599423226835   1.9006149855806709   1.9006149855806709
7.6024599423226835   1.9006149855806709   1.9006149855806709
7.6024599423226835   1.9006149855806709   1.9006149855806709
3.590937154683521   0.11117848635947936   0.10876601321541643
3.590937154683521   0.11117848635947936   0.10876601321541643
3.590937154683521   0.11117848635947936   0.10876601321541643
3.590937154683521   0.11117848635947936   0.10876601321541643
5.326117163378982   0.9039189765453621   -0.08116065073902717
5.326117163378982   0.9039189765453621   -0.08116065073902717
5.326117163378982   0.9039189765453621   -0.08116065073902717
5.326117163378982   0.9039189765453621   -0.08116065073902717
-7.80310389828702   -0.5585196331924036   0.08604213418518636
-7.80310389828702   -0.5585196331924036   0.08604213418518636
-7.80310389828702   -0.5585196331924036   0.08604213418518636
-7.80310389828702   -0.5585196331924036   0.08604213418518636
-4.965020449145431   -0.11283325068109551   -0.031478197145520664
-4.965020449145431   -0.11283325068109551   -0.031478197145520664
-4.965020449145431   -0.11283325068109551   -0.031478197145520664
-4.965020449145431   -0.11283325068109551   -0.031478197145520664
-5.000115770474609   0.20146976515302994   0.1032908335637665
-5.000115770474609   0.20146976515302994   0.1032908335637665
-5.000115770474609   0.20146976515302994   0.1032908335637665
-5.000115770474609   0.20146976515302994   0.1032908335637665
-7.92001500325076   -0.5393389718356607   -0.09298597224520022
-7.92001500325076   -0.5393389718356607   -0.09298597224520022
-7.92001500325076   -0.5393389718356607   -0.09298597224520022
-7.92001500325076   -0.5393389718356607   -0.09298597224520022
-6.169168409435376   -0.21013989784949594   -0.023530066684986473
-6.169168409435376   -0.21013989784949594   -0.023530066684986473
-6.169168409435376   -0.21013989784949594   -0.023530066684986473
-6.169168409435376   -0.21013989784949594   -0.023530066684986473
-7.863261264342728   -0.3846072918679071   0.036051042327200855
-7.863261264342728   -0.3846072918679071   0.036051042327200855
-7.863261264342728   -0.3846072918679071   0.036051042327200855
-7.863261264342728   -0.3846072918679071   0.036051042327200855
-5.065266355899551   0.03834123866838213   -0.059333567076210736
-5.065266355899551   0.03834123866838213   -0.059333567076210736
-5.065266355899551   0.03834123866838213   -0.059333567076210736
-5.065266355899551   0.03834123866838213   -0.059333567076210736
-5.007012266027214   0.2869722127604257   0.11792119806610235
-5.007012266027214   0.2869722127604257   0.11792119806610235
-5.007012266027214   0.2869722127604257   0.11792119806610235
-5.007012266027214   0.2869722127604257   0.11792119806610235
-7.96934019215312   -0.4754106940136207   -0.12284558348027436
-7.96934019215312   -0.4754106940136207   -0.12284558348027436
-7.96934019215312   -0.4754106940136207   -0.12284558348027436
-7.96934019215312   -0.4754106940136207   -0.12284558348027436
-6.343583486482602   -0.14105842641608168   -0.05971111153815656
-6.343583486482602   -0.14105842641608168   -0.05971111153815656
-6.343583486482602   -0.14105842641608168   -0.05971111153815656
-6.343583486482602   -0.14105842641608168   -0.05971111153815656
-7.827182481547966   -0.23178301237548693   0.3443152879072904
-7.827182481547966   -0.23178301237548693   0.3443152879072904
-7.827182481547966   -0.23178301237548693   0.3443152879072904
-7.827182481547966   -0.23178301237548693   0.3443152879072904
-5.089728501785395   0.10278600596926113   -0.11147377393359087
-5.089728501785395   0.10278600596926113   -0.11147377393359087
-5.089728501785395   0.10278600596926113   -0.11147377393359087
-5.089728501785395   0.10278600596926113   -0.11147377393359087
-4.916990887968905   0.499555079374123   0.21511089118301668
-4.916990887968905   0.499555079374123   0.21511089118301668
-4.916990887968905   0.499555079374123   0.21511089118301668
-4.916990887968905   0.499555079374123   0.21511089118301668
-7.751062898443454   -0.3844130277466222   -0.2013911646802129
-7.751062898443454   -0.3844130277466222   -0.2013911646802129
-7.751062898443454   -0.3844130277466222   -0.2013911646802129
-7.751062898443454   -0.3844130277466222   -0.2013911646802129
-6.1024454581247465   0.056042156578640645   0.13493126545690054
-6.1024454581247465   0.056042156578640645   0.13493126545690054
-6.1024454581247465   0.056042156578640645   0.13493126545690054
-6.1024454581247465   0.056042156578640645   0.13493126545690054
-5.088875898899067   -0.6740279595358856   -0.08956073705890823
-5.088875898899067   -0.6740279595358856   -0.08956073705890823
-5.088875898899067   -0.6740279595358856   -0.08956073705890823
-5.088875898899067   -0.6740279595358856   -0.08956073705890823
-2.3421554477411073   -0.05094306016823219   0.025128334631487573
-2.3421554477411073   -0.05094306016823219   0.025128334631487573
-2.3421554477411073   -0.05094306016823219   0.025128334631487573
-2.3421554477411073   -0.05094306016823219   0.025128334631487573
-2.3774544306037217   0.04565288872342543   0.035015818507257684
-2.3774544306037217   0.04565288872342543   0.035015818507257684
-2.3774544306037217   0.04565288872342543   0.035015818507257684
-2.3774544306037217   0.04565288872342543   0.035015818507257684
-5.190312760439829   -0.4935452848676024   -0.15267906624170155
-5.190312760439829   -0.4935452848676024   -0.15267906624170155
-5.190312760439829   -0.4935452848676024   -0.15267906624170155
-5.190312760439829   -0.4935452848676024   -0.15267906624170155
-3.749511957732795   -0.30389511973582684   -0.08549067034949476
-3.749511957732795   -0.30389511973582684   -0.08549067034949476
-3.749511957732795   -0.30389511973582684   -0.08549067034949476
-3.749511957732795   -0.30389511973582684   -0.08549067034949476
-5.18561159472491   -0.5396045102576751   -0.08311401227705692
-5.18561159472491   -0.5396045102576751   -0.08311401227705692
-5.18561159472491   -0.5396045102576751   -0.08311401227705692
-5.18561159472491   -0.5396045102576751   -0.08311401227705692
-2.372885995804435   0.10098171462770322   0.002529166599433058
-2.372885995804435   0.10098171462770322   0.002529166599433058
-2.372885995804435   0.10098171462770322   0.002529166599433058
-2.372885995804435   0.10098171462770322   0.002529166599433058
-2.3693465127095297   0.16525787290801663   0.04789909472801804
-2.3693465127095297   0.16525787290801663   0.04789909472801804
-2.3693465127095297   0.16525787290801663   0.04789909472801804
-2.3693465127095297   0.16525787290801663   0.04789909472801804
-5.193434477840365   -0.3621518408676455   -0.16506580737158202
-5.193434477840365   -0.3621518408676455   -0.16506580737158202
-5.193434477840365   -0.3621518408676455   -0.16506580737158202
-5.193434477840365   -0.3621518408676455   -0.16506580737158202
-3.7431006104348414   -0.1693227700538431   -0.040608650027939175
-3.7431006104348414   -0.1693227700538431   -0.040608650027939175
-3.7431006104348414   -0.1693227700538431   -0.040608650027939175
-3.7431006104348414   -0.1693227700538431   -0.040608650027939175
-5.173282884267719   -0.40866763035368636   -0.017792050022308076
-5.173282884267719   -0.40866763035368636   -0.017792050022308076
-5.173282884267719   -0.40866763035368636   -0.017792050022308076
-5.173282884267719   -0.40866763035368636   -0.017792050022308076
-2.3722972497260146   0.22897451895022825   -0.030571236396578827
-2.3722972497260146   0.22897451895022825   -0.030571236396578827
-2.3722972497260146   0.22897451895022825   -0.030571236396578827
-2.3722972497260146   0.22897451895022825   -0.030571236396578827
-2.33047817124095   0.2854906489416662   0.09669952234644902
-2.33047817124095   0.2854906489416662   0.09669952234644902
-2.33047817124095   0.2854906489416662   0.09669952234644902
-2.33047817124095   0.2854906489416662   0.09669952234644902
-5.13877646124886   -0.21035110735210272   -0.18391078849055814
-5.13877646124886   -0.21035110735210272   -0.18391078849055814
-5.13877646124886   -0.21035110735210272   -0.18391078849055814
-5.13877646124886   -0.21035110735210272   -0.18391078849055814
-3.7283911053670105   -0.041992996847734054   0.018760747427953556
-3.7283911053670105   -0.041992996847734054   0.018760747427953556
-3.7283911053670105   -0.041992996847734054   0.018760747427953556
-3.7283911053670105   -0.041992996847734054   0.018760747427953556
-2.4701658372318467   -0.5610080270228386   -0.10485864596762008
-2.4701658372318467   -0.5610080270228386   -0.10485864596762008
-2.4701658372318467   -0.5610080270228386   -0.10485864596762008
-2.4701658372318467   -0.5610080270228386   -0.10485864596762008
0.26062188282078264   0.05928950508221809   0.09623596432829482
0.26062188282078264   0.05928950508221809   0.09623596432829482
0.26062188282078264   0.05928950508221809   0.09623596432829482
0.26062188282078264   0.05928950508221809   0.09623596432829482
0.24811198396467463   0.14213917575931545   0.007560801013158858
0.24811198396467463   0.14213917575931545   0.007560801013158858
0.24811198396467463   0.14213917575931545   0.007560801013158858
0.24811198396467463   0.14213917575931545   0.007560801013158858
-2.481367280975727   -0.37197510387295923   -0.06692044075638169
-2.481367280975727   -0.37197510387295923   -0.06692044075638169
-2.481367280975727   -0.37197510387295923   -0.06692044075638169
-2.481367280975727   -0.37197510387295923   -0.06692044075638169
-1.121426393162776   -0.1856895517768482   -0.03523923635989208
-1.121426393162776   -0.1856895517768482   -0.03523923635989208
-1.121426393162776   -0.1856895517768482   -0.03523923635989208
-1.121426393162776   -0.1856895517768482   -0.03523923635989208
-2.4985086796520455   -0.4280146873073716   -0.09658785070356352
-2.4985086796520455   -0.4280146873073716   -0.09658785070356352
-2.4985086796520455   -0.4280146873073716   -0.09658785070356352
-2.4985086796520455   -0.4280146873073716   -0.09658785070356352
0.2748447236020543   0.20777010015478992   0.07559357480458294
0.2748447236020543   0.20777010015478992   0.07559357480458294
0.2748447236020543   0.20777010015478992   0.07559357480458294
0.2748447236020543   0.20777010015478992   0.07559357480458294
0.2666831744689168   0.2738784873662745   0.044813839280154796
0.2666831744689168   0.2738784873662745   0.044813839280154796
0.2666831744689168   0.2738784873662745   0.044813839280154796
0.2666831744689168   0.2738784873662745   0.044813839280154796
-2.474170636149559   -0.22753295430748388   -0.08343069525662755
-2.474170636149559   -0.22753295430748388   -0.08343069525662755
-2.474170636149559   -0.22753295430748388   -0.08343069525662755
-2.474170636149559   -0.22753295430748388   -0.08343069525662755
-1.1046302288777539   -0.04563203410220973   0.013395913761949207
-1.1046302288777539   -0.04563203410220973   0.013395913761949207
-1.1046302288777539   -0.04563203410220973   0.013395913761949207
-1.1046302288777539   -0.04563203410220973   0.013395913761949207
-2.4807320870900504   -0.2944345947123863   -0.049336309554182244
-2.4807320870900504   -0.2944345947123863   -0.049336309554182244
-2.4807320870900504   -0.2944345947123863   -0.049336309554182244
-2.4807320870900504   -0.2944345947123863   -0.049336309554182244
0.283557009527571   0.3510925118893394   0.05196899005035891
0.283557009527571   0.3510925118893394   0.05196899005035891
0.283557009527571   0.3510925118893394   0.05196899005035891
0.283557009527571   0.3510925118893394   0.05196899005035891
0.2720717139045519   0.4205083018368503   0.07391175063593258
0.2720717139045519   0.4205083018368503   0.07391175063593258
0.2720717139045519   0.4205083018368503   0.07391175063593258
0.2720717139045519   0.4205083018368503   0.07391175063593258
-2.4425327284190574   -0.07305781556431418   -0.1050247990380974
-2.4425327284190574   -0.07305781556431418   -0.1050247990380974
-2.4425327284190574   -0.07305781556431418   -0.1050247990380974
-2.4425327284190574   -0.07305781556431418   -0.1050247990380974
-1.0777042166509634   0.10083883762719581   0.06663758196588175
-1.0777042166509634   0.10083883762719581   0.06663758196588175
-1.0777042166509634   0.10083883762719581   0.06663758196588175
-1.0777042166509634   0.10083883762719581   0.06663758196588175
0.12164311893649166   -0.41100628572216785   -0.1283620642887744
0.12164311893649166   -0.41100628572216785   -0.1283620642887744
0.12164311893649166   -0.41100628572216785   -0.1283620642887744
0.12164311893649166   -0.41100628572216785   -0.1283620642887744
2.9504754602847005   0.20412722003942912   0.1763486584083564
2.9504754602847005   0.20412722003942912   0.1763486584083564
2.9504754602847005   0.20412722003942912   0.1763486584083564
2.9504754602847005   0.20412722003942912   0.1763486584083564
2.9462756717091025   0.2744530223598599   -0.028039152637410192
2.9462756717091025   0.2744530223598599   -0.028039152637410192
2.9462756717091025   0.2744530223598599   -0.028039152637410192
2.9462756717091025   0.2744530223598599   -0.028039152637410192
0.17212251822771665   -0.2474379519212958   0.017190600008980372
0.17212251822771665   -0.2474379519212958   0.017190600008980372
0.17212251822771665   -0.2474379519212958   0.017190600008980372
0.17212251822771665   -0.2474379519212958   0.017190600008980372
1.528607836972322   -0.03487858123398885   0.0034954528105440447
1.528607836972322   -0.03487858123398885   0.0034954528105440447
1.528607836972322   -0.03487858123398885   0.0034954528105440447
1.528607836972322   -0.03487858123398885   0.0034954528105440447
0.1389431055275984   -0.30052878619295115   -0.09561562921995401
0.1389431055275984   -0.30052878619295115   -0.09561562921995401
0.1389431055275984   -0.30052878619295115   -0.09561562921995401
0.1389431055275984   -0.30052878619295115   -0.09561562921995401
2.9966453732141143   0.34473414543640335   0.1535282318110788
2.9966453732141143   0.34473414543640335   0.1535282318110788
2.9966453732141143   0.34473414543640335   0.1535282318110788
2.9966453732141143   0.34473414543640335   0.1535282318110788
2.9686851584228187   0.40469900801920494   0.030346658406836577
2.9686851584228187   0.40469900801920494   0.030346658406836577
2.9686851584228187   0.40469900801920494   0.030346658406836577
2.9686851584228187   0.40469900801920494   0.030346658406836577
0.17744241764601076   -0.11839212587543223   -0.009119331592668659
0.17744241764601076   -0.11839212587543223   -0.009119331592668659
0.17744241764601076   -0.11839212587543223   -0.009119331592668659
0.17744241764601076   -0.11839212587543223   -0.009119331592668659
1.5481991393409131   0.08965080401026804   0.06326211018191397
1.5481991393409131   0.08965080401026804   0.06326211018191397
1.5481991393409131   0.08965080401026804   0.06326211018191397
1.5481991393409131   0.08965080401026804   0.06326211018191397
0.15335200797206922   -0.17835804576656153   -0.06960546007124632
0.15335200797206922   -0.17835804576656153   -0.06960546007124632
0.15335200797206922   -0.17835804576656153   -0.06960546007124632
0.15335200797206922   -0.17835804576656153   -0.06960546007124632
3.005207294508388   0.47709665432195375   0.140559692531884
3.005207294508388   0.47709665432195375   0.140559692531884
3.005207294508388   0.47709665432195375   0.140559692531884
3.005207294508388   0.47709665432195375   0.140559692531884
2.920358521663528   0.5550441411870451   0.06342341757693187
2.920358521663528   0.5550441411870451   0.06342341757693187
2.920358521663528   0.5550441411870451   0.06342341757693187
2.920358521663528   0.5550441411870451   0.06342341757693187
0.17517993202498527   0.04157172575247983   -0.031610582677530134
0.17517993202498527   0.04157172575247983   -0.031610582677530134
0.17517993202498527   0.04157172575247983   -0.031610582677530134
0.17517993202498527   0.04157172575247983   -0.031610582677530134
1.5702992891937932   0.23204544749803885   0.11853817639095425
1.5702992891937932   0.23204544749803885   0.11853817639095425
1.5702992891937932   0.23204544749803885   0.11853817639095425
1.5702992891937932   0.23204544749803885   0.11853817639095425
2.718879959447162   -0.5409106051484467   -0.23659102059145964
2.718879959447162   -0.5409106051484467   -0.23659102059145964
2.718879959447162   -0.5409106051484467   -0.23659102059145964
2.718879959447162   -0.5409106051484467   -0.23659102059145964
5.594494857067767   0.36947892205306243   0.1710024498515055
5.594494857067767   0.36947892205306243   0.1710024498515055
5.594494857067767   0.36947892205306243   0.1710024498515055
5.594494857067767   0.36947892205306243   0.1710024498515055
5.656885407712835   0.17669867665798422   -0.3558019878084474
5.656885407712835   0.17669867665798422   -0.3558019878084474
5.656885407712835   0.17669867665798422   -0.3558019878084474
5.656885407712835   0.17669867665798422   -0.3558019878084474
2.894950169489196   -0.11219316468208496   0.10197952330495277
2.894950169489196   -0.11219316468208496   0.10197952330495277
2.894950169489196   -0.11219316468208496   0.10197952330495277
2.894950169489196   -0.11219316468208496   0.10197952330495277
4.006852411598657   -0.06909992792360109   -0.09956682774673867
4.006852411598657   -0.06909992792360109   -0.09956682774673867
4.006852411598657   -0.06909992792360109   -0.09956682774673867
4.006852411598657   -0.06909992792360109   -0.09956682774673867
2.794478724681667   -0.3559470295579218   -0.15662383585681766
2.794478724681667   -0.3559470295579218   -0.15662383585681766
2.794478724681667   -0.3559470295579218   -0.15662383585681766
2.794478724681667   -0.3559470295579218   -0.15662383585681766
5.808544969339991   0.4716406583534557   0.10755383863186166
5.808544969339991   0.4716406583534557   0.10755383863186166
5.808544969339991   0.4716406583534557   0.10755383863186166
5.808544969339991   0.4716406583534557   0.10755383863186166
5.717894423294554   0.32002980758723043   -0.07949717523666042
5.717894423294554   0.32002980758723043   -0.07949717523666042
5.717894423294554   0.32002980758723043   -0.07949717523666042
5.717894423294554   0.32002980758723043   -0.07949717523666042
2.8825206615282766   -0.04794439869445544   0.05216758064773805
2.8825206615282766   -0.04794439869445544   0.05216758064773805
2.8825206615282766   -0.04794439869445544   0.05216758064773805
2.8825206615282766   -0.04794439869445544   0.05216758064773805
4.215144204520935   0.10520974852171505   0.0690920764021225
4.215144204520935   0.10520974852171505   0.0690920764021225
4.215144204520935   0.10520974852171505   0.0690920764021225
4.215144204520935   0.10520974852171505   0.0690920764021225
2.8020548176480373   -0.2723832383202667   -0.12572279912762804
2.8020548176480373   -0.2723832383202667   -0.12572279912762804
2.8020548176480373   -0.2723832383202667   -0.12572279912762804
2.8020548176480373   -0.2723832383202667   -0.12572279912762804
5.791487766324971   0.5375961463632214   0.07090320113942825
5.791487766324971   0.5375961463632214   0.07090320113942825
5.791487766324971   0.5375961463632214   0.07090320113942825
5.791487766324971   0.5375961463632214   0.07090320113942825
5.706844532796058   0.4881832032585115   -0.12211778040196133
5.706844532796058   0.4881832032585115   -0.12211778040196133
5.706844532796058   0.4881832032585115   -0.12211778040196133
5.706844532796058   0.4881832032585115   -0.12211778040196133
2.822496640282676   0.10046660086443271   0.028691550995237403
2.822496640282676   0.10046660086443271   0.028691550995237403
2.822496640282676   0.10046660086443271   0.028691550995237403
2.822496640282676   0.10046660086443271   0.028691550995237403
4.106332327713067   0.18385627609461763   0.0506885050254553
4.106332327713067   0.18385627609461763   0.0506885050254553
4.106332327713067   0.18385627609461763   0.0506885050254553
4.106332327713067   0.18385627609461763   0.0506885050254553
-6.144133055249762   -0.2795296772171155   0.3141522762787099
-6.144133055249762   -0.2795296772171155   0.3141522762787099
-6.144133055249762   -0.2795296772171155   0.3141522762787099
-6.144133055249762   -0.2795296772171155   0.3141522762787099
-4.077107925831028   -0.15351515252808945   -0.08174472120289764
-4.077107925831028   -0.15351515252808945   -0.08174472120289764
-4.077107925831028   -0.15351515252808945   -0.08174472120289764
-4.077107925831028   -0.15351515252808945   -0.08174472120289764
-3.931274640156161   0.3297643939479269   0.26379049357813944
-3.931274640156161   0.3297643939479269   0.26379049357813944
-3.931274640156161   0.3297643939479269   0.26379049357813944
-3.931274640156161   0.3297643939479269   0.26379049357813944
-6.172846383645484   -0.44020897896221467   -0.12821956281037442
-6.172846383645484   -0.44020897896221467   -0.12821956281037442
-6.172846383645484   -0.44020897896221467   -0.12821956281037442
-6.172846383645484   -0.44020897896221467   -0.12821956281037442
-4.874788101159349   -0.0754023201619618   -0.008028556220497973
-4.874788101159349   -0.0754023201619618   -0.008028556220497973
-4.874788101159349   -0.0754023201619618   -0.008028556220497973
-4.874788101159349   -0.0754023201619618   -0.008028556220497973
-6.002021356707572   -0.0666697745788245   0.35236636749579286
-6.002021356707572   -0.0666697745788245   0.35236636749579286
-6.002021356707572   -0.0666697745788245   0.35236636749579286
-6.002021356707572   -0.0666697745788245   0.35236636749579286
-4.075173317554395   -0.016848460895785178   -0.10909003856931546
-4.075173317554395   -0.016848460895785178   -0.10909003856931546
-4.075173317554395   -0.016848460895785178   -0.10909003856931546
-4.075173317554395   -0.016848460895785178   -0.10909003856931546
-3.9156542371888166   0.4088330577726522   0.2446872204867872
-3.9156542371888166   0.4088330577726522   0.2446872204867872
-3.9156542371888166   0.4088330577726522   0.2446872204867872
-3.9156542371888166   0.4088330577726522   0.2446872204867872
-6.0781938174902574   -0.36858240298219147   -0.17570662315589178
-6.0781938174902574   -0.36858240298219147   -0.17570662315589178
-6.0781938174902574   -0.36858240298219147   -0.17570662315589178
-6.0781938174902574   -0.36858240298219147   -0.17570662315589178
-4.885951177304941   0.017508866106880072   0.05678849497557187
-4.885951177304941   0.017508866106880072   0.05678849497557187
-4.885951177304941   0.017508866106880072   0.05678849497557187
-4.885951177304941   0.017508866106880072   0.05678849497557187
-5.919059324272141   0.00790940354094194   0.24347403641155957
-5.919059324272141   0.00790940354094194   0.24347403641155957
-5.919059324272141   0.00790940354094194   0.24347403641155957
-5.919059324272141   0.00790940354094194   0.24347403641155957
-4.0659090004607235   0.04122098119573858   -0.13897451929580634
-4.0659090004607235   0.04122098119573858   -0.13897451929580634
-4.0659090004607235   0.04122098119573858   -0.13897451929580634
-4.0659090004607235   0.04122098119573858   -0.13897451929580634
-3.919816662058914   0.4609424281561443   0.19413987844907887
-3.919816662058914   0.4609424281561443   0.19413987844907887
-3.919816662058914   0.4609424281561443   0.19413987844907887
-3.919816662058914   0.4609424281561443   0.19413987844907887
-5.955073438860175   -0.29271844954390613   -0.22419727585241517
-5.955073438860175   -0.29271844954390613   -0.22419727585241517
-5.955073438860175   -0.29271844954390613   -0.22419727585241517
-5.955073438860175   -0.29271844954390613   -0.22419727585241517
-4.7461911705830415   0.10059411789355521   0.11734106058047195
-4.7461911705830415   0.10059411789355521   0.11734106058047195
-4.7461911705830415   0.10059411789355521   0.11734106058047195
-4.7461911705830415   0.10059411789355521   0.11734106058047195
-4.089908027518291   -0.3878094329028549   0.0885490507355572
-4.089908027518291   -0.3878094329028549   0.0885490507355572
-4.089908027518291   -0.3878094329028549   0.0885490507355572
-4.089908027518291   -0.3878094329028549   0.0885490507355572
-2.062348279270561   -0.07379223925886608   0.004102368171881143
-2.062348279270561   -0.07379223925886608   0.004102368171881143
-2.062348279270561   -0.07379223925886608   0.004102368171881143
-2.062348279270561   -0.07379223925886608   0.004102368171881143
-2.0044038037650536   0.20286018209141865   0.1434393118786285
-2.0044038037650536   0.20286018209141865   0.1434393118786285
-2.0044038037650536   0.20286018209141865   0.1434393118786285
-2.0044038037650536   0.20286018209141865   0.1434393118786285
-4.1551026818238785   -0.3824538990972548   -0.14313142171530086
-4.1551026818238785   -0.3824538990972548   -0.14313142171530086
-4.1551026818238785   -0.3824538990972548   -0.14313142171530086
-4.1551026818238785   -0.3824538990972548   -0.14313142171530086
-3.066899426330405   -0.15048710684136846   -0.0616878742516046
-3.066899426330405   -0.15048710684136846   -0.0616878742516046
-3.066899426330405   -0.15048710684136846   -0.0616878742516046
-3.066899426330405   -0.15048710684136846   -0.0616878742516046
-4.0774549816129895   -0.2232560665045934   0.0859092467465036
-4.0774549816129895   -0.2232560665045934   0.0859092467465036
-4.0774549816129895   -0.2232560665045934   0.0859092467465036
-4.0774549816129895   -0.2232560665045934   0.0859092467465036
-2.066280311562474   0.05943354191222783   -0.02251658692926209
-2.066280311562474   0.05943354191222783   -0.02251658692926209
-2.066280311562474   0.05943354191222783   -0.02251658692926209
-2.066280311562474   0.05943354191222783   -0.02251658692926209
-1.998393809978596   0.3347038607779549   0.12417203299465121
-1.998393809978596   0.3347038607779549   0.12417203299465121
-1.998393809978596   0.3347038607779549   0.12417203299465121
-1.998393809978596   0.3347038607779549   0.12417203299465121
-4.132012482338464   -0.2593189734515202   -0.16895197403727635
-4.132012482338464   -0.2593189734515202   -0.16895197403727635
-4.132012482338464   -0.2593189734515202   -0.16895197403727635
-4.132012482338464   -0.2593189734515202   -0.16895197403727635
-3.033789203681448   -0.016962840771069798   2.7169836508605938e-05
-3.033789203681448   -0.016962840771069798   2.7169836508605938e-05
-3.033789203681448   -0.016962840771069798   2.7169836508605938e-05
-3.033789203681448   -0.016962840771069798   2.7169836508605938e-05
-4.05276950832179   -0.08951408414224893   0.057458006736825135
-4.05276950832179   -0.08951408414224893   0.057458006736825135
-4.05276950832179   -0.08951408414224893   0.057458006736825135
-4.05276950832179   -0.08951408414224893   0.057458006736825135
-2.064791898632234   0.1777438568317269   -0.0508584063272709
-2.064791898632234   0.1777438568317269   -0.0508584063272709
-2.064791898632234   0.1777438568317269   -0.0508584063272709
-2.064791898632234   0.1777438568317269   -0.0508584063272709
-1.9981311082979378   0.473180769329158   0.09310324196482406
-1.9981311082979378   0.473180769329158   0.09310324196482406
-1.9981311082979378   0.473180769329158   0.09310324196482406
-1.9981311082979378   0.473180769329158   0.09310324196482406
-4.112512061461606   -0.12654613556093608   -0.18184855484731774
-4.112512061461606   -0.12654613556093608   -0.18184855484731774
-4.112512061461606   -0.12654613556093608   -0.18184855484731774
-4.112512061461606   -0.12654613556093608   -0.18184855484731774
-3.036168103581428   0.10535712128734309   0.047136175921676154
-3.036168103581428   0.10535712128734309   0.047136175921676154
-3.036168103581428   0.10535712128734309   0.047136175921676154
-3.036168103581428   0.10535712128734309   0.047136175921676154
-2.139437568985246   -0.4424973683972796   -0.012638951263149628
-2.139437568985246   -0.4424973683972796   -0.012638951263149628
-2.139437568985246   -0.4424973683972796   -0.012638951263149628
-2.139437568985246   -0.4424973683972796   -0.012638951263149628
-0.06647352853066679   0.022904914586797522   0.09139586975609405
-0.06647352853066679   0.022904914586797522   0.09139586975609405
-0.06647352853066679   0.022904914586797522   0.09139586975609405
-0.06647352853066679   0.022904914586797522   0.09139586975609405
-0.07462155554121627   0.13148333801365572   0.043626043242182555
-0.07462155554121627   0.13148333801365572   0.043626043242182555
-0.07462155554121627   0.13148333801365572   0.043626043242182555
-0.07462155554121627   0.13148333801365572   0.043626043242182555
-2.141207258529498   -0.28400566668670124   -0.053712113165473266
-2.141207258529498   -0.28400566668670124   -0.053712113165473266
-2.141207258529498   -0.28400566668670124   -0.053712113165473266
-2.141207258529498   -0.28400566668670124   -0.053712113165473266
-1.1088029563015813   -0.13842360162224374   -0.03443211787260951
-1.1088029563015813   -0.13842360162224374   -0.03443211787260951
-1.1088029563015813   -0.13842360162224374   -0.03443211787260951
-1.1088029563015813   -0.13842360162224374   -0.03443211787260951
-2.138906207480003   -0.2961177549528983   -0.030094769651800787
-2.138906207480003   -0.2961177549528983   -0.030094769651800787
-2.138906207480003   -0.2961177549528983   -0.030094769651800787
-2.138906207480003   -0.2961177549528983   -0.030094769651800787
-0.06515820368696319   0.15535982918360108   0.06706631134350356
-0.06515820368696319   0.15535982918360108   0.06706631134350356
-0.06515820368696319   0.15535982918360108   0.06706631134350356
-0.06515820368696319   0.15535982918360108   0.06706631134350356
-0.06520510057397508   0.2751585519235859   0.0210613003231378
-0.06520510057397508   0.2751585519235859   0.0210613003231378
-0.06520510057397508   0.2751585519235859   0.0210613003231378
-0.06520510057397508   0.2751585519235859   0.0210613003231378
-2.1361682640598727   -0.15134624235214073   -0.07865013428161553
-2.1361682640598727   -0.15134624235214073   -0.07865013428161553
-2.1361682640598727   -0.15134624235214073   -0.07865013428161553
-2.1361682640598727   -0.15134624235214073   -0.07865013428161553
-1.0983576878365258   -0.005519880513460279   0.015413605268905416
-1.0983576878365258   -0.005519880513460279   0.015413605268905416
-1.0983576878365258   -0.005519880513460279   0.015413605268905416
-1.0983576878365258   -0.005519880513460279   0.015413605268905416
-2.1329431481111536   -0.1544795641887582   -0.059391232701403895
-2.1329431481111536   -0.1544795641887582   -0.059391232701403895
-2.1329431481111536   -0.1544795641887582   -0.059391232701403895
-2.1329431481111536   -0.1544795641887582   -0.059391232701403895
-0.05871305111114157   0.28800903917176096   0.04067106038913129
-0.05871305111114157   0.28800903917176096   0.04067106038913129
-0.05871305111114157   0.28800903917176096   0.04067106038913129
-0.05871305111114157   0.28800903917176096   0.04067106038913129
-0.0634726641677082   0.42315423716693984   -0.0030245996331768193
-0.0634726641677082   0.42315423716693984   -0.0030245996331768193
-0.0634726641677082   0.42315423716693984   -0.0030245996331768193
-0.0634726641677082   0.42315423716693984   -0.0030245996331768193
-2.1354323576805685   -0.016405805096578574   -0.10381643052259888
-2.1354323576805685   -0.016405805096578574   -0.10381643052259888
-2.1354323576805685   -0.016405805096578574   -0.10381643052259888
-2.1354323576805685   -0.016405805096578574   -0.10381643052259888
-1.090322540229835   0.12750791932215502   0.06111709249815893
-1.090322540229835   0.12750791932215502   0.06111709249815893
-1.090322540229835   0.12750791932215502   0.06111709249815893
-1.090322540229835   0.12750791932215502   0.06111709249815893
-0.20731073848568535   -0.4838973370689661   -0.10598792836323409
-0.20731073848568535   -0.4838973370689661   -0.10598792836323409
-0.20731073848568535   -0.4838973370689661   -0.10598792836323409
-0.20731073848568535   -0.4838973370689661   -0.10598792836323409
1.9225164620795625   0.13621053639216918   0.17370005532422306
1.9225164620795625   0.13621053639216918   0.17370005532422306
1.9225164620795625   0.13621053639216918   0.17370005532422306
1.9225164620795625   0.13621053639216918   0.17370005532422306
1.8597408198146608   0.07304463089123903   -0.06801478751528953
1.8597408198146608   0.07304463089123903   -0.06801478751528953
1.8597408198146608   0.07304463089123903   -0.06801478751528953
1.8597408198146608   0.07304463089123903   -0.06801478751528953
-0.13777899577372682   -0.1776930110806966   0.037015191173983227
-0.13777899577372682   -0.1776930110806966   0.037015191173983227
-0.13777899577372682   -0.1776930110806966   0.037015191173983227
-0.13777899577372682   -0.1776930110806966   0.037015191173983227
0.8471637585992214   -0.11139946310863172   -0.01932628851756757
0.8471637585992214   -0.11139946310863172   -0.01932628851756757
0.8471637585992214   -0.11139946310863172   -0.01932628851756757
0.8471637585992214   -0.11139946310863172   -0.01932628851756757
-0.20688991463471046   -0.35327086778158634   -0.13296154643004526
-0.20688991463471046   -0.35327086778158634   -0.13296154643004526
-0.20688991463471046   -0.35327086778158634   -0.13296154643004526
-0.20688991463471046   -0.35327086778158634   -0.13296154643004526
1.9422288611694232   0.2619996100859078   0.155470440063855
1.9422288611694232   0.2619996100859078   0.155470440063855
1.9422288611694232   0.2619996100859078   0.155470440063855
1.9422288611694232   0.2619996100859078   0.155470440063855
1.8891941128819951   0.20666698918934712   -0.09557545150475628
1.8891941128819951   0.20666698918934712   -0.09557545150475628
1.8891941128819951   0.20666698918934712   -0.09557545150475628
1.8891941128819951   0.20666698918934712   -0.09557545150475628
-0.13413334655927445   -0.05885057884340994   0.010429201163639108
-0.13413334655927445   -0.05885057884340994   0.010429201163639108
-0.13413334655927445   -0.05885057884340994   0.010429201163639108
-0.13413334655927445   -0.05885057884340994   0.010429201163639108
0.854093457139024   0.008732685217261227   0.03016490134437448
0.854093457139024   0.008732685217261227   0.03016490134437448
0.854093457139024   0.008732685217261227   0.03016490134437448
0.854093457139024   0.008732685217261227   0.03016490134437448
-0.20133720594788984   -0.22434359933354048   -0.16009707528930922
-0.20133720594788984   -0.22434359933354048   -0.16009707528930922
-0.20133720594788984   -0.22434359933354048   -0.16009707528930922
-0.20133720594788984   -0.22434359933354048   -0.16009707528930922
1.970972692108492   0.386734729517364   0.13324970429971167
1.970972692108492   0.386734729517364   0.13324970429971167
1.970972692108492   0.386734729517364   0.13324970429971167
1.970972692108492   0.386734729517364   0.13324970429971167
1.9071738379730492   0.37437433078091736   -0.09959146348339105
1.9071738379730492   0.37437433078091736   -0.09959146348339105
1.9071738379730492   0.37437433078091736   -0.09959146348339105
1.9071738379730492   0.37437433078091736   -0.09959146348339105
-0.1346806508284215   0.08017830968239568   -0.016088605452197747
-0.1346806508284215   0.08017830968239568   -0.016088605452197747
-0.1346806508284215   0.08017830968239568   -0.016088605452197747
-0.1346806508284215   0.08017830968239568   -0.016088605452197747
0.883006808417653   0.14285377282245465   0.08900628482932123
0.883006808417653   0.14285377282245465   0.08900628482932123
0.883006808417653   0.14285377282245465   0.08900628482932123
0.883006808417653   0.14285377282245465   0.08900628482932123
1.7233180438771838   -0.4801443586787103   -0.2059371406167748
1.7233180438771838   -0.4801443586787103   -0.2059371406167748
1.7233180438771838   -0.4801443586787103   -0.2059371406167748
1.7233180438771838   -0.4801443586787103   -0.2059371406167748
3.7837426500377043   0.2810444752399489   0.19250289224824552
3.7837426500377043   0.2810444752399489   0.19250289224824552
3.7837426500377043   0.2810444752399489   0.19250289224824552
3.7837426500377043   0.2810444752399489   0.19250289224824552
3.7541047681797335   -0.01557543757531954   -0.27408643985177294
3.7541047681797335   -0.01557543757531954   -0.27408643985177294
3.7541047681797335   -0.01557543757531954   -0.27408643985177294
3.7541047681797335   -0.01557543757531954   -0.27408643985177294
1.8763302798489991   -0.04103630671002062   0.12901345025767247
1.8763302798489991   -0.04103630671002062   0.12901345025767247
1.8763302798489991   -0.04103630671002062   0.12901345025767247
1.8763302798489991   -0.04103630671002062   0.12901345025767247
2.649251816764792   -0.09311388993114411   -0.08650585728340551
2.649251816764792   -0.09311388993114411   -0.08650585728340551
2.649251816764792   -0.09311388993114411   -0.08650585728340551
2.649251816764792   -0.09311388993114411   -0.08650585728340551
1.7246146192772027   -0.41731367603977915   -0.25328748327154005
1.7246146192772027   -0.41731367603977915   -0.25328748327154005
1.7246146192772027   -0.41731367603977915   -0.25328748327154005
1.7246146192772027   -0.41731367603977915   -0.25328748327154005
3.9167353103416067   0.37161681334451785   0.1518740200377569
3.9167353103416067   0.37161681334451785   0.1518740200377569
3.9167353103416067   0.37161681334451785   0.1518740200377569
3.9167353103416067   0.37161681334451785   0.1518740200377569
3.844975350749074   0.06064102048828557   -0.36736001265935403
3.844975350749074   0.06064102048828557   -0.36736001265935403
3.844975350749074   0.06064102048828557   -0.36736001265935403
3.844975350749074   0.06064102048828557   -0.36736001265935403
1.8895850179233835   0.017086927911751593   0.0959591349798173
1.8895850179233835   0.017086927911751593   0.0959591349798173
1.8895850179233835   0.017086927911751593   0.0959591349798173
1.8895850179233835   0.017086927911751593   0.0959591349798173
2.7681309777861656   -0.0108196763539683   -0.026624395501551018
2.7681309777861656   -0.0108196763539683   -0.026624395501551018
2.7681309777861656   -0.0108196763539683   -0.026624395501551018
2.7681309777861656   -0.0108196763539683   -0.026624395501551018
1.7436444658379024   -0.3412370778910403   -0.2754196196448119
1.7436444658379024   -0.3412370778910403   -0.2754196196448119
1.7436444658379024   -0.3412370778910403   -0.2754196196448119
1.7436444658379024   -0.3412370778910403   -0.2754196196448119
4.015007865797011   0.4430569892535388   0.10038659381512567
4.015007865797011   0.4430569892535388   0.10038659381512567
4.015007865797011   0.4430569892535388   0.10038659381512567
4.015007865797011   0.4430569892535388   0.10038659381512567
3.9893294672848114   0.2590472067474616   -0.3452382465917539
3.9893294672848114   0.2590472067474616   -0.3452382465917539
3.9893294672848114   0.2590472067474616   -0.3452382465917539
3.9893294672848114   0.2590472067474616   -0.3452382465917539
1.895381588195369   0.14586423399628135   0.06995738441287051
1.895381588195369   0.14586423399628135   0.06995738441287051
1.895381588195369   0.14586423399628135   0.06995738441287051
1.895381588195369   0.14586423399628135   0.06995738441287051
2.787552169031658   0.08344020141945596   0.039477351634665814
2.787552169031658   0.08344020141945596   0.039477351634665814
2.787552169031658   0.08344020141945596   0.039477351634665814
2.787552169031658   0.08344020141945596   0.039477351634665814
-4.400935070323598   -0.14488618547576537   0.2852272585512925
-4.400935070323598   -0.14488618547576537   0.2852272585512925
-4.400935070323598   -0.14488618547576537   0.2852272585512925
-4.400935070323598   -0.14488618547576537   0.2852272585512925
-3.0747641852533096   -0.20425216996238982   -0.10799683608620261
-3.0747641852533096   -0.20425216996238982   -0.10799683608620261
-3.0747641852533096   -0.20425216996238982   -0.10799683608620261
-3.0747641852533096   -0.20425216996238982   -0.10799683608620261
-2.8947999290144146   0.289716881520086   0.2433632849700603
-2.8947999290144146   0.289716881520086   0.2433632849700603
-2.8947999290144146   0.289716881520086   0.2433632849700603
-2.8947999290144146   0.289716881520086   0.2433632849700603
-4.401328787453765   -0.36202897899873854   -0.15791652583040822
-4.401328787453765   -0.36202897899873854   -0.15791652583040822
-4.401328787453765   -0.36202897899873854   -0.15791652583040822
-4.401328787453765   -0.36202897899873854   -0.15791652583040822
-3.5414217599420073   -0.056699012680745065   -0.006893605426671667
-3.5414217599420073   -0.056699012680745065   -0.006893605426671667
-3.5414217599420073   -0.056699012680745065   -0.006893605426671667
-3.5414217599420073   -0.056699012680745065   -0.006893605426671667
-4.2376960874122735   0.026757159935136277   0.2714608354431707
-4.2376960874122735   0.026757159935136277   0.2714608354431707
-4.2376960874122735   0.026757159935136277   0.2714608354431707
-4.2376960874122735   0.026757159935136277   0.2714608354431707
-3.0451408684514796   -0.08577749680935831   -0.13284703388579172
-3.0451408684514796   -0.08577749680935831   -0.13284703388579172
-3.0451408684514796   -0.08577749680935831   -0.13284703388579172
-3.0451408684514796   -0.08577749680935831   -0.13284703388579172
-2.8675787551259098   0.3498350493135044   0.20576557595823944
-2.8675787551259098   0.3498350493135044   0.20576557595823944
-2.8675787551259098   0.3498350493135044   0.20576557595823944
-2.8675787551259098   0.3498350493135044   0.20576557595823944
-4.297739169325799   -0.29504055143273655   -0.19977386086974477
-4.297739169325799   -0.29504055143273655   -0.19977386086974477
-4.297739169325799   -0.29504055143273655   -0.19977386086974477
-4.297739169325799   -0.29504055143273655   -0.19977386086974477
-3.517084477749591   0.022653648403105575   0.03776955231656129
-3.517084477749591   0.022653648403105575   0.03776955231656129
-3.517084477749591   0.022653648403105575   0.03776955231656129
-3.517084477749591   0.022653648403105575   0.03776955231656129
-4.135429544579382   0.09871543209756917   0.21801827933203546
-4.135429544579382   0.09871543209756917   0.21801827933203546
-4.135429544579382   0.09871543209756917   0.21801827933203546
-4.135429544579382   0.09871543209756917   0.21801827933203546
-3.017852415035559   -0.03188496938002838   -0.16388270489644444
-3.017852415035559   -0.03188496938002838   -0.16388270489644444
-3.017852415035559   -0.03188496938002838   -0.16388270489644444
-3.017852415035559   -0.03188496938002838   -0.16388270489644444
-2.852486867854442   0.40805360627603116   0.17707643224150693
-2.852486867854442   0.40805360627603116   0.17707643224150693
-2.852486867854442   0.40805360627603116   0.17707643224150693
-2.852486867854442   0.40805360627603116   0.17707643224150693
-4.158828725717972   -0.2066214445124328   -0.23927220257654225
-4.158828725717972   -0.2066214445124328   -0.23927220257654225
-4.158828725717972   -0.2066214445124328   -0.23927220257654225
-4.158828725717972   -0.2066214445124328   -0.23927220257654225
-3.385403699287586   0.0968618828507406   0.10061209160468104
-3.385403699287586   0.0968618828507406   0.10061209160468104
-3.385403699287586   0.0968618828507406   0.10061209160468104
-3.385403699287586   0.0968618828507406   0.10061209160468104
-3.0408390829845975   -0.24902964381422338   0.10640614910916181
-3.0408390829845975   -0.24902964381422338   0.10640614910916181
-3.0408390829845975   -0.24902964381422338   0.10640614910916181
-3.0408390829845975   -0.24902964381422338   0.10640614910916181
-1.7592266185046908   -0.13237984627259608   -0.017413386188039726
-1.7592266185046908   -0.13237984627259608   -0.017413386188039726
-1.7592266185046908   -0.13237984627259608   -0.017413386188039726
-1.7592266185046908   -0.13237984627259608   -0.017413386188039726
-1.669938353275386   0.16945188666671024   0.13123317855603145
-1.669938353275386   0.16945188666671024   0.13123317855603145
-1.669938353275386   0.16945188666671024   0.13123317855603145
-1.669938353275386   0.16945188666671024   0.13123317855603145
-3.0863661276427643   -0.29607003006665605   -0.12868079658494824
-3.0863661276427643   -0.29607003006665605   -0.12868079658494824
-3.0863661276427643   -0.29607003006665605   -0.12868079658494824
-3.0863661276427643   -0.29607003006665605   -0.12868079658494824
-2.3793589551810888   -0.11629942944613847   -0.0481886267777748
-2.3793589551810888   -0.11629942944613847   -0.0481886267777748
-2.3793589551810888   -0.11629942944613847   -0.0481886267777748
-2.3793589551810888   -0.11629942944613847   -0.0481886267777748
-3.0053212806995724   -0.10648054409705421   0.08695395216139518
-3.0053212806995724   -0.10648054409705421   0.08695395216139518
-3.0053212806995724   -0.10648054409705421   0.08695395216139518
-3.0053212806995724   -0.10648054409705421   0.08695395216139518
-1.7405942438293236   -0.009748642913649685   -0.04284574463329609
-1.7405942438293236   -0.009748642913649685   -0.04284574463329609
-1.7405942438293236   -0.009748642913649685   -0.04284574463329609
-1.7405942438293236   -0.009748642913649685   -0.04284574463329609
-1.6486826124266787   0.29266733775144005   0.10764971206573942
-1.6486826124266787   0.29266733775144005   0.10764971206573942
-1.6486826124266787   0.29266733775144005   0.10764971206573942
-1.6486826124266787   0.29266733775144005   0.10764971206573942
-3.044947063297336   -0.17965678507691218   -0.15158413050847525
-3.044947063297336   -0.17965678507691218   -0.15158413050847525
-3.044947063297336   -0.17965678507691218   -0.15158413050847525
-3.044947063297336   -0.17965678507691218   -0.15158413050847525
-2.333698930055787   0.004968570677954864   0.003897099772762508
-2.333698930055787   0.004968570677954864   0.003897099772762508
-2.333698930055787   0.004968570677954864   0.003897099772762508
-2.333698930055787   0.004968570677954864   0.003897099772762508
-2.9577662550945045   0.02521107657540067   0.07945204885336832
-2.9577662550945045   0.02521107657540067   0.07945204885336832
-2.9577662550945045   0.02521107657540067   0.07945204885336832
-2.9577662550945045   0.02521107657540067   0.07945204885336832
-1.7229616263825036   0.10070127034613496   -0.07177929030807173
-1.7229616263825036   0.10070127034613496   -0.07177929030807173
-1.7229616263825036   0.10070127034613496   -0.07177929030807173
-1.7229616263825036   0.10070127034613496   -0.07177929030807173
-1.6281504664029123   0.4238334543444957   0.08568779962114728
-1.6281504664029123   0.4238334543444957   0.08568779962114728
-1.6281504664029123   0.4238334543444957   0.08568779962114728
-1.6281504664029123   0.4238334543444957   0.08568779962114728
-3.0138960927556964   -0.054334699520210306   -0.16758138646850834
-3.0138960927556964   -0.054334699520210306   -0.16758138646850834
-3.0138960927556964   -0.054334699520210306   -0.16758138646850834
-3.0138960927556964   -0.054334699520210306   -0.16758138646850834
-2.3160735927409606   0.11891073485387182   0.053433829715526016
-2.3160735927409606   0.11891073485387182   0.053433829715526016
-2.3160735927409606   0.11891073485387182   0.053433829715526016
-2.3160735927409606   0.11891073485387182   0.053433829715526016
-1.7966169360640991   -0.34062658743553353   0.0038817671778400937
-1.7966169360640991   -0.34062658743553353   0.0038817671778400937
-1.7966169360640991   -0.34062658743553353   0.0038817671778400937
-1.7966169360640991   -0.34062658743553353   0.0038817671778400937
-0.45765355158850674   -0.03882264338783689   0.0733420441144005
-0.45765355158850674   -0.03882264338783689   0.0733420441144005
-0.45765355158850674   -0.03882264338783689   0.0733420441144005
-0.45765355158850674   -0.03882264338783689   0.0733420441144005
-0.4462360117724189   0.07073279514154798   0.02500894921869372
-0.4462360117724189   0.07073279514154798   0.02500894921869372
-0.4462360117724189   0.07073279514154798   0.02500894921869372
-0.4462360117724189   0.07073279514154798   0.02500894921869372
-1.7768912973586393   -0.19967441874102548   -0.03440523645251377
-1.7768912973586393   -0.19967441874102548   -0.03440523645251377
-1.7768912973586393   -0.19967441874102548   -0.03440523645251377
-1.7768912973586393   -0.19967441874102548   -0.03440523645251377
-1.1212381405791922   -0.12169522329519707   -0.03419905584091379
-1.1212381405791922   -0.12169522329519707   -0.03419905584091379
-1.1212381405791922   -0.12169522329519707   -0.03419905584091379
-1.1212381405791922   -0.12169522329519707   -0.03419905584091379
-1.7740195807296237   -0.20314160241943668   -0.016579469629024915
-1.7740195807296237   -0.20314160241943668   -0.016579469629024915
-1.7740195807296237   -0.20314160241943668   -0.016579469629024915
-1.7740195807296237   -0.20314160241943668   -0.016579469629024915
-0.4386933973049843   0.08461430991640934   0.0488405067810055
-0.4386933973049843   0.08461430991640934   0.0488405067810055
-0.4386933973049843   0.08461430991640934   0.0488405067810055
-0.4386933973049843   0.08461430991640934   0.0488405067810055
-0.4205797231637948   0.20883698021425773   0.00667743765426855
-0.4205797231637948   0.20883698021425773   0.00667743765426855
-0.4205797231637948   0.20883698021425773   0.00667743765426855
-0.4205797231637948   0.20883698021425773   0.00667743765426855
-1.755620792990309   -0.07539377259850616   -0.05898008040246604
-1.755620792990309   -0.07539377259850616   -0.05898008040246604
-1.755620792990309   -0.07539377259850616   -0.05898008040246604
-1.755620792990309   -0.07539377259850616   -0.05898008040246604
-1.093841338335353   0.0024785069588517117   0.014860846632274112
-1.093841338335353   0.0024785069588517117   0.014860846632274112
-1.093841338335353   0.0024785069588517117   0.014860846632274112
-1.093841338335353   0.0024785069588517117   0.014860846632274112
-1.7491154028365181   -0.06547918641461997   -0.03636771581739702
-1.7491154028365181   -0.06547918641461997   -0.03636771581739702
-1.7491154028365181   -0.06547918641461997   -0.03636771581739702
-1.7491154028365181   -0.06547918641461997   -0.03636771581739702
-0.41747033406905676   0.20853717327890148   0.022524190063319904
-0.41747033406905676   0.20853717327890148   0.022524190063319904
-0.41747033406905676   0.20853717327890148   0.022524190063319904
-0.41747033406905676   0.20853717327890148   0.022524190063319904
-0.3975854427919089   0.3489435612806293   -0.01491651352525003
-0.3975854427919089   0.3489435612806293   -0.01491651352525003
-0.3975854427919089   0.3489435612806293   -0.01491651352525003
-0.3975854427919089   0.3489435612806293   -0.01491651352525003
-1.736914896127542   0.050341086390657486   -0.08464198104817493
-1.736914896127542   0.050341086390657486   -0.08464198104817493
-1.736914896127542   0.050341086390657486   -0.08464198104817493
-1.736914896127542   0.050341086390657486   -0.08464198104817493
-1.0688233402192666   0.12724616437057937   0.06212458038519118
-1.0688233402192666   0.12724616437057937   0.06212458038519118
-1.0688233402192666   0.12724616437057937   0.06212458038519118
-1.0688233402192666   0.12724616437057937   0.06212458038519118
-0.5669869170774985   -0.41571636320647287   -0.09643106351192637
-0.5669869170774985   -0.41571636320647287   -0.09643106351192637
-0.5669869170774985   -0.41571636320647287   -0.09643106351192637
-0.5669869170774985   -0.41571636320647287   -0.09643106351192637
0.8275809497187593   0.0661714114865205   0.15909631383874467
0.8275809497187593   0.0661714114865205   0.15909631383874467
0.8275809497187593   0.0661714114865205   0.15909631383874467
0.8275809497187593   0.0661714114865205   0.15909631383874467
0.7709348670745044   -0.02096349055926197   -0.08805106906707477
0.7709348670745044   -0.02096349055926197   -0.08805106906707477
0.7709348670745044   -0.02096349055926197   -0.08805106906707477
0.7709348670745044   -0.02096349055926197   -0.08805106906707477
-0.4730209106138775   -0.09684654236162092   0.058663792514569525
-0.4730209106138775   -0.09684654236162092   0.058663792514569525
-0.4730209106138775   -0.09684654236162092   0.058663792514569525
-0.4730209106138775   -0.09684654236162092   0.058663792514569525
0.1343706873787729   -0.11360788461412324   -0.02430681141946346
0.1343706873787729   -0.11360788461412324   -0.02430681141946346
0.1343706873787729   -0.11360788461412324   -0.02430681141946346
0.1343706873787729   -0.11360788461412324   -0.02430681141946346
-0.5472365851373446   -0.2906998264009119   -0.11856129606347535
-0.5472365851373446   -0.2906998264009119   -0.11856129606347535
-0.5472365851373446   -0.2906998264009119   -0.11856129606347535
-0.5472365851373446   -0.2906998264009119   -0.11856129606347535
0.8575486805535433   0.18528793243559807   0.13876657533324385
0.8575486805535433   0.18528793243559807   0.13876657533324385
0.8575486805535433   0.18528793243559807   0.13876657533324385
0.8575486805535433   0.18528793243559807   0.13876657533324385
0.8185949353213492   0.10966456653688035   -0.09972335381556381
0.8185949353213492   0.10966456653688035   -0.09972335381556381
0.8185949353213492   0.10966456653688035   -0.09972335381556381
0.8185949353213492   0.10966456653688035   -0.09972335381556381
-0.45449946615965875   0.014299393218685785   0.03161630967052591
-0.45449946615965875   0.014299393218685785   0.03161630967052591
-0.45449946615965875   0.014299393218685785   0.03161630967052591
-0.45449946615965875   0.014299393218685785   0.03161630967052591
0.15967429758223015   -0.00110977410632309   0.025570182842810825
0.15967429758223015   -0.00110977410632309   0.025570182842810825
0.15967429758223015   -0.00110977410632309   0.025570182842810825
0.15967429758223015   -0.00110977410632309   0.025570182842810825
-0.5261189760936883   -0.16814159528267353   -0.14404025149826497
-0.5261189760936883   -0.16814159528267353   -0.14404025149826497
-0.5261189760936883   -0.16814159528267353   -0.14404025149826497
-0.5261189760936883   -0.16814159528267353   -0.14404025149826497
0.9009636527108479   0.3028547624937019   0.11893003717509994
0.9009636527108479   0.3028547624937019   0.11893003717509994
0.9009636527108479   0.3028547624937019   0.11893003717509994
0.9009636527108479   0.3028547624937019   0.11893003717509994
0.856943318175476   0.2586877096828561   -0.11516557445379315
0.856943318175476   0.2586877096828561   -0.11516557445379315
0.856943318175476   0.2586877096828561   -0.11516557445379315
0.856943318175476   0.2586877096828561   -0.11516557445379315
-0.4346968970482197   0.14258194471842836   0.005887831755392689
-0.4346968970482197   0.14258194471842836   0.005887831755392689
-0.4346968970482197   0.14258194471842836   0.005887831755392689
-0.4346968970482197   0.14258194471842836   0.005887831755392689
0.19892247877540273   0.12145865442841666   0.0772820782082366
0.19892247877540273   0.12145865442841666   0.0772820782082366
0.19892247877540273   0.12145865442841666   0.0772820782082366
0.19892247877540273   0.12145865442841666   0.0772820782082366
0.6605165669520707   -0.42009346460705066   -0.18996072390111923
0.6605165669520707   -0.42009346460705066   -0.18996072390111923
0.6605165669520707   -0.42009346460705066   -0.18996072390111923
0.6605165669520707   -0.42009346460705066   -0.18996072390111923
1.9729082408963872   0.1939629717797247   0.2054604305351743
1.9729082408963872   0.1939629717797247   0.2054604305351743
1.9729082408963872   0.1939629717797247   0.2054604305351743
1.9729082408963872   0.1939629717797247   0.2054604305351743
1.953608404857077   -0.10138535638241025   -0.2500099231123533
1.953608404857077   -0.10138535638241025   -0.2500099231123533
1.953608404857077   -0.10138535638241025   -0.2500099231123533
1.953608404857077   -0.10138535638241025   -0.2500099231123533
0.8302236620083534   0.03419903420295145   0.1532303808399497
0.8302236620083534   0.03419903420295145   0.1532303808399497
0.8302236620083534   0.03419903420295145   0.1532303808399497
0.8302236620083534   0.03419903420295145   0.1532303808399497
1.2837809898750647   -0.08631559593984478   -0.06727538004883862
1.2837809898750647   -0.08631559593984478   -0.06727538004883862
1.2837809898750647   -0.08631559593984478   -0.06727538004883862
1.2837809898750647   -0.08631559593984478   -0.06727538004883862
0.6787418914112562   -0.35029380169801605   -0.21968563624456172
0.6787418914112562   -0.35029380169801605   -0.21968563624456172
0.6787418914112562   -0.35029380169801605   -0.21968563624456172
0.6787418914112562   -0.35029380169801605   -0.21968563624456172
2.117731351666593   0.2957486557309852   0.17347079882187913
2.117731351666593   0.2957486557309852   0.17347079882187913
2.117731351666593   0.2957486557309852   0.17347079882187913
2.117731351666593   0.2957486557309852   0.17347079882187913
2.058930324491884   -0.02816448513618347   -0.29964323682832794
2.058930324491884   -0.02816448513618347   -0.29964323682832794
2.058930324491884   -0.02816448513618347   -0.29964323682832794
2.058930324491884   -0.02816448513618347   -0.29964323682832794
0.8580453315075236   0.08782072884604976   0.11937246480613026
0.8580453315075236   0.08782072884604976   0.11937246480613026
0.8580453315075236   0.08782072884604976   0.11937246480613026
0.8580453315075236   0.08782072884604976   0.11937246480613026
1.3905272353366354   -0.012579697252327049   -0.008424834036645082
1.3905272353366354   -0.012579697252327049   -0.008424834036645082
1.3905272353366354   -0.012579697252327049   -0.008424834036645082
1.3905272353366354   -0.012579697252327049   -0.008424834036645082
0.7078091912261113   -0.2893813049788688   -0.25460620277601265
0.7078091912261113   -0.2893813049788688   -0.25460620277601265
0.7078091912261113   -0.2893813049788688   -0.25460620277601265
0.7078091912261113   -0.2893813049788688   -0.25460620277601265
2.222321285015612   0.3621923689310633   0.12695471172310976
2.222321285015612   0.3621923689310633   0.12695471172310976
2.222321285015612   0.3621923689310633   0.12695471172310976
2.222321285015612   0.3621923689310633   0.12695471172310976
2.2204523389280904   0.1327705472691434   -0.3205817999555407
2.2204523389280904   0.1327705472691434   -0.3205817999555407
2.2204523389280904   0.1327705472691434   -0.3205817999555407
2.2204523389280904   0.1327705472691434   -0.3205817999555407
0.8865298335929411   0.1966519928863359   0.09480271943004538
0.8865298335929411   0.1966519928863359   0.09480271943004538
0.8865298335929411   0.1966519928863359   0.09480271943004538
0.8865298335929411   0.1966519928863359   0.09480271943004538
1.4431955960188534   0.06884921886631656   0.042073297759709485
1.4431955960188534   0.06884921886631656   0.042073297759709485
1.4431955960188534   0.06884921886631656   0.042073297759709485
1.4431955960188534   0.06884921886631656   0.042073297759709485
-2.646454584378686   -0.045727146305588995   0.256318681323239
-2.646454584378686   -0.045727146305588995   0.256318681323239
-2.646454584378686   -0.045727146305588995   0.256318681323239
-2.646454584378686   -0.045727146305588995   0.256318681323239
-2.0583937220331463   -0.260280079836277   -0.1272669040423276
-2.0583937220331463   -0.260280079836277   -0.1272669040423276
-2.0583937220331463   -0.260280079836277   -0.1272669040423276
-2.0583937220331463   -0.260280079836277   -0.1272669040423276
-1.863449234998143   0.22099328567701138   0.2193152450927202
-1.863449234998143   0.22099328567701138   0.2193152450927202
-1.863449234998143   0.22099328567701138   0.2193152450927202
-1.863449234998143   0.22099328567701138   0.2193152450927202
-2.6349847360613343   -0.286810558230123   -0.17304184067495268
-2.6349847360613343   -0.286810558230123   -0.17304184067495268
-2.6349847360613343   -0.286810558230123   -0.17304184067495268
-2.6349847360613343   -0.286810558230123   -0.17304184067495268
-2.212485663500245   -0.061196530964308715   -0.031641199927317565
-2.212485663500245   -0.061196530964308715   -0.031641199927317565
-2.212485663500245   -0.061196530964308715   -0.031641199927317565
-2.212485663500245   -0.061196530964308715   -0.031641199927317565
-2.473181905050339   0.10418004489834032   0.24498171125156115
-2.473181905050339   0.10418004489834032   0.24498171125156115
-2.473181905050339   0.10418004489834032   0.24498171125156115
-2.473181905050339   0.10418004489834032   0.24498171125156115
-2.01406402488979   -0.15880927633209085   -0.15395614235639737
-2.01406402488979   -0.15880927633209085   -0.15395614235639737
-2.01406402488979   -0.15880927633209085   -0.15395614235639737
-2.01406402488979   -0.15880927633209085   -0.15395614235639737
-1.816902056221436   0.27820092598594237   0.18559641311928635
-1.816902056221436   0.27820092598594237   0.18559641311928635
-1.816902056221436   0.27820092598594237   0.18559641311928635
-1.816902056221436   0.27820092598594237   0.18559641311928635
-2.51436523464179   -0.2219978648665918   -0.21635988659728553
-2.51436523464179   -0.2219978648665918   -0.21635988659728553
-2.51436523464179   -0.2219978648665918   -0.21635988659728553
-2.51436523464179   -0.2219978648665918   -0.21635988659728553
-2.1494406457374873   0.013754670674908265   0.016096517967912963
-2.1494406457374873   0.013754670674908265   0.016096517967912963
-2.1494406457374873   0.013754670674908265   0.016096517967912963
-2.1494406457374873   0.013754670674908265   0.016096517967912963
-2.3523596809222633   0.17360343487389246   0.19806658225986443
-2.3523596809222633   0.17360343487389246   0.19806658225986443
-2.3523596809222633   0.17360343487389246   0.19806658225986443
-2.3523596809222633   0.17360343487389246   0.19806658225986443
-1.9682971180733817   -0.10678988188695815   -0.1863880882675261
-1.9682971180733817   -0.10678988188695815   -0.1863880882675261
-1.9682971180733817   -0.10678988188695815   -0.1863880882675261
-1.9682971180733817   -0.10678988188695815   -0.1863880882675261
-1.77910249535815   0.34919489235192774   0.16008325138543933
-1.77910249535815   0.34919489235192774   0.16008325138543933
-1.77910249535815   0.34919489235192774   0.16008325138543933
-1.77910249535815   0.34919489235192774   0.16008325138543933
-2.3522710229462196   -0.11828593776045682   -0.2504492213149903
-2.3522710229462196   -0.11828593776045682   -0.2504492213149903
-2.3522710229462196   -0.11828593776045682   -0.2504492213149903
-2.3522710229462196   -0.11828593776045682   -0.2504492213149903
-2.021958770664893   0.08751258607941514   0.07544336142499011
-2.021958770664893   0.08751258607941514   0.07544336142499011
-2.021958770664893   0.08751258607941514   0.07544336142499011
-2.021958770664893   0.08751258607941514   0.07544336142499011
-1.986884086501893   -0.15035701989908046   0.1203582136767411
-1.986884086501893   -0.15035701989908046   0.1203582136767411
-1.986884086501893   -0.15035701989908046   0.1203582136767411
-1.986884086501893   -0.15035701989908046   0.1203582136767411
-1.4534278299658892   -0.19741302494482943   -0.03771334608540143
-1.4534278299658892   -0.19741302494482943   -0.03771334608540143
-1.4534278299658892   -0.19741302494482943   -0.03771334608540143
-1.4534278299658892   -0.19741302494482943   -0.03771334608540143
-1.3444936109812566   0.10046090572589184   0.11210136571634467
-1.3444936109812566   0.10046090572589184   0.11210136571634467
-1.3444936109812566   0.10046090572589184   0.11210136571634467
-1.3444936109812566   0.10046090572589184   0.11210136571634467
-2.0157019202117294   -0.2119019729894971   -0.10905292230868828
-2.0157019202117294   -0.2119019729894971   -0.10905292230868828
-2.0157019202117294   -0.2119019729894971   -0.10905292230868828
-2.0157019202117294   -0.2119019729894971   -0.10905292230868828
-1.6953017998434559   -0.10583852956812856   -0.045347609462323774
-1.6953017998434559   -0.10583852956812856   -0.045347609462323774
-1.6953017998434559   -0.10583852956812856   -0.045347609462323774
-1.6953017998434559   -0.10583852956812856   -0.045347609462323774
-1.9349354918508597   -0.019560245241726337   0.10243749174785712
-1.9349354918508597   -0.019560245241726337   0.10243749174785712
-1.9349354918508597   -0.019560245241726337   0.10243749174785712
-1.9349354918508597   -0.019560245241726337   0.10243749174785712
-1.4162346367843484   -0.0828554194641064   -0.06328743810911606
-1.4162346367843484   -0.0828554194641064   -0.06328743810911606
-1.4162346367843484   -0.0828554194641064   -0.06328743810911606
-1.4162346367843484   -0.0828554194641064   -0.06328743810911606
-1.3043208263001937   0.21672606449506593   0.08970388035427301
-1.3043208263001937   0.21672606449506593   0.08970388035427301
-1.3043208263001937   0.21672606449506593   0.08970388035427301
-1.3043208263001937   0.21672606449506593   0.08970388035427301
-1.9557585148376282   -0.09995980741346278   -0.13052514656223943
-1.9557585148376282   -0.09995980741346278   -0.13052514656223943
-1.9557585148376282   -0.09995980741346278   -0.13052514656223943
-1.9557585148376282   -0.09995980741346278   -0.13052514656223943
-1.6373710736705276   0.006426467410039771   0.004937259771884375
-1.6373710736705276   0.006426467410039771   0.004937259771884375
-1.6373710736705276   0.006426467410039771   0.004937259771884375
-1.6373710736705276   0.006426467410039771   0.004937259771884375
-1.8702588529163937   0.10416696185587249   0.09284639377456724
-1.8702588529163937   0.10416696185587249   0.09284639377456724
-1.8702588529163937   0.10416696185587249   0.09284639377456724
-1.8702588529163937   0.10416696185587249   0.09284639377456724
-1.3794002043395919   0.02301957910754765   -0.09198652445522376
-1.3794002043395919   0.02301957910754765   -0.09198652445522376
-1.3794002043395919   0.02301957910754765   -0.09198652445522376
-1.3794002043395919   0.02301957910754765   -0.09198652445522376
-1.264282062776605   0.3427788098313394   0.06837213031014888
-1.264282062776605   0.3427788098313394   0.06837213031014888
-1.264282062776605   0.3427788098313394   0.06837213031014888
-1.264282062776605   0.3427788098313394   0.06837213031014888
-1.9061606625657208   0.022158440406788105   -0.14817113270724463
-1.9061606625657208   0.022158440406788105   -0.14817113270724463
-1.9061606625657208   0.022158440406788105   -0.14817113270724463
-1.9061606625657208   0.022158440406788105   -0.14817113270724463
-1.5954270111584405   0.11630614579227172   0.05405851893803705
-1.5954270111584405   0.11630614579227172   0.05405851893803705
-1.5954270111584405   0.11630614579227172   0.05405851893803705
-1.5954270111584405   0.11630614579227172   0.05405851893803705
-1.451850738379155   -0.2481488934901347   0.02090798039355969
-1.451850738379155   -0.2481488934901347   0.02090798039355969
-1.451850738379155   -0.2481488934901347   0.02090798039355969
-1.451850738379155   -0.2481488934901347   0.02090798039355969
-0.8570237381814132   -0.1034020091933735   0.05349934294651716
-0.8570237381814132   -0.1034020091933735   0.05349934294651716
-0.8570237381814132   -0.1034020091933735   0.05349934294651716
-0.8570237381814132   -0.1034020091933735   0.05349934294651716
-0.8269947098372433   -0.0014233184560411005   0.006953677451012344
-0.8269947098372433   -0.0014233184560411005   0.006953677451012344
-0.8269947098372433   -0.0014233184560411005   0.006953677451012344
-0.8269947098372433   -0.0014233184560411005   0.006953677451012344
-1.412244435697918   -0.11349815824852397   -0.012693693892546105
-1.412244435697918   -0.11349815824852397   -0.012693693892546105
-1.412244435697918   -0.11349815824852397   -0.012693693892546105
-1.412244435697918   -0.11349815824852397   -0.012693693892546105
-1.1388259782293086   -0.11118165566072502   -0.03297546337014064
-1.1388259782293086   -0.11118165566072502   -0.03297546337014064
-1.1388259782293086   -0.11118165566072502   -0.03297546337014064
-1.1388259782293086   -0.11118165566072502   -0.03297546337014064
-1.410615705650639   -0.11928991124155092   0.0012417093368590065
-1.410615705650639   -0.11928991124155092   0.0012417093368590065
-1.410615705650639   -0.11928991124155092   0.0012417093368590065
-1.410615705650639   -0.11928991124155092   0.0012417093368590065
-0.8196520154410778   0.013339858980437741   0.028903971995361086
-0.8196520154410778   0.013339858980437741   0.028903971995361086
-0.8196520154410778   0.013339858980437741   0.028903971995361086
-0.8196520154410778   0.013339858980437741   0.028903971995361086
-0.7834042878308141   0.12858399776291415   -0.01130773375485948
-0.7834042878308141   0.12858399776291415   -0.01130773375485948
-0.7834042878308141   0.12858399776291415   -0.01130773375485948
-0.7834042878308141   0.12858399776291415   -0.01130773375485948
-1.3720040410420085   0.0049034218400575424   -0.036889550699815254
-1.3720040410420085   0.0049034218400575424   -0.036889550699815254
-1.3720040410420085   0.0049034218400575424   -0.036889550699815254
-1.3720040410420085   0.0049034218400575424   -0.036889550699815254
-1.092870870791164   0.005774412694265485   0.015755335786672126
-1.092870870791164   0.005774412694265485   0.015755335786672126
-1.092870870791164   0.005774412694265485   0.015755335786672126
-1.092870870791164   0.005774412694265485   0.015755335786672126
-1.3672855772502694   0.0103254372081506   -0.01871924710922178
-1.3672855772502694   0.0103254372081506   -0.01871924710922178
-1.3672855772502694   0.0103254372081506   -0.01871924710922178
-1.3672855772502694   0.0103254372081506   -0.01871924710922178
-0.7800120180826808   0.13127271593469306   0.0029648968140346954
-0.7800120180826808   0.13127271593469306   0.0029648968140346954
-0.7800120180826808   0.13127271593469306   0.0029648968140346954
-0.7800120180826808   0.13127271593469306   0.0029648968140346954
-0.7422386563284278   0.2597680716158838   -0.03218329472115787
-0.7422386563284278   0.2597680716158838   -0.03218329472115787
-0.7422386563284278   0.2597680716158838   -0.03218329472115787
-0.7422386563284278   0.2597680716158838   -0.03218329472115787
-1.3342091152203912   0.12422325031288778   -0.0627075723903156
-1.3342091152203912   0.12422325031288778   -0.0627075723903156
-1.3342091152203912   0.12422325031288778   -0.0627075723903156
-1.3342091152203912   0.12422325031288778   -0.0627075723903156
-1.0493746489981421   0.12314828374410103   0.06252867472701307
-1.0493746489981421   0.12314828374410103   0.06252867472701307
-1.0493746489981421   0.12314828374410103   0.06252867472701307
-1.0493746489981421   0.12314828374410103   0.06252867472701307
-0.9296387716231853   -0.33307280186730304   -0.07990503158842846
-0.9296387716231853   -0.33307280186730304   -0.07990503158842846
-0.9296387716231853   -0.33307280186730304   -0.07990503158842846
-0.9296387716231853   -0.33307280186730304   -0.07990503158842846
-0.27635092180124465   -0.0035615555669152033   0.14035282020362014
-0.27635092180124465   -0.0035615555669152033   0.14035282020362014
-0.27635092180124465   -0.0035615555669152033   0.14035282020362014
-0.27635092180124465   -0.0035615555669152033   0.14035282020362014
-0.3155361758434163   -0.09753607565065543   -0.10226860870112561
-0.3155361758434163   -0.09753607565065543   -0.10226860870112561
-0.3155361758434163   -0.09753607565065543   -0.10226860870112561
-0.3155361758434163   -0.09753607565065543   -0.10226860870112561
-0.8146303554237224   -0.012755241895133856   0.08010737295770169
-0.8146303554237224   -0.012755241895133856   0.08010737295770169
-0.8146303554237224   -0.012755241895133856   0.08010737295770169
-0.8146303554237224   -0.012755241895133856   0.08010737295770169
-0.5840518017127928   -0.10683969522947855   -0.02378372647609137
-0.5840518017127928   -0.10683969522947855   -0.02378372647609137
-0.5840518017127928   -0.10683969522947855   -0.02378372647609137
-0.5840518017127928   -0.10683969522947855   -0.02378372647609137
-0.8907560891744382   -0.2123180367623754   -0.10095850092864221
-0.8907560891744382   -0.2123180367623754   -0.10095850092864221
-0.8907560891744382   -0.2123180367623754   -0.10095850092864221
-0.8907560891744382   -0.2123180367623754   -0.10095850092864221
-0.2293513265312489   0.11208583477802643   0.11903372743102955
-0.2293513265312489   0.11208583477802643   0.11903372743102955
-0.2293513265312489   0.11208583477802643   0.11903372743102955
-0.2293513265312489   0.11208583477802643   0.11903372743102955
-0.2520103841739318   0.02545144048110845   -0.11511253600314907
-0.2520103841739318   0.02545144048110845   -0.11511253600314907
-0.2520103841739318   0.02545144048110845   -0.11511253600314907
-0.2520103841739318   0.02545144048110845   -0.11511253600314907
-0.7774682545332212   0.09356973176264513   0.053386698733373886
-0.7774682545332212   0.09356973176264513   0.053386698733373886
-0.7774682545332212   0.09356973176264513   0.053386698733373886
-0.7774682545332212   0.09356973176264513   0.053386698733373886
-0.535262040767381   0.002012868032507359   0.02585114637600456
-0.535262040767381   0.002012868032507359   0.02585114637600456
-0.535262040767381   0.002012868032507359   0.02585114637600456
-0.535262040767381   0.002012868032507359   0.02585114637600456
-0.8511809210532821   -0.09640128342915928   -0.12520561867513733
-0.8511809210532821   -0.09640128342915928   -0.12520561867513733
-0.8511809210532821   -0.09640128342915928   -0.12520561867513733
-0.8511809210532821   -0.09640128342915928   -0.12520561867513733
-0.16893613096499716   0.22478404236178473   0.1009261281608479
-0.16893613096499716   0.22478404236178473   0.1009261281608479
-0.16893613096499716   0.22478404236178473   0.1009261281608479
-0.16893613096499716   0.22478404236178473   0.1009261281608479
-0.19825663493741588   0.1629119127279708   -0.12890259030769904
-0.19825663493741588   0.1629119127279708   -0.12890259030769904
-0.19825663493741588   0.1629119127279708   -0.12890259030769904
-0.19825663493741588   0.1629119127279708   -0.12890259030769904
-0.7394269039811427   0.21401346848645655   0.027630070144695013
-0.7394269039811427   0.21401346848645655   0.027630070144695013
-0.7394269039811427   0.21401346848645655   0.027630070144695013
-0.7394269039811427   0.21401346848645655   0.027630070144695013
-0.48465110765122865   0.11565490524232601   0.07555259648116708
-0.48465110765122865   0.11565490524232601   0.07555259648116708
-0.48465110765122865   0.11565490524232601   0.07555259648116708
-0.48465110765122865   0.11565490524232601   0.07555259648116708
-0.41005600550645427   -0.35839066198812375   -0.17334349190122686
-0.41005600550645427   -0.35839066198812375   -0.17334349190122686
-0.41005600550645427   -0.35839066198812375   -0.17334349190122686
-0.41005600550645427   -0.35839066198812375   -0.17334349190122686
0.16591181737917307   0.1076932284746559   0.21344191865863174
0.16591181737917307   0.1076932284746559   0.21344191865863174
0.16591181737917307   0.1076932284746559   0.21344191865863174
0.16591181737917307   0.1076932284746559   0.21344191865863174
0.16750733037294532   -0.17486747653876272   -0.22938584123321304
0.16750733037294532   -0.17486747653876272   -0.22938584123321304
0.16750733037294532   -0.17486747653876272   -0.22938584123321304
0.16750733037294532   -0.17486747653876272   -0.22938584123321304
-0.21858824010452324   0.11026443890528191   0.17467055543740231
-0.21858824010452324   0.11026443890528191   0.17467055543740231
-0.21858824010452324   0.11026443890528191   0.17467055543740231
-0.21858824010452324   0.11026443890528191   0.17467055543740231
-0.07936186825176955   -0.07551051899066882   -0.04101344704611372
-0.07936186825176955   -0.07551051899066882   -0.04101344704611372
-0.07936186825176955   -0.07551051899066882   -0.04101344704611372
-0.07936186825176955   -0.07551051899066882   -0.04101344704611372
-0.37072041042320214   -0.276484189917911   -0.19924166733280704
-0.37072041042320214   -0.276484189917911   -0.19924166733280704
-0.37072041042320214   -0.276484189917911   -0.19924166733280704
-0.37072041042320214   -0.276484189917911   -0.19924166733280704
0.3304022870052107   0.22264393859801535   0.18757752679133566
0.3304022870052107   0.22264393859801535   0.18757752679133566
0.3304022870052107   0.22264393859801535   0.18757752679133566
0.3304022870052107   0.22264393859801535   0.18757752679133566
0.2887861872606483   -0.10437415208920876   -0.27234279562334857
0.2887861872606483   -0.10437415208920876   -0.27234279562334857
0.2887861872606483   -0.10437415208920876   -0.27234279562334857
0.2887861872606483   -0.10437415208920876   -0.27234279562334857
-0.17379415738528012   0.16141003676383184   0.14001000165738592
-0.17379415738528012   0.16141003676383184   0.14001000165738592
-0.17379415738528012   0.16141003676383184   0.14001000165738592
-0.17379415738528012   0.16141003676383184   0.14001000165738592
0.02071857912871106   -0.003063362219695937   0.012865089148629492
0.02071857912871106   -0.003063362219695937   0.012865089148629492
0.02071857912871106   -0.003063362219695937   0.012865089148629492
0.02071857912871106   -0.003063362219695937   0.012865089148629492
-0.32383587126682933   -0.2184897590561271   -0.23029877193040132
-0.32383587126682933   -0.2184897590561271   -0.23029877193040132
-0.32383587126682933   -0.2184897590561271   -0.23029877193040132
-0.32383587126682933   -0.2184897590561271   -0.23029877193040132
0.44958632065406623   0.28628406324260863   0.14099965601192355
0.44958632065406623   0.28628406324260863   0.14099965601192355
0.44958632065406623   0.28628406324260863   0.14099965601192355
0.44958632065406623   0.28628406324260863   0.14099965601192355
0.458408804179555   0.0337645744495692   -0.29151334334040196
0.458408804179555   0.0337645744495692   -0.29151334334040196
0.458408804179555   0.0337645744495692   -0.29151334334040196
0.458408804179555   0.0337645744495692   -0.29151334334040196
-0.13191895334780337   0.25193747929700505   0.11376025107132917
-0.13191895334780337   0.25193747929700505   0.11376025107132917
-0.13191895334780337   0.25193747929700505   0.11376025107132917
-0.13191895334780337   0.25193747929700505   0.11376025107132917
0.11030714977906222   0.07320464366558135   0.06540155957712644
0.11030714977906222   0.07320464366558135   0.06540155957712644
0.11030714977906222   0.07320464366558135   0.06540155957712644
0.11030714977906222   0.07320464366558135   0.06540155957712644
-0.8861001385581402   0.04838693308492906   0.2437745770886966
-0.8861001385581402   0.04838693308492906   0.2437745770886966
-0.8861001385581402   0.04838693308492906   0.2437745770886966
-0.8861001385581402   0.04838693308492906   0.2437745770886966
-1.042143058842705   -0.31836443005321335   -0.14419652941328753
-1.042143058842705   -0.31836443005321335   -0.14419652941328753
-1.042143058842705   -0.31836443005321335   -0.14419652941328753
-1.042143058842705   -0.31836443005321335   -0.14419652941328753
-0.8320083704603357   0.1483399161176721   0.19973416546302433
-0.8320083704603357   0.1483399161176721   0.19973416546302433
-0.8320083704603357   0.1483399161176721   0.19973416546302433
-0.8320083704603357   0.1483399161176721   0.19973416546302433
-0.8601501895587965   -0.21086028732794726   -0.18557463769257207
-0.8601501895587965   -0.21086028732794726   -0.18557463769257207
-0.8601501895587965   -0.21086028732794726   -0.18557463769257207
-0.8601501895587965   -0.21086028732794726   -0.18557463769257207
-0.881858534284035   -0.06789477971604385   -0.06616469051554372
-0.881858534284035   -0.06789477971604385   -0.06616469051554372
-0.881858534284035   -0.06789477971604385   -0.06616469051554372
-0.881858534284035   -0.06789477971604385   -0.06616469051554372
-0.6993737021659016   0.18034126589395433   0.22710624605000143
-0.6993737021659016   0.18034126589395433   0.22710624605000143
-0.6993737021659016   0.18034126589395433   0.22710624605000143
-0.6993737021659016   0.18034126589395433   0.22710624605000143
-0.9827871339100133   -0.23286391316100952   -0.17295582250666652
-0.9827871339100133   -0.23286391316100952   -0.17295582250666652
-0.9827871339100133   -0.23286391316100952   -0.17295582250666652
-0.9827871339100133   -0.23286391316100952   -0.17295582250666652
-0.7666273161372245   0.20445865321446383   0.16818478530342668
-0.7666273161372245   0.20445865321446383   0.16818478530342668
-0.7666273161372245   0.20445865321446383   0.16818478530342668
-0.7666273161372245   0.20445865321446383   0.16818478530342668
-0.7210190533335447   -0.1474388344517033   -0.23135516136349868
-0.7210190533335447   -0.1474388344517033   -0.23135516136349868
-0.7210190533335447   -0.1474388344517033   -0.23135516136349868
-0.7210190533335447   -0.1474388344517033   -0.23135516136349868
-0.7791974792020603   0.0038842491783962763   -0.013280770622463939
-0.7791974792020603   0.0038842491783962763   -0.013280770622463939
-0.7791974792020603   0.0038842491783962763   -0.013280770622463939
-0.7791974792020603   0.0038842491783962763   -0.013280770622463939
-0.5592310240206801   0.24860848727242618   0.18153766347669417
-0.5592310240206801   0.24860848727242618   0.18153766347669417
-0.5592310240206801   0.24860848727242618   0.18153766347669417
-0.5592310240206801   0.24860848727242618   0.18153766347669417
-0.918962562403204   -0.18213588546275766   -0.2068969073492339
-0.918962562403204   -0.18213588546275766   -0.2068969073492339
-0.918962562403204   -0.18213588546275766   -0.2068969073492339
-0.918962562403204   -0.18213588546275766   -0.2068969073492339
-0.7067322554378819   0.2899669084704183   0.14527624233104766
-0.7067322554378819   0.2899669084704183   0.14527624233104766
-0.7067322554378819   0.2899669084704183   0.14527624233104766
-0.7067322554378819   0.2899669084704183   0.14527624233104766
-0.535344431189969   -0.026863300020805475   -0.2606863152734955
-0.535344431189969   -0.026863300020805475   -0.2606863152734955
-0.535344431189969   -0.026863300020805475   -0.2606863152734955
-0.535344431189969   -0.026863300020805475   -0.2606863152734955
-0.6555425306413498   0.07873985864284624   0.04343635046695731
-0.6555425306413498   0.07873985864284624   0.04343635046695731
-0.6555425306413498   0.07873985864284624   0.04343635046695731
-0.6555425306413498   0.07873985864284624   0.04343635046695731
-0.9336778892223984   -0.05830615821004974   0.13807104684506744
-0.9336778892223984   -0.05830615821004974   0.13807104684506744
-0.9336778892223984   -0.05830615821004974   0.13807104684506744
-0.9336778892223984   -0.05830615821004974   0.13807104684506744
-1.1514818833630487   -0.259636157301678   -0.05635394934950003
-1.1514818833630487   -0.259636157301678   -0.05635394934950003
-1.1514818833630487   -0.259636157301678   -0.05635394934950003
-1.1514818833630487   -0.259636157301678   -0.05635394934950003
-1.0255004281662723   0.026479018472947452   0.0926505429580773
-1.0255004281662723   0.026479018472947452   0.0926505429580773
-1.0255004281662723   0.026479018472947452   0.0926505429580773
-1.0255004281662723   0.026479018472947452   0.0926505429580773
-0.9434993929379165   -0.12382176715458719   -0.08555926365260456
-0.9434993929379165   -0.12382176715458719   -0.08555926365260456
-0.9434993929379165   -0.12382176715458719   -0.08555926365260456
-0.9434993929379165   -0.12382176715458719   -0.08555926365260456
-1.0141396324613892   -0.09593150130878536   -0.04683452458646274
-1.0141396324613892   -0.09593150130878536   -0.04683452458646274
-1.0141396324613892   -0.09593150130878536   -0.04683452458646274
-1.0141396324613892   -0.09593150130878536   -0.04683452458646274
-0.864673676028704   0.06421980921384712   0.12052774452500743
-0.864673676028704   0.06421980921384712   0.12052774452500743
-0.864673676028704   0.06421980921384712   0.12052774452500743
-0.864673676028704   0.06421980921384712   0.12052774452500743
-1.096504572611114   -0.1537409854311203   -0.08215017536207243
-1.096504572611114   -0.1537409854311203   -0.08215017536207243
-1.096504572611114   -0.1537409854311203   -0.08215017536207243
-1.096504572611114   -0.1537409854311203   -0.08215017536207243
-0.967074143863019   0.13802629684114712   0.07072100373620052
-0.967074143863019   0.13802629684114712   0.07072100373620052
-0.967074143863019   0.13802629684114712   0.07072100373620052
-0.967074143863019   0.13802629684114712   0.07072100373620052
-0.8656184745873465   -0.01613587143564285   -0.10617648229706136
-0.8656184745873465   -0.01613587143564285   -0.10617648229706136
-0.8656184745873465   -0.01613587143564285   -0.10617648229706136
-0.8656184745873465   -0.01613587143564285   -0.10617648229706136
-0.9444653079417622   0.00831257368133706   0.00202798575134535
-0.9444653079417622   0.00831257368133706   0.00202798575134535
-0.9444653079417622   0.00831257368133706   0.00202798575134535
-0.9444653079417622   0.00831257368133706   0.00202798575134535
-0.7829716052144886   0.18240583537493918   0.10851615775663048
-0.7829716052144886   0.18240583537493918   0.10851615775663048
-0.7829716052144886   0.18240583537493918   0.10851615775663048
-0.7829716052144886   0.18240583537493918   0.10851615775663048
-1.0413870046757352   -0.05218140140931882   -0.11063560207692963
-1.0413870046757352   -0.05218140140931882   -0.11063560207692963
-1.0413870046757352   -0.05218140140931882   -0.11063560207692963
-1.0413870046757352   -0.05218140140931882   -0.11063560207692963
-0.9083777243779401   0.2613250684676172   0.04987906940912053
-0.9083777243779401   0.2613250684676172   0.04987906940912053
-0.9083777243779401   0.2613250684676172   0.04987906940912053
-0.9083777243779401   0.2613250684676172   0.04987906940912053
-0.7982760701329915   0.10321375760712989   -0.12568968028121236
-0.7982760701329915   0.10321375760712989   -0.12568968028121236
-0.7982760701329915   0.10321375760712989   -0.12568968028121236
-0.7982760701329915   0.10321375760712989   -0.12568968028121236
-0.8786092527991454   0.11578300010079434   0.05169449747201599
-0.8786092527991454   0.11578300010079434   0.05169449747201599
-0.8786092527991454   0.11578300010079434   0.05169449747201599
-0.8786092527991454   0.11578300010079434   0.05169449747201599
-1.112049375939135   -0.15739376603378982   0.03856619650215733
-1.112049375939135   -0.15739376603378982   0.03856619650215733
-1.112049375939135   -0.15739376603378982   0.03856619650215733
-1.112049375939135   -0.15739376603378982   0.03856619650215733
-1.2608616924546219   -0.1630546340788799   0.034185705942525284
-1.2608616924546219   -0.1630546340788799   0.034185705942525284
-1.2608616924546219   -0.1630546340788799   0.034185705942525284
-1.2608616924546219   -0.1630546340788799   0.034185705942525284
-1.213881951884461   -0.07367218989416147   -0.011926335934251561
-1.213881951884461   -0.07367218989416147   -0.011926335934251561
-1.213881951884461   -0.07367218989416147   -0.011926335934251561
-1.213881951884461   -0.07367218989416147   -0.011926335934251561
-1.0516296245624122   -0.022550128683869297   0.011033708134187484
-1.0516296245624122   -0.022550128683869297   0.011033708134187484
-1.0516296245624122   -0.022550128683869297   0.011033708134187484
-1.0516296245624122   -0.022550128683869297   0.011033708134187484
-1.1613427357047243   -0.09825751599737206   -0.03099129403596889
-1.1613427357047243   -0.09825751599737206   -0.03099129403596889
-1.1613427357047243   -0.09825751599737206   -0.03099129403596889
-1.1613427357047243   -0.09825751599737206   -0.03099129403596889
-1.0525792558332654   -0.03523274906489601   0.018968172160941092
-1.0525792558332654   -0.03523274906489601   0.018968172160941092
-1.0525792558332654   -0.03523274906489601   0.018968172160941092
-1.0525792558332654   -0.03523274906489601   0.018968172160941092
-1.2055687146753278   -0.05362596357486382   0.009593623792130315
-1.2055687146753278   -0.05362596357486382   0.009593623792130315
-1.2055687146753278   -0.05362596357486382   0.009593623792130315
-1.2055687146753278   -0.05362596357486382   0.009593623792130315
-1.1525554541164826   0.05010636651871275   -0.030323414232064888
-1.1525554541164826   0.05010636651871275   -0.030323414232064888
-1.1525554541164826   0.05010636651871275   -0.030323414232064888
-1.1525554541164826   0.05010636651871275   -0.030323414232064888
-0.9934018335252752   0.0899085689372886   -0.012799716671222885
-0.9934018335252752   0.0899085689372886   -0.012799716671222885
-0.9934018335252752   0.0899085689372886   -0.012799716671222885
-0.9934018335252752   0.0899085689372886   -0.012799716671222885
-1.0973082900745963   0.012456694487765596   0.01721292787599918
-1.0973082900745963   0.012456694487765596   0.01721292787599918
-1.0973082900745963   0.012456694487765596   0.01721292787599918
-1.0973082900745963   0.012456694487765596   0.01721292787599918
-0.9914785208706485   0.08810959926844131   -0.001384183729256333
-0.9914785208706485   0.08810959926844131   -0.001384183729256333
-0.9914785208706485   0.08810959926844131   -0.001384183729256333
-0.9914785208706485   0.08810959926844131   -0.001384183729256333
-1.148062738445562   0.05832136451310499   -0.01607483387185417
-1.148062738445562   0.05832136451310499   -0.01607483387185417
-1.148062738445562   0.05832136451310499   -0.01607483387185417
-1.148062738445562   0.05832136451310499   -0.01607483387185417
-1.0938391297799026   0.1746122376422698   -0.05113262118389433
-1.0938391297799026   0.1746122376422698   -0.05113262118389433
-1.0938391297799026   0.1746122376422698   -0.05113262118389433
-1.0938391297799026   0.1746122376422698   -0.05113262118389433
-0.9378378623071687   0.20282745129328913   -0.038924003062694765
-0.9378378623071687   0.20282745129328913   -0.038924003062694765
-0.9378378623071687   0.20282745129328913   -0.038924003062694765
-0.9378378623071687   0.20282745129328913   -0.038924003062694765
-1.036196895075788   0.12336681095879012   0.0631660811559459
-1.036196895075788   0.12336681095879012   0.0631660811559459
-1.036196895075788   0.12336681095879012   0.0631660811559459
-1.036196895075788   0.12336681095879012   0.0631660811559459
-1.2975358528153589   -0.24859754316538527   -0.06364218677467738
-1.2975358528153589   -0.24859754316538527   -0.06364218677467738
-1.2975358528153589   -0.24859754316538527   -0.06364218677467738
-1.2975358528153589   -0.24859754316538527   -0.06364218677467738
-1.3790789441307147   -0.06849657791659389   0.12080583989540541
-1.3790789441307147   -0.06849657791659389   0.12080583989540541
-1.3790789441307147   -0.06849657791659389   0.12080583989540541
-1.3790789441307147   -0.06849657791659389   0.12080583989540541
-1.4007368666698456   -0.1695421148617106   -0.11772048062905911
-1.4007368666698456   -0.1695421148617106   -0.11772048062905911
-1.4007368666698456   -0.1695421148617106   -0.11772048062905911
-1.4007368666698456   -0.1695421148617106   -0.11772048062905911
-1.161487200367558   0.07475308381699153   0.10162214793911084
-1.161487200367558   0.07475308381699153   0.10162214793911084
-1.161487200367558   0.07475308381699153   0.10162214793911084
-1.161487200367558   0.07475308381699153   0.10162214793911084
-1.3043469063256001   -0.09625138930838928   -0.019441810375665752
-1.3043469063256001   -0.09625138930838928   -0.019441810375665752
-1.3043469063256001   -0.09625138930838928   -0.019441810375665752
-1.3043469063256001   -0.09625138930838928   -0.019441810375665752
-1.2396481191637596   -0.13055511806637707   -0.08387424415853828
-1.2396481191637596   -0.13055511806637707   -0.08387424415853828
-1.2396481191637596   -0.13055511806637707   -0.08387424415853828
-1.2396481191637596   -0.13055511806637707   -0.08387424415853828
-1.3148527717334406   0.04348926316189028   0.09866861602936448
-1.3148527717334406   0.04348926316189028   0.09866861602936448
-1.3148527717334406   0.04348926316189028   0.09866861602936448
-1.3148527717334406   0.04348926316189028   0.09866861602936448
-1.320618341616863   -0.05215103532197651   -0.1320670496060924
-1.320618341616863   -0.05215103532197651   -0.1320670496060924
-1.320618341616863   -0.05215103532197651   -0.1320670496060924
-1.320618341616863   -0.05215103532197651   -0.1320670496060924
-1.1061840105760408   0.17620367721824098   0.07543649277060865
-1.1061840105760408   0.17620367721824098   0.07543649277060865
-1.1061840105760408   0.17620367721824098   0.07543649277060865
-1.1061840105760408   0.17620367721824098   0.07543649277060865
-1.231767431961343   0.010305381990710738   0.030287155809349403
-1.231767431961343   0.010305381990710738   0.030287155809349403
-1.231767431961343   0.010305381990710738   0.030287155809349403
-1.231767431961343   0.010305381990710738   0.030287155809349403
-1.1819303828136065   -0.019515309899921396   -0.10757638129907336
-1.1819303828136065   -0.019515309899921396   -0.10757638129907336
-1.1819303828136065   -0.019515309899921396   -0.10757638129907336
-1.1819303828136065   -0.019515309899921396   -0.10757638129907336
-1.2370662051618195   0.15137371601368282   0.08216888133347383
-1.2370662051618195   0.15137371601368282   0.08216888133347383
-1.2370662051618195   0.15137371601368282   0.08216888133347383
-1.2370662051618195   0.15137371601368282   0.08216888133347383
-1.2504712486124865   0.07730317162816158   -0.14487706951537457
-1.2504712486124865   0.07730317162816158   -0.14487706951537457
-1.2504712486124865   0.07730317162816158   -0.14487706951537457
-1.2504712486124865   0.07730317162816158   -0.14487706951537457
-1.0507258279492242   0.28943154190581355   0.049614583705953536
-1.0507258279492242   0.28943154190581355   0.049614583705953536
-1.0507258279492242   0.28943154190581355   0.049614583705953536
-1.0507258279492242   0.28943154190581355   0.049614583705953536
-1.1698874464103346   0.11621683157916729   0.07789581842868543
-1.1698874464103346   0.11621683157916729   0.07789581842868543
-1.1698874464103346   0.11621683157916729   0.07789581842868543
-1.1698874464103346   0.11621683157916729   0.07789581842868543
-1.4805570525448735   -0.2960876543835672   -0.15899362570843753
-1.4805570525448735   -0.2960876543835672   -0.15899362570843753
-1.4805570525448735   -0.2960876543835672   -0.15899362570843753
-1.4805570525448735   -0.2960876543835672   -0.15899362570843753
-1.6296281622428426   0.024663724612595028   0.21661061917265456
-1.6296281622428426   0.024663724612595028   0.21661061917265456
-1.6296281622428426   0.024663724612595028   0.21661061917265456
-1.6296281622428426   0.024663724612595028   0.21661061917265456
-1.6065231346899715   -0.2445556193638811   -0.21149484132290303
-1.6065231346899715   -0.2445556193638811   -0.21149484132290303
-1.6065231346899715   -0.2445556193638811   -0.21149484132290303
-1.6065231346899715   -0.2445556193638811   -0.21149484132290303
-1.2671586333517544   0.18644946122096306   0.19417910987870735
-1.2671586333517544   0.18644946122096306   0.19417910987870735
-1.2671586333517544   0.18644946122096306   0.19417910987870735
-1.2671586333517544   0.18644946122096306   0.19417910987870735
-1.436186180827115   -0.06299839088327458   -0.01023866788386997
-1.436186180827115   -0.06299839088327458   -0.01023866788386997
-1.436186180827115   -0.06299839088327458   -0.01023866788386997
-1.436186180827115   -0.06299839088327458   -0.01023866788386997
-1.419889607962881   -0.2012793384542318   -0.18174696350174702
-1.419889607962881   -0.2012793384542318   -0.18174696350174702
-1.419889607962881   -0.2012793384542318   -0.18174696350174702
-1.419889607962881   -0.2012793384542318   -0.18174696350174702
-1.4456241646794736   0.15134117571065947   0.19710321365503108
-1.4456241646794736   0.15134117571065947   0.19710321365503108
-1.4456241646794736   0.15134117571065947   0.19710321365503108
-1.4456241646794736   0.15134117571065947   0.19710321365503108
-1.4686679175168629   -0.17595809995885245   -0.2519569218244526
-1.4686679175168629   -0.17595809995885245   -0.2519569218244526
-1.4686679175168629   -0.17595809995885245   -0.2519569218244526
-1.4686679175168629   -0.17595809995885245   -0.2519569218244526
-1.2050453700701451   0.23476210756322996   0.15888466524229153
-1.2050453700701451   0.23476210756322996   0.15888466524229153
-1.2050453700701451   0.23476210756322996   0.15888466524229153
-1.2050453700701451   0.23476210756322996   0.15888466524229153
-1.3423328125662313   0.00861118063722377   0.03755631179127468
-1.3423328125662313   0.00861118063722377   0.03755631179127468
-1.3423328125662313   0.00861118063722377   0.03755631179127468
-1.3423328125662313   0.00861118063722377   0.03755631179127468
-1.3547709679816904   -0.14481964086447627   -0.21016157588774448
-1.3547709679816904   -0.14481964086447627   -0.21016157588774448
-1.3547709679816904   -0.14481964086447627   -0.21016157588774448
-1.3547709679816904   -0.14481964086447627   -0.21016157588774448
-1.3103890731330163   0.21217689494115255   0.15130230519477586
-1.3103890731330163   0.21217689494115255   0.15130230519477586
-1.3103890731330163   0.21217689494115255   0.15130230519477586
-1.3103890731330163   0.21217689494115255   0.15130230519477586
-1.288115465266404   -0.057097266734499275   -0.27521696716759203
-1.288115465266404   -0.057097266734499275   -0.27521696716759203
-1.288115465266404   -0.057097266734499275   -0.27521696716759203
-1.288115465266404   -0.057097266734499275   -0.27521696716759203
-1.1493476822891036   0.3071717425203384   0.13087219120934657
-1.1493476822891036   0.3071717425203384   0.13087219120934657
-1.1493476822891036   0.3071717425203384   0.13087219120934657
-1.1493476822891036   0.3071717425203384   0.13087219120934657
-1.215052144212991   0.0803081096209487   0.09274767490880388
-1.215052144212991   0.0803081096209487   0.09274767490880388
-1.215052144212991   0.0803081096209487   0.09274767490880388
-1.215052144212991   0.0803081096209487   0.09274767490880388
0.8944793838590511   0.14510836589699244   0.2365450076359854
0.8944793838590511   0.14510836589699244   0.2365450076359854
0.8944793838590511   0.14510836589699244   0.2365450076359854
0.8944793838590511   0.14510836589699244   0.2365450076359854
-0.024918462516380593   -0.3806589579486124   -0.15665770659913852
-0.024918462516380593   -0.3806589579486124   -0.15665770659913852
-0.024918462516380593   -0.3806589579486124   -0.15665770659913852
-0.024918462516380593   -0.3806589579486124   -0.15665770659913852
0.2000164442739084   0.07486418585546221   0.18288109439177028
0.2000164442739084   0.07486418585546221   0.18288109439177028
0.2000164442739084   0.07486418585546221   0.18288109439177028
0.2000164442739084   0.07486418585546221   0.18288109439177028
0.9346906918836915   -0.1350199705577257   -0.1958445737534457
0.9346906918836915   -0.1350199705577257   -0.1958445737534457
0.9346906918836915   -0.1350199705577257   -0.1958445737534457
0.9346906918836915   -0.1350199705577257   -0.1958445737534457
0.4561184688489829   -0.07459357287114451   -0.11235630389788318
0.4561184688489829   -0.07459357287114451   -0.11235630389788318
0.4561184688489829   -0.07459357287114451   -0.11235630389788318
0.4561184688489829   -0.07459357287114451   -0.11235630389788318
1.0955765270276612   0.2600940915079952   0.21347053990068215
1.0955765270276612   0.2600940915079952   0.21347053990068215
1.0955765270276612   0.2600940915079952   0.21347053990068215
1.0955765270276612   0.2600940915079952   0.21347053990068215
0.04894183411066014   -0.3104386512295372   -0.1871891193394717
0.04894183411066014   -0.3104386512295372   -0.1871891193394717
0.04894183411066014   -0.3104386512295372   -0.1871891193394717
0.04894183411066014   -0.3104386512295372   -0.1871891193394717
0.2826675490458424   0.13011572670855712   0.15273104205841642
0.2826675490458424   0.13011572670855712   0.15273104205841642
0.2826675490458424   0.13011572670855712   0.15273104205841642
0.2826675490458424   0.13011572670855712   0.15273104205841642
1.092006751007694   -0.07258132865827865   -0.24525803004346897
1.092006751007694   -0.07258132865827865   -0.24525803004346897
1.092006751007694   -0.07258132865827865   -0.24525803004346897
1.092006751007694   -0.07258132865827865   -0.24525803004346897
0.5979783767776155   -0.005604109363720355   -0.052526224645372384
0.5979783767776155   -0.005604109363720355   -0.052526224645372384
0.5979783767776155   -0.005604109363720355   -0.052526224645372384
0.5979783767776155   -0.005604109363720355   -0.052526224645372384
1.2547471473468166   0.32763163546320123   0.16823098753066298
1.2547471473468166   0.32763163546320123   0.16823098753066298
1.2547471473468166   0.32763163546320123   0.16823098753066298
1.2547471473468166   0.32763163546320123   0.16823098753066298
0.12956231650564587   -0.260462073613997   -0.2222173203200123
0.12956231650564587   -0.260462073613997   -0.2222173203200123
0.12956231650564587   -0.260462073613997   -0.2222173203200123
0.12956231650564587   -0.260462073613997   -0.2222173203200123
0.36291935396268427   0.23136255277887877   0.13217916357227255
0.36291935396268427   0.23136255277887877   0.13217916357227255
0.36291935396268427   0.23136255277887877   0.13217916357227255
0.36291935396268427   0.23136255277887877   0.13217916357227255
1.3007319043685437   0.06723019377065995   -0.2705614438256087
1.3007319043685437   0.06723019377065995   -0.2705614438256087
1.3007319043685437   0.06723019377065995   -0.2705614438256087
1.3007319043685437   0.06723019377065995   -0.2705614438256087
0.717557243154452   0.07156754101415402   0.004167173543636216
0.717557243154452   0.07156754101415402   0.004167173543636216
0.717557243154452   0.07156754101415402   0.004167173543636216
0.717557243154452   0.07156754101415402   0.004167173543636216
0.12222651643872395   0.03838163214510907   0.16002659808266276
0.12222651643872395   0.03838163214510907   0.16002659808266276
0.12222651643872395   0.03838163214510907   0.16002659808266276
0.12222651643872395   0.03838163214510907   0.16002659808266276
-0.8581781520386244   -0.32294152277074173   -0.07181954149712227
-0.8581781520386244   -0.32294152277074173   -0.07181954149712227
-0.8581781520386244   -0.32294152277074173   -0.07181954149712227
-0.8581781520386244   -0.32294152277074173   -0.07181954149712227
-0.7158667845369971   -0.046504304550701606   0.07339544096590399
-0.7158667845369971   -0.046504304550701606   0.07339544096590399
-0.7158667845369971   -0.046504304550701606   0.07339544096590399
-0.7158667845369971   -0.046504304550701606   0.07339544096590399
0.12932850283751396   -0.038348254163418916   -0.057346172771320945
0.12932850283751396   -0.038348254163418916   -0.057346172771320945
0.12932850283751396   -0.038348254163418916   -0.057346172771320945
0.12932850283751396   -0.038348254163418916   -0.057346172771320945
-0.33762878646423145   -0.08407909041139448   -0.05414997395412521
-0.33762878646423145   -0.08407909041139448   -0.05414997395412521
-0.33762878646423145   -0.08407909041139448   -0.05414997395412521
-0.33762878646423145   -0.08407909041139448   -0.05414997395412521
0.20723163999135802   0.15183378660723984   0.14198747222725608
0.20723163999135802   0.15183378660723984   0.14198747222725608
0.20723163999135802   0.15183378660723984   0.14198747222725608
0.20723163999135802   0.15183378660723984   0.14198747222725608
-0.786653950608098   -0.22957037423861454   -0.09747431970168716
-0.786653950608098   -0.22957037423861454   -0.09747431970168716
-0.786653950608098   -0.22957037423861454   -0.09747431970168716
-0.786653950608098   -0.22957037423861454   -0.09747431970168716
-0.6404548960590276   0.06051430430869478   0.05191081789630791
-0.6404548960590276   0.06051430430869478   0.05191081789630791
-0.6404548960590276   0.06051430430869478   0.05191081789630791
-0.6404548960590276   0.06051430430869478   0.05191081789630791
0.22326588020342994   0.06339583702493443   -0.07755741247002342
0.22326588020342994   0.06339583702493443   -0.07755741247002342
0.22326588020342994   0.06339583702493443   -0.07755741247002342
0.22326588020342994   0.06339583702493443   -0.07755741247002342
-0.2577248886191805   0.010468961962654927   -0.006450835961360372
-0.2577248886191805   0.010468961962654927   -0.006450835961360372
-0.2577248886191805   0.010468961962654927   -0.006450835961360372
-0.2577248886191805   0.010468961962654927   -0.006450835961360372
0.30442741203749707   0.2645315159114896   0.1271145678137573
0.30442741203749707   0.2645315159114896   0.1271145678137573
0.30442741203749707   0.2645315159114896   0.1271145678137573
0.30442741203749707   0.2645315159114896   0.1271145678137573
-0.714779179233379   -0.13378412591814456   -0.12541216774860944
-0.714779179233379   -0.13378412591814456   -0.12541216774860944
-0.714779179233379   -0.13378412591814456   -0.12541216774860944
-0.714779179233379   -0.13378412591814456   -0.12541216774860944
-0.5646166981994482   0.18136928744804068   0.03142859698979815
-0.5646166981994482   0.18136928744804068   0.03142859698979815
-0.5646166981994482   0.18136928744804068   0.03142859698979815
-0.5646166981994482   0.18136928744804068   0.03142859698979815
0.3061091048791976   0.17858834904685045   -0.09909787811313248
0.3061091048791976   0.17858834904685045   -0.09909787811313248
0.3061091048791976   0.17858834904685045   -0.09909787811313248
0.3061091048791976   0.17858834904685045   -0.09909787811313248
-0.16953816984767142   0.11468093740586008   0.044335950469070226
-0.16953816984767142   0.11468093740586008   0.044335950469070226
-0.16953816984767142   0.11468093740586008   0.044335950469070226
-0.16953816984767142   0.11468093740586008   0.044335950469070226
-0.780209315203668   -0.062287229863153715   0.05737034977007939
-0.780209315203668   -0.062287229863153715   0.05737034977007939
-0.780209315203668   -0.062287229863153715   0.05737034977007939
-0.780209315203668   -0.062287229863153715   0.05737034977007939
-1.6764758758145475   -0.22850428571141435   0.015124389763071167
-1.6764758758145475   -0.22850428571141435   0.015124389763071167
-1.6764758758145475   -0.22850428571141435   0.015124389763071167
-1.6764758758145475   -0.22850428571141435   0.015124389763071167
-1.6102641767656536   -0.1428130766376421   -0.03164647943143499
-1.6102641767656536   -0.1428130766376421   -0.03164647943143499
-1.6102641767656536   -0.1428130766376421   -0.03164647943143499
-1.6102641767656536   -0.1428130766376421   -0.03164647943143499
-0.7021814034762669   0.059458274124475435   0.03585976759439421
-0.7021814034762669   0.059458274124475435   0.03585976759439421
-0.7021814034762669   0.059458274124475435   0.03585976759439421
-0.7021814034762669   0.059458274124475435   0.03585976759439421
-1.1940317880577518   -0.08583244946512683   -0.031401728690673945
-1.1940317880577518   -0.08583244946512683   -0.031401728690673945
-1.1940317880577518   -0.08583244946512683   -0.031401728690673945
-1.1940317880577518   -0.08583244946512683   -0.031401728690673945
-0.7031977934533369   0.05248059523151005   0.037755496602009095
-0.7031977934533369   0.05248059523151005   0.037755496602009095
-0.7031977934533369   0.05248059523151005   0.037755496602009095
-0.7031977934533369   0.05248059523151005   0.037755496602009095
-1.6031677238654463   -0.129755334821519   -0.009221956746521202
-1.6031677238654463   -0.129755334821519   -0.009221956746521202
-1.6031677238654463   -0.129755334821519   -0.009221956746521202
-1.6031677238654463   -0.129755334821519   -0.009221956746521202
-1.5310108587620799   -0.02500751587278871   -0.049771115484805104
-1.5310108587620799   -0.02500751587278871   -0.049771115484805104
-1.5310108587620799   -0.02500751587278871   -0.049771115484805104
-1.5310108587620799   -0.02500751587278871   -0.049771115484805104
-0.6275079699408849   0.1640756679301984   0.01308408486551807
-0.6275079699408849   0.1640756679301984   0.01308408486551807
-0.6275079699408849   0.1640756679301984   0.01308408486551807
-0.6275079699408849   0.1640756679301984   0.01308408486551807
-1.1122368212695948   0.01770402716707134   0.016608673255031944
-1.1122368212695948   0.01770402716707134   0.016608673255031944
-1.1122368212695948   0.01770402716707134   0.016608673255031944
-1.1122368212695948   0.01770402716707134   0.016608673255031944
-0.6257035344120675   0.16937046515177948   0.01681146528802356
-0.6257035344120675   0.16937046515177948   0.01681146528802356
-0.6257035344120675   0.16937046515177948   0.01681146528802356
-0.6257035344120675   0.16937046515177948   0.01681146528802356
-1.5279742938408802   -0.02546131264437551   -0.03413449410723336
-1.5279742938408802   -0.02546131264437551   -0.03413449410723336
-1.5279742938408802   -0.02546131264437551   -0.03413449410723336
-1.5279742938408802   -0.02546131264437551   -0.03413449410723336
-1.4549666771390293   0.0930859479550229   -0.07050270492216558
-1.4549666771390293   0.0930859479550229   -0.07050270492216558
-1.4549666771390293   0.0930859479550229   -0.07050270492216558
-1.4549666771390293   0.0930859479550229   -0.07050270492216558
-0.5559955250785468   0.2690019681469743   -0.013098218104620793
-0.5559955250785468   0.2690019681469743   -0.013098218104620793
-0.5559955250785468   0.2690019681469743   -0.013098218104620793
-0.5559955250785468   0.2690019681469743   -0.013098218104620793
-1.0346651408246863   0.12093940245494172   0.0614838852116244
-1.0346651408246863   0.12093940245494172   0.0614838852116244
-1.0346651408246863   0.12093940245494172   0.0614838852116244
-1.0346651408246863   0.12093940245494172   0.0614838852116244
-1.675853492311072   -0.1617218760149674   -0.04854610241598224
-1.675853492311072   -0.1617218760149674   -0.04854610241598224
-1.675853492311072   -0.1617218760149674   -0.04854610241598224
-1.675853492311072   -0.1617218760149674   -0.04854610241598224
-2.4849409447674566   -0.13979404649056654   0.10059424371693278
-2.4849409447674566   -0.13979404649056654   0.10059424371693278
-2.4849409447674566   -0.13979404649056654   0.10059424371693278
-2.4849409447674566   -0.13979404649056654   0.10059424371693278
-2.484629231307437   -0.2370007628647196   -0.1340050545295658
-2.484629231307437   -0.2370007628647196   -0.1340050545295658
-2.484629231307437   -0.2370007628647196   -0.1340050545295658
-2.484629231307437   -0.2370007628647196   -0.1340050545295658
-1.5203752420909324   0.15244978637870904   0.12253533092581882
-1.5203752420909324   0.15244978637870904   0.12253533092581882
-1.5203752420909324   0.15244978637870904   0.12253533092581882
-1.5203752420909324   0.15244978637870904   0.12253533092581882
-2.0300885842563567   -0.08646745625788227   -0.013121830059458536
-2.0300885842563567   -0.08646745625788227   -0.013121830059458536
-2.0300885842563567   -0.08646745625788227   -0.013121830059458536
-2.0300885842563567   -0.08646745625788227   -0.013121830059458536
-1.598147335684025   -0.046398702471902864   -0.06747664818901696
-1.598147335684025   -0.046398702471902864   -0.06747664818901696
-1.598147335684025   -0.046398702471902864   -0.06747664818901696
-1.598147335684025   -0.046398702471902864   -0.06747664818901696
-2.4018623201626683   -0.033157456462426516   0.07598619479199922
-2.4018623201626683   -0.033157456462426516   0.07598619479199922
-2.4018623201626683   -0.033157456462426516   0.07598619479199922
-2.4018623201626683   -0.033157456462426516   0.07598619479199922
-2.3855762266245444   -0.12458005214771228   -0.1490899380107768
-2.3855762266245444   -0.12458005214771228   -0.1490899380107768
-2.3855762266245444   -0.12458005214771228   -0.1490899380107768
-2.3855762266245444   -0.12458005214771228   -0.1490899380107768
-1.4470145844186415   0.24770250187704496   0.09750023848255251
-1.4470145844186415   0.24770250187704496   0.09750023848255251
-1.4470145844186415   0.24770250187704496   0.09750023848255251
-1.4470145844186415   0.24770250187704496   0.09750023848255251
-1.9322611842035111   0.017867682326226708   0.036301349260961235
-1.9322611842035111   0.017867682326226708   0.036301349260961235
-1.9322611842035111   0.017867682326226708   0.036301349260961235
-1.9322611842035111   0.017867682326226708   0.036301349260961235
-1.5222205300745144   0.059786397650412104   -0.0906133855701848
-1.5222205300745144   0.059786397650412104   -0.0906133855701848
-1.5222205300745144   0.059786397650412104   -0.0906133855701848
-1.5222205300745144   0.059786397650412104   -0.0906133855701848
-2.304745905872418   0.06896042717519357   0.061521186426949676
-2.304745905872418   0.06896042717519357   0.061521186426949676
-2.304745905872418   0.06896042717519357   0.061521186426949676
-2.304745905872418   0.06896042717519357   0.061521186426949676
-2.2969272864544177   -0.0018200855853877096   -0.16044209524485986
-2.2969272864544177   -0.0018200855853877096   -0.16044209524485986
-2.2969272864544177   -0.0018200855853877096   -0.16044209524485986
-2.2969272864544177   -0.0018200855853877096   -0.16044209524485986
-1.3744079494951496   0.3530882033012226   0.07228867795103236
-1.3744079494951496   0.3530882033012226   0.07228867795103236
-1.3744079494951496   0.3530882033012226   0.07228867795103236
-1.3744079494951496   0.3530882033012226   0.07228867795103236
-1.8586217369094975   0.11534344397877777   0.08064826622351615
-1.8586217369094975   0.11534344397877777   0.08064826622351615
-1.8586217369094975   0.11534344397877777   0.08064826622351615
-1.8586217369094975   0.11534344397877777   0.08064826622351615
-2.5530043775887274   -0.23269752972259217   -0.14681943715739676
-2.5530043775887274   -0.23269752972259217   -0.14681943715739676
-2.5530043775887274   -0.23269752972259217   -0.14681943715739676
-2.5530043775887274   -0.23269752972259217   -0.14681943715739676
-3.4053226860605497   -0.05839594047225649   0.21681937455662392
-3.4053226860605497   -0.05839594047225649   0.21681937455662392
-3.4053226860605497   -0.05839594047225649   0.21681937455662392
-3.4053226860605497   -0.05839594047225649   0.21681937455662392
-3.3562547114524173   -0.30930735780551183   -0.19550890715288177
-3.3562547114524173   -0.30930735780551183   -0.19550890715288177
-3.3562547114524173   -0.30930735780551183   -0.19550890715288177
-3.3562547114524173   -0.30930735780551183   -0.19550890715288177
-2.3162266004021825   0.2572595127032382   0.2137478244287484
-2.3162266004021825   0.2572595127032382   0.2137478244287484
-2.3162266004021825   0.2572595127032382   0.2137478244287484
-2.3162266004021825   0.2572595127032382   0.2137478244287484
-2.7824749657910246   -0.04919456222346019   0.022576238891472866
-2.7824749657910246   -0.04919456222346019   0.022576238891472866
-2.7824749657910246   -0.04919456222346019   0.022576238891472866
-2.7824749657910246   -0.04919456222346019   0.022576238891472866
-2.468812663237529   -0.12591813511742095   -0.16600484192731546
-2.468812663237529   -0.12591813511742095   -0.16600484192731546
-2.468812663237529   -0.12591813511742095   -0.16600484192731546
-2.468812663237529   -0.12591813511742095   -0.16600484192731546
-3.1991576397271433   0.07838129890508883   0.20228779476283956
-3.1991576397271433   0.07838129890508883   0.20228779476283956
-3.1991576397271433   0.07838129890508883   0.20228779476283956
-3.1991576397271433   0.07838129890508883   0.20228779476283956
-3.20011463385382   -0.24254302219412216   -0.23257171976079447
-3.20011463385382   -0.24254302219412216   -0.23257171976079447
-3.20011463385382   -0.24254302219412216   -0.23257171976079447
-3.20011463385382   -0.24254302219412216   -0.23257171976079447
-2.2353852679320054   0.3011430889779727   0.17614171432621012
-2.2353852679320054   0.3011430889779727   0.17614171432621012
-2.2353852679320054   0.3011430889779727   0.17614171432621012
-2.2353852679320054   0.3011430889779727   0.17614171432621012
-2.6931129162500143   0.020782968360206433   0.06256397091825008
-2.6931129162500143   0.020782968360206433   0.06256397091825008
-2.6931129162500143   0.020782968360206433   0.06256397091825008
-2.6931129162500143   0.020782968360206433   0.06256397091825008
-2.383352024077635   -0.07098829314292854   -0.1915606842810115
-2.383352024077635   -0.07098829314292854   -0.1915606842810115
-2.383352024077635   -0.07098829314292854   -0.1915606842810115
-2.383352024077635   -0.07098829314292854   -0.1915606842810115
-3.04660892600181   0.1351273116331585   0.15728648567194364
-3.04660892600181   0.1351273116331585   0.15728648567194364
-3.04660892600181   0.1351273116331585   0.15728648567194364
-3.04660892600181   0.1351273116331585   0.15728648567194364
-3.008140896240328   -0.14260211061954087   -0.2592038605388252
-3.008140896240328   -0.14260211061954087   -0.2592038605388252
-3.008140896240328   -0.14260211061954087   -0.2592038605388252
-3.008140896240328   -0.14260211061954087   -0.2592038605388252
-2.1642204264210068   0.35453160204551015   0.14674051729129525
-2.1642204264210068   0.35453160204551015   0.14674051729129525
-2.1642204264210068   0.35453160204551015   0.14674051729129525
-2.1642204264210068   0.35453160204551015   0.14674051729129525
-2.527915209531626   0.08647899774235335   0.11871283120983858
-2.527915209531626   0.08647899774235335   0.11871283120983858
-2.527915209531626   0.08647899774235335   0.11871283120983858
-2.527915209531626   0.08647899774235335   0.11871283120983858
2.7179741616259814   0.24668159485520758   0.23715243327759897
2.7179741616259814   0.24668159485520758   0.23715243327759897
2.7179741616259814   0.24668159485520758   0.23715243327759897
2.7179741616259814   0.24668159485520758   0.23715243327759897
0.9971063883650347   -0.45460040719369155   -0.15617283532065426
0.9971063883650347   -0.45460040719369155   -0.15617283532065426
0.9971063883650347   -0.45460040719369155   -0.15617283532065426
0.9971063883650347   -0.45460040719369155   -0.15617283532065426
1.2335126300370396   -0.0019318827876180777   0.17077392694374435
1.2335126300370396   -0.0019318827876180777   0.17077392694374435
1.2335126300370396   -0.0019318827876180777   0.17077392694374435
1.2335126300370396   -0.0019318827876180777   0.17077392694374435
2.7686097706562314   -0.06514167064368348   -0.1992850108854263
2.7686097706562314   -0.06514167064368348   -0.1992850108854263
2.7686097706562314   -0.06514167064368348   -0.1992850108854263
2.7686097706562314   -0.06514167064368348   -0.1992850108854263
1.8106055057625807   -0.08290598558904316   -0.1754664717773443
1.8106055057625807   -0.08290598558904316   -0.1754664717773443
1.8106055057625807   -0.08290598558904316   -0.1754664717773443
1.8106055057625807   -0.08290598558904316   -0.1754664717773443
2.931680033097533   0.34477644880933545   0.20614818186801862
2.931680033097533   0.34477644880933545   0.20614818186801862
2.931680033097533   0.34477644880933545   0.20614818186801862
2.931680033097533   0.34477644880933545   0.20614818186801862
1.0819219346987765   -0.4003704351376057   -0.1887409973975829
1.0819219346987765   -0.4003704351376057   -0.1887409973975829
1.0819219346987765   -0.4003704351376057   -0.1887409973975829
1.0819219346987765   -0.4003704351376057   -0.1887409973975829
1.3273706133833827   0.051729086643488464   0.14093018408967795
1.3273706133833827   0.051729086643488464   0.14093018408967795
1.3273706133833827   0.051729086643488464   0.14093018408967795
1.3273706133833827   0.051729086643488464   0.14093018408967795
2.9389155384110137   -0.004105090465198469   -0.25134257985463193
2.9389155384110137   -0.004105090465198469   -0.25134257985463193
2.9389155384110137   -0.004105090465198469   -0.25134257985463193
2.9389155384110137   -0.004105090465198469   -0.25134257985463193
1.988152947598111   -0.016895460387818695   -0.10609165758453942
1.988152947598111   -0.016895460387818695   -0.10609165758453942
1.988152947598111   -0.016895460387818695   -0.10609165758453942
1.988152947598111   -0.016895460387818695   -0.10609165758453942
3.1038709315542667   0.4105908104491774   0.1587384849472393
3.1038709315542667   0.4105908104491774   0.1587384849472393
3.1038709315542667   0.4105908104491774   0.1587384849472393
3.1038709315542667   0.4105908104491774   0.1587384849472393
1.1746862192049219   -0.35069581530609845   -0.22006688485303993
1.1746862192049219   -0.35069581530609845   -0.22006688485303993
1.1746862192049219   -0.35069581530609845   -0.22006688485303993
1.1746862192049219   -0.35069581530609845   -0.22006688485303993
1.4210848423471418   0.16984269796429022   0.12214813916394435
1.4210848423471418   0.16984269796429022   0.12214813916394435
1.4210848423471418   0.16984269796429022   0.12214813916394435
1.4210848423471418   0.16984269796429022   0.12214813916394435
3.162405297827597   0.15511672546625238   -0.27122748758522475
3.162405297827597   0.15511672546625238   -0.27122748758522475
3.162405297827597   0.15511672546625238   -0.27122748758522475
3.162405297827597   0.15511672546625238   -0.27122748758522475
2.0984789423639616   0.06326190392607028   -0.0459071876319735
2.0984789423639616   0.06326190392607028   -0.0459071876319735
2.0984789423639616   0.06326190392607028   -0.0459071876319735
2.0984789423639616   0.06326190392607028   -0.0459071876319735
1.1845999835838599   0.13776413280761038   0.1889306007721541
1.1845999835838599   0.13776413280761038   0.1889306007721541
1.1845999835838599   0.13776413280761038   0.1889306007721541
1.1845999835838599   0.13776413280761038   0.1889306007721541
-0.5740765206201256   -0.42405157783251823   -0.08170348405955619
-0.5740765206201256   -0.42405157783251823   -0.08170348405955619
-0.5740765206201256   -0.42405157783251823   -0.08170348405955619
-0.5740765206201256   -0.42405157783251823   -0.08170348405955619
-0.41109260484174126   -0.12346465275593789   0.057492941945216654
-0.41109260484174126   -0.12346465275593789   0.057492941945216654
-0.41109260484174126   -0.12346465275593789   0.057492941945216654
-0.41109260484174126   -0.12346465275593789   0.057492941945216654
1.194954372065092   0.0014449261985758355   -0.02539417190218779
1.194954372065092   0.0014449261985758355   -0.02539417190218779
1.194954372065092   0.0014449261985758355   -0.02539417190218779
1.194954372065092   0.0014449261985758355   -0.02539417190218779
0.33303198486243496   -0.09024124374174347   -0.07498727686268558
0.33303198486243496   -0.09024124374174347   -0.07498727686268558
0.33303198486243496   -0.09024124374174347   -0.07498727686268558
0.33303198486243496   -0.09024124374174347   -0.07498727686268558
1.2809284468697022   0.2371876623843295   0.16873346593511007
1.2809284468697022   0.2371876623843295   0.16873346593511007
1.2809284468697022   0.2371876623843295   0.16873346593511007
1.2809284468697022   0.2371876623843295   0.16873346593511007
-0.490202754268226   -0.352343463563566   -0.10917899437957905
-0.490202754268226   -0.352343463563566   -0.10917899437957905
-0.490202754268226   -0.352343463563566   -0.10917899437957905
-0.490202754268226   -0.352343463563566   -0.10917899437957905
-0.32361259989073393   -0.023186220252074945   0.03641078123909358
-0.32361259989073393   -0.023186220252074945   0.03641078123909358
-0.32361259989073393   -0.023186220252074945   0.03641078123909358
-0.32361259989073393   -0.023186220252074945   0.03641078123909358
1.29770489476632   0.09153416333700268   -0.04720348568915105
1.29770489476632   0.09153416333700268   -0.04720348568915105
1.29770489476632   0.09153416333700268   -0.04720348568915105
1.29770489476632   0.09153416333700268   -0.04720348568915105
0.4176300962813914   -0.010938686215910723   -0.02985207739310177
0.4176300962813914   -0.010938686215910723   -0.02985207739310177
0.4176300962813914   -0.010938686215910723   -0.02985207739310177
0.4176300962813914   -0.010938686215910723   -0.02985207739310177
1.3871032809796968   0.3416161011809499   0.1497065075337873
1.3871032809796968   0.3416161011809499   0.1497065075337873
1.3871032809796968   0.3416161011809499   0.1497065075337873
1.3871032809796968   0.3416161011809499   0.1497065075337873
-0.4061230963602726   -0.2663802683521838   -0.13294765300849107
-0.4061230963602726   -0.2663802683521838   -0.13294765300849107
-0.4061230963602726   -0.2663802683521838   -0.13294765300849107
-0.4061230963602726   -0.2663802683521838   -0.13294765300849107
-0.23726817206470213   0.09281441776502442   0.015409742421759687
-0.23726817206470213   0.09281441776502442   0.015409742421759687
-0.23726817206470213   0.09281441776502442   0.015409742421759687
-0.23726817206470213   0.09281441776502442   0.015409742421759687
1.388949517831076   0.19865773051209157   -0.0673435159641711
1.388949517831076   0.19865773051209157   -0.0673435159641711
1.388949517831076   0.19865773051209157   -0.0673435159641711
1.388949517831076   0.19865773051209157   -0.0673435159641711
0.5217793506588686   0.08617009648958524   0.022797731562402813
0.5217793506588686   0.08617009648958524   0.022797731562402813
0.5217793506588686   0.08617009648958524   0.022797731562402813
0.5217793506588686   0.08617009648958524   0.022797731562402813
-0.45098100777866246   0.029595258671851032   0.08012724364339019
-0.45098100777866246   0.029595258671851032   0.08012724364339019
-0.45098100777866246   0.029595258671851032   0.08012724364339019
-0.45098100777866246   0.029595258671851032   0.08012724364339019
-2.1139986031436386   -0.3740492794181431   -0.010558031379697566
-2.1139986031436386   -0.3740492794181431   -0.010558031379697566
-2.1139986031436386   -0.3740492794181431   -0.010558031379697566
-2.1139986031436386   -0.3740492794181431   -0.010558031379697566
-2.0101023375894282   -0.21924778677805798   -0.049749602805233765
-2.0101023375894282   -0.21924778677805798   -0.049749602805233765
-2.0101023375894282   -0.21924778677805798   -0.049749602805233765
-2.0101023375894282   -0.21924778677805798   -0.049749602805233765
-0.3763970429700886   0.05405280959215464   0.053453288955387326
-0.3763970429700886   0.05405280959215464   0.053453288955387326
-0.3763970429700886   0.05405280959215464   0.053453288955387326
-0.3763970429700886   0.05405280959215464   0.053453288955387326
-1.240068039545496   -0.11519268012611206   -0.046764106794512886
-1.240068039545496   -0.11519268012611206   -0.046764106794512886
-1.240068039545496   -0.11519268012611206   -0.046764106794512886
-1.240068039545496   -0.11519268012611206   -0.046764106794512886
-0.3591944178194119   0.13298963549762727   0.06052958880329843
-0.3591944178194119   0.13298963549762727   0.06052958880329843
-0.3591944178194119   0.13298963549762727   0.06052958880329843
-0.3591944178194119   0.13298963549762727   0.06052958880329843
-2.022768183693626   -0.2936478336370718   -0.03867878646720754
-2.022768183693626   -0.2936478336370718   -0.03867878646720754
-2.022768183693626   -0.2936478336370718   -0.03867878646720754
-2.022768183693626   -0.2936478336370718   -0.03867878646720754
-1.9137178033212439   -0.1092284342225549   -0.06722659251788946
-1.9137178033212439   -0.1092284342225549   -0.06722659251788946
-1.9137178033212439   -0.1092284342225549   -0.06722659251788946
-1.9137178033212439   -0.1092284342225549   -0.06722659251788946
-0.29123208809718915   0.14503607365616727   0.030091046298574974
-0.29123208809718915   0.14503607365616727   0.030091046298574974
-0.29123208809718915   0.14503607365616727   0.030091046298574974
-0.29123208809718915   0.14503607365616727   0.030091046298574974
-1.142878699542136   -0.023119169961211744   -0.0007453344771866863
-1.142878699542136   -0.023119169961211744   -0.0007453344771866863
-1.142878699542136   -0.023119169961211744   -0.0007453344771866863
-1.142878699542136   -0.023119169961211744   -0.0007453344771866863
-0.27049141947932875   0.24052354471517906   0.03830691832886529
-0.27049141947932875   0.24052354471517906   0.03830691832886529
-0.27049141947932875   0.24052354471517906   0.03830691832886529
-0.27049141947932875   0.24052354471517906   0.03830691832886529
-1.930234526522658   -0.20049195986512044   -0.05854668288239475
-1.930234526522658   -0.20049195986512044   -0.05854668288239475
-1.930234526522658   -0.20049195986512044   -0.05854668288239475
-1.930234526522658   -0.20049195986512044   -0.05854668288239475
-1.8240180754473683   0.00038219178565362943   -0.08817454954252514
-1.8240180754473683   0.00038219178565362943   -0.08817454954252514
-1.8240180754473683   0.00038219178565362943   -0.08817454954252514
-1.8240180754473683   0.00038219178565362943   -0.08817454954252514
-0.20987655908051223   0.23800376415819643   0.007178460949537058
-0.20987655908051223   0.23800376415819643   0.007178460949537058
-0.20987655908051223   0.23800376415819643   0.007178460949537058
-0.20987655908051223   0.23800376415819643   0.007178460949537058
-1.053560185352624   0.06859752661724922   0.043064809426011944
-1.053560185352624   0.06859752661724922   0.043064809426011944
-1.053560185352624   0.06859752661724922   0.043064809426011944
-1.053560185352624   0.06859752661724922   0.043064809426011944
-2.0597535689301374   -0.0812932066771272   -0.03208893305318937
-2.0597535689301374   -0.0812932066771272   -0.03208893305318937
-2.0597535689301374   -0.0812932066771272   -0.03208893305318937
-2.0597535689301374   -0.0812932066771272   -0.03208893305318937
-3.617150128776766   -0.3023825518263081   0.07088314069803682
-3.617150128776766   -0.3023825518263081   0.07088314069803682
-3.617150128776766   -0.3023825518263081   0.07088314069803682
-3.617150128776766   -0.3023825518263081   0.07088314069803682
-3.565767571063253   -0.31110229171848064   -0.14983273058780938
-3.565767571063253   -0.31110229171848064   -0.14983273058780938
-3.565767571063253   -0.31110229171848064   -0.14983273058780938
-3.565767571063253   -0.31110229171848064   -0.14983273058780938
-1.9014028694933454   0.13977414971929303   0.13472580117784994
-1.9014028694933454   0.13977414971929303   0.13472580117784994
-1.9014028694933454   0.13977414971929303   0.13472580117784994
-1.9014028694933454   0.13977414971929303   0.13472580117784994
-2.766737759299595   -0.1211237516305741   -0.01625026534917573
-2.766737759299595   -0.1211237516305741   -0.01625026534917573
-2.766737759299595   -0.1211237516305741   -0.01625026534917573
-2.766737759299595   -0.1211237516305741   -0.01625026534917573
-1.9599530597468038   0.030314130490284252   -0.04856513086043367
-1.9599530597468038   0.030314130490284252   -0.04856513086043367
-1.9599530597468038   0.030314130490284252   -0.04856513086043367
-1.9599530597468038   0.030314130490284252   -0.04856513086043367
-3.507122623992372   -0.20154751567204365   0.03383722872019279
-3.507122623992372   -0.20154751567204365   0.03383722872019279
-3.507122623992372   -0.20154751567204365   0.03383722872019279
-3.507122623992372   -0.20154751567204365   0.03383722872019279
-3.4399929588273093   -0.20353636357384142   -0.16571571436321192
-3.4399929588273093   -0.20353636357384142   -0.16571571436321192
-3.4399929588273093   -0.20353636357384142   -0.16571571436321192
-3.4399929588273093   -0.20353636357384142   -0.16571571436321192
-1.811583135354356   0.22660876930496154   0.1076095437890516
-1.811583135354356   0.22660876930496154   0.1076095437890516
-1.811583135354356   0.22660876930496154   0.1076095437890516
-1.811583135354356   0.22660876930496154   0.1076095437890516
-2.6389712516320225   -0.0193117898778169   0.029835990806266782
-2.6389712516320225   -0.0193117898778169   0.029835990806266782
-2.6389712516320225   -0.0193117898778169   0.029835990806266782
-2.6389712516320225   -0.0193117898778169   0.029835990806266782
-1.8665414426773734   0.13015203152047605   -0.07072525504156013
-1.8665414426773734   0.13015203152047605   -0.07072525504156013
-1.8665414426773734   0.13015203152047605   -0.07072525504156013
-1.8665414426773734   0.13015203152047605   -0.07072525504156013
-3.382269202014852   -0.10431417629991757   0.023680882425151956
-3.382269202014852   -0.10431417629991757   0.023680882425151956
-3.382269202014852   -0.10431417629991757   0.023680882425151956
-3.382269202014852   -0.10431417629991757   0.023680882425151956
-3.327509603846404   -0.08682769883313746   -0.17418917836951373
-3.327509603846404   -0.08682769883313746   -0.17418917836951373
-3.327509603846404   -0.08682769883313746   -0.17418917836951373
-3.327509603846404   -0.08682769883313746   -0.17418917836951373
-1.7245874890092778   0.32223288153357454   0.08712769290002029
-1.7245874890092778   0.32223288153357454   0.08712769290002029
-1.7245874890092778   0.32223288153357454   0.08712769290002029
-1.7245874890092778   0.32223288153357454   0.08712769290002029
-2.552029345383076   0.06783984068603954   0.06963250724981557
-2.552029345383076   0.06783984068603954   0.06963250724981557
-2.552029345383076   0.06783984068603954   0.06963250724981557
-2.552029345383076   0.06783984068603954   0.06963250724981557
-3.6329319506687137   -0.1744694770190135   -0.13593904356899733
-3.6329319506687137   -0.1744694770190135   -0.13593904356899733
-3.6329319506687137   -0.1744694770190135   -0.13593904356899733
-3.6329319506687137   -0.1744694770190135   -0.13593904356899733
-5.174550495393864   -0.1861272471629426   0.23576783661694387
-5.174550495393864   -0.1861272471629426   0.23576783661694387
-5.174550495393864   -0.1861272471629426   0.23576783661694387
-5.174550495393864   -0.1861272471629426   0.23576783661694387
-5.072884488752128   -0.37273373898952933   -0.17956054568514468
-5.072884488752128   -0.37273373898952933   -0.17956054568514468
-5.072884488752128   -0.37273373898952933   -0.17956054568514468
-5.072884488752128   -0.37273373898952933   -0.17956054568514468
-3.367595711801756   0.29054478295241437   0.23937949104878187
-3.367595711801756   0.29054478295241437   0.23937949104878187
-3.367595711801756   0.29054478295241437   0.23937949104878187
-3.367595711801756   0.29054478295241437   0.23937949104878187
-4.120863030263809   -0.050990163163729174   0.04703261162352629
-4.120863030263809   -0.050990163163729174   0.04703261162352629
-4.120863030263809   -0.050990163163729174   0.04703261162352629
-4.120863030263809   -0.050990163163729174   0.04703261162352629
-3.514882457886955   -0.055435929137019446   -0.15107352728776746
-3.514882457886955   -0.055435929137019446   -0.15107352728776746
-3.514882457886955   -0.055435929137019446   -0.15107352728776746
-3.514882457886955   -0.055435929137019446   -0.15107352728776746
-4.923284914411836   -0.024440198645006905   0.22014378567175608
-4.923284914411836   -0.024440198645006905   0.22014378567175608
-4.923284914411836   -0.024440198645006905   0.22014378567175608
-4.923284914411836   -0.024440198645006905   0.22014378567175608
-4.883126752985882   -0.3059062587833381   -0.21136353942659059
-4.883126752985882   -0.3059062587833381   -0.21136353942659059
-4.883126752985882   -0.3059062587833381   -0.21136353942659059
-4.883126752985882   -0.3059062587833381   -0.21136353942659059
-3.261875978938594   0.3317806338676381   0.1895521876388847
-3.261875978938594   0.3317806338676381   0.1895521876388847
-3.261875978938594   0.3317806338676381   0.1895521876388847
-3.261875978938594   0.3317806338676381   0.1895521876388847
-4.021845582211802   0.021904639145405636   0.08557815255491069
-4.021845582211802   0.021904639145405636   0.08557815255491069
-4.021845582211802   0.021904639145405636   0.08557815255491069
-4.021845582211802   0.021904639145405636   0.08557815255491069
-3.400805580859454   -0.0015269617435748062   -0.171788226354202
-3.400805580859454   -0.0015269617435748062   -0.171788226354202
-3.400805580859454   -0.0015269617435748062   -0.171788226354202
-3.400805580859454   -0.0015269617435748062   -0.171788226354202
-4.741916550812427   0.029681937080459075   0.15909927557682157
-4.741916550812427   0.029681937080459075   0.15909927557682157
-4.741916550812427   0.029681937080459075   0.15909927557682157
-4.741916550812427   0.029681937080459075   0.15909927557682157
-4.676060337934625   -0.22532326617054388   -0.24069391227535672
-4.676060337934625   -0.22532326617054388   -0.24069391227535672
-4.676060337934625   -0.22532326617054388   -0.24069391227535672
-4.676060337934625   -0.22532326617054388   -0.24069391227535672
-3.1688019832600873   0.37107005357736933   0.16145117215156218
-3.1688019832600873   0.37107005357736933   0.16145117215156218
-3.1688019832600873   0.37107005357736933   0.16145117215156218
-3.1688019832600873   0.37107005357736933   0.16145117215156218
-3.8134392376905426   0.08264199034019182   0.1435119721527615
-3.8134392376905426   0.08264199034019182   0.1435119721527615
-3.8134392376905426   0.08264199034019182   0.1435119721527615
-3.8134392376905426   0.08264199034019182   0.1435119721527615
4.578255847943204   0.3416651661731138   0.24400557193532624
4.578255847943204   0.3416651661731138   0.24400557193532624
4.578255847943204   0.3416651661731138   0.24400557193532624
4.578255847943204   0.3416651661731138   0.24400557193532624
2.021960014216567   -0.5419447513765117   -0.1115011462444846
2.021960014216567   -0.5419447513765117   -0.1115011462444846
2.021960014216567   -0.5419447513765117   -0.1115011462444846
2.021960014216567   -0.5419447513765117   -0.1115011462444846
2.2566684885998383   -0.09410519963007058   0.16783862623903065
2.2566684885998383   -0.09410519963007058   0.16783862623903065
2.2566684885998383   -0.09410519963007058   0.16783862623903065
2.2566684885998383   -0.09410519963007058   0.16783862623903065
4.629978423076389   -0.011280825247021342   -0.17520087309984766
4.629978423076389   -0.011280825247021342   -0.17520087309984766
4.629978423076389   -0.011280825247021342   -0.17520087309984766
4.629978423076389   -0.011280825247021342   -0.17520087309984766
3.174099120054571   -0.09735546077149904   -0.2492673245589194
3.174099120054571   -0.09735546077149904   -0.2492673245589194
3.174099120054571   -0.09735546077149904   -0.2492673245589194
3.174099120054571   -0.09735546077149904   -0.2492673245589194
4.792163266372628   0.42026211191961227   0.2041804062146547
4.792163266372628   0.42026211191961227   0.2041804062146547
4.792163266372628   0.42026211191961227   0.2041804062146547
4.792163266372628   0.42026211191961227   0.2041804062146547
2.1100328482074806   -0.5100989338928326   -0.14934584145999497
2.1100328482074806   -0.5100989338928326   -0.14934584145999497
2.1100328482074806   -0.5100989338928326   -0.14934584145999497
2.1100328482074806   -0.5100989338928326   -0.14934584145999497
2.348923420846888   -0.04467533399498447   0.13579832006056364
2.348923420846888   -0.04467533399498447   0.13579832006056364
2.348923420846888   -0.04467533399498447   0.13579832006056364
2.348923420846888   -0.04467533399498447   0.13579832006056364
4.790493951704119   0.04326967714810559   -0.2192078374119925
4.790493951704119   0.04326967714810559   -0.2192078374119925
4.790493951704119   0.04326967714810559   -0.2192078374119925
4.790493951704119   0.04326967714810559   -0.2192078374119925
3.3751962132663924   -0.0389527273687843   -0.16937879400904987
3.3751962132663924   -0.0389527273687843   -0.16937879400904987
3.3751962132663924   -0.0389527273687843   -0.16937879400904987
3.3751962132663924   -0.0389527273687843   -0.16937879400904987
4.95177076683531   0.4790197118908339   0.15142620350123415
4.95177076683531   0.4790197118908339   0.15142620350123415
4.95177076683531   0.4790197118908339   0.15142620350123415
4.95177076683531   0.4790197118908339   0.15142620350123415
2.2012825130692972   -0.4667894613840925   -0.18029209143828331
2.2012825130692972   -0.4667894613840925   -0.18029209143828331
2.2012825130692972   -0.4667894613840925   -0.18029209143828331
2.2012825130692972   -0.4667894613840925   -0.18029209143828331
2.432433055404968   0.08717927457125957   0.11905750036244082
2.432433055404968   0.08717927457125957   0.11905750036244082
2.432433055404968   0.08717927457125957   0.11905750036244082
2.432433055404968   0.08717927457125957   0.11905750036244082
4.987749043660879   0.2027847566632064   -0.22966028785735054
4.987749043660879   0.2027847566632064   -0.22966028785735054
4.987749043660879   0.2027847566632064   -0.22966028785735054
4.987749043660879   0.2027847566632064   -0.22966028785735054
3.4513241412759976   0.039496711528089534   -0.11391868739128624
3.4513241412759976   0.039496711528089534   -0.11391868739128624
3.4513241412759976   0.039496711528089534   -0.11391868739128624
3.4513241412759976   0.039496711528089534   -0.11391868739128624
2.236951990697659   0.19899801516653315   0.2225159696179156
2.236951990697659   0.19899801516653315   0.2225159696179156
2.236951990697659   0.19899801516653315   0.2225159696179156
2.236951990697659   0.19899801516653315   0.2225159696179156
-0.27169146871551153   -0.6688672444360942   -0.06332791366098585
-0.27169146871551153   -0.6688672444360942   -0.06332791366098585
-0.27169146871551153   -0.6688672444360942   -0.06332791366098585
-0.27169146871551153   -0.6688672444360942   -0.06332791366098585
-0.06904558157456483   -0.2348475273809179   0.05714351383987758
-0.06904558157456483   -0.2348475273809179   0.05714351383987758
-0.06904558157456483   -0.2348475273809179   0.05714351383987758
-0.06904558157456483   -0.2348475273809179   0.05714351383987758
2.2185301143643854   -0.12763355719057035   0.010675112622265809
2.2185301143643854   -0.12763355719057035   0.010675112622265809
2.2185301143643854   -0.12763355719057035   0.010675112622265809
2.2185301143643854   -0.12763355719057035   0.010675112622265809
1.0008375858063614   -0.1876839773327717   -0.11933079332779882
1.0008375858063614   -0.1876839773327717   -0.11933079332779882
1.0008375858063614   -0.1876839773327717   -0.11933079332779882
1.0008375858063614   -0.1876839773327717   -0.11933079332779882
2.3361580005467744   0.27416723628675205   0.1970137500568882
2.3361580005467744   0.27416723628675205   0.1970137500568882
2.3361580005467744   0.27416723628675205   0.1970137500568882
2.3361580005467744   0.27416723628675205   0.1970137500568882
-0.17853052496472913   -0.6285053780660157   -0.09662335242584608
-0.17853052496472913   -0.6285053780660157   -0.09662335242584608
-0.17853052496472913   -0.6285053780660157   -0.09662335242584608
-0.17853052496472913   -0.6285053780660157   -0.09662335242584608
0.025056161808482642   -0.14654853104899968   0.035031775338674416
0.025056161808482642   -0.14654853104899968   0.035031775338674416
0.025056161808482642   -0.14654853104899968   0.035031775338674416
0.025056161808482642   -0.14654853104899968   0.035031775338674416
2.314764887205151   -0.06107502938434317   -0.01859465275876304
2.314764887205151   -0.06107502938434317   -0.01859465275876304
2.314764887205151   -0.06107502938434317   -0.01859465275876304
2.314764887205151   -0.06107502938434317   -0.01859465275876304
1.0827650332762542   -0.13351409706002898   -0.07745403075326576
1.0827650332762542   -0.13351409706002898   -0.07745403075326576
1.0827650332762542   -0.13351409706002898   -0.07745403075326576
1.0827650332762542   -0.13351409706002898   -0.07745403075326576
2.438712280673293   0.3643248289131231   0.17574245628447854
2.438712280673293   0.3643248289131231   0.17574245628447854
2.438712280673293   0.3643248289131231   0.17574245628447854
2.438712280673293   0.3643248289131231   0.17574245628447854
-0.09409278226658783   -0.5671499399534167   -0.14011153613226862
-0.09409278226658783   -0.5671499399534167   -0.14011153613226862
-0.09409278226658783   -0.5671499399534167   -0.14011153613226862
-0.09409278226658783   -0.5671499399534167   -0.14011153613226862
0.098893285558986   -0.04335258056284656   0.01266116093322811
0.098893285558986   -0.04335258056284656   0.01266116093322811
0.098893285558986   -0.04335258056284656   0.01266116093322811
0.098893285558986   -0.04335258056284656   0.01266116093322811
2.3869059166660165   0.02367549973419697   -0.04507441849528153
2.3869059166660165   0.02367549973419697   -0.04507441849528153
2.3869059166660165   0.02367549973419697   -0.04507441849528153
2.3869059166660165   0.02367549973419697   -0.04507441849528153
1.1825885956621645   -0.05257477724025822   -0.03266424540459388
1.1825885956621645   -0.05257477724025822   -0.03266424540459388
1.1825885956621645   -0.05257477724025822   -0.03266424540459388
1.1825885956621645   -0.05257477724025822   -0.03266424540459388
-0.09228487924080099   0.05447719124471542   0.11036059803175702
-0.09228487924080099   0.05447719124471542   0.11036059803175702
-0.09228487924080099   0.05447719124471542   0.11036059803175702
-0.09228487924080099   0.05447719124471542   0.11036059803175702
-2.5478589164652705   -0.8406016072292325   -0.05124570314601917
-2.5478589164652705   -0.8406016072292325   -0.05124570314601917
-2.5478589164652705   -0.8406016072292325   -0.05124570314601917
-2.5478589164652705   -0.8406016072292325   -0.05124570314601917
-2.3422524833911735   -0.36050909020026567   -0.05350076958562902
-2.3422524833911735   -0.36050909020026567   -0.05350076958562902
-2.3422524833911735   -0.36050909020026567   -0.05350076958562902
-2.3422524833911735   -0.36050909020026567   -0.05350076958562902
-0.08241669559507012   -0.2940500612449066   0.049490477601339955
-0.08241669559507012   -0.2940500612449066   0.049490477601339955
-0.08241669559507012   -0.2940500612449066   0.049490477601339955
-0.08241669559507012   -0.2940500612449066   0.049490477601339955
-1.272066209920609   -0.34088373110088765   -0.1067450455292552
-1.272066209920609   -0.34088373110088765   -0.1067450455292552
-1.272066209920609   -0.34088373110088765   -0.1067450455292552
-1.272066209920609   -0.34088373110088765   -0.1067450455292552
0.012209081699006273   0.13899769775019555   0.08957160507661971
0.012209081699006273   0.13899769775019555   0.08957160507661971
0.012209081699006273   0.13899769775019555   0.08957160507661971
0.012209081699006273   0.13899769775019555   0.08957160507661971
-2.431017315739775   -0.7876959042499336   -0.07013811727896738
-2.431017315739775   -0.7876959042499336   -0.07013811727896738
-2.431017315739775   -0.7876959042499336   -0.07013811727896738
-2.431017315739775   -0.7876959042499336   -0.07013811727896738
-2.225581399489534   -0.26245246923105403   -0.07300235674518704
-2.225581399489534   -0.26245246923105403   -0.07300235674518704
-2.225581399489534   -0.26245246923105403   -0.07300235674518704
-2.225581399489534   -0.26245246923105403   -0.07300235674518704
0.0052975192265232035   -0.23012775053811466   0.019817781917984598
0.0052975192265232035   -0.23012775053811466   0.019817781917984598
0.0052975192265232035   -0.23012775053811466   0.019817781917984598
0.0052975192265232035   -0.23012775053811466   0.019817781917984598
-1.158807998904946   -0.27046411795753783   -0.05945977979557447
-1.158807998904946   -0.27046411795753783   -0.05945977979557447
-1.158807998904946   -0.27046411795753783   -0.05945977979557447
-1.158807998904946   -0.27046411795753783   -0.05945977979557447
0.10784870937557979   0.23276935026336387   0.06967663186178895
0.10784870937557979   0.23276935026336387   0.06967663186178895
0.10784870937557979   0.23276935026336387   0.06967663186178895
0.10784870937557979   0.23276935026336387   0.06967663186178895
-2.3282819176963425   -0.7254988980902821   -0.12345851891998742
-2.3282819176963425   -0.7254988980902821   -0.12345851891998742
-2.3282819176963425   -0.7254988980902821   -0.12345851891998742
-2.3282819176963425   -0.7254988980902821   -0.12345851891998742
-2.143160108130412   -0.16905762425820342   -0.09484493208256219
-2.143160108130412   -0.16905762425820342   -0.09484493208256219
-2.143160108130412   -0.16905762425820342   -0.09484493208256219
-2.143160108130412   -0.16905762425820342   -0.09484493208256219
0.06296054320601119   -0.17923687362284943   -0.03111825777163536
0.06296054320601119   -0.17923687362284943   -0.03111825777163536
0.06296054320601119   -0.17923687362284943   -0.03111825777163536
0.06296054320601119   -0.17923687362284943   -0.03111825777163536
-1.0757081165045366   -0.2048840374142748   -0.029992577710787796
-1.0757081165045366   -0.2048840374142748   -0.029992577710787796
-1.0757081165045366   -0.2048840374142748   -0.029992577710787796
-1.0757081165045366   -0.2048840374142748   -0.029992577710787796
-2.3844542851774353   -0.07082070169439064   -0.004003452241706382
-2.3844542851774353   -0.07082070169439064   -0.004003452241706382
-2.3844542851774353   -0.07082070169439064   -0.004003452241706382
-2.3844542851774353   -0.07082070169439064   -0.004003452241706382
-4.833443133418133   -0.9037478428913621   -0.04151640013160839
-4.833443133418133   -0.9037478428913621   -0.04151640013160839
-4.833443133418133   -0.9037478428913621   -0.04151640013160839
-4.833443133418133   -0.9037478428913621   -0.04151640013160839
-4.612014449957807   -0.4612666346288822   -0.15986654009868637
-4.612014449957807   -0.4612666346288822   -0.15986654009868637
-4.612014449957807   -0.4612666346288822   -0.15986654009868637
-4.612014449957807   -0.4612666346288822   -0.15986654009868637
-2.2994094274270545   -0.30529924672732117   0.1055046667620048
-2.2994094274270545   -0.30529924672732117   0.1055046667620048
-2.2994094274270545   -0.30529924672732117   0.1055046667620048
-2.2994094274270545   -0.30529924672732117   0.1055046667620048
-3.501225821915567   -0.4091846598026023   -0.07531926231044705
-3.501225821915567   -0.4091846598026023   -0.07531926231044705
-3.501225821915567   -0.4091846598026023   -0.07531926231044705
-3.501225821915567   -0.4091846598026023   -0.07531926231044705
-2.25558001815406   0.038220044192946556   -0.018867577793290652
-2.25558001815406   0.038220044192946556   -0.018867577793290652
-2.25558001815406   0.038220044192946556   -0.018867577793290652
-2.25558001815406   0.038220044192946556   -0.018867577793290652
-4.6578868477616595   -0.8068289140800011   -0.043666249666789184
-4.6578868477616595   -0.8068289140800011   -0.043666249666789184
-4.6578868477616595   -0.8068289140800011   -0.043666249666789184
-4.6578868477616595   -0.8068289140800011   -0.043666249666789184
-4.445410710584047   -0.35873003290784755   -0.18525689204530296
-4.445410710584047   -0.35873003290784755   -0.18525689204530296
-4.445410710584047   -0.35873003290784755   -0.18525689204530296
-4.445410710584047   -0.35873003290784755   -0.18525689204530296
-2.185976557819032   -0.22819986064907144   0.09076924302535362
-2.185976557819032   -0.22819986064907144   0.09076924302535362
-2.185976557819032   -0.22819986064907144   0.09076924302535362
-2.185976557819032   -0.22819986064907144   0.09076924302535362
-3.330296269181652   -0.3108215887753365   -0.02513811691373985
-3.330296269181652   -0.3108215887753365   -0.02513811691373985
-3.330296269181652   -0.3108215887753365   -0.02513811691373985
-3.330296269181652   -0.3108215887753365   -0.02513811691373985
-2.1385998986566515   0.13297836960360232   -0.033525691415448894
-2.1385998986566515   0.13297836960360232   -0.033525691415448894
-2.1385998986566515   0.13297836960360232   -0.033525691415448894
-2.1385998986566515   0.13297836960360232   -0.033525691415448894
-4.500971064105557   -0.7280919575196303   -0.09369673504103809
-4.500971064105557   -0.7280919575196303   -0.09369673504103809
-4.500971064105557   -0.7280919575196303   -0.09369673504103809
-4.500971064105557   -0.7280919575196303   -0.09369673504103809
-4.309942008025728   -0.2504809682845083   -0.19108703717394313
-4.309942008025728   -0.2504809682845083   -0.19108703717394313
-4.309942008025728   -0.2504809682845083   -0.19108703717394313
-4.309942008025728   -0.2504809682845083   -0.19108703717394313
-2.1207546748713644   -0.17918508275714518   0.027309692711635553
-2.1207546748713644   -0.17918508275714518   0.027309692711635553
-2.1207546748713644   -0.17918508275714518   0.027309692711635553
-2.1207546748713644   -0.17918508275714518   0.027309692711635553
-3.2352112021300345   -0.25079813747756663   -0.008847063090307278
-3.2352112021300345   -0.25079813747756663   -0.008847063090307278
-3.2352112021300345   -0.25079813747756663   -0.008847063090307278
-3.2352112021300345   -0.25079813747756663   -0.008847063090307278
-4.70031727162306   -0.16196763045138918   -0.11766730359621522
-4.70031727162306   -0.16196763045138918   -0.11766730359621522
-4.70031727162306   -0.16196763045138918   -0.11766730359621522
-4.70031727162306   -0.16196763045138918   -0.11766730359621522
-7.086838162009026   -0.6083563638407039   0.2709181977152536
-7.086838162009026   -0.6083563638407039   0.2709181977152536
-7.086838162009026   -0.6083563638407039   0.2709181977152536
-7.086838162009026   -0.6083563638407039   0.2709181977152536
-6.840092250683662   -0.48318066253690883   -0.15675119751580568
-6.840092250683662   -0.48318066253690883   -0.15675119751580568
-6.840092250683662   -0.48318066253690883   -0.15675119751580568
-6.840092250683662   -0.48318066253690883   -0.15675119751580568
-4.413050985570983   0.12531045765868998   0.24837368954782746
-4.413050985570983   0.12531045765868998   0.24837368954782746
-4.413050985570983   0.12531045765868998   0.24837368954782746
-4.413050985570983   0.12531045765868998   0.24837368954782746
-5.502690898114773   -0.19171160150998579   0.024707169714942412
-5.502690898114773   -0.19171160150998579   0.024707169714942412
-5.502690898114773   -0.19171160150998579   0.024707169714942412
-5.502690898114773   -0.19171160150998579   0.024707169714942412
-4.516497771192523   -0.013184569429767645   -0.13036521147136093
-4.516497771192523   -0.013184569429767645   -0.13036521147136093
-4.516497771192523   -0.013184569429767645   -0.13036521147136093
-4.516497771192523   -0.013184569429767645   -0.13036521147136093
-6.71994946000203   -0.32798963038833007   0.28877172374377436
-6.71994946000203   -0.32798963038833007   0.28877172374377436
-6.71994946000203   -0.32798963038833007   0.28877172374377436
-6.71994946000203   -0.32798963038833007   0.28877172374377436
-6.575599880476785   -0.4062091849273155   -0.18667300479769244
-6.575599880476785   -0.4062091849273155   -0.18667300479769244
-6.575599880476785   -0.4062091849273155   -0.18667300479769244
-6.575599880476785   -0.4062091849273155   -0.18667300479769244
-4.248148925269323   0.20222906997732337   0.24009293164314305
-4.248148925269323   0.20222906997732337   0.24009293164314305
-4.248148925269323   0.20222906997732337   0.24009293164314305
-4.248148925269323   0.20222906997732337   0.24009293164314305
-5.345104835721869   -0.07735440103022473   0.10914863139763697
-5.345104835721869   -0.07735440103022473   0.10914863139763697
-5.345104835721869   -0.07735440103022473   0.10914863139763697
-5.345104835721869   -0.07735440103022473   0.10914863139763697
-4.355336208932782   0.047046055834701006   -0.14066047253149044
-4.355336208932782   0.047046055834701006   -0.14066047253149044
-4.355336208932782   0.047046055834701006   -0.14066047253149044
-4.355336208932782   0.047046055834701006   -0.14066047253149044
-6.465133383782556   -0.24774695775394528   0.20719725150003176
-6.465133383782556   -0.24774695775394528   0.20719725150003176
-6.465133383782556   -0.24774695775394528   0.20719725150003176
-6.465133383782556   -0.24774695775394528   0.20719725150003176
-6.302215091705833   -0.3330022568184443   -0.22549727138163866
-6.302215091705833   -0.3330022568184443   -0.22549727138163866
-6.302215091705833   -0.3330022568184443   -0.22549727138163866
-6.302215091705833   -0.3330022568184443   -0.22549727138163866
-4.125401961855975   0.295080623731258   0.186051601659056
-4.125401961855975   0.295080623731258   0.186051601659056
-4.125401961855975   0.295080623731258   0.186051601659056
-4.125401961855975   0.295080623731258   0.186051601659056
-5.051974361219165   0.020586566386595173   0.19326550323692593
-5.051974361219165   0.020586566386595173   0.19326550323692593
-5.051974361219165   0.020586566386595173   0.19326550323692593
-5.051974361219165   0.020586566386595173   0.19326550323692593
6.263633338798942   0.3744243727163268   0.22867114963733243
6.263633338798942   0.3744243727163268   0.22867114963733243
6.263633338798942   0.3744243727163268   0.22867114963733243
6.263633338798942   0.3744243727163268   0.22867114963733243
2.9890534714037935   -0.561687230526136   0.05279894620848369
2.9890534714037935   -0.561687230526136   0.05279894620848369
2.9890534714037935   -0.561687230526136   0.05279894620848369
2.9890534714037935   -0.561687230526136   0.05279894620848369
3.155452197729484   -0.2358631745309927   0.17641360582720106
3.155452197729484   -0.2358631745309927   0.17641360582720106
3.155452197729484   -0.2358631745309927   0.17641360582720106
3.155452197729484   -0.2358631745309927   0.17641360582720106
6.297534478004954   0.05028775795058049   -0.049506579476295776
6.297534478004954   0.05028775795058049   -0.049506579476295776
6.297534478004954   0.05028775795058049   -0.049506579476295776
6.297534478004954   0.05028775795058049   -0.049506579476295776
4.40555516988792   -0.12158727482005127   -0.2938362346234194
4.40555516988792   -0.12158727482005127   -0.2938362346234194
4.40555516988792   -0.12158727482005127   -0.2938362346234194
4.40555516988792   -0.12158727482005127   -0.2938362346234194
6.417032241893228   0.41735342726620583   0.18091657064944944
6.417032241893228   0.41735342726620583   0.18091657064944944
6.417032241893228   0.41735342726620583   0.18091657064944944
6.417032241893228   0.41735342726620583   0.18091657064944944
3.0647365152484998   -0.5741467624393283   0.06111878133061488
3.0647365152484998   -0.5741467624393283   0.06111878133061488
3.0647365152484998   -0.5741467624393283   0.06111878133061488
3.0647365152484998   -0.5741467624393283   0.06111878133061488
3.2188400339020706   -0.20034631503998246   0.13436611944949303
3.2188400339020706   -0.20034631503998246   0.13436611944949303
3.2188400339020706   -0.20034631503998246   0.13436611944949303
3.2188400339020706   -0.20034631503998246   0.13436611944949303
6.408997246467243   0.09039145222566236   -0.01380777216157969
6.408997246467243   0.09039145222566236   -0.01380777216157969
6.408997246467243   0.09039145222566236   -0.01380777216157969
6.408997246467243   0.09039145222566236   -0.01380777216157969
4.588407194006143   -0.09638609176228874   -0.20041784665510065
4.588407194006143   -0.09638609176228874   -0.20041784665510065
4.588407194006143   -0.09638609176228874   -0.20041784665510065
4.588407194006143   -0.09638609176228874   -0.20041784665510065
6.509990957829234   0.4561009110252995   0.12545132584873905
6.509990957829234   0.4561009110252995   0.12545132584873905
6.509990957829234   0.4561009110252995   0.12545132584873905
6.509990957829234   0.4561009110252995   0.12545132584873905
3.1378711005932196   -0.5460309957864792   0.07520613365173595
3.1378711005932196   -0.5460309957864792   0.07520613365173595
3.1378711005932196   -0.5460309957864792   0.07520613365173595
3.1378711005932196   -0.5460309957864792   0.07520613365173595
3.311962665316477   -0.06187509914230194   0.12282681145951074
3.311962665316477   -0.06187509914230194   0.12282681145951074
3.311962665316477   -0.06187509914230194   0.12282681145951074
3.311962665316477   -0.06187509914230194   0.12282681145951074
6.524669416269745   0.1816883947206127   -0.000807299396713812
6.524669416269745   0.1816883947206127   -0.000807299396713812
6.524669416269745   0.1816883947206127   -0.000807299396713812
6.524669416269745   0.1816883947206127   -0.000807299396713812
4.612125417219457   -0.04511488534706887   -0.14937536023374104
4.612125417219457   -0.04511488534706887   -0.14937536023374104
4.612125417219457   -0.04511488534706887   -0.14937536023374104
4.612125417219457   -0.04511488534706887   -0.14937536023374104
3.1538769295266675   0.07663151600323548   0.23859749029348346
3.1538769295266675   0.07663151600323548   0.23859749029348346
3.1538769295266675   0.07663151600323548   0.23859749029348346
3.1538769295266675   0.07663151600323548   0.23859749029348346
0.17348158809584924   -1.1231631857743598   0.11681749440148403
0.17348158809584924   -1.1231631857743598   0.11681749440148403
0.17348158809584924   -1.1231631857743598   0.11681749440148403
0.17348158809584924   -1.1231631857743598   0.11681749440148403
0.39094035521494375   -0.4736376578567157   0.10824436844098093
0.39094035521494375   -0.4736376578567157   0.10824436844098093
0.39094035521494375   -0.4736376578567157   0.10824436844098093
0.39094035521494375   -0.4736376578567157   0.10824436844098093
3.0725443257038583   -0.5465195766713803   0.07253064783944624
3.0725443257038583   -0.5465195766713803   0.07253064783944624
3.0725443257038583   -0.5465195766713803   0.07253064783944624
3.0725443257038583   -0.5465195766713803   0.07253064783944624
1.6423756706453254   -0.5058026080447712   -0.18897367637963775
1.6423756706453254   -0.5058026080447712   -0.18897367637963775
1.6423756706453254   -0.5058026080447712   -0.18897367637963775
1.6423756706453254   -0.5058026080447712   -0.18897367637963775
3.2296003386028143   0.11225307688769781   0.1990380587751778
3.2296003386028143   0.11225307688769781   0.1990380587751778
3.2296003386028143   0.11225307688769781   0.1990380587751778
3.2296003386028143   0.11225307688769781   0.1990380587751778
0.2753323040930839   -1.0909623496386929   0.14752880461365842
0.2753323040930839   -1.0909623496386929   0.14752880461365842
0.2753323040930839   -1.0909623496386929   0.14752880461365842
0.2753323040930839   -1.0909623496386929   0.14752880461365842
0.47858777606312214   -0.4088450462317036   0.0787323741465866
0.47858777606312214   -0.4088450462317036   0.0787323741465866
0.47858777606312214   -0.4088450462317036   0.0787323741465866
0.47858777606312214   -0.4088450462317036   0.0787323741465866
3.147469356223616   -0.512773571663556   0.08993998768079414
3.147469356223616   -0.512773571663556   0.08993998768079414
3.147469356223616   -0.512773571663556   0.08993998768079414
3.147469356223616   -0.512773571663556   0.08993998768079414
1.7172147591679656   -0.4811470295373426   -0.09446841177483992
1.7172147591679656   -0.4811470295373426   -0.09446841177483992
1.7172147591679656   -0.4811470295373426   -0.09446841177483992
1.7172147591679656   -0.4811470295373426   -0.09446841177483992
3.300179031675474   0.17322474059729565   0.16749005267923128
3.300179031675474   0.17322474059729565   0.16749005267923128
3.300179031675474   0.17322474059729565   0.16749005267923128
3.300179031675474   0.17322474059729565   0.16749005267923128
0.3657731292139581   -1.0549483298898603   0.16076242355893056
0.3657731292139581   -1.0549483298898603   0.16076242355893056
0.3657731292139581   -1.0549483298898603   0.16076242355893056
0.3657731292139581   -1.0549483298898603   0.16076242355893056
0.6129689482777719   -0.3116154694280863   0.05240770408166941
0.6129689482777719   -0.3116154694280863   0.05240770408166941
0.6129689482777719   -0.3116154694280863   0.05240770408166941
0.6129689482777719   -0.3116154694280863   0.05240770408166941
3.229589305184656   -0.46139255172432925   0.11047746338245173
3.229589305184656   -0.46139255172432925   0.11047746338245173
3.229589305184656   -0.46139255172432925   0.11047746338245173
3.229589305184656   -0.46139255172432925   0.11047746338245173
1.8476374298644067   -0.421170694905445   0.015422440775678697
1.8476374298644067   -0.421170694905445   0.015422440775678697
1.8476374298644067   -0.421170694905445   0.015422440775678697
1.8476374298644067   -0.421170694905445   0.015422440775678697
0.36194612531779397   -0.21766338274670516   0.15364037748355308
0.36194612531779397   -0.21766338274670516   0.15364037748355308
0.36194612531779397   -0.21766338274670516   0.15364037748355308
0.36194612531779397   -0.21766338274670516   0.15364037748355308
-2.666446862954076   -1.932475118327281   0.1681422003415563
-2.666446862954076   -1.932475118327281   0.1681422003415563
-2.666446862954076   -1.932475118327281   0.1681422003415563
-2.666446862954076   -1.932475118327281   0.1681422003415563
-2.3220773561071923   -0.749452190409724   0.012140492289498178
-2.3220773561071923   -0.749452190409724   0.012140492289498178
-2.3220773561071923   -0.749452190409724   0.012140492289498178
-2.3220773561071923   -0.749452190409724   0.012140492289498178
0.19381998273253825   -1.4137608019262147   0.06276565009845242
0.19381998273253825   -1.4137608019262147   0.06276565009845242
0.19381998273253825   -1.4137608019262147   0.06276565009845242
0.19381998273253825   -1.4137608019262147   0.06276565009845242
-1.1435671505476481   -1.0861405066677177   -0.226817830957246
-1.1435671505476481   -1.0861405066677177   -0.226817830957246
-1.1435671505476481   -1.0861405066677177   -0.226817830957246
-1.1435671505476481   -1.0861405066677177   -0.226817830957246
0.45372085081291136   -0.17251567480731866   0.1210248633814214
0.45372085081291136   -0.17251567480731866   0.1210248633814214
0.45372085081291136   -0.17251567480731866   0.1210248633814214
0.45372085081291136   -0.17251567480731866   0.1210248633814214
-2.5221722690308153   -1.9308913623718675   0.19310509963354167
-2.5221722690308153   -1.9308913623718675   0.19310509963354167
-2.5221722690308153   -1.9308913623718675   0.19310509963354167
-2.5221722690308153   -1.9308913623718675   0.19310509963354167
-2.189280102540799   -0.6727678437843889   0.0011949374539351326
-2.189280102540799   -0.6727678437843889   0.0011949374539351326
-2.189280102540799   -0.6727678437843889   0.0011949374539351326
-2.189280102540799   -0.6727678437843889   0.0011949374539351326
0.28616010672007586   -1.383448211555947   0.091197192755606
0.28616010672007586   -1.383448211555947   0.091197192755606
0.28616010672007586   -1.383448211555947   0.091197192755606
0.28616010672007586   -1.383448211555947   0.091197192755606
-1.0092211657704004   -1.0498176203844616   -0.08503333746299077
-1.0092211657704004   -1.0498176203844616   -0.08503333746299077
-1.0092211657704004   -1.0498176203844616   -0.08503333746299077
-1.0092211657704004   -1.0498176203844616   -0.08503333746299077
0.5376187331848034   -0.11218220118783018   0.07722431471112691
0.5376187331848034   -0.11218220118783018   0.07722431471112691
0.5376187331848034   -0.11218220118783018   0.07722431471112691
0.5376187331848034   -0.11218220118783018   0.07722431471112691
-2.3865958246138854   -1.8898909497608993   0.23173943306505118
-2.3865958246138854   -1.8898909497608993   0.23173943306505118
-2.3865958246138854   -1.8898909497608993   0.23173943306505118
-2.3865958246138854   -1.8898909497608993   0.23173943306505118
-1.9701841782908123   -0.5843645881792212   -0.02361210905667068
-1.9701841782908123   -0.5843645881792212   -0.02361210905667068
-1.9701841782908123   -0.5843645881792212   -0.02361210905667068
-1.9701841782908123   -0.5843645881792212   -0.02361210905667068
0.43035067358176793   -1.2974722810307575   0.1251731422043132
0.43035067358176793   -1.2974722810307575   0.1251731422043132
0.43035067358176793   -1.2974722810307575   0.1251731422043132
0.43035067358176793   -1.2974722810307575   0.1251731422043132
-0.8346978693589089   -0.9673485785940182   0.06382235808238762
-0.8346978693589089   -0.9673485785940182   0.06382235808238762
-0.8346978693589089   -0.9673485785940182   0.06382235808238762
-0.8346978693589089   -0.9673485785940182   0.06382235808238762
-2.376841847782288   -0.38948822846936104   0.07318038634255153
-2.376841847782288   -0.38948822846936104   0.07318038634255153
-2.376841847782288   -0.38948822846936104   0.07318038634255153
-2.376841847782288   -0.38948822846936104   0.07318038634255153
-5.9476248685830315   -3.012726037705117   -0.14518832863550302
-5.9476248685830315   -3.012726037705117   -0.14518832863550302
-5.9476248685830315   -3.012726037705117   -0.14518832863550302
-5.9476248685830315   -3.012726037705117   -0.14518832863550302
-5.378704621952623   -0.9752323383717271   -0.16486559693457917
-5.378704621952623   -0.9752323383717271   -0.16486559693457917
-5.378704621952623   -0.9752323383717271   -0.16486559693457917
-5.378704621952623   -0.9752323383717271   -0.16486559693457917
-2.669658128452249   -2.524342108960739   0.049126549115228624
-2.669658128452249   -2.524342108960739   0.049126549115228624
-2.669658128452249   -2.524342108960739   0.049126549115228624
-2.669658128452249   -2.524342108960739   0.049126549115228624
-4.0884597884995175   -1.7816952691539614   -0.2379171908769458
-4.0884597884995175   -1.7816952691539614   -0.2379171908769458
-4.0884597884995175   -1.7816952691539614   -0.2379171908769458
-4.0884597884995175   -1.7816952691539614   -0.2379171908769458
-2.2198260649466395   -0.2964121300392558   0.07035688772179369
-2.2198260649466395   -0.2964121300392558   0.07035688772179369
-2.2198260649466395   -0.2964121300392558   0.07035688772179369
-2.2198260649466395   -0.2964121300392558   0.07035688772179369
-5.815697003770558   -3.1903226356055363   -0.13473720879044937
-5.815697003770558   -3.1903226356055363   -0.13473720879044937
-5.815697003770558   -3.1903226356055363   -0.13473720879044937
-5.815697003770558   -3.1903226356055363   -0.13473720879044937
-5.202309445428664   -0.8831846708884192   -0.16782192056187523
-5.202309445428664   -0.8831846708884192   -0.16782192056187523
-5.202309445428664   -0.8831846708884192   -0.16782192056187523
-5.202309445428664   -0.8831846708884192   -0.16782192056187523
-2.5411790571636206   -2.5054580782715794   0.07439039882703369
-2.5411790571636206   -2.5054580782715794   0.07439039882703369
-2.5411790571636206   -2.5054580782715794   0.07439039882703369
-2.5411790571636206   -2.5054580782715794   0.07439039882703369
-3.903956534394853   -1.7346522806497864   -0.16849651531736365
-3.903956534394853   -1.7346522806497864   -0.16849651531736365
-3.903956534394853   -1.7346522806497864   -0.16849651531736365
-3.903956534394853   -1.7346522806497864   -0.16849651531736365
-2.094923010708839   -0.2234170743885052   0.023629627217868716
-2.094923010708839   -0.2234170743885052   0.023629627217868716
-2.094923010708839   -0.2234170743885052   0.023629627217868716
-2.094923010708839   -0.2234170743885052   0.023629627217868716
-5.648877859704867   -3.165538042592908   -0.11831062023836403
-5.648877859704867   -3.165538042592908   -0.11831062023836403
-5.648877859704867   -3.165538042592908   -0.11831062023836403
-5.648877859704867   -3.165538042592908   -0.11831062023836403
-4.927494374796035   -0.7840328775202584   -0.19018958117926074
-4.927494374796035   -0.7840328775202584   -0.19018958117926074
-4.927494374796035   -0.7840328775202584   -0.19018958117926074
-4.927494374796035   -0.7840328775202584   -0.19018958117926074
-2.263273009779724   -2.2565025338870703   0.1830816792066492
-2.263273009779724   -2.2565025338870703   0.1830816792066492
-2.263273009779724   -2.2565025338870703   0.1830816792066492
-2.263273009779724   -2.2565025338870703   0.1830816792066492
-3.6976202594980303   -1.5743943470278023   -0.09573993569214653
-3.6976202594980303   -1.5743943470278023   -0.09573993569214653
-3.6976202594980303   -1.5743943470278023   -0.09573993569214653
-3.6976202594980303   -1.5743943470278023   -0.09573993569214653
-5.389838488086469   -0.33078046780900405   -0.03820199604880392
-5.389838488086469   -0.33078046780900405   -0.03820199604880392
-5.389838488086469   -0.33078046780900405   -0.03820199604880392
-5.389838488086469   -0.33078046780900405   -0.03820199604880392
-9.527312386268731   -1.886068953795664   0.09696761729041059
-9.527312386268731   -1.886068953795664   0.09696761729041059
-9.527312386268731   -1.886068953795664   0.09696761729041059
-9.527312386268731   -1.886068953795664   0.09696761729041059
-9.149944792599436   -0.9122389716494823   -0.2024796499645809
-9.149944792599436   -0.9122389716494823   -0.2024796499645809
-9.149944792599436   -0.9122389716494823   -0.2024796499645809
-9.149944792599436   -0.9122389716494823   -0.2024796499645809
-5.2655161908175785   -0.9732786617414515   0.39912288211032076
-5.2655161908175785   -0.9732786617414515   0.39912288211032076
-5.2655161908175785   -0.9732786617414515   0.39912288211032076
-5.2655161908175785   -0.9732786617414515   0.39912288211032076
-7.03573869298928   -1.0952577268962203   0.10277612021684537
-7.03573869298928   -1.0952577268962203   0.10277612021684537
-7.03573869298928   -1.0952577268962203   0.10277612021684537
-7.03573869298928   -1.0952577268962203   0.10277612021684537
-5.165338144444602   -0.07456235131570299   0.0012968035494820285
-5.165338144444602   -0.07456235131570299   0.0012968035494820285
-5.165338144444602   -0.07456235131570299   0.0012968035494820285
-5.165338144444602   -0.07456235131570299   0.0012968035494820285
-9.286503788844929   -1.847336231947756   0.049822629106148764
-9.286503788844929   -1.847336231947756   0.049822629106148764
-9.286503788844929   -1.847336231947756   0.049822629106148764
-9.286503788844929   -1.847336231947756   0.049822629106148764
-8.940736151866993   -0.8356921868553895   -0.2569261259226287
-8.940736151866993   -0.8356921868553895   -0.2569261259226287
-8.940736151866993   -0.8356921868553895   -0.2569261259226287
-8.940736151866993   -0.8356921868553895   -0.2569261259226287
-5.0838793859638   -0.9237892800149559   0.4649329858890201
-5.0838793859638   -0.9237892800149559   0.4649329858890201
-5.0838793859638   -0.9237892800149559   0.4649329858890201
-5.0838793859638   -0.9237892800149559   0.4649329858890201
-6.924184247087272   -0.9015082263542333   0.09835119973509476
-6.924184247087272   -0.9015082263542333   0.09835119973509476
-6.924184247087272   -0.9015082263542333   0.09835119973509476
-6.924184247087272   -0.9015082263542333   0.09835119973509476
-5.003465658491088   -0.0068419952901315195   -0.049945661472244385
-5.003465658491088   -0.0068419952901315195   -0.049945661472244385
-5.003465658491088   -0.0068419952901315195   -0.049945661472244385
-5.003465658491088   -0.0068419952901315195   -0.049945661472244385
-9.034898831849759   -1.7663884240902794   0.20295671139836147
-9.034898831849759   -1.7663884240902794   0.20295671139836147
-9.034898831849759   -1.7663884240902794   0.20295671139836147
-9.034898831849759   -1.7663884240902794   0.20295671139836147
-8.50643396069384   -0.6756654071191801   -0.2866465537552688
-8.50643396069384   -0.6756654071191801   -0.2866465537552688
-8.50643396069384   -0.6756654071191801   -0.2866465537552688
-8.50643396069384   -0.6756654071191801   -0.2866465537552688
-4.801674158889824   -0.8577992563430408   0.5126778771746197
-4.801674158889824   -0.8577992563430408   0.5126778771746197
-4.801674158889824   -0.8577992563430408   0.5126778771746197
-4.801674158889824   -0.8577992563430408   0.5126778771746197
-6.5062769917298375   -0.6888147075081779   0.1997232400576695
-6.5062769917298375   -0.6888147075081779   0.1997232400576695
-6.5062769917298375   -0.6888147075081779   0.1997232400576695
-6.5062769917298375   -0.6888147075081779   0.1997232400576695
6.8602495241428665   0.22144579834605826   0.09726803783038224
6.8602495241428665   0.22144579834605826   0.09726803783038224
6.8602495241428665   0.22144579834605826   0.09726803783038224
6.8602495241428665   0.22144579834605826   0.09726803783038224
3.5079361408575696   -0.1826591355601488   0.0729533838183942
3.5079361408575696   -0.1826591355601488   0.0729533838183942
3.5079361408575696   -0.1826591355601488   0.0729533838183942
3.5079361408575696   -0.1826591355601488   0.0729533838183942
3.3692646018288324   -0.49711372678087606   0.1417558730425434
3.3692646018288324   -0.49711372678087606   0.1417558730425434
3.3692646018288324   -0.49711372678087606   0.1417558730425434
3.3692646018288324   -0.49711372678087606   0.1417558730425434
6.810243171731355   0.3839495068306584   0.05329929158824853
6.810243171731355   0.3839495068306584   0.05329929158824853
6.810243171731355   0.3839495068306584   0.05329929158824853
6.810243171731355   0.3839495068306584   0.05329929158824853
4.863112645773041   -0.06994255393088378   -0.17927747335361938
4.863112645773041   -0.06994255393088378   -0.17927747335361938
4.863112645773041   -0.06994255393088378   -0.17927747335361938
4.863112645773041   -0.06994255393088378   -0.17927747335361938
6.771713976259717   0.16995461475744666   0.07464820630327196
6.771713976259717   0.16995461475744666   0.07464820630327196
6.771713976259717   0.16995461475744666   0.07464820630327196
6.771713976259717   0.16995461475744666   0.07464820630327196
3.396356060677783   -0.2945565713303512   0.07465601183677217
3.396356060677783   -0.2945565713303512   0.07465601183677217
3.396356060677783   -0.2945565713303512   0.07465601183677217
3.396356060677783   -0.2945565713303512   0.07465601183677217
3.2811029661921216   -0.5089391297870886   0.11743359804978726
3.2811029661921216   -0.5089391297870886   0.11743359804978726
3.2811029661921216   -0.5089391297870886   0.11743359804978726
3.2811029661921216   -0.5089391297870886   0.11743359804978726
6.729459746632274   0.36691896592077833   0.09134555508356584
6.729459746632274   0.36691896592077833   0.09134555508356584
6.729459746632274   0.36691896592077833   0.09134555508356584
6.729459746632274   0.36691896592077833   0.09134555508356584
4.847378943612132   -0.09654893176932955   -0.20833341527432686
4.847378943612132   -0.09654893176932955   -0.20833341527432686
4.847378943612132   -0.09654893176932955   -0.20833341527432686
4.847378943612132   -0.09654893176932955   -0.20833341527432686
6.672361684859837   0.15031728063743066   0.0224569315046681
6.672361684859837   0.15031728063743066   0.0224569315046681
6.672361684859837   0.15031728063743066   0.0224569315046681
6.672361684859837   0.15031728063743066   0.0224569315046681
3.317773139030161   -0.31276533343814883   0.10461066589104301
3.317773139030161   -0.31276533343814883   0.10461066589104301
3.317773139030161   -0.31276533343814883   0.10461066589104301
3.317773139030161   -0.31276533343814883   0.10461066589104301
3.187933887022322   -0.46522111794849874   0.10138066650515243
3.187933887022322   -0.46522111794849874   0.10138066650515243
3.187933887022322   -0.46522111794849874   0.10138066650515243
3.187933887022322   -0.46522111794849874   0.10138066650515243
6.6047914206980405   0.36994468079832155   0.13065121853322936
6.6047914206980405   0.36994468079832155   0.13065121853322936
6.6047914206980405   0.36994468079832155   0.13065121853322936
6.6047914206980405   0.36994468079832155   0.13065121853322936
4.664067424015497   -0.09772746039338065   -0.28200162500040393
4.664067424015497   -0.09772746039338065   -0.28200162500040393
4.664067424015497   -0.09772746039338065   -0.28200162500040393
4.664067424015497   -0.09772746039338065   -0.28200162500040393
3.473781072384113   -0.4521358388490093   0.17165474473997294
3.473781072384113   -0.4521358388490093   0.17165474473997294
3.473781072384113   -0.4521358388490093   0.17165474473997294
3.473781072384113   -0.4521358388490093   0.17165474473997294
0.6869719267173462   -0.41391381879104605   0.0382734955158148
0.6869719267173462   -0.41391381879104605   0.0382734955158148
0.6869719267173462   -0.41391381879104605   0.0382734955158148
0.6869719267173462   -0.41391381879104605   0.0382734955158148
0.4479748918979651   -1.0486144109761377   0.18662591012155166
0.4479748918979651   -1.0486144109761377   0.18662591012155166
0.4479748918979651   -1.0486144109761377   0.18662591012155166
0.4479748918979651   -1.0486144109761377   0.18662591012155166
3.4933782343134605   0.1321972325526728   0.13301307613213673
3.4933782343134605   0.1321972325526728   0.13301307613213673
3.4933782343134605   0.1321972325526728   0.13301307613213673
3.4933782343134605   0.1321972325526728   0.13301307613213673
1.9944523129445875   -0.44737570659033693   -0.007409979923101523
1.9944523129445875   -0.44737570659033693   -0.007409979923101523
1.9944523129445875   -0.44737570659033693   -0.007409979923101523
1.9944523129445875   -0.44737570659033693   -0.007409979923101523
3.374669708248541   -0.471889245048578   0.14355692340877474
3.374669708248541   -0.471889245048578   0.14355692340877474
3.374669708248541   -0.471889245048578   0.14355692340877474
3.374669708248541   -0.471889245048578   0.14355692340877474
0.5367313909560119   -0.4744799603817623   0.05627395481740993
0.5367313909560119   -0.4744799603817623   0.05627395481740993
0.5367313909560119   -0.4744799603817623   0.05627395481740993
0.5367313909560119   -0.4744799603817623   0.05627395481740993
0.3411304618351222   -1.0585970488119298   0.1671614963274186
0.3411304618351222   -1.0585970488119298   0.1671614963274186
0.3411304618351222   -1.0585970488119298   0.1671614963274186
0.3411304618351222   -1.0585970488119298   0.1671614963274186
3.412050982007544   0.10544019747584454   0.15779434986396348
3.412050982007544   0.10544019747584454   0.15779434986396348
3.412050982007544   0.10544019747584454   0.15779434986396348
3.412050982007544   0.10544019747584454   0.15779434986396348
1.849534087265007   -0.4770277628744146   -0.09623768492821172
1.849534087265007   -0.4770277628744146   -0.09623768492821172
1.849534087265007   -0.4770277628744146   -0.09623768492821172
1.849534087265007   -0.4770277628744146   -0.09623768492821172
3.287277489556762   -0.47910543792988414   0.11847252301576189
3.287277489556762   -0.47910543792988414   0.11847252301576189
3.287277489556762   -0.47910543792988414   0.11847252301576189
3.287277489556762   -0.47910543792988414   0.11847252301576189
0.43337776161043284   -0.5065776060816348   0.07637855247367728
0.43337776161043284   -0.5065776060816348   0.07637855247367728
0.43337776161043284   -0.5065776060816348   0.07637855247367728
0.43337776161043284   -0.5065776060816348   0.07637855247367728
0.22151826862192303   -1.0588771127392367   0.1311256948706483
0.22151826862192303   -1.0588771127392367   0.1311256948706483
0.22151826862192303   -1.0588771127392367   0.1311256948706483
0.22151826862192303   -1.0588771127392367   0.1311256948706483
3.3197547643123895   0.10641989780991279   0.1888440371970995
3.3197547643123895   0.10641989780991279   0.1888440371970995
3.3197547643123895   0.10641989780991279   0.1888440371970995
3.3197547643123895   0.10641989780991279   0.1888440371970995
1.7606352774491583   -0.47402079464894775   -0.17196320006216992
1.7606352774491583   -0.47402079464894775   -0.17196320006216992
1.7606352774491583   -0.47402079464894775   -0.17196320006216992
1.7606352774491583   -0.47402079464894775   -0.17196320006216992
0.5339832204505517   -1.2951119271970908   0.15452807258787987
0.5339832204505517   -1.2951119271970908   0.15452807258787987
0.5339832204505517   -1.2951119271970908   0.15452807258787987
0.5339832204505517   -1.2951119271970908   0.15452807258787987
-2.0240629291615173   -0.6440662638333332   0.003589561187850032
-2.0240629291615173   -0.6440662638333332   0.003589561187850032
-2.0240629291615173   -0.6440662638333332   0.003589561187850032
-2.0240629291615173   -0.6440662638333332   0.003589561187850032
-2.4564592062697534   -1.913586269455821   0.21391750145271277
-2.4564592062697534   -1.913586269455821   0.21391750145271277
-2.4564592062697534   -1.913586269455821   0.21391750145271277
-2.4564592062697534   -1.913586269455821   0.21391750145271277
0.6143330053775723   -0.11393867371884947   0.08374074026229934
0.6143330053775723   -0.11393867371884947   0.08374074026229934
0.6143330053775723   -0.11393867371884947   0.08374074026229934
0.6143330053775723   -0.11393867371884947   0.08374074026229934
-0.8216625000011185   -0.9777555497260935   0.03648095242852592
-0.8216625000011185   -0.9777555497260935   0.03648095242852592
-0.8216625000011185   -0.9777555497260935   0.03648095242852592
-0.8216625000011185   -0.9777555497260935   0.03648095242852592
0.3686297926405269   -1.3692456411605525   0.11053164401877508
0.3686297926405269   -1.3692456411605525   0.11053164401877508
0.3686297926405269   -1.3692456411605525   0.11053164401877508
0.3686297926405269   -1.3692456411605525   0.11053164401877508
-2.2525528118064138   -0.7000761202878272   0.019939324601396843
-2.2525528118064138   -0.7000761202878272   0.019939324601396843
-2.2525528118064138   -0.7000761202878272   0.019939324601396843
-2.2525528118064138   -0.7000761202878272   0.019939324601396843
-2.6054959875940895   -1.945307440928019   0.1735571402096565
-2.6054959875940895   -1.945307440928019   0.1735571402096565
-2.6054959875940895   -1.945307440928019   0.1735571402096565
-2.6054959875940895   -1.945307440928019   0.1735571402096565
0.5142722166804625   -0.14367074191371784   0.11794396365590898
0.5142722166804625   -0.14367074191371784   0.11794396365590898
0.5142722166804625   -0.14367074191371784   0.11794396365590898
0.5142722166804625   -0.14367074191371784   0.11794396365590898
-1.0077848965743048   -1.0377677904892268   -0.08798024793141515
-1.0077848965743048   -1.0377677904892268   -0.08798024793141515
-1.0077848965743048   -1.0377677904892268   -0.08798024793141515
-1.0077848965743048   -1.0377677904892268   -0.08798024793141515
0.2548189115475328   -1.3937954582717225   0.07080215434927156
0.2548189115475328   -1.3937954582717225   0.07080215434927156
0.2548189115475328   -1.3937954582717225   0.07080215434927156
0.2548189115475328   -1.3937954582717225   0.07080215434927156
-2.395580994165664   -0.7447210362744803   0.022545702698223147
-2.395580994165664   -0.7447210362744803   0.022545702698223147
-2.395580994165664   -0.7447210362744803   0.022545702698223147
-2.395580994165664   -0.7447210362744803   0.022545702698223147
-2.766760510582932   -1.932491884520704   0.14718630891928097
-2.766760510582932   -1.932491884520704   0.14718630891928097
-2.766760510582932   -1.932491884520704   0.14718630891928097
-2.766760510582932   -1.932491884520704   0.14718630891928097
0.40288181382816285   -0.16044047997578384   0.139506788138395
0.40288181382816285   -0.16044047997578384   0.139506788138395
0.40288181382816285   -0.16044047997578384   0.139506788138395
0.40288181382816285   -0.16044047997578384   0.139506788138395
-1.158602649413188   -1.0608115927551187   -0.2119215200205055
-1.158602649413188   -1.0608115927551187   -0.2119215200205055
-1.158602649413188   -1.0608115927551187   -0.2119215200205055
-1.158602649413188   -1.0608115927551187   -0.2119215200205055
-2.302807543387021   -2.2179707180778436   0.1837709443048563
-2.302807543387021   -2.2179707180778436   0.1837709443048563
-2.302807543387021   -2.2179707180778436   0.1837709443048563
-2.302807543387021   -2.2179707180778436   0.1837709443048563
-5.112669257606267   -0.8024212258665422   -0.1193448843539595
-5.112669257606267   -0.8024212258665422   -0.1193448843539595
-5.112669257606267   -0.8024212258665422   -0.1193448843539595
-5.112669257606267   -0.8024212258665422   -0.1193448843539595
-5.867782896732393   -3.2074242893590457   -0.1681595845961611
-5.867782896732393   -3.2074242893590457   -0.1681595845961611
-5.867782896732393   -3.2074242893590457   -0.1681595845961611
-5.867782896732393   -3.2074242893590457   -0.1681595845961611
-2.1390974327598604   -0.1852131780737606   0.07235327762009597
-2.1390974327598604   -0.1852131780737606   0.07235327762009597
-2.1390974327598604   -0.1852131780737606   0.07235327762009597
-2.1390974327598604   -0.1852131780737606   0.07235327762009597
-3.8189826576337604   -1.5420515806491781   -0.1352334781136189
-3.8189826576337604   -1.5420515806491781   -0.1352334781136189
-3.8189826576337604   -1.5420515806491781   -0.1352334781136189
-3.8189826576337604   -1.5420515806491781   -0.1352334781136189
-2.606283271626607   -2.5093752219801098   0.06058612719273326
-2.606283271626607   -2.5093752219801098   0.06058612719273326
-2.606283271626607   -2.5093752219801098   0.06058612719273326
-2.606283271626607   -2.5093752219801098   0.06058612719273326
-5.3882011797891325   -0.8708663673761783   -0.10680892186272112
-5.3882011797891325   -0.8708663673761783   -0.10680892186272112
-5.3882011797891325   -0.8708663673761783   -0.10680892186272112
-5.3882011797891325   -0.8708663673761783   -0.10680892186272112
-6.044818151794588   -3.2599618325187594   -0.19448927777789982
-6.044818151794588   -3.2599618325187594   -0.19448927777789982
-6.044818151794588   -3.2599618325187594   -0.19448927777789982
-6.044818151794588   -3.2599618325187594   -0.19448927777789982
-2.276195840821847   -0.23372959142754013   0.10848002457036757
-2.276195840821847   -0.23372959142754013   0.10848002457036757
-2.276195840821847   -0.23372959142754013   0.10848002457036757
-2.276195840821847   -0.23372959142754013   0.10848002457036757
-4.035060035632217   -1.7074443162603765   -0.18921492029781684
-4.035060035632217   -1.7074443162603765   -0.18921492029781684
-4.035060035632217   -1.7074443162603765   -0.18921492029781684
-4.035060035632217   -1.7074443162603765   -0.18921492029781684
-2.7582353523516385   -2.559030701646514   0.023583577140376177
-2.7582353523516385   -2.559030701646514   0.023583577140376177
-2.7582353523516385   -2.559030701646514   0.023583577140376177
-2.7582353523516385   -2.559030701646514   0.023583577140376177
-5.562821590667417   -0.9347036727024146   -0.10976463195843553
-5.562821590667417   -0.9347036727024146   -0.10976463195843553
-5.562821590667417   -0.9347036727024146   -0.10976463195843553
-5.562821590667417   -0.9347036727024146   -0.10976463195843553
-6.196104946631639   -3.123557232208136   -0.21935987554676395
-6.196104946631639   -3.123557232208136   -0.21935987554676395
-6.196104946631639   -3.123557232208136   -0.21935987554676395
-6.196104946631639   -3.123557232208136   -0.21935987554676395
-2.4500915269594885   -0.30212371739883204   0.10016305991458785
-2.4500915269594885   -0.30212371739883204   0.10016305991458785
-2.4500915269594885   -0.30212371739883204   0.10016305991458785
-2.4500915269594885   -0.30212371739883204   0.10016305991458785
-4.23349621628855   -1.7642477053323056   -0.24034014496820716
-4.23349621628855   -1.7642477053323056   -0.24034014496820716
-4.23349621628855   -1.7642477053323056   -0.24034014496820716
-4.23349621628855   -1.7642477053323056   -0.24034014496820716
-5.018439524896245   -0.9115094952611189   0.4608920485906496
-5.018439524896245   -0.9115094952611189   0.4608920485906496
-5.018439524896245   -0.9115094952611189   0.4608920485906496
-5.018439524896245   -0.9115094952611189   0.4608920485906496
-8.861449782943795   -0.6659307559149514   -0.16003753959345812
-8.861449782943795   -0.6659307559149514   -0.16003753959345812
-8.861449782943795   -0.6659307559149514   -0.16003753959345812
-8.861449782943795   -0.6659307559149514   -0.16003753959345812
-9.408018619794309   -1.8562455121770585   0.1267910589090162
-9.408018619794309   -1.8562455121770585   0.1267910589090162
-9.408018619794309   -1.8562455121770585   0.1267910589090162
-9.408018619794309   -1.8562455121770585   0.1267910589090162
-5.1693997736533825   0.07211540319156207   0.04421633824823523
-5.1693997736533825   0.07211540319156207   0.04421633824823523
-5.1693997736533825   0.07211540319156207   0.04421633824823523
-5.1693997736533825   0.07211540319156207   0.04421633824823523
-6.775472434172247   -0.6522470475090362   0.13676326202439518
-6.775472434172247   -0.6522470475090362   0.13676326202439518
-6.775472434172247   -0.6522470475090362   0.13676326202439518
-6.775472434172247   -0.6522470475090362   0.13676326202439518
-5.306721602411274   -0.9794998341268251   0.40922243177714845
-5.306721602411274   -0.9794998341268251   0.40922243177714845
-5.306721602411274   -0.9794998341268251   0.40922243177714845
-5.306721602411274   -0.9794998341268251   0.40922243177714845
-9.246308788294964   -0.7802422721172055   -0.1406630236540234
-9.246308788294964   -0.7802422721172055   -0.1406630236540234
-9.246308788294964   -0.7802422721172055   -0.1406630236540234
-9.246308788294964   -0.7802422721172055   -0.1406630236540234
-9.64156126970161   -1.9361006021619263   -0.03894174110802151
-9.64156126970161   -1.9361006021619263   -0.03894174110802151
-9.64156126970161   -1.9361006021619263   -0.03894174110802151
-9.64156126970161   -1.9361006021619263   -0.03894174110802151
-5.33396344857479   0.018008756622417632   0.08181364917986322
-5.33396344857479   0.018008756622417632   0.08181364917986322
-5.33396344857479   0.018008756622417632   0.08181364917986322
-5.33396344857479   0.018008756622417632   0.08181364917986322
-7.18461468858461   -0.8619312839582087   0.056896368786732376
-7.18461468858461   -0.8619312839582087   0.056896368786732376
-7.18461468858461   -0.8619312839582087   0.056896368786732376
-7.18461468858461   -0.8619312839582087   0.056896368786732376
-5.491983099644388   -1.0303764915316824   0.34010064198597534
-5.491983099644388   -1.0303764915316824   0.34010064198597534
-5.491983099644388   -1.0303764915316824   0.34010064198597534
-5.491983099644388   -1.0303764915316824   0.34010064198597534
-9.435074692098244   -0.8392484274740317   -0.10336102777893041
-9.435074692098244   -0.8392484274740317   -0.10336102777893041
-9.435074692098244   -0.8392484274740317   -0.10336102777893041
-9.435074692098244   -0.8392484274740317   -0.10336102777893041
-9.846369326852058   -1.969256047840854   8.908764778681189e-05
-9.846369326852058   -1.969256047840854   8.908764778681189e-05
-9.846369326852058   -1.969256047840854   8.908764778681189e-05
-9.846369326852058   -1.969256047840854   8.908764778681189e-05
-5.564722595062792   -0.21900104301136536   0.03299569310069922
-5.564722595062792   -0.21900104301136536   0.03299569310069922
-5.564722595062792   -0.21900104301136536   0.03299569310069922
-5.564722595062792   -0.21900104301136536   0.03299569310069922
-7.27474296185576   -1.0424291885934456   0.09001160096629762
-7.27474296185576   -1.0424291885934456   0.09001160096629762
-7.27474296185576   -1.0424291885934456   0.09001160096629762
-7.27474296185576   -1.0424291885934456   0.09001160096629762
5.994054385849247   0.27357100342041374   -0.1320141662702251
5.994054385849247   0.27357100342041374   -0.1320141662702251
5.994054385849247   0.27357100342041374   -0.1320141662702251
5.994054385849247   0.27357100342041374   -0.1320141662702251
3.0212587556198414   -0.05822430453995897   0.06571266012825369
3.0212587556198414   -0.05822430453995897   0.06571266012825369
3.0212587556198414   -0.05822430453995897   0.06571266012825369
3.0212587556198414   -0.05822430453995897   0.06571266012825369
2.8268286802598825   -0.4466046937699042   -0.11605721994309282
2.8268286802598825   -0.4466046937699042   -0.11605721994309282
2.8268286802598825   -0.4466046937699042   -0.11605721994309282
2.8268286802598825   -0.4466046937699042   -0.11605721994309282
5.924033455989845   0.43383578401777145   0.07688348884115506
5.924033455989845   0.43383578401777145   0.07688348884115506
5.924033455989845   0.43383578401777145   0.07688348884115506
5.924033455989845   0.43383578401777145   0.07688348884115506
4.208699584772461   0.01027253083416213   -0.16264130854207934
4.208699584772461   0.01027253083416213   -0.16264130854207934
4.208699584772461   0.01027253083416213   -0.16264130854207934
4.208699584772461   0.01027253083416213   -0.16264130854207934
5.82524145344775   0.14970096407165512   -0.1329417039231623
5.82524145344775   0.14970096407165512   -0.1329417039231623
5.82524145344775   0.14970096407165512   -0.1329417039231623
5.82524145344775   0.14970096407165512   -0.1329417039231623
2.920070663118696   -0.1680198935070677   0.07156789408810829
2.920070663118696   -0.1680198935070677   0.07156789408810829
2.920070663118696   -0.1680198935070677   0.07156789408810829
2.920070663118696   -0.1680198935070677   0.07156789408810829
2.7222338036343996   -0.47192370703820485   -0.09564186671347524
2.7222338036343996   -0.47192370703820485   -0.09564186671347524
2.7222338036343996   -0.47192370703820485   -0.09564186671347524
2.7222338036343996   -0.47192370703820485   -0.09564186671347524
5.7785476018325665   0.39810761412039364   0.1118995717591918
5.7785476018325665   0.39810761412039364   0.1118995717591918
5.7785476018325665   0.39810761412039364   0.1118995717591918
5.7785476018325665   0.39810761412039364   0.1118995717591918
4.15055931417859   -0.04283362661747658   -0.19488062958108143
4.15055931417859   -0.04283362661747658   -0.19488062958108143
4.15055931417859   -0.04283362661747658   -0.19488062958108143
4.15055931417859   -0.04283362661747658   -0.19488062958108143
5.679068489566157   0.11757827366695817   -0.1049666491194185
5.679068489566157   0.11757827366695817   -0.1049666491194185
5.679068489566157   0.11757827366695817   -0.1049666491194185
5.679068489566157   0.11757827366695817   -0.1049666491194185
2.814087538005457   -0.19901974448012116   0.09072284258372765
2.814087538005457   -0.19901974448012116   0.09072284258372765
2.814087538005457   -0.19901974448012116   0.09072284258372765
2.814087538005457   -0.19901974448012116   0.09072284258372765
2.62078592595478   -0.4660764623585498   -0.06544900250811175
2.62078592595478   -0.4660764623585498   -0.06544900250811175
2.62078592595478   -0.4660764623585498   -0.06544900250811175
2.62078592595478   -0.4660764623585498   -0.06544900250811175
5.59827346561663   0.37297441766699146   0.14513335343754488
5.59827346561663   0.37297441766699146   0.14513335343754488
5.59827346561663   0.37297441766699146   0.14513335343754488
5.59827346561663   0.37297441766699146   0.14513335343754488
3.943518054205201   -0.07494189459585598   -0.2564362153830704
3.943518054205201   -0.07494189459585598   -0.2564362153830704
3.943518054205201   -0.07494189459585598   -0.2564362153830704
3.943518054205201   -0.07494189459585598   -0.2564362153830704
3.0355498382027744   0.05327984841955169   0.025663920083375258
3.0355498382027744   0.05327984841955169   0.025663920083375258
3.0355498382027744   0.05327984841955169   0.025663920083375258
3.0355498382027744   0.05327984841955169   0.025663920083375258
0.2999174346514067   -0.18040696344238077   -0.006030407256284662
0.2999174346514067   -0.18040696344238077   -0.006030407256284662
0.2999174346514067   -0.18040696344238077   -0.006030407256284662
0.2999174346514067   -0.18040696344238077   -0.006030407256284662
0.11672651932315284   -0.592014885534196   -0.11139579931165389
0.11672651932315284   -0.592014885534196   -0.11139579931165389
0.11672651932315284   -0.592014885534196   -0.11139579931165389
0.11672651932315284   -0.592014885534196   -0.11139579931165389
3.039574203907168   0.35003757819140907   0.15102812633199264
3.039574203907168   0.35003757819140907   0.15102812633199264
3.039574203907168   0.35003757819140907   0.15102812633199264
3.039574203907168   0.35003757819140907   0.15102812633199264
1.5931430457560811   -0.0843981808003137   -0.06376778376968104
1.5931430457560811   -0.0843981808003137   -0.06376778376968104
1.5931430457560811   -0.0843981808003137   -0.06376778376968104
1.5931430457560811   -0.0843981808003137   -0.06376778376968104
2.9496275934557583   0.005925849673274253   0.04540680259309235
2.9496275934557583   0.005925849673274253   0.04540680259309235
2.9496275934557583   0.005925849673274253   0.04540680259309235
2.9496275934557583   0.005925849673274253   0.04540680259309235
0.21002941855986001   -0.24454686823076152   0.007650679568447519
0.21002941855986001   -0.24454686823076152   0.007650679568447519
0.21002941855986001   -0.24454686823076152   0.007650679568447519
0.21002941855986001   -0.24454686823076152   0.007650679568447519
0.0158805695919918   -0.6207841650581438   -0.07715705039067192
0.0158805695919918   -0.6207841650581438   -0.07715705039067192
0.0158805695919918   -0.6207841650581438   -0.07715705039067192
0.0158805695919918   -0.6207841650581438   -0.07715705039067192
2.9288335978644278   0.2987574480498285   0.16667594934863394
2.9288335978644278   0.2987574480498285   0.16667594934863394
2.9288335978644278   0.2987574480498285   0.16667594934863394
2.9288335978644278   0.2987574480498285   0.16667594934863394
1.4773590092195088   -0.13147519218014225   -0.09029867353942034
1.4773590092195088   -0.13147519218014225   -0.09029867353942034
1.4773590092195088   -0.13147519218014225   -0.09029867353942034
1.4773590092195088   -0.13147519218014225   -0.09029867353942034
2.8439077526147525   -0.02632207012123733   0.06712624127134517
2.8439077526147525   -0.02632207012123733   0.06712624127134517
2.8439077526147525   -0.02632207012123733   0.06712624127134517
2.8439077526147525   -0.02632207012123733   0.06712624127134517
0.10029376678057936   -0.29621729494820304   0.020342065442325058
0.10029376678057936   -0.29621729494820304   0.020342065442325058
0.10029376678057936   -0.29621729494820304   0.020342065442325058
0.10029376678057936   -0.29621729494820304   0.020342065442325058
-0.09246880325534153   -0.624259032291388   -0.052327045741428255
-0.09246880325534153   -0.624259032291388   -0.052327045741428255
-0.09246880325534153   -0.624259032291388   -0.052327045741428255
-0.09246880325534153   -0.624259032291388   -0.052327045741428255
2.8171169414081847   0.265830783533393   0.18429882886697763
2.8171169414081847   0.265830783533393   0.18429882886697763
2.8171169414081847   0.265830783533393   0.18429882886697763
2.8171169414081847   0.265830783533393   0.18429882886697763
1.3862765600130076   -0.15068678597466922   -0.1132802486495522
1.3862765600130076   -0.15068678597466922   -0.1132802486495522
1.3862765600130076   -0.15068678597466922   -0.1132802486495522
1.3862765600130076   -0.15068678597466922   -0.1132802486495522
0.30347497746014285   -0.17750543839797345   0.00885578174298865
0.30347497746014285   -0.17750543839797345   0.00885578174298865
0.30347497746014285   -0.17750543839797345   0.00885578174298865
0.30347497746014285   -0.17750543839797345   0.00885578174298865
-2.3296589420015854   -0.26977318415393897   -0.07345208875215296
-2.3296589420015854   -0.26977318415393897   -0.07345208875215296
-2.3296589420015854   -0.26977318415393897   -0.07345208875215296
-2.3296589420015854   -0.26977318415393897   -0.07345208875215296
-2.5333077169271134   -0.7855252030749655   -0.12655118421359562
-2.5333077169271134   -0.7855252030749655   -0.12655118421359562
-2.5333077169271134   -0.7855252030749655   -0.12655118421359562
-2.5333077169271134   -0.7855252030749655   -0.12655118421359562
0.325797434263841   0.25559742041909395   0.08634646943849715
0.325797434263841   0.25559742041909395   0.08634646943849715
0.325797434263841   0.25559742041909395   0.08634646943849715
0.325797434263841   0.25559742041909395   0.08634646943849715
-1.0616647060132482   -0.23257150738796922   -0.06348278468344788
-1.0616647060132482   -0.23257150738796922   -0.06348278468344788
-1.0616647060132482   -0.23257150738796922   -0.06348278468344788
-1.0616647060132482   -0.23257150738796922   -0.06348278468344788
0.22775135306250888   -0.1980503795534479   0.04976386340437068
0.22775135306250888   -0.1980503795534479   0.04976386340437068
0.22775135306250888   -0.1980503795534479   0.04976386340437068
0.22775135306250888   -0.1980503795534479   0.04976386340437068
-2.427807671751945   -0.3244234391285884   -0.06015272228412891
-2.427807671751945   -0.3244234391285884   -0.06015272228412891
-2.427807671751945   -0.3244234391285884   -0.06015272228412891
-2.427807671751945   -0.3244234391285884   -0.06015272228412891
-2.6516375877933642   -0.8170978925493743   -0.08328198504830123
-2.6516375877933642   -0.8170978925493743   -0.08328198504830123
-2.6516375877933642   -0.8170978925493743   -0.08328198504830123
-2.6516375877933642   -0.8170978925493743   -0.08328198504830123
0.21514440695162754   0.20066243371367457   0.09771553763568823
0.21514440695162754   0.20066243371367457   0.09771553763568823
0.21514440695162754   0.20066243371367457   0.09771553763568823
0.21514440695162754   0.20066243371367457   0.09771553763568823
-1.1594896065732938   -0.2654521426163557   -0.07620675668823056
-1.1594896065732938   -0.2654521426163557   -0.07620675668823056
-1.1594896065732938   -0.2654521426163557   -0.07620675668823056
-1.1594896065732938   -0.2654521426163557   -0.07620675668823056
0.12299438725387371   -0.23165793829841558   0.06928581115900928
0.12299438725387371   -0.23165793829841558   0.06928581115900928
0.12299438725387371   -0.23165793829841558   0.06928581115900928
0.12299438725387371   -0.23165793829841558   0.06928581115900928
-2.5579594502360394   -0.38324940267767504   -0.04873978713339284
-2.5579594502360394   -0.38324940267767504   -0.04873978713339284
-2.5579594502360394   -0.38324940267767504   -0.04873978713339284
-2.5579594502360394   -0.38324940267767504   -0.04873978713339284
-2.783009257643005   -0.8403325004647564   -0.07406224283530032
-2.783009257643005   -0.8403325004647564   -0.07406224283530032
-2.783009257643005   -0.8403325004647564   -0.07406224283530032
-2.783009257643005   -0.8403325004647564   -0.07406224283530032
0.09546697639242437   0.1537272115430655   0.10936560866294776
0.09546697639242437   0.1537272115430655   0.10936560866294776
0.09546697639242437   0.1537272115430655   0.10936560866294776
0.09546697639242437   0.1537272115430655   0.10936560866294776
-1.2866668534049461   -0.3048272206118054   -0.10676660950645347
-1.2866668534049461   -0.3048272206118054   -0.10676660950645347
-1.2866668534049461   -0.3048272206118054   -0.10676660950645347
-1.2866668534049461   -0.3048272206118054   -0.10676660950645347
-2.295238485380312   -0.20774224375875866   0.03661925395900291
-2.295238485380312   -0.20774224375875866   0.03661925395900291
-2.295238485380312   -0.20774224375875866   0.03661925395900291
-2.295238485380312   -0.20774224375875866   0.03661925395900291
-4.8935315495048   -0.31557955255484216   -0.13000002726846627
-4.8935315495048   -0.31557955255484216   -0.13000002726846627
-4.8935315495048   -0.31557955255484216   -0.13000002726846627
-4.8935315495048   -0.31557955255484216   -0.13000002726846627
-5.125258364090252   -0.8220746999576538   -0.12579340046897874
-5.125258364090252   -0.8220746999576538   -0.12579340046897874
-5.125258364090252   -0.8220746999576538   -0.12579340046897874
-5.125258364090252   -0.8220746999576538   -0.12579340046897874
-2.3072014516058488   0.19455074429996055   0.023904195017772828
-2.3072014516058488   0.19455074429996055   0.023904195017772828
-2.3072014516058488   0.19455074429996055   0.023904195017772828
-2.3072014516058488   0.19455074429996055   0.023904195017772828
-3.625068123301419   -0.2743512001963482   -0.0537183289197842
-3.625068123301419   -0.2743512001963482   -0.0537183289197842
-3.625068123301419   -0.2743512001963482   -0.0537183289197842
-3.625068123301419   -0.2743512001963482   -0.0537183289197842
-2.3791580538619876   -0.22996797684232884   0.08863990487938173
-2.3791580538619876   -0.22996797684232884   0.08863990487938173
-2.3791580538619876   -0.22996797684232884   0.08863990487938173
-2.3791580538619876   -0.22996797684232884   0.08863990487938173
-5.0386025744799525   -0.3828567914612485   -0.13173236091392307
-5.0386025744799525   -0.3828567914612485   -0.13173236091392307
-5.0386025744799525   -0.3828567914612485   -0.13173236091392307
-5.0386025744799525   -0.3828567914612485   -0.13173236091392307
-5.289138985258599   -0.8756029865887912   -0.08794380679913691
-5.289138985258599   -0.8756029865887912   -0.08794380679913691
-5.289138985258599   -0.8756029865887912   -0.08794380679913691
-5.289138985258599   -0.8756029865887912   -0.08794380679913691
-2.4387999516734   0.13439566120402702   0.02941264179810313
-2.4387999516734   0.13439566120402702   0.02941264179810313
-2.4387999516734   0.13439566120402702   0.02941264179810313
-2.4387999516734   0.13439566120402702   0.02941264179810313
-3.729151257313482   -0.3042784373937084   -0.054061865924163344
-3.729151257313482   -0.3042784373937084   -0.054061865924163344
-3.729151257313482   -0.3042784373937084   -0.054061865924163344
-3.729151257313482   -0.3042784373937084   -0.054061865924163344
-2.509951880135079   -0.28380589338793005   0.09185455408165014
-2.509951880135079   -0.28380589338793005   0.09185455408165014
-2.509951880135079   -0.28380589338793005   0.09185455408165014
-2.509951880135079   -0.28380589338793005   0.09185455408165014
-5.208152600067817   -0.44756697526769385   -0.11104789216632993
-5.208152600067817   -0.44756697526769385   -0.11104789216632993
-5.208152600067817   -0.44756697526769385   -0.11104789216632993
-5.208152600067817   -0.44756697526769385   -0.11104789216632993
-5.474724727261092   -0.9459623691556331   -0.09439699856781436
-5.474724727261092   -0.9459623691556331   -0.09439699856781436
-5.474724727261092   -0.9459623691556331   -0.09439699856781436
-5.474724727261092   -0.9459623691556331   -0.09439699856781436
-2.5809899941161096   0.06033132475686709   0.035370249577501595
-2.5809899941161096   0.06033132475686709   0.035370249577501595
-2.5809899941161096   0.06033132475686709   0.035370249577501595
-2.5809899941161096   0.06033132475686709   0.035370249577501595
-3.9125708330189526   -0.3760875087479271   -0.0874055732237493
-3.9125708330189526   -0.3760875087479271   -0.0874055732237493
-3.9125708330189526   -0.3760875087479271   -0.0874055732237493
-3.9125708330189526   -0.3760875087479271   -0.0874055732237493
-4.726561837007627   0.22575678143623823   0.16351220122632015
-4.726561837007627   0.22575678143623823   0.16351220122632015
-4.726561837007627   0.22575678143623823   0.16351220122632015
-4.726561837007627   0.22575678143623823   0.16351220122632015
-7.330896294642925   -0.3654632017870181   -0.10010689346386059
-7.330896294642925   -0.3654632017870181   -0.10010689346386059
-7.330896294642925   -0.3654632017870181   -0.10010689346386059
-7.330896294642925   -0.3654632017870181   -0.10010689346386059
-7.513962855645127   -0.3719909181735215   0.16824781341456174
-7.513962855645127   -0.3719909181735215   0.16824781341456174
-7.513962855645127   -0.3719909181735215   0.16824781341456174
-7.513962855645127   -0.3719909181735215   0.16824781341456174
-4.913704721225828   0.15068238749762886   -0.04078227360217457
-4.913704721225828   0.15068238749762886   -0.04078227360217457
-4.913704721225828   0.15068238749762886   -0.04078227360217457
-4.913704721225828   0.15068238749762886   -0.04078227360217457
-5.836157601265306   0.005073747233951487   0.1477856879411653
-5.836157601265306   0.005073747233951487   0.1477856879411653
-5.836157601265306   0.005073747233951487   0.1477856879411653
-5.836157601265306   0.005073747233951487   0.1477856879411653
-4.861272860604645   0.1660911679599424   0.20596824904139877
-4.861272860604645   0.1660911679599424   0.20596824904139877
-4.861272860604645   0.1660911679599424   0.20596824904139877
-4.861272860604645   0.1660911679599424   0.20596824904139877
-7.563027270154163   -0.3840322525237132   -0.06503292478042572
-7.563027270154163   -0.3840322525237132   -0.06503292478042572
-7.563027270154163   -0.3840322525237132   -0.06503292478042572
-7.563027270154163   -0.3840322525237132   -0.06503292478042572
-7.745371170199765   -0.43491763193839494   0.22858942800077509
-7.745371170199765   -0.43491763193839494   0.22858942800077509
-7.745371170199765   -0.43491763193839494   0.22858942800077509
-7.745371170199765   -0.43491763193839494   0.22858942800077509
-5.083338636510211   0.10796930448473985   -0.04251435413077709
-5.083338636510211   0.10796930448473985   -0.04251435413077709
-5.083338636510211   0.10796930448473985   -0.04251435413077709
-5.083338636510211   0.10796930448473985   -0.04251435413077709
-6.133288302654985   -0.06872720865720505   0.07966075948686285
-6.133288302654985   -0.06872720865720505   0.07966075948686285
-6.133288302654985   -0.06872720865720505   0.07966075948686285
-6.133288302654985   -0.06872720865720505   0.07966075948686285
-5.035427602529745   0.10196268337226089   0.20304743688403393
-5.035427602529745   0.10196268337226089   0.20304743688403393
-5.035427602529745   0.10196268337226089   0.20304743688403393
-5.035427602529745   0.10196268337226089   0.20304743688403393
-7.8023019677201955   -0.43793077436590067   -0.05305141717387113
-7.8023019677201955   -0.43793077436590067   -0.05305141717387113
-7.8023019677201955   -0.43793077436590067   -0.05305141717387113
-7.8023019677201955   -0.43793077436590067   -0.05305141717387113
-8.073983758185163   -0.6876156722461275   0.19918371004926044
-8.073983758185163   -0.6876156722461275   0.19918371004926044
-8.073983758185163   -0.6876156722461275   0.19918371004926044
-8.073983758185163   -0.6876156722461275   0.19918371004926044
-5.278899805472079   -0.021292350487358114   -0.03994240829111839
-5.278899805472079   -0.021292350487358114   -0.03994240829111839
-5.278899805472079   -0.021292350487358114   -0.03994240829111839
-5.278899805472079   -0.021292350487358114   -0.03994240829111839
-6.262004776403238   -0.1612686058041286   0.01917361093590303
-6.262004776403238   -0.1612686058041286   0.01917361093590303
-6.262004776403238   -0.1612686058041286   0.01917361093590303
-6.262004776403238   -0.1612686058041286   0.01917361093590303
4.841550616365476   0.25772446708964825   -0.17483534246934476
4.841550616365476   0.25772446708964825   -0.17483534246934476
4.841550616365476   0.25772446708964825   -0.17483534246934476
4.841550616365476   0.25772446708964825   -0.17483534246934476
2.4036700032709644   -3.870990322762946e-05   0.06397814283153866
2.4036700032709644   -3.870990322762946e-05   0.06397814283153866
2.4036700032709644   -3.870990322762946e-05   0.06397814283153866
2.4036700032709644   -3.870990322762946e-05   0.06397814283153866
2.194440127058334   -0.3594383546583049   -0.15989387560771548
2.194440127058334   -0.3594383546583049   -0.15989387560771548
2.194440127058334   -0.3594383546583049   -0.15989387560771548
2.194440127058334   -0.3594383546583049   -0.15989387560771548
4.749175613848343   0.3926370832419225   0.08015658539076267
4.749175613848343   0.3926370832419225   0.08015658539076267
4.749175613848343   0.3926370832419225   0.08015658539076267
4.749175613848343   0.3926370832419225   0.08015658539076267
3.3638240606393497   0.029823595725146923   -0.11064169068038704
3.3638240606393497   0.029823595725146923   -0.11064169068038704
3.3638240606393497   0.029823595725146923   -0.11064169068038704
3.3638240606393497   0.029823595725146923   -0.11064169068038704
4.646857901140934   0.12938749691574591   -0.16818239182006253
4.646857901140934   0.12938749691574591   -0.16818239182006253
4.646857901140934   0.12938749691574591   -0.16818239182006253
4.646857901140934   0.12938749691574591   -0.16818239182006253
2.2923256807673233   -0.10062092733054795   0.07071646560943054
2.2923256807673233   -0.10062092733054795   0.07071646560943054
2.2923256807673233   -0.10062092733054795   0.07071646560943054
2.2923256807673233   -0.10062092733054795   0.07071646560943054
2.0897690389644277   -0.3897976075138435   -0.13884797354410047
2.0897690389644277   -0.3897976075138435   -0.13884797354410047
2.0897690389644277   -0.3897976075138435   -0.13884797354410047
2.0897690389644277   -0.3897976075138435   -0.13884797354410047
4.592537571071446   0.35102453713555504   0.10925887563446227
4.592537571071446   0.35102453713555504   0.10925887563446227
4.592537571071446   0.35102453713555504   0.10925887563446227
4.592537571071446   0.35102453713555504   0.10925887563446227
3.2810657233623326   -0.024638138248835095   -0.146063591127742
3.2810657233623326   -0.024638138248835095   -0.146063591127742
3.2810657233623326   -0.024638138248835095   -0.146063591127742
3.2810657233623326   -0.024638138248835095   -0.146063591127742
4.492451530625713   0.09206593969622656   -0.13221272915479004
4.492451530625713   0.09206593969622656   -0.13221272915479004
4.492451530625713   0.09206593969622656   -0.13221272915479004
4.492451530625713   0.09206593969622656   -0.13221272915479004
2.185920094075249   -0.13477399540945678   0.08688368990559944
2.185920094075249   -0.13477399540945678   0.08688368990559944
2.185920094075249   -0.13477399540945678   0.08688368990559944
2.185920094075249   -0.13477399540945678   0.08688368990559944
1.994082503741501   -0.39956800882307414   -0.11338781713765259
1.994082503741501   -0.39956800882307414   -0.11338781713765259
1.994082503741501   -0.39956800882307414   -0.11338781713765259
1.994082503741501   -0.39956800882307414   -0.11338781713765259
4.415950269638144   0.31395670570364687   0.13565229232300777
4.415950269638144   0.31395670570364687   0.13565229232300777
4.415950269638144   0.31395670570364687   0.13565229232300777
4.415950269638144   0.31395670570364687   0.13565229232300777
3.090948982352186   -0.06239208594811807   -0.1987207024724206
3.090948982352186   -0.06239208594811807   -0.1987207024724206
3.090948982352186   -0.06239208594811807   -0.1987207024724206
3.090948982352186   -0.06239208594811807   -0.1987207024724206
2.4437360743700225   0.2520140030310996   0.01225578539250162
2.4437360743700225   0.2520140030310996   0.01225578539250162
2.4437360743700225   0.2520140030310996   0.01225578539250162
2.4437360743700225   0.2520140030310996   0.01225578539250162
0.08869374451805229   -0.0783250751530454   -0.009322127458770948
0.08869374451805229   -0.0783250751530454   -0.009322127458770948
0.08869374451805229   -0.0783250751530454   -0.009322127458770948
0.08869374451805229   -0.0783250751530454   -0.009322127458770948
-0.06898488434448825   -0.3235685004153826   -0.10844317845006402
-0.06898488434448825   -0.3235685004153826   -0.10844317845006402
-0.06898488434448825   -0.3235685004153826   -0.10844317845006402
-0.06898488434448825   -0.3235685004153826   -0.10844317845006402
2.3960171702007935   0.3550813893734043   0.13347159607283085
2.3960171702007935   0.3550813893734043   0.13347159607283085
2.3960171702007935   0.3550813893734043   0.13347159607283085
2.3960171702007935   0.3550813893734043   0.13347159607283085
1.1959612375929984   0.050545979707875166   -0.01395497589397278
1.1959612375929984   0.050545979707875166   -0.01395497589397278
1.1959612375929984   0.050545979707875166   -0.01395497589397278
1.1959612375929984   0.050545979707875166   -0.01395497589397278
2.3406392068765367   0.18531465606989833   0.026348512755069706
2.3406392068765367   0.18531465606989833   0.026348512755069706
2.3406392068765367   0.18531465606989833   0.026348512755069706
2.3406392068765367   0.18531465606989833   0.026348512755069706
-0.012641943361446216   -0.15283678945304635   0.002539815502817566
-0.012641943361446216   -0.15283678945304635   0.002539815502817566
-0.012641943361446216   -0.15283678945304635   0.002539815502817566
-0.012641943361446216   -0.15283678945304635   0.002539815502817566
-0.1681480895402908   -0.37269705102289297   -0.09361485861000894
-0.1681480895402908   -0.37269705102289297   -0.09361485861000894
-0.1681480895402908   -0.37269705102289297   -0.09361485861000894
-0.1681480895402908   -0.37269705102289297   -0.09361485861000894
2.2837027122929645   0.293255606836711   0.14776717874801065
2.2837027122929645   0.293255606836711   0.14776717874801065
2.2837027122929645   0.293255606836711   0.14776717874801065
2.2837027122929645   0.293255606836711   0.14776717874801065
1.075075734949738   -0.010290959618291712   -0.04856250450205887
1.075075734949738   -0.010290959618291712   -0.04856250450205887
1.075075734949738   -0.010290959618291712   -0.04856250450205887
1.075075734949738   -0.010290959618291712   -0.04856250450205887
2.230377067552749   0.1338415537453741   0.04055300813828662
2.230377067552749   0.1338415537453741   0.04055300813828662
2.230377067552749   0.1338415537453741   0.04055300813828662
2.230377067552749   0.1338415537453741   0.04055300813828662
-0.11472033728632461   -0.21318089041780264   0.014007742054731778
-0.11472033728632461   -0.21318089041780264   0.014007742054731778
-0.11472033728632461   -0.21318089041780264   0.014007742054731778
-0.11472033728632461   -0.21318089041780264   0.014007742054731778
-0.2663437265668429   -0.40257240696094976   -0.07425645562970876
-0.2663437265668429   -0.40257240696094976   -0.07425645562970876
-0.2663437265668429   -0.40257240696094976   -0.07425645562970876
-0.2663437265668429   -0.40257240696094976   -0.07425645562970876
2.176890660392934   0.2408769625378197   0.16020799475859177
2.176890660392934   0.2408769625378197   0.16020799475859177
2.176890660392934   0.2408769625378197   0.16020799475859177
2.176890660392934   0.2408769625378197   0.16020799475859177
0.9853067869585233   -0.049535429198612424   -0.07418139449160954
0.9853067869585233   -0.049535429198612424   -0.07418139449160954
0.9853067869585233   -0.049535429198612424   -0.07418139449160954
0.9853067869585233   -0.049535429198612424   -0.07418139449160954
0.16828035018343873   0.25546854764709964   0.05481727806801629
0.16828035018343873   0.25546854764709964   0.05481727806801629
0.16828035018343873   0.25546854764709964   0.05481727806801629
0.16828035018343873   0.25546854764709964   0.05481727806801629
-2.1537583022557243   -0.13822941946963657   -0.0742584219013032
-2.1537583022557243   -0.13822941946963657   -0.0742584219013032
-2.1537583022557243   -0.13822941946963657   -0.0742584219013032
-2.1537583022557243   -0.13822941946963657   -0.0742584219013032
-2.276789627753687   -0.2958062538400199   -0.06808483983978952
-2.276789627753687   -0.2958062538400199   -0.06808483983978952
-2.276789627753687   -0.2958062538400199   -0.06808483983978952
-2.276789627753687   -0.2958062538400199   -0.06808483983978952
0.08842949849512735   0.2906418308044883   0.06441840452815081
0.08842949849512735   0.2906418308044883   0.06441840452815081
0.08842949849512735   0.2906418308044883   0.06441840452815081
0.08842949849512735   0.2906418308044883   0.06441840452815081
-1.0421695817705239   0.03307362714669737   0.003805184118684357
-1.0421695817705239   0.03307362714669737   0.003805184118684357
-1.0421695817705239   0.03307362714669737   0.003805184118684357
-1.0421695817705239   0.03307362714669737   0.003805184118684357
0.0714979485821414   0.20129060545720337   0.06911188031049831
0.0714979485821414   0.20129060545720337   0.06911188031049831
0.0714979485821414   0.20129060545720337   0.06911188031049831
0.0714979485821414   0.20129060545720337   0.06911188031049831
-2.257165015973507   -0.20376196662554213   -0.06200606815336672
-2.257165015973507   -0.20376196662554213   -0.06200606815336672
-2.257165015973507   -0.20376196662554213   -0.06200606815336672
-2.257165015973507   -0.20376196662554213   -0.06200606815336672
-2.3832307533962873   -0.3498189958755229   -0.056316449962384336
-2.3832307533962873   -0.3498189958755229   -0.056316449962384336
-2.3832307533962873   -0.3498189958755229   -0.056316449962384336
-2.3832307533962873   -0.3498189958755229   -0.056316449962384336
-0.013825963309895675   0.2270236267627807   0.07827509475629309
-0.013825963309895675   0.2270236267627807   0.07827509475629309
-0.013825963309895675   0.2270236267627807   0.07827509475629309
-0.013825963309895675   0.2270236267627807   0.07827509475629309
-1.1441240459624122   -0.019643090359114407   -0.022281540859909237
-1.1441240459624122   -0.019643090359114407   -0.022281540859909237
-1.1441240459624122   -0.019643090359114407   -0.022281540859909237
-1.1441240459624122   -0.019643090359114407   -0.022281540859909237
-0.02831267071743946   0.14916745629082875   0.08369772819052611
-0.02831267071743946   0.14916745629082875   0.08369772819052611
-0.02831267071743946   0.14916745629082875   0.08369772819052611
-0.02831267071743946   0.14916745629082875   0.08369772819052611
-2.3664128443110166   -0.26963162372583893   -0.05241427668568449
-2.3664128443110166   -0.26963162372583893   -0.05241427668568449
-2.3664128443110166   -0.26963162372583893   -0.05241427668568449
-2.3664128443110166   -0.26963162372583893   -0.05241427668568449
-2.4889847196348454   -0.392390876552606   -0.03677313578814016
-2.4889847196348454   -0.392390876552606   -0.03677313578814016
-2.4889847196348454   -0.392390876552606   -0.03677313578814016
-2.4889847196348454   -0.392390876552606   -0.03677313578814016
-0.1197479536488818   0.16709300427780385   0.08905699772134316
-0.1197479536488818   0.16709300427780385   0.08905699772134316
-0.1197479536488818   0.16709300427780385   0.08905699772134316
-0.1197479536488818   0.16709300427780385   0.08905699772134316
-1.2538131851200445   -0.07326653245794959   -0.05074789409128223
-1.2538131851200445   -0.07326653245794959   -0.05074789409128223
-1.2538131851200445   -0.07326653245794959   -0.05074789409128223
-1.2538131851200445   -0.07326653245794959   -0.05074789409128223
-2.0304116212909498   0.3032446260268475   0.10100093742613148
-2.0304116212909498   0.3032446260268475   0.10100093742613148
-2.0304116212909498   0.3032446260268475   0.10100093742613148
-2.0304116212909498   0.3032446260268475   0.10100093742613148
-4.319461316764426   -0.1904835704028508   -0.12197458097355127
-4.319461316764426   -0.1904835704028508   -0.12197458097355127
-4.319461316764426   -0.1904835704028508   -0.12197458097355127
-4.319461316764426   -0.1904835704028508   -0.12197458097355127
-4.415459515668287   -0.23555796824392627   -0.018381303638977414
-4.415459515668287   -0.23555796824392627   -0.018381303638977414
-4.415459515668287   -0.23555796824392627   -0.018381303638977414
-4.415459515668287   -0.23555796824392627   -0.018381303638977414
-2.1609560753927988   0.21944063396621105   -0.004163965841547074
-2.1609560753927988   0.21944063396621105   -0.004163965841547074
-2.1609560753927988   0.21944063396621105   -0.004163965841547074
-2.1609560753927988   0.21944063396621105   -0.004163965841547074
-3.208261453440661   0.034269634287091066   0.023254991559794658
-3.208261453440661   0.034269634287091066   0.023254991559794658
-3.208261453440661   0.034269634287091066   0.023254991559794658
-3.208261453440661   0.034269634287091066   0.023254991559794658
-2.1318172057115063   0.24753413148454217   0.11343688504658486
-2.1318172057115063   0.24753413148454217   0.11343688504658486
-2.1318172057115063   0.24753413148454217   0.11343688504658486
-2.1318172057115063   0.24753413148454217   0.11343688504658486
-4.440887825663453   -0.2599409060761385   -0.12113991578264102
-4.440887825663453   -0.2599409060761385   -0.12113991578264102
-4.440887825663453   -0.2599409060761385   -0.12113991578264102
-4.440887825663453   -0.2599409060761385   -0.12113991578264102
-4.546582891827098   -0.296244654588077   -0.016005997008718048
-4.546582891827098   -0.296244654588077   -0.016005997008718048
-4.546582891827098   -0.296244654588077   -0.016005997008718048
-4.546582891827098   -0.296244654588077   -0.016005997008718048
-2.2686173200021273   0.158729880639086   0.008201840493836432
-2.2686173200021273   0.158729880639086   0.008201840493836432
-2.2686173200021273   0.158729880639086   0.008201840493836432
-2.2686173200021273   0.158729880639086   0.008201840493836432
-3.300396607411421   -0.014146299611677904   0.0018237814208992564
-3.300396607411421   -0.014146299611677904   0.0018237814208992564
-3.300396607411421   -0.014146299611677904   0.0018237814208992564
-3.300396607411421   -0.014146299611677904   0.0018237814208992564
-2.2367332084128884   0.19516411442694082   0.13118816465216057
-2.2367332084128884   0.19516411442694082   0.13118816465216057
-2.2367332084128884   0.19516411442694082   0.13118816465216057
-2.2367332084128884   0.19516411442694082   0.13118816465216057
-4.571003793096663   -0.3252156780562645   -0.10913947988838058
-4.571003793096663   -0.3252156780562645   -0.10913947988838058
-4.571003793096663   -0.3252156780562645   -0.10913947988838058
-4.571003793096663   -0.3252156780562645   -0.10913947988838058
-4.6673914379647226   -0.3611452779862401   0.01438867971057825
-4.6673914379647226   -0.3611452779862401   0.01438867971057825
-4.6673914379647226   -0.3611452779862401   0.01438867971057825
-4.6673914379647226   -0.3611452779862401   0.01438867971057825
-2.382703934899123   0.08665506783004195   0.015584843507870455
-2.382703934899123   0.08665506783004195   0.015584843507870455
-2.382703934899123   0.08665506783004195   0.015584843507870455
-2.382703934899123   0.08665506783004195   0.015584843507870455
-3.4433099940335814   -0.08165284350273894   -0.026826426106347695
-3.4433099940335814   -0.08165284350273894   -0.026826426106347695
-3.4433099940335814   -0.08165284350273894   -0.026826426106347695
-3.4433099940335814   -0.08165284350273894   -0.026826426106347695
-4.165366421382984   0.31605618055324536   0.14196014497751575
-4.165366421382984   0.31605618055324536   0.14196014497751575
-4.165366421382984   0.31605618055324536   0.14196014497751575
-4.165366421382984   0.31605618055324536   0.14196014497751575
-6.373994186719477   -0.29449691486155904   -0.11346953756792633
-6.373994186719477   -0.29449691486155904   -0.11346953756792633
-6.373994186719477   -0.29449691486155904   -0.11346953756792633
-6.373994186719477   -0.29449691486155904   -0.11346953756792633
-6.463089328140198   -0.12680067825621766   0.12118700454284193
-6.463089328140198   -0.12680067825621766   0.12118700454284193
-6.463089328140198   -0.12680067825621766   0.12118700454284193
-6.463089328140198   -0.12680067825621766   0.12118700454284193
-4.351549656632617   0.1299212984683853   -0.06431127517294233
-4.351549656632617   0.1299212984683853   -0.06431127517294233
-4.351549656632617   0.1299212984683853   -0.06431127517294233
-4.351549656632617   0.1299212984683853   -0.06431127517294233
-5.102858646466417   0.06642768941596477   0.11659967047606723
-5.102858646466417   0.06642768941596477   0.11659967047606723
-5.102858646466417   0.06642768941596477   0.11659967047606723
-5.102858646466417   0.06642768941596477   0.11659967047606723
-4.2679298184525605   0.32061305467653956   0.1630961595191116
-4.2679298184525605   0.32061305467653956   0.1630961595191116
-4.2679298184525605   0.32061305467653956   0.1630961595191116
-4.2679298184525605   0.32061305467653956   0.1630961595191116
-6.541766234804957   -0.31254950294908745   -0.08644870408796612
-6.541766234804957   -0.31254950294908745   -0.08644870408796612
-6.541766234804957   -0.31254950294908745   -0.08644870408796612
-6.541766234804957   -0.31254950294908745   -0.08644870408796612
-6.625886473278488   -0.15853859898213063   0.16749396530302446
-6.625886473278488   -0.15853859898213063   0.16749396530302446
-6.625886473278488   -0.15853859898213063   0.16749396530302446
-6.625886473278488   -0.15853859898213063   0.16749396530302446
-4.476587122150416   0.0950164922095198   -0.05728829542290054
-4.476587122150416   0.0950164922095198   -0.05728829542290054
-4.476587122150416   0.0950164922095198   -0.05728829542290054
-4.476587122150416   0.0950164922095198   -0.05728829542290054
-5.325456261612757   0.032637696791387505   0.07421942564944833
-5.325456261612757   0.032637696791387505   0.07421942564944833
-5.325456261612757   0.032637696791387505   0.07421942564944833
-5.325456261612757   0.032637696791387505   0.07421942564944833
-4.384248644588126   0.29681190884577224   0.20260867575230002
-4.384248644588126   0.29681190884577224   0.20260867575230002
-4.384248644588126   0.29681190884577224   0.20260867575230002
-4.384248644588126   0.29681190884577224   0.20260867575230002
-6.713480234746426   -0.35558929952403395   -0.07342414149465887
-6.713480234746426   -0.35558929952403395   -0.07342414149465887
-6.713480234746426   -0.35558929952403395   -0.07342414149465887
-6.713480234746426   -0.35558929952403395   -0.07342414149465887
-6.846644267411853   -0.2934578184009311   0.16697471408078957
-6.846644267411853   -0.2934578184009311   0.16697471408078957
-6.846644267411853   -0.2934578184009311   0.16697471408078957
-6.846644267411853   -0.2934578184009311   0.16697471408078957
-4.610526625176184   -0.00869301969995151   -0.05373951463302068
-4.610526625176184   -0.00869301969995151   -0.05373951463302068
-4.610526625176184   -0.00869301969995151   -0.05373951463302068
-4.610526625176184   -0.00869301969995151   -0.05373951463302068
-5.392103655869044   -0.015572688574836846   0.05978835869482946
-5.392103655869044   -0.015572688574836846   0.05978835869482946
-5.392103655869044   -0.015572688574836846   0.05978835869482946
-5.392103655869044   -0.015572688574836846   0.05978835869482946
3.65491759920826   0.20205280612582943   -0.17681187296047193
3.65491759920826   0.20205280612582943   -0.17681187296047193
3.65491759920826   0.20205280612582943   -0.17681187296047193
3.65491759920826   0.20205280612582943   -0.17681187296047193
1.7404374535745546   0.03708744670550601   0.06793298988143909
1.7404374535745546   0.03708744670550601   0.06793298988143909
1.7404374535745546   0.03708744670550601   0.06793298988143909
1.7404374535745546   0.03708744670550601   0.06793298988143909
1.5437413349467595   -0.2980011035282064   -0.16760006955829812
1.5437413349467595   -0.2980011035282064   -0.16760006955829812
1.5437413349467595   -0.2980011035282064   -0.16760006955829812
1.5437413349467595   -0.2980011035282064   -0.16760006955829812
3.574410547315159   0.3371174358272546   0.08392666944034685
3.574410547315159   0.3371174358272546   0.08392666944034685
3.574410547315159   0.3371174358272546   0.08392666944034685
3.574410547315159   0.3371174358272546   0.08392666944034685
2.492633391921127   0.03379788942616613   -0.07364929130290226
2.492633391921127   0.03379788942616613   -0.07364929130290226
2.492633391921127   0.03379788942616613   -0.07364929130290226
2.492633391921127   0.03379788942616613   -0.07364929130290226
3.4744788895649217   0.0882863205086406   -0.16690050399222542
3.4744788895649217   0.0882863205086406   -0.16690050399222542
3.4744788895649217   0.0882863205086406   -0.16690050399222542
3.4744788895649217   0.0882863205086406   -0.16690050399222542
1.6416867083508278   -0.05115627255576405   0.07528196648958421
1.6416867083508278   -0.05115627255576405   0.07528196648958421
1.6416867083508278   -0.05115627255576405   0.07528196648958421
1.6416867083508278   -0.05115627255576405   0.07528196648958421
1.4517473917080563   -0.32754195334508135   -0.142783397405331
1.4517473917080563   -0.32754195334508135   -0.142783397405331
1.4517473917080563   -0.32754195334508135   -0.142783397405331
1.4517473917080563   -0.32754195334508135   -0.142783397405331
3.431397571126018   0.29497013398325117   0.11009685311623364
3.431397571126018   0.29497013398325117   0.11009685311623364
3.431397571126018   0.29497013398325117   0.11009685311623364
3.431397571126018   0.29497013398325117   0.11009685311623364
2.409564262406408   -0.017231536224169175   -0.1040443141590213
2.409564262406408   -0.017231536224169175   -0.1040443141590213
2.409564262406408   -0.017231536224169175   -0.1040443141590213
2.409564262406408   -0.017231536224169175   -0.1040443141590213
3.333853566631517   0.050754461705045495   -0.1334074970780349
3.333853566631517   0.050754461705045495   -0.1334074970780349
3.333853566631517   0.050754461705045495   -0.1334074970780349
3.333853566631517   0.050754461705045495   -0.1334074970780349
1.5468264376900818   -0.08579123957936874   0.09086111873907006
1.5468264376900818   -0.08579123957936874   0.09086111873907006
1.5468264376900818   -0.08579123957936874   0.09086111873907006
1.5468264376900818   -0.08579123957936874   0.09086111873907006
1.3687381163164818   -0.34639142160222863   -0.11887619088470677
1.3687381163164818   -0.34639142160222863   -0.11887619088470677
1.3687381163164818   -0.34639142160222863   -0.11887619088470677
1.3687381163164818   -0.34639142160222863   -0.11887619088470677
3.2702163221424216   0.2488654685141471   0.13054751512873775
3.2702163221424216   0.2488654685141471   0.13054751512873775
3.2702163221424216   0.2488654685141471   0.13054751512873775
3.2702163221424216   0.2488654685141471   0.13054751512873775
2.2475639712593325   -0.05602151808055572   -0.14863929408215137
2.2475639712593325   -0.05602151808055572   -0.14863929408215137
2.2475639712593325   -0.05602151808055572   -0.14863929408215137
2.2475639712593325   -0.05602151808055572   -0.14863929408215137
1.7685516529504803   0.2571910155987623   -0.011599582132160221
1.7685516529504803   0.2571910155987623   -0.011599582132160221
1.7685516529504803   0.2571910155987623   -0.011599582132160221
1.7685516529504803   0.2571910155987623   -0.011599582132160221
-0.11318099568436031   -0.023511461640704823   -0.00028181445589343685
-0.11318099568436031   -0.023511461640704823   -0.00028181445589343685
-0.11318099568436031   -0.023511461640704823   -0.00028181445589343685
-0.11318099568436031   -0.023511461640704823   -0.00028181445589343685
-0.25172671486534054   -0.22240619553683   -0.10622244341220644
-0.25172671486534054   -0.22240619553683   -0.10622244341220644
-0.25172671486534054   -0.22240619553683   -0.10622244341220644
-0.25172671486534054   -0.22240619553683   -0.10622244341220644
1.721679002693074   0.3061027960675068   0.1179843695775431
1.721679002693074   0.3061027960675068   0.1179843695775431
1.721679002693074   0.3061027960675068   0.1179843695775431
1.721679002693074   0.3061027960675068   0.1179843695775431
0.7693232760819663   0.07582334506321835   0.005321298621337244
0.7693232760819663   0.07582334506321835   0.005321298621337244
0.7693232760819663   0.07582334506321835   0.005321298621337244
0.7693232760819663   0.07582334506321835   0.005321298621337244
1.6747237303602762   0.18499211915579242   0.004318684825289208
1.6747237303602762   0.18499211915579242   0.004318684825289208
1.6747237303602762   0.18499211915579242   0.004318684825289208
1.6747237303602762   0.18499211915579242   0.004318684825289208
-0.20395576196529475   -0.10047983805786423   0.010705963609056686
-0.20395576196529475   -0.10047983805786423   0.010705963609056686
-0.20395576196529475   -0.10047983805786423   0.010705963609056686
-0.20395576196529475   -0.10047983805786423   0.010705963609056686
-0.33840034484369563   -0.2782576476258623   -0.08769603642819551
-0.33840034484369563   -0.2782576476258623   -0.08769603642819551
-0.33840034484369563   -0.2782576476258623   -0.08769603642819551
-0.33840034484369563   -0.2782576476258623   -0.08769603642819551
1.6195428793154336   0.2396396934106685   0.12901239387579186
1.6195428793154336   0.2396396934106685   0.12901239387579186
1.6195428793154336   0.2396396934106685   0.12901239387579186
1.6195428793154336   0.2396396934106685   0.12901239387579186
0.662717114388419   0.01017410288801665   -0.027661557131358254
0.662717114388419   0.01017410288801665   -0.027661557131358254
0.662717114388419   0.01017410288801665   -0.027661557131358254
0.662717114388419   0.01017410288801665   -0.027661557131358254
1.574129429509309   0.1250870684846232   0.016497769771227452
1.574129429509309   0.1250870684846232   0.016497769771227452
1.574129429509309   0.1250870684846232   0.016497769771227452
1.574129429509309   0.1250870684846232   0.016497769771227452
-0.29362281588108763   -0.1643409435433314   0.022274904302313686
-0.29362281588108763   -0.1643409435433314   0.022274904302313686
-0.29362281588108763   -0.1643409435433314   0.022274904302313686
-0.29362281588108763   -0.1643409435433314   0.022274904302313686
-0.42397114420860826   -0.32539400581608297   -0.0702850424093795
-0.42397114420860826   -0.32539400581608297   -0.0702850424093795
-0.42397114420860826   -0.32539400581608297   -0.0702850424093795
-0.42397114420860826   -0.32539400581608297   -0.0702850424093795
1.5252459339793139   0.17797350826202163   0.13929796756519452
1.5252459339793139   0.17797350826202163   0.13929796756519452
1.5252459339793139   0.17797350826202163   0.13929796756519452
1.5252459339793139   0.17797350826202163   0.13929796756519452
0.5806243011617711   -0.03986880811506602   -0.055233359495626924
0.5806243011617711   -0.03986880811506602   -0.055233359495626924
0.5806243011617711   -0.03986880811506602   -0.055233359495626924
0.5806243011617711   -0.03986880811506602   -0.055233359495626924
-0.03825313828615723   0.30824374990285075   0.04260226099156639
-0.03825313828615723   0.30824374990285075   0.04260226099156639
-0.03825313828615723   0.30824374990285075   0.04260226099156639
-0.03825313828615723   0.30824374990285075   0.04260226099156639
-1.9271729750266327   -0.08217802113921346   -0.0639401323285695
-1.9271729750266327   -0.08217802113921346   -0.0639401323285695
-1.9271729750266327   -0.08217802113921346   -0.0639401323285695
-1.9271729750266327   -0.08217802113921346   -0.0639401323285695
-2.0164912981187606   -0.15318524672907868   -0.04979618652579586
-2.0164912981187606   -0.15318524672907868   -0.04979618652579586
-2.0164912981187606   -0.15318524672907868   -0.04979618652579586
-2.0164912981187606   -0.15318524672907868   -0.04979618652579586
-0.12629993322291397   0.24725714908213298   0.05124812018096339
-0.12629993322291397   0.24725714908213298   0.05124812018096339
-0.12629993322291397   0.24725714908213298   0.05124812018096339
-0.12629993322291397   0.24725714908213298   0.05124812018096339
-1.0246303177932732   0.08063231479773503   0.020127989803616048
-1.0246303177932732   0.08063231479773503   0.020127989803616048
-1.0246303177932732   0.08063231479773503   0.020127989803616048
-1.0246303177932732   0.08063231479773503   0.020127989803616048
-0.12452670445460672   0.24720099327486483   0.0601704198297677
-0.12452670445460672   0.24720099327486483   0.0601704198297677
-0.12452670445460672   0.24720099327486483   0.0601704198297677
-0.12452670445460672   0.24720099327486483   0.0601704198297677
-2.016579110255034   -0.15144367428979688   -0.05197681964644317
-2.016579110255034   -0.15144367428979688   -0.05197681964644317
-2.016579110255034   -0.15144367428979688   -0.05197681964644317
-2.016579110255034   -0.15144367428979688   -0.05197681964644317
-2.1052626295837604   -0.2136389218263673   -0.03360098191558236
-2.1052626295837604   -0.2136389218263673   -0.03360098191558236
-2.1052626295837604   -0.2136389218263673   -0.03360098191558236
-2.1052626295837604   -0.2136389218263673   -0.03360098191558236
-0.2166414593749559   0.1788132929591195   0.0640274503305212
-0.2166414593749559   0.1788132929591195   0.0640274503305212
-0.2166414593749559   0.1788132929591195   0.0640274503305212
-0.2166414593749559   0.1788132929591195   0.0640274503305212
-1.1143141356370467   0.021102254494570205   -0.006681035888097098
-1.1143141356370467   0.021102254494570205   -0.006681035888097098
-1.1143141356370467   0.021102254494570205   -0.006681035888097098
-1.1143141356370467   0.021102254494570205   -0.006681035888097098
-0.21308795668401437   0.18636488373799384   0.07424337300635464
-0.21308795668401437   0.18636488373799384   0.07424337300635464
-0.21308795668401437   0.18636488373799384   0.07424337300635464
-0.21308795668401437   0.18636488373799384   0.07424337300635464
-2.108301067280936   -0.22067544761143523   -0.04175664461639487
-2.108301067280936   -0.22067544761143523   -0.04175664461639487
-2.108301067280936   -0.22067544761143523   -0.04175664461639487
-2.108301067280936   -0.22067544761143523   -0.04175664461639487
-2.1930235389696766   -0.2688911776094771   -0.017588326394144177
-2.1930235389696766   -0.2688911776094771   -0.017588326394144177
-2.1930235389696766   -0.2688911776094771   -0.017588326394144177
-2.1930235389696766   -0.2688911776094771   -0.017588326394144177
-0.30732723385453253   0.11261524510718637   0.0749252584377298
-0.30732723385453253   0.11261524510718637   0.0749252584377298
-0.30732723385453253   0.11261524510718637   0.0749252584377298
-0.30732723385453253   0.11261524510718637   0.0749252584377298
-1.2080803358379852   -0.03894458374119869   -0.03651652658668686
-1.2080803358379852   -0.03894458374119869   -0.03651652658668686
-1.2080803358379852   -0.03894458374119869   -0.03651652658668686
-1.2080803358379852   -0.03894458374119869   -0.03651652658668686
-1.8082929571510487   0.3548345040804657   0.0934474318296539
-1.8082929571510487   0.3548345040804657   0.0934474318296539
-1.8082929571510487   0.3548345040804657   0.0934474318296539
-1.8082929571510487   0.3548345040804657   0.0934474318296539
-3.698033763491143   -0.14199232247362525   -0.11559386801890936
-3.698033763491143   -0.14199232247362525   -0.11559386801890936
-3.698033763491143   -0.14199232247362525   -0.11559386801890936
-3.698033763491143   -0.14199232247362525   -0.11559386801890936
-3.746916696648757   -0.09457550592775077   0.011715955944602424
-3.746916696648757   -0.09457550592775077   0.011715955944602424
-3.746916696648757   -0.09457550592775077   0.011715955944602424
-3.746916696648757   -0.09457550592775077   0.011715955944602424
-1.9434902743521425   0.17732639462005123   -0.015302709041818519
-1.9434902743521425   0.17732639462005123   -0.015302709041818519
-1.9434902743521425   0.17732639462005123   -0.015302709041818519
-1.9434902743521425   0.17732639462005123   -0.015302709041818519
-2.7810885329383144   0.07752942681237107   0.03414239024207785
-2.7810885329383144   0.07752942681237107   0.03414239024207785
-2.7810885329383144   0.07752942681237107   0.03414239024207785
-2.7810885329383144   0.07752942681237107   0.03414239024207785
-1.8947044653587835   0.2955952460419384   0.11035748450307412
-1.8947044653587835   0.2955952460419384   0.11035748450307412
-1.8947044653587835   0.2955952460419384   0.11035748450307412
-1.8947044653587835   0.2955952460419384   0.11035748450307412
-3.79520973976252   -0.212351591470044   -0.1119731740819172
-3.79520973976252   -0.212351591470044   -0.1119731740819172
-3.79520973976252   -0.212351591470044   -0.1119731740819172
-3.79520973976252   -0.212351591470044   -0.1119731740819172
-3.850262604334475   -0.15567175248591036   0.01783895920120171
-3.850262604334475   -0.15567175248591036   0.01783895920120171
-3.850262604334475   -0.15567175248591036   0.01783895920120171
-3.850262604334475   -0.15567175248591036   0.01783895920120171
-2.0334811788436435   0.11394654038736524   -0.0022791904287327025
-2.0334811788436435   0.11394654038736524   -0.0022791904287327025
-2.0334811788436435   0.11394654038736524   -0.0022791904287327025
-2.0334811788436435   0.11394654038736524   -0.0022791904287327025
-2.8572045631520155   0.02427229562362776   0.00915473654485724
-2.8572045631520155   0.02427229562362776   0.00915473654485724
-2.8572045631520155   0.02427229562362776   0.00915473654485724
-2.8572045631520155   0.02427229562362776   0.00915473654485724
-1.9826808338552917   0.23950885395813704   0.12616022094225565
-1.9826808338552917   0.23950885395813704   0.12616022094225565
-1.9826808338552917   0.23950885395813704   0.12616022094225565
-1.9826808338552917   0.23950885395813704   0.12616022094225565
-3.8984319662085603   -0.2786030829424153   -0.10007651971271952
-3.8984319662085603   -0.2786030829424153   -0.10007651971271952
-3.8984319662085603   -0.2786030829424153   -0.10007651971271952
-3.8984319662085603   -0.2786030829424153   -0.10007651971271952
-3.9440826312568196   -0.2213333984634409   0.03702120839815279
-3.9440826312568196   -0.2213333984634409   0.03702120839815279
-3.9440826312568196   -0.2213333984634409   0.03702120839815279
-3.9440826312568196   -0.2213333984634409   0.03702120839815279
-2.125979981935272   0.04157968266116052   0.007158598507258751
-2.125979981935272   0.04157968266116052   0.007158598507258751
-2.125979981935272   0.04157968266116052   0.007158598507258751
-2.125979981935272   0.04157968266116052   0.007158598507258751
-2.972419532230088   -0.04220383774178216   -0.022447714338159064
-2.972419532230088   -0.04220383774178216   -0.022447714338159064
-2.972419532230088   -0.04220383774178216   -0.022447714338159064
-2.972419532230088   -0.04220383774178216   -0.022447714338159064
-3.5564044097540886   0.31818921973637593   0.13237135845635994
-3.5564044097540886   0.31818921973637593   0.13237135845635994
-3.5564044097540886   0.31818921973637593   0.13237135845635994
-3.5564044097540886   0.31818921973637593   0.13237135845635994
-5.378851795152902   -0.24775945060001658   -0.12826826768569924
-5.378851795152902   -0.24775945060001658   -0.12826826768569924
-5.378851795152902   -0.24775945060001658   -0.12826826768569924
-5.378851795152902   -0.24775945060001658   -0.12826826768569924
-5.439784350093186   -0.05042606525337101   0.12218659967896789
-5.439784350093186   -0.05042606525337101   0.12218659967896789
-5.439784350093186   -0.05042606525337101   0.12218659967896789
-5.439784350093186   -0.05042606525337101   0.12218659967896789
-3.727806649203387   0.08820055659194836   -0.07550986934824339
-3.727806649203387   0.08820055659194836   -0.07550986934824339
-3.727806649203387   0.08820055659194836   -0.07550986934824339
-3.727806649203387   0.08820055659194836   -0.07550986934824339
-4.325722346523911   0.07219757709912655   0.10546234461962484
-4.325722346523911   0.07219757709912655   0.10546234461962484
-4.325722346523911   0.07219757709912655   0.10546234461962484
-4.325722346523911   0.07219757709912655   0.10546234461962484
-3.6359055086704886   0.3169597175641783   0.15523667234401667
-3.6359055086704886   0.3169597175641783   0.15523667234401667
-3.6359055086704886   0.3169597175641783   0.15523667234401667
-3.6359055086704886   0.3169597175641783   0.15523667234401667
-5.530093728998531   -0.2775934645980579   -0.10219289550300756
-5.530093728998531   -0.2775934645980579   -0.10219289550300756
-5.530093728998531   -0.2775934645980579   -0.10219289550300756
-5.530093728998531   -0.2775934645980579   -0.10219289550300756
-5.574977512997701   -0.08262514448197633   0.1528939119669041
-5.574977512997701   -0.08262514448197633   0.1528939119669041
-5.574977512997701   -0.08262514448197633   0.1528939119669041
-5.574977512997701   -0.08262514448197633   0.1528939119669041
-3.824960119230533   0.05344380326376108   -0.06476417102875873
-3.824960119230533   0.05344380326376108   -0.06476417102875873
-3.824960119230533   0.05344380326376108   -0.06476417102875873
-3.824960119230533   0.05344380326376108   -0.06476417102875873
-4.513515922598555   0.03618439850101751   0.0635661646147061
-4.513515922598555   0.03618439850101751   0.0635661646147061
-4.513515922598555   0.03618439850101751   0.0635661646147061
-4.513515922598555   0.03618439850101751   0.0635661646147061
-3.7274689424010403   0.29293740876705676   0.18319810761540817
-3.7274689424010403   0.29293740876705676   0.18319810761540817
-3.7274689424010403   0.29293740876705676   0.18319810761540817
-3.7274689424010403   0.29293740876705676   0.18319810761540817
-5.669884927208728   -0.31953498736679553   -0.08473331620334643
-5.669884927208728   -0.31953498736679553   -0.08473331620334643
-5.669884927208728   -0.31953498736679553   -0.08473331620334643
-5.669884927208728   -0.31953498736679553   -0.08473331620334643
-5.7533792434931925   -0.19643005948394854   0.15042790476400186
-5.7533792434931925   -0.19643005948394854   0.15042790476400186
-5.7533792434931925   -0.19643005948394854   0.15042790476400186
-5.7533792434931925   -0.19643005948394854   0.15042790476400186
-3.927450763370904   -0.04249432339917125   -0.05865852723653947
-3.927450763370904   -0.04249432339917125   -0.05865852723653947
-3.927450763370904   -0.04249432339917125   -0.05865852723653947
-3.927450763370904   -0.04249432339917125   -0.05865852723653947
-4.563327190987121   -0.00835568832018252   0.04934666628601597
-4.563327190987121   -0.00835568832018252   0.04934666628601597
-4.563327190987121   -0.00835568832018252   0.04934666628601597
-4.563327190987121   -0.00835568832018252   0.04934666628601597
2.496182281668142   0.140438875184411   -0.171054695817623
2.496182281668142   0.140438875184411   -0.171054695817623
2.496182281668142   0.140438875184411   -0.171054695817623
2.496182281668142   0.140438875184411   -0.171054695817623
1.0663456993634566   0.07025076695012208   0.07383276317049325
1.0663456993634566   0.07025076695012208   0.07383276317049325
1.0663456993634566   0.07025076695012208   0.07383276317049325
1.0663456993634566   0.07025076695012208   0.07383276317049325
0.8897168788924078   -0.24847120273394085   -0.15932285494287965
0.8897168788924078   -0.24847120273394085   -0.15932285494287965
0.8897168788924078   -0.24847120273394085   -0.15932285494287965
0.8897168788924078   -0.24847120273394085   -0.15932285494287965
2.436423695932894   0.285051782115741   0.0896555091030023
2.436423695932894   0.285051782115741   0.0896555091030023
2.436423695932894   0.285051782115741   0.0896555091030023
2.436423695932894   0.285051782115741   0.0896555091030023
1.6309133124092865   0.036283369782982355   -0.04460027847830959
1.6309133124092865   0.036283369782982355   -0.04460027847830959
1.6309133124092865   0.036283369782982355   -0.04460027847830959
1.6309133124092865   0.036283369782982355   -0.04460027847830959
2.3378339598130995   0.041140422135623134   -0.15938181151587416
2.3378339598130995   0.041140422135623134   -0.15938181151587416
2.3378339598130995   0.041140422135623134   -0.15938181151587416
2.3378339598130995   0.041140422135623134   -0.15938181151587416
0.986457873675018   -0.006408584090987435   0.08231950032723576
0.986457873675018   -0.006408584090987435   0.08231950032723576
0.986457873675018   -0.006408584090987435   0.08231950032723576
0.986457873675018   -0.006408584090987435   0.08231950032723576
0.814364298098865   -0.2775480660993559   -0.13546087426952602
0.814364298098865   -0.2775480660993559   -0.13546087426952602
0.814364298098865   -0.2775480660993559   -0.13546087426952602
0.814364298098865   -0.2775480660993559   -0.13546087426952602
2.3125247274097562   0.2438187957382692   0.11530341803712026
2.3125247274097562   0.2438187957382692   0.11530341803712026
2.3125247274097562   0.2438187957382692   0.11530341803712026
2.3125247274097562   0.2438187957382692   0.11530341803712026
1.5524766769162472   -0.011540179477144918   -0.07318004983588876
1.5524766769162472   -0.011540179477144918   -0.07318004983588876
1.5524766769162472   -0.011540179477144918   -0.07318004983588876
1.5524766769162472   -0.011540179477144918   -0.07318004983588876
2.2156120957641465   0.003921232830892019   -0.1293621772835683
2.2156120957641465   0.003921232830892019   -0.1293621772835683
2.2156120957641465   0.003921232830892019   -0.1293621772835683
2.2156120957641465   0.003921232830892019   -0.1293621772835683
0.9085748058101984   -0.04035262712625687   0.09839622531404756
0.9085748058101984   -0.04035262712625687   0.09839622531404756
0.9085748058101984   -0.04035262712625687   0.09839622531404756
0.9085748058101984   -0.04035262712625687   0.09839622531404756
0.7469336336337783   -0.30447126150478393   -0.11285344645727367
0.7469336336337783   -0.30447126150478393   -0.11285344645727367
0.7469336336337783   -0.30447126150478393   -0.11285344645727367
0.7469336336337783   -0.30447126150478393   -0.11285344645727367
2.1680197642180437   0.18925805225828501   0.13140685987888306
2.1680197642180437   0.18925805225828501   0.13140685987888306
2.1680197642180437   0.18925805225828501   0.13140685987888306
2.1680197642180437   0.18925805225828501   0.13140685987888306
1.4213450691112146   -0.0509790382019662   -0.11215796622356157
1.4213450691112146   -0.0509790382019662   -0.11215796622356157
1.4213450691112146   -0.0509790382019662   -0.11215796622356157
1.4213450691112146   -0.0509790382019662   -0.11215796622356157
1.072701412102812   0.2074115013094856   -0.03154940749211353
1.072701412102812   0.2074115013094856   -0.03154940749211353
1.072701412102812   0.2074115013094856   -0.03154940749211353
1.072701412102812   0.2074115013094856   -0.03154940749211353
-0.33200966565140877   0.019252612311132553   0.010453609286805717
-0.33200966565140877   0.019252612311132553   0.010453609286805717
-0.33200966565140877   0.019252612311132553   0.010453609286805717
-0.33200966565140877   0.019252612311132553   0.010453609286805717
-0.4527521903709371   -0.17195736320189334   -0.0978852337054465
-0.4527521903709371   -0.17195736320189334   -0.0978852337054465
-0.4527521903709371   -0.17195736320189334   -0.0978852337054465
-0.4527521903709371   -0.17195736320189334   -0.0978852337054465
1.0421769901278604   0.24963135880592505   0.10487513969453457
1.0421769901278604   0.24963135880592505   0.10487513969453457
1.0421769901278604   0.24963135880592505   0.10487513969453457
1.0421769901278604   0.24963135880592505   0.10487513969453457
0.3252107990416264   0.07241234252573114   0.012404682830012434
0.3252107990416264   0.07241234252573114   0.012404682830012434
0.3252107990416264   0.07241234252573114   0.012404682830012434
0.3252107990416264   0.07241234252573114   0.012404682830012434
0.9945691007375113   0.13364779339218819   -0.01718074184348717
0.9945691007375113   0.13364779339218819   -0.01718074184348717
0.9945691007375113   0.13364779339218819   -0.01718074184348717
0.9945691007375113   0.13364779339218819   -0.01718074184348717
-0.4058265180911843   -0.056656014898775434   0.02144177939019953
-0.4058265180911843   -0.056656014898775434   0.02144177939019953
-0.4058265180911843   -0.056656014898775434   0.02144177939019953
-0.4058265180911843   -0.056656014898775434   0.02144177939019953
-0.5228634964477721   -0.23045831630448357   -0.07907127893676265
-0.5228634964477721   -0.23045831630448357   -0.07907127893676265
-0.5228634964477721   -0.23045831630448357   -0.07907127893676265
-0.5228634964477721   -0.23045831630448357   -0.07907127893676265
0.9562277846840511   0.18229441100817897   0.11401408154887564
0.9562277846840511   0.18229441100817897   0.11401408154887564
0.9562277846840511   0.18229441100817897   0.11401408154887564
0.9562277846840511   0.18229441100817897   0.11401408154887564
0.23891076134157363   0.006483307435444181   -0.019269122527121464
0.23891076134157363   0.006483307435444181   -0.019269122527121464
0.23891076134157363   0.006483307435444181   -0.019269122527121464
0.23891076134157363   0.006483307435444181   -0.019269122527121464
0.9101241840499784   0.0709263112164622   -0.0051358218297844205
0.9101241840499784   0.0709263112164622   -0.0051358218297844205
0.9101241840499784   0.0709263112164622   -0.0051358218297844205
0.9101241840499784   0.0709263112164622   -0.0051358218297844205
-0.4785113242891566   -0.12084164498824543   0.03307291054008412
-0.4785113242891566   -0.12084164498824543   0.03307291054008412
-0.4785113242891566   -0.12084164498824543   0.03307291054008412
-0.4785113242891566   -0.12084164498824543   0.03307291054008412
-0.5920648949028418   -0.285684703735544   -0.06168226354047812
-0.5920648949028418   -0.285684703735544   -0.06168226354047812
-0.5920648949028418   -0.285684703735544   -0.06168226354047812
-0.5920648949028418   -0.285684703735544   -0.06168226354047812
0.8786642218868893   0.1173696661240645   0.12395856717945002
0.8786642218868893   0.1173696661240645   0.12395856717945002
0.8786642218868893   0.1173696661240645   0.12395856717945002
0.8786642218868893   0.1173696661240645   0.12395856717945002
0.1693752833313935   -0.0485026589588012   -0.04732598266382001
0.1693752833313935   -0.0485026589588012   -0.04732598266382001
0.1693752833313935   -0.0485026589588012   -0.04732598266382001
0.1693752833313935   -0.0485026589588012   -0.04732598266382001
-0.2801951007063981   0.26480115787928676   0.02397788844369733
-0.2801951007063981   0.26480115787928676   0.02397788844369733
-0.2801951007063981   0.26480115787928676   0.02397788844369733
-0.2801951007063981   0.26480115787928676   0.02397788844369733
-1.7098652283987195   -0.04181564053067366   -0.051843871943569556
-1.7098652283987195   -0.04181564053067366   -0.051843871943569556
-1.7098652283987195   -0.04181564053067366   -0.051843871943569556
-1.7098652283987195   -0.04181564053067366   -0.051843871943569556
-1.7789442306640684   -0.10113863571659726   -0.038086506371533435
-1.7789442306640684   -0.10113863571659726   -0.038086506371533435
-1.7789442306640684   -0.10113863571659726   -0.038086506371533435
-1.7789442306640684   -0.10113863571659726   -0.038086506371533435
-0.3525896537717616   0.19040249740669146   0.04056758868184618
-0.3525896537717616   0.19040249740669146   0.04056758868184618
-0.3525896537717616   0.19040249740669146   0.04056758868184618
-0.3525896537717616   0.19040249740669146   0.04056758868184618
-1.027908528635092   0.07690838640565217   0.020210316008673887
-1.027908528635092   0.07690838640565217   0.020210316008673887
-1.027908528635092   0.07690838640565217   0.020210316008673887
-1.027908528635092   0.07690838640565217   0.020210316008673887
-0.3503539135149069   0.20052207205175326   0.041626715321057745
-0.3503539135149069   0.20052207205175326   0.041626715321057745
-0.3503539135149069   0.20052207205175326   0.041626715321057745
-0.3503539135149069   0.20052207205175326   0.041626715321057745
-1.7813518210316008   -0.11143006047231657   -0.039833033453477606
-1.7813518210316008   -0.11143006047231657   -0.039833033453477606
-1.7813518210316008   -0.11143006047231657   -0.039833033453477606
-1.7813518210316008   -0.11143006047231657   -0.039833033453477606
-1.8497633567409124   -0.16487662853886215   -0.021300259793430393
-1.8497633567409124   -0.16487662853886215   -0.021300259793430393
-1.8497633567409124   -0.16487662853886215   -0.021300259793430393
-1.8497633567409124   -0.16487662853886215   -0.021300259793430393
-0.4261520402686366   0.12109983976663857   0.05292784588779265
-0.4261520402686366   0.12109983976663857   0.05292784588779265
-0.4261520402686366   0.12109983976663857   0.05292784588779265
-0.4261520402686366   0.12109983976663857   0.05292784588779265
-1.1007278542422874   0.014928965484597184   -0.0070587634962092916
-1.1007278542422874   0.014928965484597184   -0.0070587634962092916
-1.1007278542422874   0.014928965484597184   -0.0070587634962092916
-1.1007278542422874   0.014928965484597184   -0.0070587634962092916
-0.4223962662896922   0.1361817938499168   0.056624761699243964
-0.4223962662896922   0.1361817938499168   0.056624761699243964
-0.4223962662896922   0.1361817938499168   0.056624761699243964
-0.4223962662896922   0.1361817938499168   0.056624761699243964
-1.854614380655136   -0.18105383255739765   -0.029378175346011837
-1.854614380655136   -0.18105383255739765   -0.029378175346011837
-1.854614380655136   -0.18105383255739765   -0.029378175346011837
-1.854614380655136   -0.18105383255739765   -0.029378175346011837
-1.919420783388983   -0.22578918348999283   -0.0050033350137157345
-1.919420783388983   -0.22578918348999283   -0.0050033350137157345
-1.919420783388983   -0.22578918348999283   -0.0050033350137157345
-1.919420783388983   -0.22578918348999283   -0.0050033350137157345
-0.49906569565752573   0.05374888640541625   0.06388014254514185
-0.49906569565752573   0.05374888640541625   0.06388014254514185
-0.49906569565752573   0.05374888640541625   0.06388014254514185
-0.49906569565752573   0.05374888640541625   0.06388014254514185
-1.1765193039297879   -0.04713080845881196   -0.036600458105902664
-1.1765193039297879   -0.04713080845881196   -0.036600458105902664
-1.1765193039297879   -0.04713080845881196   -0.036600458105902664
-1.1765193039297879   -0.04713080845881196   -0.036600458105902664
-1.6127416758006874   0.31381376564287944   0.07814448487303652
-1.6127416758006874   0.31381376564287944   0.07814448487303652
-1.6127416758006874   0.31381376564287944   0.07814448487303652
-1.6127416758006874   0.31381376564287944   0.07814448487303652
-3.0621621880218157   -0.10241400698799397   -0.1059098178002017
-3.0621621880218157   -0.10241400698799397   -0.1059098178002017
-3.0621621880218157   -0.10241400698799397   -0.1059098178002017
-3.0621621880218157   -0.10241400698799397   -0.1059098178002017
-3.088207264795729   -0.043335919184711136   0.02610271237795625
-3.088207264795729   -0.043335919184711136   0.02610271237795625
-3.088207264795729   -0.043335919184711136   0.02610271237795625
-3.088207264795729   -0.043335919184711136   0.02610271237795625
-1.7308896537220138   0.12394447627017108   -0.02289673364805947
-1.7308896537220138   0.12394447627017108   -0.02289673364805947
-1.7308896537220138   0.12394447627017108   -0.02289673364805947
-1.7308896537220138   0.12394447627017108   -0.02289673364805947
-2.3595288970733668   0.07374840683599393   0.029427620737753235
-2.3595288970733668   0.07374840683599393   0.029427620737753235
-2.3595288970733668   0.07374840683599393   0.029427620737753235
-2.3595288970733668   0.07374840683599393   0.029427620737753235
-1.6815789112290007   0.25190791672540397   0.09569353836180367
-1.6815789112290007   0.25190791672540397   0.09569353836180367
-1.6815789112290007   0.25190791672540397   0.09569353836180367
-1.6815789112290007   0.25190791672540397   0.09569353836180367
-3.139632978434384   -0.17341433078556312   -0.1009474442144821
-3.139632978434384   -0.17341433078556312   -0.1009474442144821
-3.139632978434384   -0.17341433078556312   -0.1009474442144821
-3.139632978434384   -0.17341433078556312   -0.1009474442144821
-3.171645705090009   -0.10644639223629426   0.03392067269933491
-3.171645705090009   -0.10644639223629426   0.03392067269933491
-3.171645705090009   -0.10644639223629426   0.03392067269933491
-3.171645705090009   -0.10644639223629426   0.03392067269933491
-1.8024566401560316   0.06010389981332048   -0.009747205221237842
-1.8024566401560316   0.06010389981332048   -0.009747205221237842
-1.8024566401560316   0.06010389981332048   -0.009747205221237842
-1.8024566401560316   0.06010389981332048   -0.009747205221237842
-2.4210317074925323   0.0174347509126902   0.0020573794070978257
-2.4210317074925323   0.0174347509126902   0.0020573794070978257
-2.4210317074925323   0.0174347509126902   0.0020573794070978257
-2.4210317074925323   0.0174347509126902   0.0020573794070978257
-1.7513818454705228   0.19330698229305343   0.11242368572658706
-1.7513818454705228   0.19330698229305343   0.11242368572658706
-1.7513818454705228   0.19330698229305343   0.11242368572658706
-1.7513818454705228   0.19330698229305343   0.11242368572658706
-3.222884024750668   -0.2398129996911621   -0.0889043181491373
-3.222884024750668   -0.2398129996911621   -0.0889043181491373
-3.222884024750668   -0.2398129996911621   -0.0889043181491373
-3.222884024750668   -0.2398129996911621   -0.0889043181491373
-3.246015789254937   -0.17357680421971522   0.051411971422545166
-3.246015789254937   -0.17357680421971522   0.051411971422545166
-3.246015789254937   -0.17357680421971522   0.051411971422545166
-3.246015789254937   -0.17357680421971522   0.051411971422545166
-1.8752595995186283   -0.010575122120610736   0.0005885229686463378
-1.8752595995186283   -0.010575122120610736   0.0005885229686463378
-1.8752595995186283   -0.010575122120610736   0.0005885229686463378
-1.8752595995186283   -0.010575122120610736   0.0005885229686463378
-2.5127907941912024   -0.04767861167197618   -0.02961145540486612
-2.5127907941912024   -0.04767861167197618   -0.02961145540486612
-2.5127907941912024   -0.04767861167197618   -0.02961145540486612
-2.5127907941912024   -0.04767861167197618   -0.02961145540486612
-2.9377538280874886   0.2907144927724118   0.12300348211102893
-2.9377538280874886   0.2907144927724118   0.12300348211102893
-2.9377538280874886   0.2907144927724118   0.12300348211102893
-2.9377538280874886   0.2907144927724118   0.12300348211102893
-4.331206479357381   -0.19891873469276422   -0.13840062621565555
-4.331206479357381   -0.19891873469276422   -0.13840062621565555
-4.331206479357381   -0.19891873469276422   -0.13840062621565555
-4.331206479357381   -0.19891873469276422   -0.13840062621565555
-4.373771086519766   -0.0014900043432474197   0.1220017632922801
-4.373771086519766   -0.0014900043432474197   0.1220017632922801
-4.373771086519766   -0.0014900043432474197   0.1220017632922801
-4.373771086519766   -0.0014900043432474197   0.1220017632922801
-3.093186379532717   0.04125256184419046   -0.08338134233594505
-3.093186379532717   0.04125256184419046   -0.08338134233594505
-3.093186379532717   0.04125256184419046   -0.08338134233594505
-3.093186379532717   0.04125256184419046   -0.08338134233594505
-3.522078598117003   0.06807602349873898   0.08875219831924183
-3.522078598117003   0.06807602349873898   0.08875219831924183
-3.522078598117003   0.06807602349873898   0.08875219831924183
-3.522078598117003   0.06807602349873898   0.08875219831924183
-3.000177650352953   0.27784275276092163   0.1450721126461893
-3.000177650352953   0.27784275276092163   0.1450721126461893
-3.000177650352953   0.27784275276092163   0.1450721126461893
-3.000177650352953   0.27784275276092163   0.1450721126461893
-4.468572763324291   -0.2398731428847053   -0.11362348218885007
-4.468572763324291   -0.2398731428847053   -0.11362348218885007
-4.468572763324291   -0.2398731428847053   -0.11362348218885007
-4.468572763324291   -0.2398731428847053   -0.11362348218885007
-4.4915257058829425   -0.03615479109690123   0.1538084438203399
-4.4915257058829425   -0.03615479109690123   0.1538084438203399
-4.4915257058829425   -0.03615479109690123   0.1538084438203399
-4.4915257058829425   -0.03615479109690123   0.1538084438203399
-3.1701161681215697   0.006235984416651408   -0.07111401911147633
-3.1701161681215697   0.006235984416651408   -0.07111401911147633
-3.1701161681215697   0.006235984416651408   -0.07111401911147633
-3.1701161681215697   0.006235984416651408   -0.07111401911147633
-3.68014040948924   0.028160163381023673   0.045929358296700556
-3.68014040948924   0.028160163381023673   0.045929358296700556
-3.68014040948924   0.028160163381023673   0.045929358296700556
-3.68014040948924   0.028160163381023673   0.045929358296700556
-3.0727341925826037   0.25104015949925984   0.17099168350080676
-3.0727341925826037   0.25104015949925984   0.17099168350080676
-3.0727341925826037   0.25104015949925984   0.17099168350080676
-3.0727341925826037   0.25104015949925984   0.17099168350080676
-4.590208589818536   -0.28225987457612656   -0.09350089237840012
-4.590208589818536   -0.28225987457612656   -0.09350089237840012
-4.590208589818536   -0.28225987457612656   -0.09350089237840012
-4.590208589818536   -0.28225987457612656   -0.09350089237840012
-4.649061303264275   -0.14418442158203826   0.15450152174249582
-4.649061303264275   -0.14418442158203826   0.15450152174249582
-4.649061303264275   -0.14418442158203826   0.15450152174249582
-4.649061303264275   -0.14418442158203826   0.15450152174249582
-3.2505474901846303   -0.08195743845668113   -0.06286589898903433
-3.2505474901846303   -0.08195743845668113   -0.06286589898903433
-3.2505474901846303   -0.08195743845668113   -0.06286589898903433
-3.2505474901846303   -0.08195743845668113   -0.06286589898903433
-3.7258974858115215   -0.017191841289138976   0.025365906984304853
-3.7258974858115215   -0.017191841289138976   0.025365906984304853
-3.7258974858115215   -0.017191841289138976   0.025365906984304853
-3.7258974858115215   -0.017191841289138976   0.025365906984304853
1.3589201242376256   0.08065415308230972   -0.16672473104273763
1.3589201242376256   0.08065415308230972   -0.16672473104273763
1.3589201242376256   0.08065415308230972   -0.16672473104273763
1.3589201242376256   0.08065415308230972   -0.16672473104273763
0.39078301059268256   0.10087666173522095   0.08010565453207512
0.39078301059268256   0.10087666173522095   0.08010565453207512
0.39078301059268256   0.10087666173522095   0.08010565453207512
0.39078301059268256   0.10087666173522095   0.08010565453207512
0.23537149736983276   -0.2024710474386952   -0.14690644010599502
0.23537149736983276   -0.2024710474386952   -0.14690644010599502
0.23537149736983276   -0.2024710474386952   -0.14690644010599502
0.23537149736983276   -0.2024710474386952   -0.14690644010599502
1.32047309062008   0.23430771521116048   0.09639893812664938
1.32047309062008   0.23430771521116048   0.09639893812664938
1.32047309062008   0.23430771521116048   0.09639893812664938
1.32047309062008   0.23430771521116048   0.09639893812664938
0.7779315643346514   0.038983138467923145   -0.01813379673642241
0.7779315643346514   0.038983138467923145   -0.01813379673642241
0.7779315643346514   0.038983138467923145   -0.01813379673642241
0.7779315643346514   0.038983138467923145   -0.01813379673642241
1.2225549150905983   -0.006191600612699744   -0.1526926236969059
1.2225549150905983   -0.006191600612699744   -0.1526926236969059
1.2225549150905983   -0.006191600612699744   -0.1526926236969059
1.2225549150905983   -0.006191600612699744   -0.1526926236969059
0.3302313735495028   0.03496996903537304   0.08995192431828919
0.3302313735495028   0.03496996903537304   0.08995192431828919
0.3302313735495028   0.03496996903537304   0.08995192431828919
0.3302313735495028   0.03496996903537304   0.08995192431828919
0.17665165369334784   -0.23134219581522586   -0.12462846601394675
0.17665165369334784   -0.23134219581522586   -0.12462846601394675
0.17665165369334784   -0.23134219581522586   -0.12462846601394675
0.17665165369334784   -0.23134219581522586   -0.12462846601394675
1.2149359155579194   0.19444863205132207   0.12363851018933658
1.2149359155579194   0.19444863205132207   0.12363851018933658
1.2149359155579194   0.19444863205132207   0.12363851018933658
1.2149359155579194   0.19444863205132207   0.12363851018933658
0.703822595993643   -0.006031170267745689   -0.04746339098143162
0.703822595993643   -0.006031170267745689   -0.04746339098143162
0.703822595993643   -0.006031170267745689   -0.04746339098143162
0.703822595993643   -0.006031170267745689   -0.04746339098143162
1.1176328921310255   -0.04325487491970015   -0.12517309997411835
1.1176328921310255   -0.04325487491970015   -0.12517309997411835
1.1176328921310255   -0.04325487491970015   -0.12517309997411835
1.1176328921310255   -0.04325487491970015   -0.12517309997411835
0.2698754759542845   0.0022821099898592406   0.10786633948565733
0.2698754759542845   0.0022821099898592406   0.10786633948565733
0.2698754759542845   0.0022821099898592406   0.10786633948565733
0.2698754759542845   0.0022821099898592406   0.10786633948565733
0.1241064865264851   -0.2665534977909547   -0.10373761267563467
0.1241064865264851   -0.2665534977909547   -0.10373761267563467
0.1241064865264851   -0.2665534977909547   -0.10373761267563467
0.1241064865264851   -0.2665534977909547   -0.10373761267563467
1.0843615670228361   0.13042303059745167   0.13710582661633425
1.0843615670228361   0.13042303059745167   0.13710582661633425
1.0843615670228361   0.13042303059745167   0.13710582661633425
1.0843615670228361   0.13042303059745167   0.13710582661633425
0.6024025459673037   -0.04628475877420203   -0.08314068078672562
0.6024025459673037   -0.04628475877420203   -0.08314068078672562
0.6024025459673037   -0.04628475877420203   -0.08314068078672562
0.6024025459673037   -0.04628475877420203   -0.08314068078672562
0.3745620785690909   0.14870980877311507   -0.04883215262378132
0.3745620785690909   0.14870980877311507   -0.04883215262378132
0.3745620785690909   0.14870980877311507   -0.04883215262378132
0.3745620785690909   0.14870980877311507   -0.04883215262378132
-0.5632189822813395   0.04902774057279574   0.019742030972177707
-0.5632189822813395   0.04902774057279574   0.019742030972177707
-0.5632189822813395   0.04902774057279574   0.019742030972177707
-0.5632189822813395   0.04902774057279574   0.019742030972177707
-0.6632832732599128   -0.12954796744790137   -0.08556122818670185
-0.6632832732599128   -0.12954796744790137   -0.08556122818670185
-0.6632832732599128   -0.12954796744790137   -0.08556122818670185
-0.6632832732599128   -0.12954796744790137   -0.08556122818670185
0.3603506045283443   0.18472850606308613   0.09078954218478318
0.3603506045283443   0.18472850606308613   0.09078954218478318
0.3603506045283443   0.18472850606308613   0.09078954218478318
0.3603506045283443   0.18472850606308613   0.09078954218478318
-0.1261168112583931   0.06058380527985655   0.015094336702143885
-0.1261168112583931   0.06058380527985655   0.015094336702143885
-0.1261168112583931   0.06058380527985655   0.015094336702143885
-0.1261168112583931   0.06058380527985655   0.015094336702143885
0.31319959854637064   0.0756778801819129   -0.03591486184391367
0.31319959854637064   0.0756778801819129   -0.03591486184391367
0.31319959854637064   0.0756778801819129   -0.03591486184391367
0.31319959854637064   0.0756778801819129   -0.03591486184391367
-0.6187227653094056   -0.023087839598215407   0.030781183716148016
-0.6187227653094056   -0.023087839598215407   0.030781183716148016
-0.6187227653094056   -0.023087839598215407   0.030781183716148016
-0.6187227653094056   -0.023087839598215407   0.030781183716148016
-0.7158275358088866   -0.18829678503638064   -0.06688657818086194
-0.7158275358088866   -0.18829678503638064   -0.06688657818086194
-0.7158275358088866   -0.18829678503638064   -0.06688657818086194
-0.7158275358088866   -0.18829678503638064   -0.06688657818086194
0.29140584345070525   0.11883955205513483   0.09896073490248508
0.29140584345070525   0.11883955205513483   0.09896073490248508
0.29140584345070525   0.11883955205513483   0.09896073490248508
0.29140584345070525   0.11883955205513483   0.09896073490248508
-0.1909570813253829   -0.002629954106672855   -0.015179365645188464
-0.1909570813253829   -0.002629954106672855   -0.015179365645188464
-0.1909570813253829   -0.002629954106672855   -0.015179365645188464
-0.1909570813253829   -0.002629954106672855   -0.015179365645188464
0.24566138099321755   0.012661590745226894   -0.023583616075051092
0.24566138099321755   0.012661590745226894   -0.023583616075051092
0.24566138099321755   0.012661590745226894   -0.023583616075051092
0.24566138099321755   0.012661590745226894   -0.023583616075051092
-0.6734336071712639   -0.08546935754629645   0.04225563751717506
-0.6734336071712639   -0.08546935754629645   0.04225563751717506
-0.6734336071712639   -0.08546935754629645   0.04225563751717506
-0.6734336071712639   -0.08546935754629645   0.04225563751717506
-0.7679804023900464   -0.24675154935802246   -0.05000288595404924
-0.7679804023900464   -0.24675154935802246   -0.05000288595404924
-0.7679804023900464   -0.24675154935802246   -0.05000288595404924
-0.7679804023900464   -0.24675154935802246   -0.05000288595404924
0.2310445296620564   0.05396281415168877   0.11043629105958029
0.2310445296620564   0.05396281415168877   0.11043629105958029
0.2310445296620564   0.05396281415168877   0.11043629105958029
0.2310445296620564   0.05396281415168877   0.11043629105958029
-0.2472256533603677   -0.05944454769750079   -0.04382695964613191
-0.2472256533603677   -0.05944454769750079   -0.04382695964613191
-0.2472256533603677   -0.05944454769750079   -0.04382695964613191
-0.2472256533603677   -0.05944454769750079   -0.04382695964613191
-0.5345445963524144   0.2050380004210176   0.0071037007685816195
-0.5345445963524144   0.2050380004210176   0.0071037007685816195
-0.5345445963524144   0.2050380004210176   0.0071037007685816195
-0.5345445963524144   0.2050380004210176   0.0071037007685816195
-1.504970610568441   -0.016982311090672608   -0.04112565296637345
-1.504970610568441   -0.016982311090672608   -0.04112565296637345
-1.504970610568441   -0.016982311090672608   -0.04112565296637345
-1.504970610568441   -0.016982311090672608   -0.04112565296637345
-1.5522330377048785   -0.06253183151667646   -0.02446067200199964
-1.5522330377048785   -0.06253183151667646   -0.02446067200199964
-1.5522330377048785   -0.06253183151667646   -0.02446067200199964
-1.5522330377048785   -0.06253183151667646   -0.02446067200199964
-0.5901866128173343   0.12152595818987794   0.02884814838839518
-0.5901866128173343   0.12152595818987794   0.02884814838839518
-0.5901866128173343   0.12152595818987794   0.02884814838839518
-0.5901866128173343   0.12152595818987794   0.02884814838839518
-1.0430309065422516   0.06051383606345137   0.01571916856041418
-1.0430309065422516   0.06051383606345137   0.01571916856041418
-1.0430309065422516   0.06051383606345137   0.01571916856041418
-1.0430309065422516   0.06051383606345137   0.01571916856041418
-0.5873057055886395   0.140251248209416   0.024527394512346784
-0.5873057055886395   0.140251248209416   0.024527394512346784
-0.5873057055886395   0.140251248209416   0.024527394512346784
-0.5873057055886395   0.140251248209416   0.024527394512346784
-1.5573762507116091   -0.0835194273142707   -0.029189141238073493
-1.5573762507116091   -0.0835194273142707   -0.029189141238073493
-1.5573762507116091   -0.0835194273142707   -0.029189141238073493
-1.5573762507116091   -0.0835194273142707   -0.029189141238073493
-1.6045359264179868   -0.126665911591717   -0.0075170247546348865
-1.6045359264179868   -0.126665911591717   -0.0075170247546348865
-1.6045359264179868   -0.126665911591717   -0.0075170247546348865
-1.6045359264179868   -0.126665911591717   -0.0075170247546348865
-0.645659763937408   0.054703453524961476   0.04095204261518137
-0.645659763937408   0.054703453524961476   0.04095204261518137
-0.645659763937408   0.054703453524961476   0.04095204261518137
-0.645659763937408   0.054703453524961476   0.04095204261518137
-1.097615305950605   -0.00036203627453954   -0.011445036189306236
-1.097615305950605   -0.00036203627453954   -0.011445036189306236
-1.097615305950605   -0.00036203627453954   -0.011445036189306236
-1.097615305950605   -0.00036203627453954   -0.011445036189306236
-0.6417986860064963   0.0753142655003762   0.039646620294340525
-0.6417986860064963   0.0753142655003762   0.039646620294340525
-0.6417986860064963   0.0753142655003762   0.039646620294340525
-0.6417986860064963   0.0753142655003762   0.039646620294340525
-1.611615667445481   -0.15049538666371415   -0.019086254820123744
-1.611615667445481   -0.15049538666371415   -0.019086254820123744
-1.611615667445481   -0.15049538666371415   -0.019086254820123744
-1.611615667445481   -0.15049538666371415   -0.019086254820123744
-1.6558581245264579   -0.18861339520743037   0.00886116334971801
-1.6558581245264579   -0.18861339520743037   0.00886116334971801
-1.6558581245264579   -0.18861339520743037   0.00886116334971801
-1.6558581245264579   -0.18861339520743037   0.00886116334971801
-0.7001546910626824   -0.009692642436174514   0.052066763760915756
-0.7001546910626824   -0.009692642436174514   0.052066763760915756
-0.7001546910626824   -0.009692642436174514   0.052066763760915756
-0.7001546910626824   -0.009692642436174514   0.052066763760915756
-1.1550273255534511   -0.06139591354879667   -0.04092780913857561
-1.1550273255534511   -0.06139591354879667   -0.04092780913857561
-1.1550273255534511   -0.06139591354879667   -0.04092780913857561
-1.1550273255534511   -0.06139591354879667   -0.04092780913857561
-1.4288064930581692   0.2583180168863653   0.06439460660794827
-1.4288064930581692   0.2583180168863653   0.06439460660794827
-1.4288064930581692   0.2583180168863653   0.06439460660794827
-1.4288064930581692   0.2583180168863653   0.06439460660794827
-2.425219925068305   -0.07087854171128766   -0.09421850834544708
-2.425219925068305   -0.07087854171128766   -0.09421850834544708
-2.425219925068305   -0.07087854171128766   -0.09421850834544708
-2.425219925068305   -0.07087854171128766   -0.09421850834544708
-2.4299302156207396   -0.0032087643379576924   0.04037762521002239
-2.4299302156207396   -0.0032087643379576924   0.04037762521002239
-2.4299302156207396   -0.0032087643379576924   0.04037762521002239
-2.4299302156207396   -0.0032087643379576924   0.04037762521002239
-1.5283544120514327   0.06233881316113349   -0.029938188412610534
-1.5283544120514327   0.06233881316113349   -0.029938188412610534
-1.5283544120514327   0.06233881316113349   -0.029938188412610534
-1.5283544120514327   0.06233881316113349   -0.029938188412610534
-1.9432438832372683   0.0615689618155732   0.020823085542573297
-1.9432438832372683   0.0615689618155732   0.020823085542573297
-1.9432438832372683   0.0615689618155732   0.020823085542573297
-1.9432438832372683   0.0615689618155732   0.020823085542573297
-1.4794202920591892   0.19519328356191823   0.08187794114785171
-1.4794202920591892   0.19519328356191823   0.08187794114785171
-1.4794202920591892   0.19519328356191823   0.08187794114785171
-1.4794202920591892   0.19519328356191823   0.08187794114785171
-2.483219697295412   -0.14041859642117127   -0.08885995108015537
-2.483219697295412   -0.14041859642117127   -0.08885995108015537
-2.483219697295412   -0.14041859642117127   -0.08885995108015537
-2.483219697295412   -0.14041859642117127   -0.08885995108015537
-2.4942938791121367   -0.06640985267941324   0.049521271271198875
-2.4942938791121367   -0.06640985267941324   0.049521271271198875
-2.4942938791121367   -0.06640985267941324   0.049521271271198875
-2.4942938791121367   -0.06640985267941324   0.049521271271198875
-1.5809322513056054   0.000859912591286538   -0.01702447337576131
-1.5809322513056054   0.000859912591286538   -0.01702447337576131
-1.5809322513056054   0.000859912591286538   -0.01702447337576131
-1.5809322513056054   0.000859912591286538   -0.01702447337576131
-1.9897413714286003   0.004774091194711394   -0.007675037248237149
-1.9897413714286003   0.004774091194711394   -0.007675037248237149
-1.9897413714286003   0.004774091194711394   -0.007675037248237149
-1.9897413714286003   0.004774091194711394   -0.007675037248237149
-1.5306936723359992   0.1361763343619099   0.09885199970167702
-1.5306936723359992   0.1361763343619099   0.09885199970167702
-1.5306936723359992   0.1361763343619099   0.09885199970167702
-1.5306936723359992   0.1361763343619099   0.09885199970167702
-2.547244149121954   -0.204437965490248   -0.0772019659670853
-2.547244149121954   -0.204437965490248   -0.0772019659670853
-2.547244149121954   -0.204437965490248   -0.0772019659670853
-2.547244149121954   -0.204437965490248   -0.0772019659670853
-2.5499501992211906   -0.13218951799568157   0.067207143295855
-2.5499501992211906   -0.13218951799568157   0.067207143295855
-2.5499501992211906   -0.13218951799568157   0.067207143295855
-2.5499501992211906   -0.13218951799568157   0.067207143295855
-1.634154039463458   -0.06478079554313959   -0.006451010999604975
-1.634154039463458   -0.06478079554313959   -0.006451010999604975
-1.634154039463458   -0.06478079554313959   -0.006451010999604975
-1.634154039463458   -0.06478079554313959   -0.006451010999604975
-2.0585755932208984   -0.056925635091317095   -0.03866287073628312
-2.0585755932208984   -0.056925635091317095   -0.03866287073628312
-2.0585755932208984   -0.056925635091317095   -0.03866287073628312
-2.0585755932208984   -0.056925635091317095   -0.03866287073628312
-2.3185538757234028   0.2541154588422697   0.11411773782553522
-2.3185538757234028   0.2541154588422697   0.11411773782553522
-2.3185538757234028   0.2541154588422697   0.11411773782553522
-2.3185538757234028   0.2541154588422697   0.11411773782553522
-3.258080553300525   -0.14937929623334156   -0.14381301829858992
-3.258080553300525   -0.14937929623334156   -0.14381301829858992
-3.258080553300525   -0.14937929623334156   -0.14381301829858992
-3.258080553300525   -0.14937929623334156   -0.14381301829858992
-3.282253019455667   0.04411485923691394   0.11999678455062293
-3.282253019455667   0.04411485923691394   0.11999678455062293
-3.282253019455667   0.04411485923691394   0.11999678455062293
-3.282253019455667   0.04411485923691394   0.11999678455062293
-2.4566338926801303   -0.008353275749470424   -0.08799624867544875
-2.4566338926801303   -0.008353275749470424   -0.08799624867544875
-2.4566338926801303   -0.008353275749470424   -0.08799624867544875
-2.4566338926801303   -0.008353275749470424   -0.08799624867544875
-2.707501026722837   0.06151226517637276   0.06513539526260084
-2.707501026722837   0.06151226517637276   0.06513539526260084
-2.707501026722837   0.06151226517637276   0.06513539526260084
-2.707501026722837   0.06151226517637276   0.06513539526260084
-2.3642299520369874   0.23071179297390376   0.13495838581689215
-2.3642299520369874   0.23071179297390376   0.13495838581689215
-2.3642299520369874   0.23071179297390376   0.13495838581689215
-2.3642299520369874   0.23071179297390376   0.13495838581689215
-3.3792827324171655   -0.19957598180478486   -0.12146093921510834
-3.3792827324171655   -0.19957598180478486   -0.12146093921510834
-3.3792827324171655   -0.19957598180478486   -0.12146093921510834
-3.3792827324171655   -0.19957598180478486   -0.12146093921510834
-3.3823848879631755   0.00866957141946656   0.15332263574420565
-3.3823848879631755   0.00866957141946656   0.15332263574420565
-3.3823848879631755   0.00866957141946656   0.15332263574420565
-3.3823848879631755   0.00866957141946656   0.15332263574420565
-2.514563683837017   -0.0426604799403375   -0.07557712509230963
-2.514563683837017   -0.0426604799403375   -0.07557712509230963
-2.514563683837017   -0.0426604799403375   -0.07557712509230963
-2.514563683837017   -0.0426604799403375   -0.07557712509230963
-2.8350388520576573   0.019526346746230216   0.022904256336579193
-2.8350388520576573   0.019526346746230216   0.022904256336579193
-2.8350388520576573   0.019526346746230216   0.022904256336579193
-2.8350388520576573   0.019526346746230216   0.022904256336579193
-2.4182076507554124   0.20295750315604943   0.16058505721935687
-2.4182076507554124   0.20295750315604943   0.16058505721935687
-2.4182076507554124   0.20295750315604943   0.16058505721935687
-2.4182076507554124   0.20295750315604943   0.16058505721935687
-3.4831372802813068   -0.2413447709134522   -0.10042498351346962
-3.4831372802813068   -0.2413447709134522   -0.10042498351346962
-3.4831372802813068   -0.2413447709134522   -0.10042498351346962
-3.4831372802813068   -0.2413447709134522   -0.10042498351346962
-3.5209490938418266   -0.09177498233734949   0.15844798526469714
-3.5209490938418266   -0.09177498233734949   0.15844798526469714
-3.5209490938418266   -0.09177498233734949   0.15844798526469714
-3.5209490938418266   -0.09177498233734949   0.15844798526469714
-2.5743095898618256   -0.1208765557383501   -0.06590277216468002
-2.5743095898618256   -0.1208765557383501   -0.06590277216468002
-2.5743095898618256   -0.1208765557383501   -0.06590277216468002
-2.5743095898618256   -0.1208765557383501   -0.06590277216468002
-2.877282286025457   -0.024987744671613354   -0.002360695366248805
-2.877282286025457   -0.024987744671613354   -0.002360695366248805
-2.877282286025457   -0.024987744671613354   -0.002360695366248805
-2.877282286025457   -0.024987744671613354   -0.002360695366248805
0.22522577966890917   0.018585074190508154   -0.1657950522677154
0.22522577966890917   0.018585074190508154   -0.1657950522677154
0.22522577966890917   0.018585074190508154   -0.1657950522677154
0.22522577966890917   0.018585074190508154   -0.1657950522677154
-0.2815932648351372   0.12478862194492925   0.0850753786435419
-0.2815932648351372   0.12478862194492925   0.0850753786435419
-0.2815932648351372   0.12478862194492925   0.0850753786435419
-0.2815932648351372   0.12478862194492925   0.0850753786435419
-0.4166778080842747   -0.15907772965115818   -0.13337738748058947
-0.4166778080842747   -0.15907772965115818   -0.13337738748058947
-0.4166778080842747   -0.15907772965115818   -0.13337738748058947
-0.4166778080842747   -0.15907772965115818   -0.13337738748058947
0.204755029447533   0.17396653603409218   0.10461767083212936
0.204755029447533   0.17396653603409218   0.10461767083212936
0.204755029447533   0.17396653603409218   0.10461767083212936
0.204755029447533   0.17396653603409218   0.10461767083212936
-0.07192375066417275   0.03814919546062434   0.014516862940051268
-0.07192375066417275   0.03814919546062434   0.014516862940051268
-0.07192375066417275   0.03814919546062434   0.014516862940051268
-0.07192375066417275   0.03814919546062434   0.014516862940051268
0.1080132395629049   -0.05707415928082346   -0.1480505832760954
0.1080132395629049   -0.05707415928082346   -0.1480505832760954
0.1080132395629049   -0.05707415928082346   -0.1480505832760954
0.1080132395629049   -0.05707415928082346   -0.1480505832760954
-0.3256921895906591   0.06620679427274496   0.09626618106358545
-0.3256921895906591   0.06620679427274496   0.09626618106358545
-0.3256921895906591   0.06620679427274496   0.09626618106358545
-0.3256921895906591   0.06620679427274496   0.09626618106358545
-0.4610987625892804   -0.18807044266593032   -0.11292218524972544
-0.4610987625892804   -0.18807044266593032   -0.11292218524972544
-0.4610987625892804   -0.18807044266593032   -0.11292218524972544
-0.4610987625892804   -0.18807044266593032   -0.11292218524972544
0.11308858434262745   0.13452646494120032   0.14331463782403847
0.11308858434262745   0.13452646494120032   0.14331463782403847
0.11308858434262745   0.13452646494120032   0.14331463782403847
0.11308858434262745   0.13452646494120032   0.14331463782403847
-0.14455615092637078   -0.005265753199884638   -0.019053715348312638
-0.14455615092637078   -0.005265753199884638   -0.019053715348312638
-0.14455615092637078   -0.005265753199884638   -0.019053715348312638
-0.14455615092637078   -0.005265753199884638   -0.019053715348312638
0.01415669698679609   -0.09483215041962792   -0.12198618359429006
0.01415669698679609   -0.09483215041962792   -0.12198618359429006
0.01415669698679609   -0.09483215041962792   -0.12198618359429006
0.01415669698679609   -0.09483215041962792   -0.12198618359429006
-0.3701371941597261   0.03331785376862017   0.12049736046349128
-0.3701371941597261   0.03331785376862017   0.12049736046349128
-0.3701371941597261   0.03331785376862017   0.12049736046349128
-0.3701371941597261   0.03331785376862017   0.12049736046349128
-0.5017951625887438   -0.23293158613780213   -0.09351052744847754
-0.5017951625887438   -0.23293158613780213   -0.09351052744847754
-0.5017951625887438   -0.23293158613780213   -0.09351052744847754
-0.5017951625887438   -0.23293158613780213   -0.09351052744847754
-0.014205181412310757   0.05165514711788604   0.16323392218579136
-0.014205181412310757   0.05165514711788604   0.16323392218579136
-0.014205181412310757   0.05165514711788604   0.16323392218579136
-0.014205181412310757   0.05165514711788604   0.16323392218579136
-0.22190461855378024   -0.049103779635250366   -0.057637588228167946
-0.22190461855378024   -0.049103779635250366   -0.057637588228167946
-0.22190461855378024   -0.049103779635250366   -0.057637588228167946
-0.22190461855378024   -0.049103779635250366   -0.057637588228167946
-0.3207687246972779   0.080305605125605   -0.06631890384783748
-0.3207687246972779   0.080305605125605   -0.06631890384783748
-0.3207687246972779   0.080305605125605   -0.06631890384783748
-0.3207687246972779   0.080305605125605   -0.06631890384783748
-0.796833261832951   0.03345650856991572   0.022349451724317432
-0.796833261832951   0.03345650856991572   0.022349451724317432
-0.796833261832951   0.03345650856991572   0.022349451724317432
-0.796833261832951   0.03345650856991572   0.022349451724317432
-0.8663553289559193   -0.09261327746477366   -0.06921344197025213
-0.8663553289559193   -0.09261327746477366   -0.06921344197025213
-0.8663553289559193   -0.09261327746477366   -0.06921344197025213
-0.8663553289559193   -0.09261327746477366   -0.06921344197025213
-0.32948561982019464   0.07747220077592315   0.06603362341272917
-0.32948561982019464   0.07747220077592315   0.06603362341272917
-0.32948561982019464   0.07747220077592315   0.06603362341272917
-0.32948561982019464   0.07747220077592315   0.06603362341272917
-0.5771166089001276   0.02307353938222026   0.012180885166562856
-0.5771166089001276   0.02307353938222026   0.012180885166562856
-0.5771166089001276   0.02307353938222026   0.012180885166562856
-0.5771166089001276   0.02307353938222026   0.012180885166562856
-0.3670375016972013   0.010201882784787147   -0.05445546798116614
-0.3670375016972013   0.010201882784787147   -0.05445546798116614
-0.3670375016972013   0.010201882784787147   -0.05445546798116614
-0.3670375016972013   0.010201882784787147   -0.05445546798116614
-0.8335031962035568   -0.03004270859828151   0.032476652925068045
-0.8335031962035568   -0.03004270859828151   0.032476652925068045
-0.8335031962035568   -0.03004270859828151   0.032476652925068045
-0.8335031962035568   -0.03004270859828151   0.032476652925068045
-0.90089909750808   -0.14960508966448766   -0.05095753273684209
-0.90089909750808   -0.14960508966448766   -0.05095753273684209
-0.90089909750808   -0.14960508966448766   -0.05095753273684209
-0.90089909750808   -0.14960508966448766   -0.05095753273684209
-0.3831087870978436   0.014513122361603903   0.07444412717992034
-0.3831087870978436   0.014513122361603903   0.07444412717992034
-0.3831087870978436   0.014513122361603903   0.07444412717992034
-0.3831087870978436   0.014513122361603903   0.07444412717992034
-0.6207638122028619   -0.034021573595539006   -0.016427126513894608
-0.6207638122028619   -0.034021573595539006   -0.016427126513894608
-0.6207638122028619   -0.034021573595539006   -0.016427126513894608
-0.6207638122028619   -0.034021573595539006   -0.016427126513894608
-0.4192777470397968   -0.051222352547591804   -0.040665197620646076
-0.4192777470397968   -0.051222352547591804   -0.040665197620646076
-0.4192777470397968   -0.051222352547591804   -0.040665197620646076
-0.4192777470397968   -0.051222352547591804   -0.040665197620646076
-0.8697694399297426   -0.08890891711890725   0.043994582609263755
-0.8697694399297426   -0.08890891711890725   0.043994582609263755
-0.8697694399297426   -0.08890891711890725   0.043994582609263755
-0.8697694399297426   -0.08890891711890725   0.043994582609263755
-0.9356708284520906   -0.20842406534271135   -0.034782748298273276
-0.9356708284520906   -0.20842406534271135   -0.034782748298273276
-0.9356708284520906   -0.20842406534271135   -0.034782748298273276
-0.9356708284520906   -0.20842406534271135   -0.034782748298273276
-0.42792932688730423   -0.04949024853611432   0.09237731345702878
-0.42792932688730423   -0.04949024853611432   0.09237731345702878
-0.42792932688730423   -0.04949024853611432   0.09237731345702878
-0.42792932688730423   -0.04949024853611432   0.09237731345702878
-0.6644786463179193   -0.09070089899838946   -0.04557670267198355
-0.6644786463179193   -0.09070089899838946   -0.04557670267198355
-0.6644786463179193   -0.09070089899838946   -0.04557670267198355
-0.6644786463179193   -0.09070089899838946   -0.04557670267198355
-0.7825446096213909   0.13431488663534769   -0.007065665283322184
-0.7825446096213909   0.13431488663534769   -0.007065665283322184
-0.7825446096213909   0.13431488663534769   -0.007065665283322184
-0.7825446096213909   0.13431488663534769   -0.007065665283322184
-1.3081178079186873   -0.04442651363633984   -0.036730717048164795
-1.3081178079186873   -0.04442651363633984   -0.036730717048164795
-1.3081178079186873   -0.04442651363633984   -0.036730717048164795
-1.3081178079186873   -0.04442651363633984   -0.036730717048164795
-1.3217197349483452   -0.032048019832132346   -0.0074886195906454095
-1.3217197349483452   -0.032048019832132346   -0.0074886195906454095
-1.3217197349483452   -0.032048019832132346   -0.0074886195906454095
-1.3217197349483452   -0.032048019832132346   -0.0074886195906454095
-0.8306879290732716   0.006352552846619008   0.010157727131593977
-0.8306879290732716   0.006352552846619008   0.010157727131593977
-0.8306879290732716   0.006352552846619008   0.010157727131593977
-0.8306879290732716   0.006352552846619008   0.010157727131593977
-1.058576299541902   0.015054775373357449   0.0039422869161687135
-1.058576299541902   0.015054775373357449   0.0039422869161687135
-1.058576299541902   0.015054775373357449   0.0039422869161687135
-1.058576299541902   0.015054775373357449   0.0039422869161687135
-0.8175063845839776   0.07231331220317233   0.010104690221510379
-0.8175063845839776   0.07231331220317233   0.010104690221510379
-0.8175063845839776   0.07231331220317233   0.010104690221510379
-0.8175063845839776   0.07231331220317233   0.010104690221510379
-1.3394129469174287   -0.10252044666847543   -0.025482252599720825
-1.3394129469174287   -0.10252044666847543   -0.025482252599720825
-1.3394129469174287   -0.10252044666847543   -0.025482252599720825
-1.3394129469174287   -0.10252044666847543   -0.025482252599720825
-1.3540866880799136   -0.09326855049619981   0.00951894665188055
-1.3540866880799136   -0.09326855049619981   0.00951894665188055
-1.3540866880799136   -0.09326855049619981   0.00951894665188055
-1.3540866880799136   -0.09326855049619981   0.00951894665188055
-0.8673575675266159   -0.053807744061768054   0.02095277156775894
-0.8673575675266159   -0.053807744061768054   0.02095277156775894
-0.8673575675266159   -0.053807744061768054   0.02095277156775894
-0.8673575675266159   -0.053807744061768054   0.02095277156775894
-1.0936964030394858   -0.04062123921095476   -0.022337938163831693
-1.0936964030394858   -0.04062123921095476   -0.022337938163831693
-1.0936964030394858   -0.04062123921095476   -0.022337938163831693
-1.0936964030394858   -0.04062123921095476   -0.022337938163831693
-0.8537402955169963   0.00995268016400061   0.025278707390087987
-0.8537402955169963   0.00995268016400061   0.025278707390087987
-0.8537402955169963   0.00995268016400061   0.025278707390087987
-0.8537402955169963   0.00995268016400061   0.025278707390087987
-1.3731396977748673   -0.16246471240731525   -0.01654993991178713
-1.3731396977748673   -0.16246471240731525   -0.01654993991178713
-1.3731396977748673   -0.16246471240731525   -0.01654993991178713
-1.3731396977748673   -0.16246471240731525   -0.01654993991178713
-1.3856204113833057   -0.15203829636194935   0.025804214452665057
-1.3856204113833057   -0.15203829636194935   0.025804214452665057
-1.3856204113833057   -0.15203829636194935   0.025804214452665057
-1.3856204113833057   -0.15203829636194935   0.025804214452665057
-0.9025333465870967   -0.1106191575146642   0.03309975319864155
-0.9025333465870967   -0.1106191575146642   0.03309975319864155
-0.9025333465870967   -0.1106191575146642   0.03309975319864155
-0.9025333465870967   -0.1106191575146642   0.03309975319864155
-1.131489330727091   -0.09666571748376368   -0.05088974718951496
-1.131489330727091   -0.09666571748376368   -0.05088974718951496
-1.131489330727091   -0.09666571748376368   -0.05088974718951496
-1.131489330727091   -0.09666571748376368   -0.05088974718951496
-1.2420198252195158   0.1953930970748634   0.053939585736519594
-1.2420198252195158   0.1953930970748634   0.053939585736519594
-1.2420198252195158   0.1953930970748634   0.053939585736519594
-1.2420198252195158   0.1953930970748634   0.053939585736519594
-1.798494850245329   -0.07351195585456716   -0.08255708579114446
-1.798494850245329   -0.07351195585456716   -0.08255708579114446
-1.798494850245329   -0.07351195585456716   -0.08255708579114446
-1.798494850245329   -0.07351195585456716   -0.08255708579114446
-1.7739973024474986   0.030456476738163596   0.05629301986860591
-1.7739973024474986   0.030456476738163596   0.05629301986860591
-1.7739973024474986   0.030456476738163596   0.05629301986860591
-1.7739973024474986   0.030456476738163596   0.05629301986860591
-1.3265816702197422   -0.026923440832212597   -0.03692287494754992
-1.3265816702197422   -0.026923440832212597   -0.03692287494754992
-1.3265816702197422   -0.026923440832212597   -0.03692287494754992
-1.3265816702197422   -0.026923440832212597   -0.03692287494754992
-1.5300757403496963   0.03161426942002121   0.007114771107313067
-1.5300757403496963   0.03161426942002121   0.007114771107313067
-1.5300757403496963   0.03161426942002121   0.007114771107313067
-1.5300757403496963   0.03161426942002121   0.007114771107313067
-1.2728506390650247   0.13365747786643895   0.07115136212738608
-1.2728506390650247   0.13365747786643895   0.07115136212738608
-1.2728506390650247   0.13365747786643895   0.07115136212738608
-1.2728506390650247   0.13365747786643895   0.07115136212738608
-1.8343133421881403   -0.13670945054639666   -0.0781212515500721
-1.8343133421881403   -0.13670945054639666   -0.0781212515500721
-1.8343133421881403   -0.13670945054639666   -0.0781212515500721
-1.8343133421881403   -0.13670945054639666   -0.0781212515500721
-1.8174211187014433   -0.029746113987660583   0.06643426112534122
-1.8174211187014433   -0.029746113987660583   0.06643426112534122
-1.8174211187014433   -0.029746113987660583   0.06643426112534122
-1.8174211187014433   -0.029746113987660583   0.06643426112534122
-1.35867288338052   -0.08154202482392292   -0.025138555523428543
-1.35867288338052   -0.08154202482392292   -0.025138555523428543
-1.35867288338052   -0.08154202482392292   -0.025138555523428543
-1.35867288338052   -0.08154202482392292   -0.025138555523428543
-1.5596010288633073   -0.022052922225571925   -0.021376740379214706
-1.5596010288633073   -0.022052922225571925   -0.021376740379214706
-1.5596010288633073   -0.022052922225571925   -0.021376740379214706
-1.5596010288633073   -0.022052922225571925   -0.021376740379214706
-1.304322182143024   0.07716783855583509   0.08790508728427747
-1.304322182143024   0.07716783855583509   0.08790508728427747
-1.304322182143024   0.07716783855583509   0.08790508728427747
-1.304322182143024   0.07716783855583509   0.08790508728427747
-1.8769716092424948   -0.19365576667096118   -0.06740853889664512
-1.8769716092424948   -0.19365576667096118   -0.06740853889664512
-1.8769716092424948   -0.19365576667096118   -0.06740853889664512
-1.8769716092424948   -0.19365576667096118   -0.06740853889664512
-1.8527342389812536   -0.09030115772391295   0.08452737761432345
-1.8527342389812536   -0.09030115772391295   0.08452737761432345
-1.8527342389812536   -0.09030115772391295   0.08452737761432345
-1.8527342389812536   -0.09030115772391295   0.08452737761432345
-1.3908663490851916   -0.13738453560527014   -0.01507923481344299
-1.3908663490851916   -0.13738453560527014   -0.01507923481344299
-1.3908663490851916   -0.13738453560527014   -0.01507923481344299
-1.3908663490851916   -0.13738453560527014   -0.01507923481344299
-1.603939727590519   -0.07665386503107913   -0.050524289432188826
-1.603939727590519   -0.07665386503107913   -0.050524289432188826
-1.603939727590519   -0.07665386503107913   -0.050524289432188826
-1.603939727590519   -0.07665386503107913   -0.050524289432188826
-1.7036454346021646   0.21158828206672547   0.10658975450338506
-1.7036454346021646   0.21158828206672547   0.10658975450338506
-1.7036454346021646   0.21158828206672547   0.10658975450338506
-1.7036454346021646   0.21158828206672547   0.10658975450338506
-2.1859959699983706   -0.1088172275870023   -0.13875463050359726
-2.1859959699983706   -0.1088172275870023   -0.13875463050359726
-2.1859959699983706   -0.1088172275870023   -0.13875463050359726
-2.1859959699983706   -0.1088172275870023   -0.13875463050359726
-2.1875042152515043   0.08657034498223459   0.11749217755432786
-2.1875042152515043   0.08657034498223459   0.11749217755432786
-2.1875042152515043   0.08657034498223459   0.11749217755432786
-2.1875042152515043   0.08657034498223459   0.11749217755432786
-1.8209197265574062   -0.06293579505012559   -0.08492682889267233
-1.8209197265574062   -0.06293579505012559   -0.08492682889267233
-1.8209197265574062   -0.06293579505012559   -0.08492682889267233
-1.8209197265574062   -0.06293579505012559   -0.08492682889267233
-1.8948510653318702   0.05073347515298088   0.03614320095515339
-1.8948510653318702   0.05073347515298088   0.03614320095515339
-1.8948510653318702   0.05073347515298088   0.03614320095515339
-1.8948510653318702   0.05073347515298088   0.03614320095515339
-1.730263429691821   0.17966986555025044   0.12574899483484636
-1.730263429691821   0.17966986555025044   0.12574899483484636
-1.730263429691821   0.17966986555025044   0.12574899483484636
-1.730263429691821   0.17966986555025044   0.12574899483484636
-2.2849806796267376   -0.16285548312781017   -0.12046431621176401
-2.2849806796267376   -0.16285548312781017   -0.12046431621176401
-2.2849806796267376   -0.16285548312781017   -0.12046431621176401
-2.2849806796267376   -0.16285548312781017   -0.12046431621176401
-2.2665081046418174   0.052362393184711475   0.151481661337859
-2.2665081046418174   0.052362393184711475   0.151481661337859
-2.2665081046418174   0.052362393184711475   0.151481661337859
-2.2665081046418174   0.052362393184711475   0.151481661337859
-1.858518966783478   -0.09431717242721938   -0.07448392084530345
-1.858518966783478   -0.09431717242721938   -0.07448392084530345
-1.858518966783478   -0.09431717242721938   -0.07448392084530345
-1.858518966783478   -0.09431717242721938   -0.07448392084530345
-1.9886717606104656   0.009076258871704601   -0.003228682874177047
-1.9886717606104656   0.009076258871704601   -0.003228682874177047
-1.9886717606104656   0.009076258871704601   -0.003228682874177047
-1.9886717606104656   0.009076258871704601   -0.003228682874177047
-1.7640369038097319   0.15273512116899868   0.15087410042720928
-1.7640369038097319   0.15273512116899868   0.15087410042720928
-1.7640369038097319   0.15273512116899868   0.15087410042720928
-1.7640369038097319   0.15273512116899868   0.15087410042720928
-2.3679664686075994   -0.2016662014035372   -0.10178156390277174
-2.3679664686075994   -0.2016662014035372   -0.10178156390277174
-2.3679664686075994   -0.2016662014035372   -0.10178156390277174
-2.3679664686075994   -0.2016662014035372   -0.10178156390277174
-2.3835181270355905   -0.037483487996323006   0.16027110371909792
-2.3835181270355905   -0.037483487996323006   0.16027110371909792
-2.3835181270355905   -0.037483487996323006   0.16027110371909792
-2.3835181270355905   -0.037483487996323006   0.16027110371909792
-1.8962559444392773   -0.15904004566494084   -0.06434226173479796
-1.8962559444392773   -0.15904004566494084   -0.06434226173479796
-1.8962559444392773   -0.15904004566494084   -0.06434226173479796
-1.8962559444392773   -0.15904004566494084   -0.06434226173479796
-2.025036018699896   -0.032083011481676194   -0.031290730348391305
-2.025036018699896   -0.032083011481676194   -0.031290730348391305
-2.025036018699896   -0.032083011481676194   -0.031290730348391305
-2.025036018699896   -0.032083011481676194   -0.031290730348391305
-0.959369161346662   -0.06289763332582257   -0.17558000119869255
-0.959369161346662   -0.06289763332582257   -0.17558000119869255
-0.959369161346662   -0.06289763332582257   -0.17558000119869255
-0.959369161346662   -0.06289763332582257   -0.17558000119869255
-0.9379459810512615   0.13523670924976616   0.07917609988091885
-0.9379459810512615   0.13523670924976616   0.07917609988091885
-0.9379459810512615   0.13523670924976616   0.07917609988091885
-0.9379459810512615   0.13523670924976616   0.07917609988091885
-1.0534538986763657   -0.1223434148540119   -0.11872315548449208
-1.0534538986763657   -0.1223434148540119   -0.11872315548449208
-1.0534538986763657   -0.1223434148540119   -0.11872315548449208
-1.0534538986763657   -0.1223434148540119   -0.11872315548449208
-0.9783825736023082   0.06864889648925748   0.11948388445335897
-0.9783825736023082   0.06864889648925748   0.11948388445335897
-0.9783825736023082   0.06864889648925748   0.11948388445335897
-0.9783825736023082   0.06864889648925748   0.11948388445335897
-0.9330366433555795   0.022303332544913068   0.08076411782843197
-0.9330366433555795   0.022303332544913068   0.08076411782843197
-0.9330366433555795   0.022303332544913068   0.08076411782843197
-0.9330366433555795   0.022303332544913068   0.08076411782843197
-1.0717091375605277   -0.131624866086367   -0.14687517276210588
-1.0717091375605277   -0.131624866086367   -0.14687517276210588
-1.0717091375605277   -0.131624866086367   -0.14687517276210588
-1.0717091375605277   -0.131624866086367   -0.14687517276210588
-0.9718458193892476   0.06621186305051277   0.10076196304657473
-0.9718458193892476   0.06621186305051277   0.10076196304657473
-0.9718458193892476   0.06621186305051277   0.10076196304657473
-0.9718458193892476   0.06621186305051277   0.10076196304657473
-1.0878932966257617   -0.1543915819342393   -0.10029371558483191
-1.0878932966257617   -0.1543915819342393   -0.10029371558483191
-1.0878932966257617   -0.1543915819342393   -0.10029371558483191
-1.0878932966257617   -0.1543915819342393   -0.10029371558483191
-1.0680080638141236   0.02489209900094763   0.22155418647743266
-1.0680080638141236   0.02489209900094763   0.22155418647743266
-1.0680080638141236   0.02489209900094763   0.22155418647743266
-1.0680080638141236   0.02489209900094763   0.22155418647743266
-1.015991796111572   -0.032807898102823085   0.032057568739707526
-1.015991796111572   -0.032807898102823085   0.032057568739707526
-1.015991796111572   -0.032807898102823085   0.032057568739707526
-1.015991796111572   -0.032807898102823085   0.032057568739707526
-1.1750554261351807   -0.1746028082871131   -0.11418771783978213
-1.1750554261351807   -0.1746028082871131   -0.11418771783978213
-1.1750554261351807   -0.1746028082871131   -0.11418771783978213
-1.1750554261351807   -0.1746028082871131   -0.11418771783978213
-1.0084004891633778   0.0175487704951498   0.12522996929769767
-1.0084004891633778   0.0175487704951498   0.12522996929769767
-1.0084004891633778   0.0175487704951498   0.12522996929769767
-1.0084004891633778   0.0175487704951498   0.12522996929769767
-1.1160216627048343   -0.21710786914336236   -0.07876467782792687
-1.1160216627048343   -0.21710786914336236   -0.07876467782792687
-1.1160216627048343   -0.21710786914336236   -0.07876467782792687
-1.1160216627048343   -0.21710786914336236   -0.07876467782792687
-1.2074751972916018   -0.11969869570640343   0.20743615675876598
-1.2074751972916018   -0.11969869570640343   0.20743615675876598
-1.2074751972916018   -0.11969869570640343   0.20743615675876598
-1.2074751972916018   -0.11969869570640343   0.20743615675876598
-1.087155833577725   -0.09802706687635096   -0.044817271253837325
-1.087155833577725   -0.09802706687635096   -0.044817271253837325
-1.087155833577725   -0.09802706687635096   -0.044817271253837325
-1.087155833577725   -0.09802706687635096   -0.044817271253837325
-1.0051457204712082   -0.030827542580331935   -0.09075834538872476
-1.0051457204712082   -0.030827542580331935   -0.09075834538872476
-1.0051457204712082   -0.030827542580331935   -0.09075834538872476
-1.0051457204712082   -0.030827542580331935   -0.09075834538872476
-1.010108290748008   -0.12375485069689227   -0.005224287337940024
-1.010108290748008   -0.12375485069689227   -0.005224287337940024
-1.010108290748008   -0.12375485069689227   -0.005224287337940024
-1.010108290748008   -0.12375485069689227   -0.005224287337940024
-1.0168053643705117   -0.08215179887096008   -0.04476663027136987
-1.0168053643705117   -0.08215179887096008   -0.04476663027136987
-1.0168053643705117   -0.08215179887096008   -0.04476663027136987
-1.0168053643705117   -0.08215179887096008   -0.04476663027136987
-1.0396633849100043   -0.16991606563826145   -0.002197935868435235
-1.0396633849100043   -0.16991606563826145   -0.002197935868435235
-1.0396633849100043   -0.16991606563826145   -0.002197935868435235
-1.0396633849100043   -0.16991606563826145   -0.002197935868435235
-1.0092453430020294   -0.10605932906983628   -0.0041574597165815255
-1.0092453430020294   -0.10605932906983628   -0.0041574597165815255
-1.0092453430020294   -0.10605932906983628   -0.0041574597165815255
-1.0092453430020294   -0.10605932906983628   -0.0041574597165815255
-1.039621243958357   -0.09345192340330005   -0.07845137334516311
-1.039621243958357   -0.09345192340330005   -0.07845137334516311
-1.039621243958357   -0.09345192340330005   -0.07845137334516311
-1.039621243958357   -0.09345192340330005   -0.07845137334516311
-1.0233300996537236   -0.1650985354374968   0.005556429879107167
-1.0233300996537236   -0.1650985354374968   0.005556429879107167
-1.0233300996537236   -0.1650985354374968   0.005556429879107167
-1.0233300996537236   -0.1650985354374968   0.005556429879107167
-1.0332861294857947   -0.13615151036907816   -0.028701694085538854
-1.0332861294857947   -0.13615151036907816   -0.028701694085538854
-1.0332861294857947   -0.13615151036907816   -0.028701694085538854
-1.0332861294857947   -0.13615151036907816   -0.028701694085538854
-1.0764565798965438   -0.2200826268399955   0.02258091296701384
-1.0764565798965438   -0.2200826268399955   0.02258091296701384
-1.0764565798965438   -0.2200826268399955   0.02258091296701384
-1.0764565798965438   -0.2200826268399955   0.02258091296701384
-1.0317288646722558   -0.14958197216812688   -0.02902736246709694
-1.0317288646722558   -0.14958197216812688   -0.02902736246709694
-1.0317288646722558   -0.14958197216812688   -0.02902736246709694
-1.0317288646722558   -0.14958197216812688   -0.02902736246709694
-1.0788104626669168   -0.1511418864443138   -0.058129241280533483
-1.0788104626669168   -0.1511418864443138   -0.058129241280533483
-1.0788104626669168   -0.1511418864443138   -0.058129241280533483
-1.0788104626669168   -0.1511418864443138   -0.058129241280533483
-1.0392312113600304   -0.2133912154093817   0.018812601583569594
-1.0392312113600304   -0.2133912154093817   0.018812601583569594
-1.0392312113600304   -0.2133912154093817   0.018812601583569594
-1.0392312113600304   -0.2133912154093817   0.018812601583569594
-1.0479998615873496   -0.1945351685700253   -0.012776752012480897
-1.0479998615873496   -0.1945351685700253   -0.012776752012480897
-1.0479998615873496   -0.1945351685700253   -0.012776752012480897
-1.0479998615873496   -0.1945351685700253   -0.012776752012480897
-1.104527933556735   -0.2840821896256593   0.04567828839486441
-1.104527933556735   -0.2840821896256593   0.04567828839486441
-1.104527933556735   -0.2840821896256593   0.04567828839486441
-1.104527933556735   -0.2840821896256593   0.04567828839486441
-1.0629662012587566   -0.20243150035812685   -0.060782871782692836
-1.0629662012587566   -0.20243150035812685   -0.060782871782692836
-1.0629662012587566   -0.20243150035812685   -0.060782871782692836
-1.0629662012587566   -0.20243150035812685   -0.060782871782692836
-0.9826894052306139   0.024690306851125443   -0.016575017298972844
-0.9826894052306139   0.024690306851125443   -0.016575017298972844
-0.9826894052306139   0.024690306851125443   -0.016575017298972844
-0.9826894052306139   0.024690306851125443   -0.016575017298972844
-1.104510753763349   -0.20959821110039145   -0.05274516509857457
-1.104510753763349   -0.20959821110039145   -0.05274516509857457
-1.104510753763349   -0.20959821110039145   -0.05274516509857457
-1.104510753763349   -0.20959821110039145   -0.05274516509857457
-1.0588140334851923   -0.03843869307179526   0.014327601951443489
-1.0588140334851923   -0.03843869307179526   0.014327601951443489
-1.0588140334851923   -0.03843869307179526   0.014327601951443489
-1.0588140334851923   -0.03843869307179526   0.014327601951443489
-1.043621397463442   -0.22818554672111124   -0.032813047885870444
-1.043621397463442   -0.22818554672111124   -0.032813047885870444
-1.043621397463442   -0.22818554672111124   -0.032813047885870444
-1.043621397463442   -0.22818554672111124   -0.032813047885870444
-1.0466819749257974   -0.1164352719145832   -0.024026213836718747
-1.0466819749257974   -0.1164352719145832   -0.024026213836718747
-1.0466819749257974   -0.1164352719145832   -0.024026213836718747
-1.0466819749257974   -0.1164352719145832   -0.024026213836718747
-0.9972339686243834   -0.02900040881020638   -6.104160148225762e-05
-0.9972339686243834   -0.02900040881020638   -6.104160148225762e-05
-0.9972339686243834   -0.02900040881020638   -6.104160148225762e-05
-0.9972339686243834   -0.02900040881020638   -6.104160148225762e-05
-1.1110744762500875   -0.24349684490853915   -0.041916460036303275
-1.1110744762500875   -0.24349684490853915   -0.041916460036303275
-1.1110744762500875   -0.24349684490853915   -0.041916460036303275
-1.1110744762500875   -0.24349684490853915   -0.041916460036303275
-1.0704975507964938   -0.09256803316421952   0.030291309325318122
-1.0704975507964938   -0.09256803316421952   0.030291309325318122
-1.0704975507964938   -0.09256803316421952   0.030291309325318122
-1.0704975507964938   -0.09256803316421952   0.030291309325318122
-1.0590418426230712   -0.27088796542812016   -0.022743804712887145
-1.0590418426230712   -0.27088796542812016   -0.022743804712887145
-1.0590418426230712   -0.27088796542812016   -0.022743804712887145
-1.0590418426230712   -0.27088796542812016   -0.022743804712887145
-1.0591500675794827   -0.157717529854858   -0.045347709022022585
-1.0591500675794827   -0.157717529854858   -0.045347709022022585
-1.0591500675794827   -0.157717529854858   -0.045347709022022585
-1.0591500675794827   -0.157717529854858   -0.045347709022022585
-1.0139051347862431   -0.084081215015504   0.016132984058645078
-1.0139051347862431   -0.084081215015504   0.016132984058645078
-1.0139051347862431   -0.084081215015504   0.016132984058645078
-1.0139051347862431   -0.084081215015504   0.016132984058645078
-1.1221940826959125   -0.2859346076394275   -0.03482477569658257
-1.1221940826959125   -0.2859346076394275   -0.03482477569658257
-1.1221940826959125   -0.2859346076394275   -0.03482477569658257
-1.1221940826959125   -0.2859346076394275   -0.03482477569658257
-1.0799126740528173   -0.14353884602574923   0.045880638108936826
-1.0799126740528173   -0.14353884602574923   0.045880638108936826
-1.0799126740528173   -0.14353884602574923   0.045880638108936826
-1.0799126740528173   -0.14353884602574923   0.045880638108936826
-1.0703610737799507   -0.3119857114391449   -0.007132270106366891
-1.0703610737799507   -0.3119857114391449   -0.007132270106366891
-1.0703610737799507   -0.3119857114391449   -0.007132270106366891
-1.0703610737799507   -0.3119857114391449   -0.007132270106366891
-1.074083424983336   -0.20091804836380625   -0.06878216751724876
-1.074083424983336   -0.20091804836380625   -0.06878216751724876
-1.074083424983336   -0.20091804836380625   -0.06878216751724876
-1.074083424983336   -0.20091804836380625   -0.06878216751724876
-1.0199143709662928   0.10903605393060989   0.05160248385570443
-1.0199143709662928   0.10903605393060989   0.05160248385570443
-1.0199143709662928   0.10903605393060989   0.05160248385570443
-1.0199143709662928   0.10903605393060989   0.05160248385570443
-1.1991416210143944   -0.15548533514698198   -0.07321899037031711
-1.1991416210143944   -0.15548533514698198   -0.07321899037031711
-1.1991416210143944   -0.15548533514698198   -0.07321899037031711
-1.1991416210143944   -0.15548533514698198   -0.07321899037031711
-1.1335911542847994   0.03342129818610512   0.07181030420909595
-1.1335911542847994   0.03342129818610512   0.07181030420909595
-1.1335911542847994   0.03342129818610512   0.07181030420909595
-1.1335911542847994   0.03342129818610512   0.07181030420909595
-1.0979461204647447   -0.17521577483278167   -0.04455575118533219
-1.0979461204647447   -0.17521577483278167   -0.04455575118533219
-1.0979461204647447   -0.17521577483278167   -0.04455575118533219
-1.0979461204647447   -0.17521577483278167   -0.04455575118533219
-1.1126582756509917   -0.04586102655240876   -0.014357348658186227
-1.1126582756509917   -0.04586102655240876   -0.014357348658186227
-1.1126582756509917   -0.04586102655240876   -0.014357348658186227
-1.1126582756509917   -0.04586102655240876   -0.014357348658186227
-1.029801490757165   0.05333957879479784   0.06761204372498657
-1.029801490757165   0.05333957879479784   0.06761204372498657
-1.029801490757165   0.05333957879479784   0.06761204372498657
-1.029801490757165   0.05333957879479784   0.06761204372498657
-1.2095179644462146   -0.20291623589531005   -0.0714862125165655
-1.2095179644462146   -0.20291623589531005   -0.0714862125165655
-1.2095179644462146   -0.20291623589531005   -0.0714862125165655
-1.2095179644462146   -0.20291623589531005   -0.0714862125165655
-1.154220387357811   -0.01934996730172181   0.08136923606492948
-1.154220387357811   -0.01934996730172181   0.08136923606492948
-1.154220387357811   -0.01934996730172181   0.08136923606492948
-1.154220387357811   -0.01934996730172181   0.08136923606492948
-1.1080482422282962   -0.2145152806230639   -0.03551490037485039
-1.1080482422282962   -0.2145152806230639   -0.03551490037485039
-1.1080482422282962   -0.2145152806230639   -0.03551490037485039
-1.1080482422282962   -0.2145152806230639   -0.03551490037485039
-1.1228621717254659   -0.09055942608907949   -0.03934573259731904
-1.1228621717254659   -0.09055942608907949   -0.03934573259731904
-1.1228621717254659   -0.09055942608907949   -0.03934573259731904
-1.1228621717254659   -0.09055942608907949   -0.03934573259731904
-1.0406604497314829   0.0037249410898341773   0.08318384039631964
-1.0406604497314829   0.0037249410898341773   0.08318384039631964
-1.0406604497314829   0.0037249410898341773   0.08318384039631964
-1.0406604497314829   0.0037249410898341773   0.08318384039631964
-1.2283552728665827   -0.24433728202656796   -0.06431787675408407
-1.2283552728665827   -0.24433728202656796   -0.06431787675408407
-1.2283552728665827   -0.24433728202656796   -0.06431787675408407
-1.2283552728665827   -0.24433728202656796   -0.06431787675408407
-1.1677333933400023   -0.06990421455201512   0.09918941470764296
-1.1677333933400023   -0.06990421455201512   0.09918941470764296
-1.1677333933400023   -0.06990421455201512   0.09918941470764296
-1.1677333933400023   -0.06990421455201512   0.09918941470764296
-1.116638249500301   -0.2539661646872271   -0.027319920467020004
-1.116638249500301   -0.2539661646872271   -0.027319920467020004
-1.116638249500301   -0.2539661646872271   -0.027319920467020004
-1.116638249500301   -0.2539661646872271   -0.027319920467020004
-1.1409759961442838   -0.13258948072813434   -0.06351927583042452
-1.1409759961442838   -0.13258948072813434   -0.06351927583042452
-1.1409759961442838   -0.13258948072813434   -0.06351927583042452
-1.1409759961442838   -0.13258948072813434   -0.06351927583042452
-1.1015627376948647   0.1563819693254071   0.1028081217549433
-1.1015627376948647   0.1563819693254071   0.1028081217549433
-1.1015627376948647   0.1563819693254071   0.1028081217549433
-1.1015627376948647   0.1563819693254071   0.1028081217549433
-1.1697695310972636   -0.09317045245918901   -0.10634949769118718
-1.1697695310972636   -0.09317045245918901   -0.10634949769118718
-1.1697695310972636   -0.09317045245918901   -0.10634949769118718
-1.1697695310972636   -0.09317045245918901   -0.10634949769118718
-1.1425660065652599   0.11256174611136538   0.11420715692269776
-1.1425660065652599   0.11256174611136538   0.11420715692269776
-1.1425660065652599   0.11256174611136538   0.11420715692269776
-1.1425660065652599   0.11256174611136538   0.11420715692269776
-1.1919430145174308   -0.12153791393869029   -0.06498978482926604
-1.1919430145174308   -0.12153791393869029   -0.06498978482926604
-1.1919430145174308   -0.12153791393869029   -0.06498978482926604
-1.1919430145174308   -0.12153791393869029   -0.06498978482926604
-1.1125507006493938   0.028385142589188728   0.003722714266117505
-1.1125507006493938   0.028385142589188728   0.003722714266117505
-1.1125507006493938   0.028385142589188728   0.003722714266117505
-1.1125507006493938   0.028385142589188728   0.003722714266117505
-1.106731410005176   0.1206610823312656   0.11886924146205324
-1.106731410005176   0.1206610823312656   0.11886924146205324
-1.106731410005176   0.1206610823312656   0.11886924146205324
-1.106731410005176   0.1206610823312656   0.11886924146205324
-1.234080254509266   -0.1359398935903364   -0.09486244309560027
-1.234080254509266   -0.1359398935903364   -0.09486244309560027
-1.234080254509266   -0.1359398935903364   -0.09486244309560027
-1.234080254509266   -0.1359398935903364   -0.09486244309560027
-1.1929115752668764   0.08313042739824555   0.1471466867654194
-1.1929115752668764   0.08313042739824555   0.1471466867654194
-1.1929115752668764   0.08313042739824555   0.1471466867654194
-1.1929115752668764   0.08313042739824555   0.1471466867654194
-1.2074279071010785   -0.14461114673721134   -0.05940718321591853
-1.2074279071010785   -0.14461114673721134   -0.05940718321591853
-1.2074279071010785   -0.14461114673721134   -0.05940718321591853
-1.2074279071010785   -0.14461114673721134   -0.05940718321591853
-1.1666910078496486   -0.007332511575274925   -0.025593636183965818
-1.1666910078496486   -0.007332511575274925   -0.025593636183965818
-1.1666910078496486   -0.007332511575274925   -0.025593636183965818
-1.1666910078496486   -0.007332511575274925   -0.025593636183965818
-1.118749061960334   0.09700730988048545   0.14236858587007636
-1.118749061960334   0.09700730988048545   0.14236858587007636
-1.118749061960334   0.09700730988048545   0.14236858587007636
-1.118749061960334   0.09700730988048545   0.14236858587007636
-1.2898484565150357   -0.1667460653268764   -0.08766122675022538
-1.2898484565150357   -0.1667460653268764   -0.08766122675022538
-1.2898484565150357   -0.1667460653268764   -0.08766122675022538
-1.2898484565150357   -0.1667460653268764   -0.08766122675022538
-1.282354376190164   0.008066186775130879   0.15728733221644742
-1.282354376190164   0.008066186775130879   0.15728733221644742
-1.282354376190164   0.008066186775130879   0.15728733221644742
-1.282354376190164   0.008066186775130879   0.15728733221644742
-1.2215011751258786   -0.18789508997760246   -0.051658618796150496
-1.2215011751258786   -0.18789508997760246   -0.051658618796150496
-1.2215011751258786   -0.18789508997760246   -0.051658618796150496
-1.2215011751258786   -0.18789508997760246   -0.051658618796150496
-1.1924071049252583   -0.040093373496950246   -0.05215349297676357
-1.1924071049252583   -0.040093373496950246   -0.05215349297676357
-1.1924071049252583   -0.040093373496950246   -0.05215349297676357
-1.1924071049252583   -0.040093373496950246   -0.05215349297676357
-2.4086279228579066   -0.21957697086132205   -0.22421035886787688
-2.4086279228579066   -0.21957697086132205   -0.22421035886787688
-2.4086279228579066   -0.21957697086132205   -0.22421035886787688
-2.4086279228579066   -0.21957697086132205   -0.22421035886787688
-1.5212763121925106   0.13240163815321654   0.0530658450971203
-1.5212763121925106   0.13240163815321654   0.0530658450971203
-1.5212763121925106   0.13240163815321654   0.0530658450971203
-1.5212763121925106   0.13240163815321654   0.0530658450971203
-1.5967135099422178   -0.09879064293629308   -0.0993828763344842
-1.5967135099422178   -0.09879064293629308   -0.0993828763344842
-1.5967135099422178   -0.09879064293629308   -0.0993828763344842
-1.5967135099422178   -0.09879064293629308   -0.0993828763344842
-2.557273020347497   -0.284363696957362   0.2528007361379722
-2.557273020347497   -0.284363696957362   0.2528007361379722
-2.557273020347497   -0.284363696957362   0.2528007361379722
-2.557273020347497   -0.284363696957362   0.2528007361379722
-1.8587283543368593   -0.06948917749943923   0.24437704879615202
-1.8587283543368593   -0.06948917749943923   0.24437704879615202
-1.8587283543368593   -0.06948917749943923   0.24437704879615202
-1.8587283543368593   -0.06948917749943923   0.24437704879615202
-2.6481210274931595   -0.3219634754076014   -0.1638395211400839
-2.6481210274931595   -0.3219634754076014   -0.1638395211400839
-2.6481210274931595   -0.3219634754076014   -0.1638395211400839
-2.6481210274931595   -0.3219634754076014   -0.1638395211400839
-1.569659020750421   -0.12498438243991672   0.06208330912812289
-1.569659020750421   -0.12498438243991672   0.06208330912812289
-1.569659020750421   -0.12498438243991672   0.06208330912812289
-1.569659020750421   -0.12498438243991672   0.06208330912812289
-1.6199056304803463   -0.14397575623347172   -0.07088752302844145
-1.6199056304803463   -0.14397575623347172   -0.07088752302844145
-1.6199056304803463   -0.14397575623347172   -0.07088752302844145
-1.6199056304803463   -0.14397575623347172   -0.07088752302844145
-2.6367987466107854   -0.39783708484336733   0.0072499732483552945
-2.6367987466107854   -0.39783708484336733   0.0072499732483552945
-2.6367987466107854   -0.39783708484336733   0.0072499732483552945
-2.6367987466107854   -0.39783708484336733   0.0072499732483552945
-2.05531626390057   -0.24009407928471144   0.056110154209402935
-2.05531626390057   -0.24009407928471144   0.056110154209402935
-2.05531626390057   -0.24009407928471144   0.056110154209402935
-2.05531626390057   -0.24009407928471144   0.056110154209402935
-2.6576865242612486   -0.36363302529452113   -0.13139297455278628
-2.6576865242612486   -0.36363302529452113   -0.13139297455278628
-2.6576865242612486   -0.36363302529452113   -0.13139297455278628
-2.6576865242612486   -0.36363302529452113   -0.13139297455278628
-1.6184725926089154   -0.19763455556134849   -0.010063534343420562
-1.6184725926089154   -0.19763455556134849   -0.010063534343420562
-1.6184725926089154   -0.19763455556134849   -0.010063534343420562
-1.6184725926089154   -0.19763455556134849   -0.010063534343420562
-1.6197848331870768   -0.25391581766506865   -0.05133981713908509
-1.6197848331870768   -0.25391581766506865   -0.05133981713908509
-1.6197848331870768   -0.25391581766506865   -0.05133981713908509
-1.6197848331870768   -0.25391581766506865   -0.05133981713908509
-2.6976095516304777   -0.6084183840746629   0.04139438520432469
-2.6976095516304777   -0.6084183840746629   0.04139438520432469
-2.6976095516304777   -0.6084183840746629   0.04139438520432469
-2.6976095516304777   -0.6084183840746629   0.04139438520432469
-2.051619567279372   -0.33035210390977143   0.0037793570063761293
-2.051619567279372   -0.33035210390977143   0.0037793570063761293
-2.051619567279372   -0.33035210390977143   0.0037793570063761293
-2.051619567279372   -0.33035210390977143   0.0037793570063761293
-1.642902671169113   -0.278168109700048   -0.14449620193261384
-1.642902671169113   -0.278168109700048   -0.14449620193261384
-1.642902671169113   -0.278168109700048   -0.14449620193261384
-1.642902671169113   -0.278168109700048   -0.14449620193261384
-1.1235499298746476   -0.7202051993334746   -0.1353102990445024
-1.1235499298746476   -0.7202051993334746   -0.1353102990445024
-1.1235499298746476   -0.7202051993334746   -0.1353102990445024
-1.1235499298746476   -0.7202051993334746   -0.1353102990445024
-0.987215689937006   -0.16058947799711942   -0.008012692635784873
-0.987215689937006   -0.16058947799711942   -0.008012692635784873
-0.987215689937006   -0.16058947799711942   -0.008012692635784873
-0.987215689937006   -0.16058947799711942   -0.008012692635784873
-1.744411642748677   -0.7655188622152642   -0.1711453210878091
-1.744411642748677   -0.7655188622152642   -0.1711453210878091
-1.744411642748677   -0.7655188622152642   -0.1711453210878091
-1.744411642748677   -0.7655188622152642   -0.1711453210878091
-1.3584422179288604   -0.5109797245158728   -0.0394413966464552
-1.3584422179288604   -0.5109797245158728   -0.0394413966464552
-1.3584422179288604   -0.5109797245158728   -0.0394413966464552
-1.3584422179288604   -0.5109797245158728   -0.0394413966464552
-1.6411028532001373   -0.3114903493622185   -0.10862988619814896
-1.6411028532001373   -0.3114903493622185   -0.10862988619814896
-1.6411028532001373   -0.3114903493622185   -0.10862988619814896
-1.6411028532001373   -0.3114903493622185   -0.10862988619814896
-1.0972062399386304   -0.6212997513032513   -0.09725516933779112
-1.0972062399386304   -0.6212997513032513   -0.09725516933779112
-1.0972062399386304   -0.6212997513032513   -0.09725516933779112
-1.0972062399386304   -0.6212997513032513   -0.09725516933779112
-0.997226318967764   -0.20832643606966944   0.0021316058898644148
-0.997226318967764   -0.20832643606966944   0.0021316058898644148
-0.997226318967764   -0.20832643606966944   0.0021316058898644148
-0.997226318967764   -0.20832643606966944   0.0021316058898644148
-1.7494965456350169   -0.7616087797287205   -0.10120907530655704
-1.7494965456350169   -0.7616087797287205   -0.10120907530655704
-1.7494965456350169   -0.7616087797287205   -0.10120907530655704
-1.7494965456350169   -0.7616087797287205   -0.10120907530655704
-1.3425289049166809   -0.4789991412593828   -0.04188978620827748
-1.3425289049166809   -0.4789991412593828   -0.04188978620827748
-1.3425289049166809   -0.4789991412593828   -0.04188978620827748
-1.3425289049166809   -0.4789991412593828   -0.04188978620827748
-1.6648997441485003   -0.35854517650360496   -0.08128867109907703
-1.6648997441485003   -0.35854517650360496   -0.08128867109907703
-1.6648997441485003   -0.35854517650360496   -0.08128867109907703
-1.6648997441485003   -0.35854517650360496   -0.08128867109907703
-1.0955520245348662   -0.6251189433753686   -0.07270441463994726
-1.0955520245348662   -0.6251189433753686   -0.07270441463994726
-1.0955520245348662   -0.6251189433753686   -0.07270441463994726
-1.0955520245348662   -0.6251189433753686   -0.07270441463994726
-0.9954400699444184   -0.26807339582547407   0.016634393783473735
-0.9954400699444184   -0.26807339582547407   0.016634393783473735
-0.9954400699444184   -0.26807339582547407   0.016634393783473735
-0.9954400699444184   -0.26807339582547407   0.016634393783473735
-1.743856568935459   -0.7750007458746903   -0.15061356767139766
-1.743856568935459   -0.7750007458746903   -0.15061356767139766
-1.743856568935459   -0.7750007458746903   -0.15061356767139766
-1.743856568935459   -0.7750007458746903   -0.15061356767139766
-1.361421326425295   -0.5155025189366753   -0.07768097339050795
-1.361421326425295   -0.5155025189366753   -0.07768097339050795
-1.361421326425295   -0.5155025189366753   -0.07768097339050795
-1.361421326425295   -0.5155025189366753   -0.07768097339050795
-0.9906627797703265   -0.17874627737778856   -0.012333470478582433
-0.9906627797703265   -0.17874627737778856   -0.012333470478582433
-0.9906627797703265   -0.17874627737778856   -0.012333470478582433
-0.9906627797703265   -0.17874627737778856   -0.012333470478582433
-0.8254779478833205   -0.5498945647414129   -0.09494128712023794
-0.8254779478833205   -0.5498945647414129   -0.09494128712023794
-0.8254779478833205   -0.5498945647414129   -0.09494128712023794
-0.8254779478833205   -0.5498945647414129   -0.09494128712023794
-0.7111244736426227   -0.1474512559902537   0.038361481947597836
-0.7111244736426227   -0.1474512559902537   0.038361481947597836
-0.7111244736426227   -0.1474512559902537   0.038361481947597836
-0.7111244736426227   -0.1474512559902537   0.038361481947597836
-1.0943899291472894   -0.5991967563766676   -0.10527661030766992
-1.0943899291472894   -0.5991967563766676   -0.10527661030766992
-1.0943899291472894   -0.5991967563766676   -0.10527661030766992
-1.0943899291472894   -0.5991967563766676   -0.10527661030766992
-0.9013495636795247   -0.37417063720639115   -0.04390481239469103
-0.9013495636795247   -0.37417063720639115   -0.04390481239469103
-0.9013495636795247   -0.37417063720639115   -0.04390481239469103
-0.9013495636795247   -0.37417063720639115   -0.04390481239469103
-0.9954548677765516   -0.21162436931057385   0.0018263094799259296
-0.9954548677765516   -0.21162436931057385   0.0018263094799259296
-0.9954548677765516   -0.21162436931057385   0.0018263094799259296
-0.9954548677765516   -0.21162436931057385   0.0018263094799259296
-0.81593919667684   -0.5409033047198267   -0.09226008449391566
-0.81593919667684   -0.5409033047198267   -0.09226008449391566
-0.81593919667684   -0.5409033047198267   -0.09226008449391566
-0.81593919667684   -0.5409033047198267   -0.09226008449391566
-0.7101994226060654   -0.1866449339034372   0.04962893289352194
-0.7101994226060654   -0.1866449339034372   0.04962893289352194
-0.7101994226060654   -0.1866449339034372   0.04962893289352194
-0.7101994226060654   -0.1866449339034372   0.04962893289352194
-1.096655664558161   -0.6087137117756195   -0.09462784635617115
-1.096655664558161   -0.6087137117756195   -0.09462784635617115
-1.096655664558161   -0.6087137117756195   -0.09462784635617115
-1.096655664558161   -0.6087137117756195   -0.09462784635617115
-0.8987323184307227   -0.38907119194906314   -0.056944865287727915
-0.8987323184307227   -0.38907119194906314   -0.056944865287727915
-0.8987323184307227   -0.38907119194906314   -0.056944865287727915
-0.8987323184307227   -0.38907119194906314   -0.056944865287727915
-1.0025397668751912   -0.25132600273279576   0.018563933015854878
-1.0025397668751912   -0.25132600273279576   0.018563933015854878
-1.0025397668751912   -0.25132600273279576   0.018563933015854878
-1.0025397668751912   -0.25132600273279576   0.018563933015854878
-0.8075312044835062   -0.5472485271407268   -0.07642638325636235
-0.8075312044835062   -0.5472485271407268   -0.07642638325636235
-0.8075312044835062   -0.5472485271407268   -0.07642638325636235
-0.8075312044835062   -0.5472485271407268   -0.07642638325636235
-0.7005026408959034   -0.22421612916958447   0.06185720835738786
-0.7005026408959034   -0.22421612916958447   0.06185720835738786
-0.7005026408959034   -0.22421612916958447   0.06185720835738786
-0.7005026408959034   -0.22421612916958447   0.06185720835738786
-1.0821831447051455   -0.616789604872255   -0.0683647709733807
-1.0821831447051455   -0.616789604872255   -0.0683647709733807
-1.0821831447051455   -0.616789604872255   -0.0683647709733807
-1.0821831447051455   -0.616789604872255   -0.0683647709733807
-0.8947280177992047   -0.4085070885204072   -0.0658197760257287
-0.8947280177992047   -0.4085070885204072   -0.0658197760257287
-0.8947280177992047   -0.4085070885204072   -0.0658197760257287
-0.8947280177992047   -0.4085070885204072   -0.0658197760257287
-0.688049915288841   -0.025135278088048732   0.06743958919879557
-0.688049915288841   -0.025135278088048732   0.06743958919879557
-0.688049915288841   -0.025135278088048732   0.06743958919879557
-0.688049915288841   -0.025135278088048732   0.06743958919879557
-0.645028367676914   -0.2899512594415457   -0.05632445351564513
-0.645028367676914   -0.2899512594415457   -0.05632445351564513
-0.645028367676914   -0.2899512594415457   -0.05632445351564513
-0.645028367676914   -0.2899512594415457   -0.05632445351564513
-0.5550323310158765   -0.04206445809810936   0.07828704303916101
-0.5550323310158765   -0.04206445809810936   0.07828704303916101
-0.5550323310158765   -0.04206445809810936   0.07828704303916101
-0.5550323310158765   -0.04206445809810936   0.07828704303916101
-0.7646403047508987   -0.33656173669880396   -0.04010719288523239
-0.7646403047508987   -0.33656173669880396   -0.04010719288523239
-0.7646403047508987   -0.33656173669880396   -0.04010719288523239
-0.7646403047508987   -0.33656173669880396   -0.04010719288523239
-0.6654460759719673   -0.17191746891862789   -0.023752272039278592
-0.6654460759719673   -0.17191746891862789   -0.023752272039278592
-0.6654460759719673   -0.17191746891862789   -0.023752272039278592
-0.6654460759719673   -0.17191746891862789   -0.023752272039278592
-0.687484353234364   -0.06865842129159291   0.07776924929023069
-0.687484353234364   -0.06865842129159291   0.07776924929023069
-0.687484353234364   -0.06865842129159291   0.07776924929023069
-0.687484353234364   -0.06865842129159291   0.07776924929023069
-0.6383834237202375   -0.3161629146931466   -0.06436996388760698
-0.6383834237202375   -0.3161629146931466   -0.06436996388760698
-0.6383834237202375   -0.3161629146931466   -0.06436996388760698
-0.6383834237202375   -0.3161629146931466   -0.06436996388760698
-0.5547147988148533   -0.07993133157047029   0.0840714014746747
-0.5547147988148533   -0.07993133157047029   0.0840714014746747
-0.5547147988148533   -0.07993133157047029   0.0840714014746747
-0.5547147988148533   -0.07993133157047029   0.0840714014746747
-0.7631812357679434   -0.35699769620927835   -0.04492737061002688
-0.7631812357679434   -0.35699769620927835   -0.04492737061002688
-0.7631812357679434   -0.35699769620927835   -0.04492737061002688
-0.7631812357679434   -0.35699769620927835   -0.04492737061002688
-0.6614941609796496   -0.20242610705754813   -0.040214870806686474
-0.6614941609796496   -0.20242610705754813   -0.040214870806686474
-0.6614941609796496   -0.20242610705754813   -0.040214870806686474
-0.6614941609796496   -0.20242610705754813   -0.040214870806686474
-0.6861629387078552   -0.105334963456482   0.088501381937618
-0.6861629387078552   -0.105334963456482   0.088501381937618
-0.6861629387078552   -0.105334963456482   0.088501381937618
-0.6861629387078552   -0.105334963456482   0.088501381937618
-0.6354795118906663   -0.33534048033899133   -0.06434301513586882
-0.6354795118906663   -0.33534048033899133   -0.06434301513586882
-0.6354795118906663   -0.33534048033899133   -0.06434301513586882
-0.6354795118906663   -0.33534048033899133   -0.06434301513586882
-0.5487497385769824   -0.11544827198680158   0.09738103211178892
-0.5487497385769824   -0.11544827198680158   0.09738103211178892
-0.5487497385769824   -0.11544827198680158   0.09738103211178892
-0.5487497385769824   -0.11544827198680158   0.09738103211178892
-0.7497193919735431   -0.37752363406180844   -0.030919042138586726
-0.7497193919735431   -0.37752363406180844   -0.030919042138586726
-0.7497193919735431   -0.37752363406180844   -0.030919042138586726
-0.7497193919735431   -0.37752363406180844   -0.030919042138586726
-0.6582140631969885   -0.22846984549144816   -0.05151114776523895
-0.6582140631969885   -0.22846984549144816   -0.05151114776523895
-0.6582140631969885   -0.22846984549144816   -0.05151114776523895
-0.6582140631969885   -0.22846984549144816   -0.05151114776523895
-0.539814762828179   0.07504071915846855   0.1047515921280161
-0.539814762828179   0.07504071915846855   0.1047515921280161
-0.539814762828179   0.07504071915846855   0.1047515921280161
-0.539814762828179   0.07504071915846855   0.1047515921280161
-0.35110445179266914   -0.09451421242230915   -0.034269566834423344
-0.35110445179266914   -0.09451421242230915   -0.034269566834423344
-0.35110445179266914   -0.09451421242230915   -0.034269566834423344
-0.35110445179266914   -0.09451421242230915   -0.034269566834423344
-0.3043540435800495   0.08963684924525585   0.1032950601531446
-0.3043540435800495   0.08963684924525585   0.1032950601531446
-0.3043540435800495   0.08963684924525585   0.1032950601531446
-0.3043540435800495   0.08963684924525585   0.1032950601531446
-0.595128314202742   -0.1465859500506459   -0.01767138094263078
-0.595128314202742   -0.1465859500506459   -0.01767138094263078
-0.595128314202742   -0.1465859500506459   -0.01767138094263078
-0.595128314202742   -0.1465859500506459   -0.01767138094263078
-0.4417671330033842   -0.009090875459606532   -0.019356842669595163
-0.4417671330033842   -0.009090875459606532   -0.019356842669595163
-0.4417671330033842   -0.009090875459606532   -0.019356842669595163
-0.4417671330033842   -0.009090875459606532   -0.019356842669595163
-0.5300716995927662   0.04669954535284697   0.11432619670375557
-0.5300716995927662   0.04669954535284697   0.11432619670375557
-0.5300716995927662   0.04669954535284697   0.11432619670375557
-0.5300716995927662   0.04669954535284697   0.11432619670375557
-0.36996215442687624   -0.10420014239507763   -0.030908502440655322
-0.36996215442687624   -0.10420014239507763   -0.030908502440655322
-0.36996215442687624   -0.10420014239507763   -0.030908502440655322
-0.36996215442687624   -0.10420014239507763   -0.030908502440655322
-0.3169555479282483   0.07136964284195055   0.13002440550706065
-0.3169555479282483   0.07136964284195055   0.13002440550706065
-0.3169555479282483   0.07136964284195055   0.13002440550706065
-0.3169555479282483   0.07136964284195055   0.13002440550706065
-0.5912973435257466   -0.1558770739501512   -0.022895579700110462
-0.5912973435257466   -0.1558770739501512   -0.022895579700110462
-0.5912973435257466   -0.1558770739501512   -0.022895579700110462
-0.5912973435257466   -0.1558770739501512   -0.022895579700110462
-0.4537519943845053   -0.029070670045202557   -0.026742467089276224
-0.4537519943845053   -0.029070670045202557   -0.026742467089276224
-0.4537519943845053   -0.029070670045202557   -0.026742467089276224
-0.4537519943845053   -0.029070670045202557   -0.026742467089276224
-0.5231096515644598   0.030472585203765196   0.13169322095240676
-0.5231096515644598   0.030472585203765196   0.13169322095240676
-0.5231096515644598   0.030472585203765196   0.13169322095240676
-0.5231096515644598   0.030472585203765196   0.13169322095240676
-0.3898103018389902   -0.11964707826143126   -0.043232642943266945
-0.3898103018389902   -0.11964707826143126   -0.043232642943266945
-0.3898103018389902   -0.11964707826143126   -0.043232642943266945
-0.3898103018389902   -0.11964707826143126   -0.043232642943266945
-0.36305060837051667   0.02118360241824037   0.1352842764277018
-0.36305060837051667   0.02118360241824037   0.1352842764277018
-0.36305060837051667   0.02118360241824037   0.1352842764277018
-0.36305060837051667   0.02118360241824037   0.1352842764277018
-0.5817704624105369   -0.1638647915589501   -0.01930606748383506
-0.5817704624105369   -0.1638647915589501   -0.01930606748383506
-0.5817704624105369   -0.1638647915589501   -0.01930606748383506
-0.5817704624105369   -0.1638647915589501   -0.01930606748383506
-0.45910140577109726   -0.04332960847891866   -0.03906484856235097
-0.45910140577109726   -0.04332960847891866   -0.03906484856235097
-0.45910140577109726   -0.04332960847891866   -0.03906484856235097
-0.45910140577109726   -0.04332960847891866   -0.03906484856235097
-5.642974530752195   -0.7958797290504548   -0.466642772361583
-5.642974530752195   -0.7958797290504548   -0.466642772361583
-5.642974530752195   -0.7958797290504548   -0.466642772361583
-5.642974530752195   -0.7958797290504548   -0.466642772361583
-1.9532538507701844   -3.034016260553907   -0.3660240155856269
-1.9532538507701844   -3.034016260553907   -0.3660240155856269
-1.9532538507701844   -3.034016260553907   -0.3660240155856269
-1.9532538507701844   -3.034016260553907   -0.3660240155856269
-1.515016573338749   -0.12594277264141118   0.002648910708947405
-1.515016573338749   -0.12594277264141118   0.002648910708947405
-1.515016573338749   -0.12594277264141118   0.002648910708947405
-1.515016573338749   -0.12594277264141118   0.002648910708947405
-6.014692454959315   -3.5745093786861117   -1.9178403667290853
-6.014692454959315   -3.5745093786861117   -1.9178403667290853
-6.014692454959315   -3.5745093786861117   -1.9178403667290853
-6.014692454959315   -3.5745093786861117   -1.9178403667290853
-3.6871657020084143   -1.7794160503578673   -0.2591388307136191
-3.6871657020084143   -1.7794160503578673   -0.2591388307136191
-3.6871657020084143   -1.7794160503578673   -0.2591388307136191
-3.6871657020084143   -1.7794160503578673   -0.2591388307136191
-5.242828367800369   -0.9988673129996899   -0.6341619966208252
-5.242828367800369   -0.9988673129996899   -0.6341619966208252
-5.242828367800369   -0.9988673129996899   -0.6341619966208252
-5.242828367800369   -0.9988673129996899   -0.6341619966208252
-2.107714144051773   -2.5224183218819163   -0.5643633936156508
-2.107714144051773   -2.5224183218819163   -0.5643633936156508
-2.107714144051773   -2.5224183218819163   -0.5643633936156508
-2.107714144051773   -2.5224183218819163   -0.5643633936156508
-1.544148197867824   -0.1690838538603279   0.058365579420560455
-1.544148197867824   -0.1690838538603279   0.058365579420560455
-1.544148197867824   -0.1690838538603279   0.058365579420560455
-1.544148197867824   -0.1690838538603279   0.058365579420560455
-5.627432508662621   -3.1841490357317217   -1.7623163088788685
-5.627432508662621   -3.1841490357317217   -1.7623163088788685
-5.627432508662621   -3.1841490357317217   -1.7623163088788685
-5.627432508662621   -3.1841490357317217   -1.7623163088788685
-3.4720504090692383   -1.6031287685636437   0.14164141383570772
-3.4720504090692383   -1.6031287685636437   0.14164141383570772
-3.4720504090692383   -1.6031287685636437   0.14164141383570772
-3.4720504090692383   -1.6031287685636437   0.14164141383570772
-4.9227458657743055   -0.950902441132956   -0.47212968903609837
-4.9227458657743055   -0.950902441132956   -0.47212968903609837
-4.9227458657743055   -0.950902441132956   -0.47212968903609837
-4.9227458657743055   -0.950902441132956   -0.47212968903609837
-2.0498975736905103   -2.2033931813934693   -0.43607197215971816
-2.0498975736905103   -2.2033931813934693   -0.43607197215971816
-2.0498975736905103   -2.2033931813934693   -0.43607197215971816
-2.0498975736905103   -2.2033931813934693   -0.43607197215971816
-1.7711125488394623   -0.44959456609664256   -0.09098352769658859
-1.7711125488394623   -0.44959456609664256   -0.09098352769658859
-1.7711125488394623   -0.44959456609664256   -0.09098352769658859
-1.7711125488394623   -0.44959456609664256   -0.09098352769658859
-5.1284075925766155   -2.6704267271826474   -1.5597668639518525
-5.1284075925766155   -2.6704267271826474   -1.5597668639518525
-5.1284075925766155   -2.6704267271826474   -1.5597668639518525
-5.1284075925766155   -2.6704267271826474   -1.5597668639518525
-3.215271145724592   -1.3887867764355413   0.5939527456483777
-3.215271145724592   -1.3887867764355413   0.5939527456483777
-3.215271145724592   -1.3887867764355413   0.5939527456483777
-3.215271145724592   -1.3887867764355413   0.5939527456483777
-1.4529376543927128   -0.7822604527321873   -0.11619884152000057
-1.4529376543927128   -0.7822604527321873   -0.11619884152000057
-1.4529376543927128   -0.7822604527321873   -0.11619884152000057
-1.4529376543927128   -0.7822604527321873   -0.11619884152000057
-0.6673115995057526   -0.9454866115897678   -0.16466892376135517
-0.6673115995057526   -0.9454866115897678   -0.16466892376135517
-0.6673115995057526   -0.9454866115897678   -0.16466892376135517
-0.6673115995057526   -0.9454866115897678   -0.16466892376135517
-0.5913897759854377   -0.497555073255258   0.015651756948982534
-0.5913897759854377   -0.497555073255258   0.015651756948982534
-0.5913897759854377   -0.497555073255258   0.015651756948982534
-0.5913897759854377   -0.497555073255258   0.015651756948982534
-1.769533023325755   -1.394499594901265   -0.0013765169662127708
-1.769533023325755   -1.394499594901265   -0.0013765169662127708
-1.769533023325755   -1.394499594901265   -0.0013765169662127708
-1.769533023325755   -1.394499594901265   -0.0013765169662127708
-0.9525012985080537   -0.6774954406951841   0.30360209658523984
-0.9525012985080537   -0.6774954406951841   0.30360209658523984
-0.9525012985080537   -0.6774954406951841   0.30360209658523984
-0.9525012985080537   -0.6774954406951841   0.30360209658523984
-1.650785189858555   -0.7274932469383146   -0.07464369759318308
-1.650785189858555   -0.7274932469383146   -0.07464369759318308
-1.650785189858555   -0.7274932469383146   -0.07464369759318308
-1.650785189858555   -0.7274932469383146   -0.07464369759318308
-0.7595883281900353   -1.214012139955607   -0.10888393737364133
-0.7595883281900353   -1.214012139955607   -0.10888393737364133
-0.7595883281900353   -1.214012139955607   -0.10888393737364133
-0.7595883281900353   -1.214012139955607   -0.10888393737364133
-0.6374268036577342   -0.5157925860793177   0.015802150963174805
-0.6374268036577342   -0.5157925860793177   0.015802150963174805
-0.6374268036577342   -0.5157925860793177   0.015802150963174805
-0.6374268036577342   -0.5157925860793177   0.015802150963174805
-1.8538087127193306   -1.3749351714370928   -0.28408567726019723
-1.8538087127193306   -1.3749351714370928   -0.28408567726019723
-1.8538087127193306   -1.3749351714370928   -0.28408567726019723
-1.8538087127193306   -1.3749351714370928   -0.28408567726019723
-1.1331929666646186   -0.8706375630850594   0.13982404474863508
-1.1331929666646186   -0.8706375630850594   0.13982404474863508
-1.1331929666646186   -0.8706375630850594   0.13982404474863508
-1.1331929666646186   -0.8706375630850594   0.13982404474863508
-1.701757758935904   -0.7596436860696837   -0.13912239371048518
-1.701757758935904   -0.7596436860696837   -0.13912239371048518
-1.701757758935904   -0.7596436860696837   -0.13912239371048518
-1.701757758935904   -0.7596436860696837   -0.13912239371048518
-0.7847960542263526   -1.1264023682319206   -0.11043431972731407
-0.7847960542263526   -1.1264023682319206   -0.11043431972731407
-0.7847960542263526   -1.1264023682319206   -0.11043431972731407
-0.7847960542263526   -1.1264023682319206   -0.11043431972731407
-0.7079963643601205   -0.5330623856368062   0.023218028942714866
-0.7079963643601205   -0.5330623856368062   0.023218028942714866
-0.7079963643601205   -0.5330623856368062   0.023218028942714866
-0.7079963643601205   -0.5330623856368062   0.023218028942714866
-1.9795994720590648   -1.3347324952804178   -0.248280214610818
-1.9795994720590648   -1.3347324952804178   -0.248280214610818
-1.9795994720590648   -1.3347324952804178   -0.248280214610818
-1.9795994720590648   -1.3347324952804178   -0.248280214610818
-1.183858650193818   -0.8202817962570487   0.14818912719504795
-1.183858650193818   -0.8202817962570487   0.14818912719504795
-1.183858650193818   -0.8202817962570487   0.14818912719504795
-1.183858650193818   -0.8202817962570487   0.14818912719504795
-0.5315255446349108   -0.4653007323892243   0.03407547139229508
-0.5315255446349108   -0.4653007323892243   0.03407547139229508
-0.5315255446349108   -0.4653007323892243   0.03407547139229508
-0.5315255446349108   -0.4653007323892243   0.03407547139229508
-0.3209280184721123   -0.28787284182562445   -0.08003475621052356
-0.3209280184721123   -0.28787284182562445   -0.08003475621052356
-0.3209280184721123   -0.28787284182562445   -0.08003475621052356
-0.3209280184721123   -0.28787284182562445   -0.08003475621052356
-0.31253523118238413   -0.4148388134255273   0.03465840648312586
-0.31253523118238413   -0.4148388134255273   0.03465840648312586
-0.31253523118238413   -0.4148388134255273   0.03465840648312586
-0.31253523118238413   -0.4148388134255273   0.03465840648312586
-0.582574809975038   -0.39933686893083586   -0.03849161732342557
-0.582574809975038   -0.39933686893083586   -0.03849161732342557
-0.582574809975038   -0.39933686893083586   -0.03849161732342557
-0.582574809975038   -0.39933686893083586   -0.03849161732342557
-0.3694200004328513   -0.33093040419207553   0.1519367930943932
-0.3694200004328513   -0.33093040419207553   0.1519367930943932
-0.3694200004328513   -0.33093040419207553   0.1519367930943932
-0.3694200004328513   -0.33093040419207553   0.1519367930943932
-0.5813482973532835   -0.4682269104878611   0.03653098734235631
-0.5813482973532835   -0.4682269104878611   0.03653098734235631
-0.5813482973532835   -0.4682269104878611   0.03653098734235631
-0.5813482973532835   -0.4682269104878611   0.03653098734235631
-0.3185391476235031   -0.35072617568786923   -0.0594738134601273
-0.3185391476235031   -0.35072617568786923   -0.0594738134601273
-0.3185391476235031   -0.35072617568786923   -0.0594738134601273
-0.3185391476235031   -0.35072617568786923   -0.0594738134601273
-0.31498997565588877   -0.4273259589511278   0.03064522886401473
-0.31498997565588877   -0.4273259589511278   0.03064522886401473
-0.31498997565588877   -0.4273259589511278   0.03064522886401473
-0.31498997565588877   -0.4273259589511278   0.03064522886401473
-0.6169904683455162   -0.4668723509511973   0.06906359239614489
-0.6169904683455162   -0.4668723509511973   0.06906359239614489
-0.6169904683455162   -0.4668723509511973   0.06906359239614489
-0.6169904683455162   -0.4668723509511973   0.06906359239614489
-0.399942594893383   -0.36838649268669976   0.12974172962849972
-0.399942594893383   -0.36838649268669976   0.12974172962849972
-0.399942594893383   -0.36838649268669976   0.12974172962849972
-0.399942594893383   -0.36838649268669976   0.12974172962849972
-0.6246505825524049   -0.48550749335094184   0.049398163761430344
-0.6246505825524049   -0.48550749335094184   0.049398163761430344
-0.6246505825524049   -0.48550749335094184   0.049398163761430344
-0.6246505825524049   -0.48550749335094184   0.049398163761430344
-0.33375070136021945   -0.4351116564626002   -0.05537270214616645
-0.33375070136021945   -0.4351116564626002   -0.05537270214616645
-0.33375070136021945   -0.4351116564626002   -0.05537270214616645
-0.33375070136021945   -0.4351116564626002   -0.05537270214616645
-0.3166980731267708   -0.44143921528466445   0.042902105386197015
-0.3166980731267708   -0.44143921528466445   0.042902105386197015
-0.3166980731267708   -0.44143921528466445   0.042902105386197015
-0.3166980731267708   -0.44143921528466445   0.042902105386197015
-0.7188512902033758   -0.576795077195041   0.012676091284657673
-0.7188512902033758   -0.576795077195041   0.012676091284657673
-0.7188512902033758   -0.576795077195041   0.012676091284657673
-0.7188512902033758   -0.576795077195041   0.012676091284657673
-0.4447131125279522   -0.4208188011540751   0.06274365256790723
-0.4447131125279522   -0.4208188011540751   0.06274365256790723
-0.4447131125279522   -0.4208188011540751   0.06274365256790723
-0.4447131125279522   -0.4208188011540751   0.06274365256790723
-0.26637040979384896   -0.18498224007564162   0.08986268543081022
-0.26637040979384896   -0.18498224007564162   0.08986268543081022
-0.26637040979384896   -0.18498224007564162   0.08986268543081022
-0.26637040979384896   -0.18498224007564162   0.08986268543081022
-0.1834806935591793   0.006888517274085841   -0.017758005175609843
-0.1834806935591793   0.006888517274085841   -0.017758005175609843
-0.1834806935591793   0.006888517274085841   -0.017758005175609843
-0.1834806935591793   0.006888517274085841   -0.017758005175609843
-0.17436112391264535   -0.19929647138437837   0.05593995284864209
-0.17436112391264535   -0.19929647138437837   0.05593995284864209
-0.17436112391264535   -0.19929647138437837   0.05593995284864209
-0.17436112391264535   -0.19929647138437837   0.05593995284864209
-0.2445623200571405   -0.027607335961482432   -0.0127085153547007
-0.2445623200571405   -0.027607335961482432   -0.0127085153547007
-0.2445623200571405   -0.027607335961482432   -0.0127085153547007
-0.2445623200571405   -0.027607335961482432   -0.0127085153547007
-0.20100423074545146   -0.09816124051401871   0.04459216356571717
-0.20100423074545146   -0.09816124051401871   0.04459216356571717
-0.20100423074545146   -0.09816124051401871   0.04459216356571717
-0.20100423074545146   -0.09816124051401871   0.04459216356571717
-0.2618056723782709   -0.2110665785263325   0.08453396560449701
-0.2618056723782709   -0.2110665785263325   0.08453396560449701
-0.2618056723782709   -0.2110665785263325   0.08453396560449701
-0.2618056723782709   -0.2110665785263325   0.08453396560449701
-0.15233136013586637   -0.011050817363879799   -0.02215688228796162
-0.15233136013586637   -0.011050817363879799   -0.02215688228796162
-0.15233136013586637   -0.011050817363879799   -0.02215688228796162
-0.15233136013586637   -0.011050817363879799   -0.02215688228796162
-0.15880163832319166   -0.21685469517941294   0.05140803709454856
-0.15880163832319166   -0.21685469517941294   0.05140803709454856
-0.15880163832319166   -0.21685469517941294   0.05140803709454856
-0.15880163832319166   -0.21685469517941294   0.05140803709454856
-0.24508852066500464   -0.06044583516819908   0.013272380035506527
-0.24508852066500464   -0.06044583516819908   0.013272380035506527
-0.24508852066500464   -0.06044583516819908   0.013272380035506527
-0.24508852066500464   -0.06044583516819908   0.013272380035506527
-0.18319535571723386   -0.11225226134718283   0.053951275024895246
-0.18319535571723386   -0.11225226134718283   0.053951275024895246
-0.18319535571723386   -0.11225226134718283   0.053951275024895246
-0.18319535571723386   -0.11225226134718283   0.053951275024895246
-0.26207270289418805   -0.228507823973534   0.09641345769493967
-0.26207270289418805   -0.228507823973534   0.09641345769493967
-0.26207270289418805   -0.228507823973534   0.09641345769493967
-0.26207270289418805   -0.228507823973534   0.09641345769493967
-0.142955211501336   -0.04993046178140326   -0.03628406219418295
-0.142955211501336   -0.04993046178140326   -0.03628406219418295
-0.142955211501336   -0.04993046178140326   -0.03628406219418295
-0.142955211501336   -0.04993046178140326   -0.03628406219418295
-0.13100042930293948   -0.2363248475104953   0.05635592794737538
-0.13100042930293948   -0.2363248475104953   0.05635592794737538
-0.13100042930293948   -0.2363248475104953   0.05635592794737538
-0.13100042930293948   -0.2363248475104953   0.05635592794737538
-0.2618922171733039   -0.1421076300957248   0.017599799964591836
-0.2618922171733039   -0.1421076300957248   0.017599799964591836
-0.2618922171733039   -0.1421076300957248   0.017599799964591836
-0.2618922171733039   -0.1421076300957248   0.017599799964591836
-0.17466838935673326   -0.14216230928298154   0.047626698976651886
-0.17466838935673326   -0.14216230928298154   0.047626698976651886
-0.17466838935673326   -0.14216230928298154   0.047626698976651886
-0.17466838935673326   -0.14216230928298154   0.047626698976651886
-0.16999864464009495   -0.03344248857177507   0.08998324526567282
-0.16999864464009495   -0.03344248857177507   0.08998324526567282
-0.16999864464009495   -0.03344248857177507   0.08998324526567282
-0.16999864464009495   -0.03344248857177507   0.08998324526567282
-0.02735310209664872   0.021135742362170244   -0.0018147755117442375
-0.02735310209664872   0.021135742362170244   -0.0018147755117442375
-0.02735310209664872   0.021135742362170244   -0.0018147755117442375
-0.02735310209664872   0.021135742362170244   -0.0018147755117442375
0.01284123796572973   -0.010388834070924856   0.055344646787533286
0.01284123796572973   -0.010388834070924856   0.055344646787533286
0.01284123796572973   -0.010388834070924856   0.055344646787533286
0.01284123796572973   -0.010388834070924856   0.055344646787533286
-0.1439284840579542   0.016693289556584535   -0.007886608818865083
-0.1439284840579542   0.016693289556584535   -0.007886608818865083
-0.1439284840579542   0.016693289556584535   -0.007886608818865083
-0.1439284840579542   0.016693289556584535   -0.007886608818865083
-0.08364524763953993   -0.006010838974712105   -0.007247010807640841
-0.08364524763953993   -0.006010838974712105   -0.007247010807640841
-0.08364524763953993   -0.006010838974712105   -0.007247010807640841
-0.08364524763953993   -0.006010838974712105   -0.007247010807640841
-0.1334016633468038   -0.032015155693531534   0.09345593998700277
-0.1334016633468038   -0.032015155693531534   0.09345593998700277
-0.1334016633468038   -0.032015155693531534   0.09345593998700277
-0.1334016633468038   -0.032015155693531534   0.09345593998700277
0.007453251966147695   0.04345844589076465   -0.0254425631720664
0.007453251966147695   0.04345844589076465   -0.0254425631720664
0.007453251966147695   0.04345844589076465   -0.0254425631720664
0.007453251966147695   0.04345844589076465   -0.0254425631720664
0.03377100981833203   -0.012654849545665887   0.0681471889782683
0.03377100981833203   -0.012654849545665887   0.0681471889782683
0.03377100981833203   -0.012654849545665887   0.0681471889782683
0.03377100981833203   -0.012654849545665887   0.0681471889782683
-0.1252655651153115   0.013972723138009208   -0.011739015183472847
-0.1252655651153115   0.013972723138009208   -0.011739015183472847
-0.1252655651153115   0.013972723138009208   -0.011739015183472847
-0.1252655651153115   0.013972723138009208   -0.011739015183472847
-0.05318236057920564   -0.0007729207854394946   0.009143052723100457
-0.05318236057920564   -0.0007729207854394946   0.009143052723100457
-0.05318236057920564   -0.0007729207854394946   0.009143052723100457
-0.05318236057920564   -0.0007729207854394946   0.009143052723100457
-0.1127963146721646   -0.03556813350446547   0.10014809367473633
-0.1127963146721646   -0.03556813350446547   0.10014809367473633
-0.1127963146721646   -0.03556813350446547   0.10014809367473633
-0.1127963146721646   -0.03556813350446547   0.10014809367473633
0.026039329557901794   0.04162357727953057   -0.02478963914907934
0.026039329557901794   0.04162357727953057   -0.02478963914907934
0.026039329557901794   0.04162357727953057   -0.02478963914907934
0.026039329557901794   0.04162357727953057   -0.02478963914907934
0.05571778908209358   -0.019318176651051854   0.0659387555630257
0.05571778908209358   -0.019318176651051854   0.0659387555630257
0.05571778908209358   -0.019318176651051854   0.0659387555630257
0.05571778908209358   -0.019318176651051854   0.0659387555630257
-0.09449484246295276   0.015970758889199438   -0.013411744252385765
-0.09449484246295276   0.015970758889199438   -0.013411744252385765
-0.09449484246295276   0.015970758889199438   -0.013411744252385765
-0.09449484246295276   0.015970758889199438   -0.013411744252385765
-0.02574505365053232   0.0028704516524744495   0.02388681492530483
-0.02574505365053232   0.0028704516524744495   0.02388681492530483
-0.02574505365053232   0.0028704516524744495   0.02388681492530483
-0.02574505365053232   0.0028704516524744495   0.02388681492530483
              </DataArray>   
             <DataArray type="Float64" NumberOfComponents="3" Name="Displacements" format="ascii">   
0.0   0.0   0.0
-0.015671206232806996   -0.01025471392773429   -0.00524801124609877
0.0   0.0   0.0
0.0   0.0   0.0
-0.015671206232806996   -0.01025471392773429   -0.00524801124609877
-0.009974892029708865   -0.00921065804120288   -0.003855428153133177
0.0   0.0   0.0
-0.009779724951995559   -0.009674432801655765   -0.0032293857299128684
0.0   0.0   0.0
0.0   0.0   0.0
-0.009779724951995559   -0.009674432801655765   -0.0032293857299128684
0.0   0.0   0.0
0.0   0.0   0.0
-0.009779724951995559   -0.009674432801655765   -0.0032293857299128684
-0.016403260808179564   -0.010926201090562337   -0.004212459514366689
-0.015671206232806996   -0.01025471392773429   -0.00524801124609877
0.0   0.0   0.0
-0.009779724951995559   -0.009674432801655765   -0.0032293857299128684
-0.015671206232806996   -0.01025471392773429   -0.00524801124609877
0.0   0.0   0.0
0.0   0.0   0.0
-0.016403260808179564   -0.010926201090562337   -0.004212459514366689
0.0   0.0   0.0
0.0   0.0   0.0
-0.016403260808179564   -0.010926201090562337   -0.004212459514366689
-0.009779724951995559   -0.009674432801655765   -0.0032293857299128684
0.0   0.0   0.0
-0.009809580628290356   -0.009911841299235427   -0.002603985724777732
0.0   0.0   0.0
0.0   0.0   0.0
-0.009809580628290356   -0.009911841299235427   -0.002603985724777732
0.0   0.0   0.0
0.0   0.0   0.0
-0.009809580628290356   -0.009911841299235427   -0.002603985724777732
-0.016918420026600902   -0.011252608535651664   -0.003219747645362372
-0.016403260808179564   -0.010926201090562337   -0.004212459514366689
0.0   0.0   0.0
-0.009809580628290356   -0.009911841299235427   -0.002603985724777732
-0.016403260808179564   -0.010926201090562337   -0.004212459514366689
0.0   0.0   0.0
0.0   0.0   0.0
-0.016918420026600902   -0.011252608535651664   -0.003219747645362372
0.0   0.0   0.0
0.0   0.0   0.0
-0.016918420026600902   -0.011252608535651664   -0.003219747645362372
-0.009809580628290356   -0.009911841299235427   -0.002603985724777732
0.0   0.0   0.0
-0.009806989193256182   -0.00997248705184232   -0.0019569904050474756
0.0   0.0   0.0
0.0   0.0   0.0
-0.009806989193256182   -0.00997248705184232   -0.0019569904050474756
0.0   0.0   0.0
0.0   0.0   0.0
-0.009806989193256182   -0.00997248705184232   -0.0019569904050474756
-0.01802595709628576   -0.011498915757211193   -0.0020677403504907677
-0.016918420026600902   -0.011252608535651664   -0.003219747645362372
0.0   0.0   0.0
-0.009806989193256182   -0.00997248705184232   -0.0019569904050474756
-0.016918420026600902   -0.011252608535651664   -0.003219747645362372
0.0   0.0   0.0
0.0   0.0   0.0
-0.009974892029708865   -0.00921065804120288   -0.003855428153133177
0.0   0.0   0.0
0.0   0.0   0.0
-0.009974892029708865   -0.00921065804120288   -0.003855428153133177
-0.004539988758413402   -0.008827273552521915   -0.0029315422518529505
0.0   0.0   0.0
-0.004368714379996003   -0.00912940741881896   -0.0026362677366095363
0.0   0.0   0.0
0.0   0.0   0.0
-0.004368714379996003   -0.00912940741881896   -0.0026362677366095363
0.0   0.0   0.0
0.0   0.0   0.0
-0.004368714379996003   -0.00912940741881896   -0.0026362677366095363
-0.009779724951995559   -0.009674432801655765   -0.0032293857299128684
-0.009974892029708865   -0.00921065804120288   -0.003855428153133177
0.0   0.0   0.0
-0.004368714379996003   -0.00912940741881896   -0.0026362677366095363
-0.009974892029708865   -0.00921065804120288   -0.003855428153133177
0.0   0.0   0.0
0.0   0.0   0.0
-0.009779724951995559   -0.009674432801655765   -0.0032293857299128684
0.0   0.0   0.0
0.0   0.0   0.0
-0.009779724951995559   -0.009674432801655765   -0.0032293857299128684
-0.004368714379996003   -0.00912940741881896   -0.0026362677366095363
0.0   0.0   0.0
-0.0042734514279909   -0.00924447661036159   -0.0023484486419756605
0.0   0.0   0.0
0.0   0.0   0.0
-0.0042734514279909   -0.00924447661036159   -0.0023484486419756605
0.0   0.0   0.0
0.0   0.0   0.0
-0.0042734514279909   -0.00924447661036159   -0.0023484486419756605
-0.009809580628290356   -0.009911841299235427   -0.002603985724777732
-0.009779724951995559   -0.009674432801655765   -0.0032293857299128684
0.0   0.0   0.0
-0.0042734514279909   -0.00924447661036159   -0.0023484486419756605
-0.009779724951995559   -0.009674432801655765   -0.0032293857299128684
0.0   0.0   0.0
0.0   0.0   0.0
-0.009809580628290356   -0.009911841299235427   -0.002603985724777732
0.0   0.0   0.0
0.0   0.0   0.0
-0.009809580628290356   -0.009911841299235427   -0.002603985724777732
-0.0042734514279909   -0.00924447661036159   -0.0023484486419756605
0.0   0.0   0.0
-0.0041870828856687544   -0.009196254141537833   -0.0020506294271309573
0.0   0.0   0.0
0.0   0.0   0.0
-0.0041870828856687544   -0.009196254141537833   -0.0020506294271309573
0.0   0.0   0.0
0.0   0.0   0.0
-0.0041870828856687544   -0.009196254141537833   -0.0020506294271309573
-0.009806989193256182   -0.00997248705184232   -0.0019569904050474756
-0.009809580628290356   -0.009911841299235427   -0.002603985724777732
0.0   0.0   0.0
-0.0041870828856687544   -0.009196254141537833   -0.0020506294271309573
-0.009809580628290356   -0.009911841299235427   -0.002603985724777732
0.0   0.0   0.0
0.0   0.0   0.0
-0.004539988758413402   -0.008827273552521915   -0.0029315422518529505
0.0   0.0   0.0
0.0   0.0   0.0
-0.004539988758413402   -0.008827273552521915   -0.0029315422518529505
0.0005969182498704655   -0.008876040121832459   -0.002342193397563607
0.0   0.0   0.0
0.0007051877571795962   -0.009032936091507564   -0.002383706607770697
0.0   0.0   0.0
0.0   0.0   0.0
0.0007051877571795962   -0.009032936091507564   -0.002383706607770697
0.0   0.0   0.0
0.0   0.0   0.0
0.0007051877571795962   -0.009032936091507564   -0.002383706607770697
-0.004368714379996003   -0.00912940741881896   -0.0026362677366095363
-0.004539988758413402   -0.008827273552521915   -0.0029315422518529505
0.0   0.0   0.0
0.0007051877571795962   -0.009032936091507564   -0.002383706607770697
-0.004539988758413402   -0.008827273552521915   -0.0029315422518529505
0.0   0.0   0.0
0.0   0.0   0.0
-0.004368714379996003   -0.00912940741881896   -0.0026362677366095363
0.0   0.0   0.0
0.0   0.0   0.0
-0.004368714379996003   -0.00912940741881896   -0.0026362677366095363
0.0007051877571795962   -0.009032936091507564   -0.002383706607770697
0.0   0.0   0.0
0.0007903402026313852   -0.009020187828082657   -0.002420984872250605
0.0   0.0   0.0
0.0   0.0   0.0
0.0007903402026313852   -0.009020187828082657   -0.002420984872250605
0.0   0.0   0.0
0.0   0.0   0.0
0.0007903402026313852   -0.009020187828082657   -0.002420984872250605
-0.0042734514279909   -0.00924447661036159   -0.0023484486419756605
-0.004368714379996003   -0.00912940741881896   -0.0026362677366095363
0.0   0.0   0.0
0.0007903402026313852   -0.009020187828082657   -0.002420984872250605
-0.004368714379996003   -0.00912940741881896   -0.0026362677366095363
0.0   0.0   0.0
0.0   0.0   0.0
-0.0042734514279909   -0.00924447661036159   -0.0023484486419756605
0.0   0.0   0.0
0.0   0.0   0.0
-0.0042734514279909   -0.00924447661036159   -0.0023484486419756605
0.0007903402026313852   -0.009020187828082657   -0.002420984872250605
0.0   0.0   0.0
0.0009056684652496137   -0.00882383900839781   -0.0024590321352142962
0.0   0.0   0.0
0.0   0.0   0.0
0.0009056684652496137   -0.00882383900839781   -0.0024590321352142962
0.0   0.0   0.0
0.0   0.0   0.0
0.0009056684652496137   -0.00882383900839781   -0.0024590321352142962
-0.0041870828856687544   -0.009196254141537833   -0.0020506294271309573
-0.0042734514279909   -0.00924447661036159   -0.0023484486419756605
0.0   0.0   0.0
0.0009056684652496137   -0.00882383900839781   -0.0024590321352142962
-0.0042734514279909   -0.00924447661036159   -0.0023484486419756605
0.0   0.0   0.0
0.0   0.0   0.0
0.0005969182498704655   -0.008876040121832459   -0.002342193397563607
0.0   0.0   0.0
0.0   0.0   0.0
0.0005969182498704655   -0.008876040121832459   -0.002342193397563607
0.006171017465043173   -0.009310311319696464   -0.0020499315088818642
0.0   0.0   0.0
0.006179038277318246   -0.009360703881035281   -0.0024458001139768017
0.0   0.0   0.0
0.0   0.0   0.0
0.006179038277318246   -0.009360703881035281   -0.0024458001139768017
0.0   0.0   0.0
0.0   0.0   0.0
0.006179038277318246   -0.009360703881035281   -0.0024458001139768017
0.0007051877571795962   -0.009032936091507564   -0.002383706607770697
0.0005969182498704655   -0.008876040121832459   -0.002342193397563607
0.0   0.0   0.0
0.006179038277318246   -0.009360703881035281   -0.0024458001139768017
0.0005969182498704655   -0.008876040121832459   -0.002342193397563607
0.0   0.0   0.0
0.0   0.0   0.0
0.0007051877571795962   -0.009032936091507564   -0.002383706607770697
0.0   0.0   0.0
0.0   0.0   0.0
0.0007051877571795962   -0.009032936091507564   -0.002383706607770697
0.006179038277318246   -0.009360703881035281   -0.0024458001139768017
0.0   0.0   0.0
0.00615003012075088   -0.009227015413255865   -0.0028252642923522835
0.0   0.0   0.0
0.0   0.0   0.0
0.00615003012075088   -0.009227015413255865   -0.0028252642923522835
0.0   0.0   0.0
0.0   0.0   0.0
0.00615003012075088   -0.009227015413255865   -0.0028252642923522835
0.0007903402026313852   -0.009020187828082657   -0.002420984872250605
0.0007051877571795962   -0.009032936091507564   -0.002383706607770697
0.0   0.0   0.0
0.00615003012075088   -0.009227015413255865   -0.0028252642923522835
0.0007051877571795962   -0.009032936091507564   -0.002383706607770697
0.0   0.0   0.0
0.0   0.0   0.0
0.0007903402026313852   -0.009020187828082657   -0.002420984872250605
0.0   0.0   0.0
0.0   0.0   0.0
0.0007903402026313852   -0.009020187828082657   -0.002420984872250605
0.00615003012075088   -0.009227015413255865   -0.0028252642923522835
0.0   0.0   0.0
0.00626669302962639   -0.008868056937720475   -0.003197264949003157
0.0   0.0   0.0
0.0   0.0   0.0
0.00626669302962639   -0.008868056937720475   -0.003197264949003157
0.0   0.0   0.0
0.0   0.0   0.0
0.00626669302962639   -0.008868056937720475   -0.003197264949003157
0.0009056684652496137   -0.00882383900839781   -0.0024590321352142962
0.0007903402026313852   -0.009020187828082657   -0.002420984872250605
0.0   0.0   0.0
0.00626669302962639   -0.008868056937720475   -0.003197264949003157
0.0007903402026313852   -0.009020187828082657   -0.002420984872250605
0.0   0.0   0.0
0.0   0.0   0.0
0.006171017465043173   -0.009310311319696464   -0.0020499315088818642
0.0   0.0   0.0
0.0   0.0   0.0
0.006171017465043173   -0.009310311319696464   -0.0020499315088818642
0.013916343204081133   -0.010409995128445145   -0.001932220478300033
0.0   0.0   0.0
0.013065857251210226   -0.010297295408232694   -0.002828874662447625
0.0   0.0   0.0
0.0   0.0   0.0
0.013065857251210226   -0.010297295408232694   -0.002828874662447625
0.0   0.0   0.0
0.0   0.0   0.0
0.013065857251210226   -0.010297295408232694   -0.002828874662447625
0.006179038277318246   -0.009360703881035281   -0.0024458001139768017
0.006171017465043173   -0.009310311319696464   -0.0020499315088818642
0.0   0.0   0.0
0.013065857251210226   -0.010297295408232694   -0.002828874662447625
0.006171017465043173   -0.009310311319696464   -0.0020499315088818642
0.0   0.0   0.0
0.0   0.0   0.0
0.006179038277318246   -0.009360703881035281   -0.0024458001139768017
0.0   0.0   0.0
0.0   0.0   0.0
0.006179038277318246   -0.009360703881035281   -0.0024458001139768017
0.013065857251210226   -0.010297295408232694   -0.002828874662447625
0.0   0.0   0.0
0.012672514968288237   -0.010083181111514893   -0.003586873497202052
0.0   0.0   0.0
0.0   0.0   0.0
0.012672514968288237   -0.010083181111514893   -0.003586873497202052
0.0   0.0   0.0
0.0   0.0   0.0
0.012672514968288237   -0.010083181111514893   -0.003586873497202052
0.00615003012075088   -0.009227015413255865   -0.0028252642923522835
0.006179038277318246   -0.009360703881035281   -0.0024458001139768017
0.0   0.0   0.0
0.012672514968288237   -0.010083181111514893   -0.003586873497202052
0.006179038277318246   -0.009360703881035281   -0.0024458001139768017
0.0   0.0   0.0
0.0   0.0   0.0
0.00615003012075088   -0.009227015413255865   -0.0028252642923522835
0.0   0.0   0.0
0.0   0.0   0.0
0.00615003012075088   -0.009227015413255865   -0.0028252642923522835
0.012672514968288237   -0.010083181111514893   -0.003586873497202052
0.0   0.0   0.0
0.012088717222774588   -0.009534589249261437   -0.004388477341497032
0.0   0.0   0.0
0.0   0.0   0.0
0.012088717222774588   -0.009534589249261437   -0.004388477341497032
0.0   0.0   0.0
0.0   0.0   0.0
0.012088717222774588   -0.009534589249261437   -0.004388477341497032
0.00626669302962639   -0.008868056937720475   -0.003197264949003157
0.00615003012075088   -0.009227015413255865   -0.0028252642923522835
0.0   0.0   0.0
0.012088717222774588   -0.009534589249261437   -0.004388477341497032
0.00615003012075088   -0.009227015413255865   -0.0028252642923522835
0.0   0.0   0.0
-0.015671206232806996   -0.01025471392773429   -0.00524801124609877
-0.02929065570009603   -0.0286645207508384   -0.0070694678638380205
-0.009974892029708865   -0.00921065804120288   -0.003855428153133177
-0.016403260808179564   -0.010926201090562337   -0.004212459514366689
-0.02929065570009603   -0.0286645207508384   -0.0070694678638380205
-0.0186960195201331   -0.027724803635739006   -0.005816929643520765
-0.009974892029708865   -0.00921065804120288   -0.003855428153133177
-0.01872154101245135   -0.02819971087290193   -0.005237369842095684
-0.016403260808179564   -0.010926201090562337   -0.004212459514366689
-0.009779724951995559   -0.009674432801655765   -0.0032293857299128684
-0.01872154101245135   -0.02819971087290193   -0.005237369842095684
-0.009974892029708865   -0.00921065804120288   -0.003855428153133177
-0.016403260808179564   -0.010926201090562337   -0.004212459514366689
-0.01872154101245135   -0.02819971087290193   -0.005237369842095684
-0.03017278380188028   -0.029326842911697192   -0.006127839581875661
-0.02929065570009603   -0.0286645207508384   -0.0070694678638380205
-0.016403260808179564   -0.010926201090562337   -0.004212459514366689
-0.01872154101245135   -0.02819971087290193   -0.005237369842095684
-0.02929065570009603   -0.0286645207508384   -0.0070694678638380205
-0.009974892029708865   -0.00921065804120288   -0.003855428153133177
-0.016403260808179564   -0.010926201090562337   -0.004212459514366689
-0.03017278380188028   -0.029326842911697192   -0.006127839581875661
-0.009779724951995559   -0.009674432801655765   -0.0032293857299128684
-0.016918420026600902   -0.011252608535651664   -0.003219747645362372
-0.03017278380188028   -0.029326842911697192   -0.006127839581875661
-0.01872154101245135   -0.02819971087290193   -0.005237369842095684
-0.009779724951995559   -0.009674432801655765   -0.0032293857299128684
-0.01879896392898387   -0.028488904525859744   -0.004680213507366579
-0.016918420026600902   -0.011252608535651664   -0.003219747645362372
-0.009809580628290356   -0.009911841299235427   -0.002603985724777732
-0.01879896392898387   -0.028488904525859744   -0.004680213507366579
-0.009779724951995559   -0.009674432801655765   -0.0032293857299128684
-0.016918420026600902   -0.011252608535651664   -0.003219747645362372
-0.01879896392898387   -0.028488904525859744   -0.004680213507366579
-0.03078712839524815   -0.029700593353894786   -0.005205516499571142
-0.03017278380188028   -0.029326842911697192   -0.006127839581875661
-0.016918420026600902   -0.011252608535651664   -0.003219747645362372
-0.01879896392898387   -0.028488904525859744   -0.004680213507366579
-0.03017278380188028   -0.029326842911697192   -0.006127839581875661
-0.009779724951995559   -0.009674432801655765   -0.0032293857299128684
-0.016918420026600902   -0.011252608535651664   -0.003219747645362372
-0.03078712839524815   -0.029700593353894786   -0.005205516499571142
-0.009809580628290356   -0.009911841299235427   -0.002603985724777732
-0.01802595709628576   -0.011498915757211193   -0.0020677403504907677
-0.03078712839524815   -0.029700593353894786   -0.005205516499571142
-0.01879896392898387   -0.028488904525859744   -0.004680213507366579
-0.009809580628290356   -0.009911841299235427   -0.002603985724777732
-0.018746784391277988   -0.028638455808099088   -0.00415847338650107
-0.01802595709628576   -0.011498915757211193   -0.0020677403504907677
-0.009806989193256182   -0.00997248705184232   -0.0019569904050474756
-0.018746784391277988   -0.028638455808099088   -0.00415847338650107
-0.009809580628290356   -0.009911841299235427   -0.002603985724777732
-0.01802595709628576   -0.011498915757211193   -0.0020677403504907677
-0.018746784391277988   -0.028638455808099088   -0.00415847338650107
-0.03151341656617638   -0.029916983495249027   -0.004365879267204945
-0.03078712839524815   -0.029700593353894786   -0.005205516499571142
-0.01802595709628576   -0.011498915757211193   -0.0020677403504907677
-0.018746784391277988   -0.028638455808099088   -0.00415847338650107
-0.03078712839524815   -0.029700593353894786   -0.005205516499571142
-0.009809580628290356   -0.009911841299235427   -0.002603985724777732
-0.009974892029708865   -0.00921065804120288   -0.003855428153133177
-0.0186960195201331   -0.027724803635739006   -0.005816929643520765
-0.004539988758413402   -0.008827273552521915   -0.0029315422518529505
-0.009779724951995559   -0.009674432801655765   -0.0032293857299128684
-0.0186960195201331   -0.027724803635739006   -0.005816929643520765
-0.008668950777200963   -0.027287564382254527   -0.004961587075899549
-0.004539988758413402   -0.008827273552521915   -0.0029315422518529505
-0.008597668747575267   -0.02759011396781143   -0.0046649156764806115
-0.009779724951995559   -0.009674432801655765   -0.0032293857299128684
-0.004368714379996003   -0.00912940741881896   -0.0026362677366095363
-0.008597668747575267   -0.02759011396781143   -0.0046649156764806115
-0.004539988758413402   -0.008827273552521915   -0.0029315422518529505
-0.009779724951995559   -0.009674432801655765   -0.0032293857299128684
-0.008597668747575267   -0.02759011396781143   -0.0046649156764806115
-0.01872154101245135   -0.02819971087290193   -0.005237369842095684
-0.0186960195201331   -0.027724803635739006   -0.005816929643520765
-0.009779724951995559   -0.009674432801655765   -0.0032293857299128684
-0.008597668747575267   -0.02759011396781143   -0.0046649156764806115
-0.0186960195201331   -0.027724803635739006   -0.005816929643520765
-0.004539988758413402   -0.008827273552521915   -0.0029315422518529505
-0.009779724951995559   -0.009674432801655765   -0.0032293857299128684
-0.01872154101245135   -0.02819971087290193   -0.005237369842095684
-0.004368714379996003   -0.00912940741881896   -0.0026362677366095363
-0.009809580628290356   -0.009911841299235427   -0.002603985724777732
-0.01872154101245135   -0.02819971087290193   -0.005237369842095684
-0.008597668747575267   -0.02759011396781143   -0.0046649156764806115
-0.004368714379996003   -0.00912940741881896   -0.0026362677366095363
-0.008534896492013411   -0.027736733271964253   -0.004395828501666253
-0.009809580628290356   -0.009911841299235427   -0.002603985724777732
-0.0042734514279909   -0.00924447661036159   -0.0023484486419756605
-0.008534896492013411   -0.027736733271964253   -0.004395828501666253
-0.004368714379996003   -0.00912940741881896   -0.0026362677366095363
-0.009809580628290356   -0.009911841299235427   -0.002603985724777732
-0.008534896492013411   -0.027736733271964253   -0.004395828501666253
-0.01879896392898387   -0.028488904525859744   -0.004680213507366579
-0.01872154101245135   -0.02819971087290193   -0.005237369842095684
-0.009809580628290356   -0.009911841299235427   -0.002603985724777732
-0.008534896492013411   -0.027736733271964253   -0.004395828501666253
-0.01872154101245135   -0.02819971087290193   -0.005237369842095684
-0.004368714379996003   -0.00912940741881896   -0.0026362677366095363
-0.009809580628290356   -0.009911841299235427   -0.002603985724777732
-0.01879896392898387   -0.028488904525859744   -0.004680213507366579
-0.0042734514279909   -0.00924447661036159   -0.0023484486419756605
-0.009806989193256182   -0.00997248705184232   -0.0019569904050474756
-0.01879896392898387   -0.028488904525859744   -0.004680213507366579
-0.008534896492013411   -0.027736733271964253   -0.004395828501666253
-0.0042734514279909   -0.00924447661036159   -0.0023484486419756605
-0.008439585015524904   -0.02773295791842158   -0.004161380144917974
-0.009806989193256182   -0.00997248705184232   -0.0019569904050474756
-0.0041870828856687544   -0.009196254141537833   -0.0020506294271309573
-0.008439585015524904   -0.02773295791842158   -0.004161380144917974
-0.0042734514279909   -0.00924447661036159   -0.0023484486419756605
-0.009806989193256182   -0.00997248705184232   -0.0019569904050474756
-0.008439585015524904   -0.02773295791842158   -0.004161380144917974
-0.018746784391277988   -0.028638455808099088   -0.00415847338650107
-0.01879896392898387   -0.028488904525859744   -0.004680213507366579
-0.009806989193256182   -0.00997248705184232   -0.0019569904050474756
-0.008439585015524904   -0.02773295791842158   -0.004161380144917974
-0.01879896392898387   -0.028488904525859744   -0.004680213507366579
-0.0042734514279909   -0.00924447661036159   -0.0023484486419756605
-0.004539988758413402   -0.008827273552521915   -0.0029315422518529505
-0.008668950777200963   -0.027287564382254527   -0.004961587075899549
0.0005969182498704655   -0.008876040121832459   -0.002342193397563607
-0.004368714379996003   -0.00912940741881896   -0.0026362677366095363
-0.008668950777200963   -0.027287564382254527   -0.004961587075899549
0.001002424944108417   -0.02730037222431912   -0.004420095647037147
0.0005969182498704655   -0.008876040121832459   -0.002342193397563607
0.0010906506345827408   -0.027444160850701754   -0.004401100542945453
-0.004368714379996003   -0.00912940741881896   -0.0026362677366095363
0.0007051877571795962   -0.009032936091507564   -0.002383706607770697
0.0010906506345827408   -0.027444160850701754   -0.004401100542945453
0.0005969182498704655   -0.008876040121832459   -0.002342193397563607
-0.004368714379996003   -0.00912940741881896   -0.0026362677366095363
0.0010906506345827408   -0.027444160850701754   -0.004401100542945453
-0.008597668747575267   -0.02759011396781143   -0.0046649156764806115
-0.008668950777200963   -0.027287564382254527   -0.004961587075899549
-0.004368714379996003   -0.00912940741881896   -0.0026362677366095363
0.0010906506345827408   -0.027444160850701754   -0.004401100542945453
-0.008668950777200963   -0.027287564382254527   -0.004961587075899549
0.0005969182498704655   -0.008876040121832459   -0.002342193397563607
-0.004368714379996003   -0.00912940741881896   -0.0026362677366095363
-0.008597668747575267   -0.02759011396781143   -0.0046649156764806115
0.0007051877571795962   -0.009032936091507564   -0.002383706607770697
-0.0042734514279909   -0.00924447661036159   -0.0023484486419756605
-0.008597668747575267   -0.02759011396781143   -0.0046649156764806115
0.0010906506345827408   -0.027444160850701754   -0.004401100542945453
0.0007051877571795962   -0.009032936091507564   -0.002383706607770697
0.0011488997594151862   -0.027435686651497378   -0.004413426449863466
-0.0042734514279909   -0.00924447661036159   -0.0023484486419756605
0.0007903402026313852   -0.009020187828082657   -0.002420984872250605
0.0011488997594151862   -0.027435686651497378   -0.004413426449863466
0.0007051877571795962   -0.009032936091507564   -0.002383706607770697
-0.0042734514279909   -0.00924447661036159   -0.0023484486419756605
0.0011488997594151862   -0.027435686651497378   -0.004413426449863466
-0.008534896492013411   -0.027736733271964253   -0.004395828501666253
-0.008597668747575267   -0.02759011396781143   -0.0046649156764806115
-0.0042734514279909   -0.00924447661036159   -0.0023484486419756605
0.0011488997594151862   -0.027435686651497378   -0.004413426449863466
-0.008597668747575267   -0.02759011396781143   -0.0046649156764806115
0.0007051877571795962   -0.009032936091507564   -0.002383706607770697
-0.0042734514279909   -0.00924447661036159   -0.0023484486419756605
-0.008534896492013411   -0.027736733271964253   -0.004395828501666253
0.0007903402026313852   -0.009020187828082657   -0.002420984872250605
-0.0041870828856687544   -0.009196254141537833   -0.0020506294271309573
-0.008534896492013411   -0.027736733271964253   -0.004395828501666253
0.0011488997594151862   -0.027435686651497378   -0.004413426449863466
0.0007903402026313852   -0.009020187828082657   -0.002420984872250605
0.001211653806963387   -0.027270286162315093   -0.004457573042462419
-0.0041870828856687544   -0.009196254141537833   -0.0020506294271309573
0.0009056684652496137   -0.00882383900839781   -0.0024590321352142962
0.001211653806963387   -0.027270286162315093   -0.004457573042462419
0.0007903402026313852   -0.009020187828082657   -0.002420984872250605
-0.0041870828856687544   -0.009196254141537833   -0.0020506294271309573
0.001211653806963387   -0.027270286162315093   -0.004457573042462419
-0.008439585015524904   -0.02773295791842158   -0.004161380144917974
-0.008534896492013411   -0.027736733271964253   -0.004395828501666253
-0.0041870828856687544   -0.009196254141537833   -0.0020506294271309573
0.001211653806963387   -0.027270286162315093   -0.004457573042462419
-0.008534896492013411   -0.027736733271964253   -0.004395828501666253
0.0007903402026313852   -0.009020187828082657   -0.002420984872250605
0.0005969182498704655   -0.008876040121832459   -0.002342193397563607
0.001002424944108417   -0.02730037222431912   -0.004420095647037147
0.006171017465043173   -0.009310311319696464   -0.0020499315088818642
0.0007051877571795962   -0.009032936091507564   -0.002383706607770697
0.001002424944108417   -0.02730037222431912   -0.004420095647037147
0.01124942786185439   -0.02774691385368221   -0.004166372915061033
0.006171017465043173   -0.009310311319696464   -0.0020499315088818642
0.011297400287503093   -0.027746599623389354   -0.004434083090359307
0.0007051877571795962   -0.009032936091507564   -0.002383706607770697
0.006179038277318246   -0.009360703881035281   -0.0024458001139768017
0.011297400287503093   -0.027746599623389354   -0.004434083090359307
0.006171017465043173   -0.009310311319696464   -0.0020499315088818642
0.0007051877571795962   -0.009032936091507564   -0.002383706607770697
0.011297400287503093   -0.027746599623389354   -0.004434083090359307
0.0010906506345827408   -0.027444160850701754   -0.004401100542945453
0.001002424944108417   -0.02730037222431912   -0.004420095647037147
0.0007051877571795962   -0.009032936091507564   -0.002383706607770697
0.011297400287503093   -0.027746599623389354   -0.004434083090359307
0.001002424944108417   -0.02730037222431912   -0.004420095647037147
0.006171017465043173   -0.009310311319696464   -0.0020499315088818642
0.0007051877571795962   -0.009032936091507564   -0.002383706607770697
0.0010906506345827408   -0.027444160850701754   -0.004401100542945453
0.006179038277318246   -0.009360703881035281   -0.0024458001139768017
0.0007903402026313852   -0.009020187828082657   -0.002420984872250605
0.0010906506345827408   -0.027444160850701754   -0.004401100542945453
0.011297400287503093   -0.027746599623389354   -0.004434083090359307
0.006179038277318246   -0.009360703881035281   -0.0024458001139768017
0.01124133051852053   -0.027596877545228226   -0.00473723248489348
0.0007903402026313852   -0.009020187828082657   -0.002420984872250605
0.00615003012075088   -0.009227015413255865   -0.0028252642923522835
0.01124133051852053   -0.027596877545228226   -0.00473723248489348
0.006179038277318246   -0.009360703881035281   -0.0024458001139768017
0.0007903402026313852   -0.009020187828082657   -0.002420984872250605
0.01124133051852053   -0.027596877545228226   -0.00473723248489348
0.0011488997594151862   -0.027435686651497378   -0.004413426449863466
0.0010906506345827408   -0.027444160850701754   -0.004401100542945453
0.0007903402026313852   -0.009020187828082657   -0.002420984872250605
0.01124133051852053   -0.027596877545228226   -0.00473723248489348
0.0010906506345827408   -0.027444160850701754   -0.004401100542945453
0.006179038277318246   -0.009360703881035281   -0.0024458001139768017
0.0007903402026313852   -0.009020187828082657   -0.002420984872250605
0.0011488997594151862   -0.027435686651497378   -0.004413426449863466
0.00615003012075088   -0.009227015413255865   -0.0028252642923522835
0.0009056684652496137   -0.00882383900839781   -0.0024590321352142962
0.0011488997594151862   -0.027435686651497378   -0.004413426449863466
0.01124133051852053   -0.027596877545228226   -0.00473723248489348
0.00615003012075088   -0.009227015413255865   -0.0028252642923522835
0.011207797287419222   -0.02725665592639673   -0.00506461829009618
0.0009056684652496137   -0.00882383900839781   -0.0024590321352142962
0.00626669302962639   -0.008868056937720475   -0.003197264949003157
0.011207797287419222   -0.02725665592639673   -0.00506461829009618
0.00615003012075088   -0.009227015413255865   -0.0028252642923522835
0.0009056684652496137   -0.00882383900839781   -0.0024590321352142962
0.011207797287419222   -0.02725665592639673   -0.00506461829009618
0.001211653806963387   -0.027270286162315093   -0.004457573042462419
0.0011488997594151862   -0.027435686651497378   -0.004413426449863466
0.0009056684652496137   -0.00882383900839781   -0.0024590321352142962
0.011207797287419222   -0.02725665592639673   -0.00506461829009618
0.0011488997594151862   -0.027435686651497378   -0.004413426449863466
0.00615003012075088   -0.009227015413255865   -0.0028252642923522835
0.006171017465043173   -0.009310311319696464   -0.0020499315088818642
0.01124942786185439   -0.02774691385368221   -0.004166372915061033
0.013916343204081133   -0.010409995128445145   -0.001932220478300033
0.006179038277318246   -0.009360703881035281   -0.0024458001139768017
0.01124942786185439   -0.02774691385368221   -0.004166372915061033
0.023609626919075578   -0.028577607004916267   -0.0040959277569996
0.013916343204081133   -0.010409995128445145   -0.001932220478300033
0.023123641827081126   -0.02850092376110057   -0.004697690010222603
0.006179038277318246   -0.009360703881035281   -0.0024458001139768017
0.013065857251210226   -0.010297295408232694   -0.002828874662447625
0.023123641827081126   -0.02850092376110057   -0.004697690010222603
0.013916343204081133   -0.010409995128445145   -0.001932220478300033
0.006179038277318246   -0.009360703881035281   -0.0024458001139768017
0.023123641827081126   -0.02850092376110057   -0.004697690010222603
0.011297400287503093   -0.027746599623389354   -0.004434083090359307
0.01124942786185439   -0.02774691385368221   -0.004166372915061033
0.006179038277318246   -0.009360703881035281   -0.0024458001139768017
0.023123641827081126   -0.02850092376110057   -0.004697690010222603
0.01124942786185439   -0.02774691385368221   -0.004166372915061033
0.013916343204081133   -0.010409995128445145   -0.001932220478300033
0.006179038277318246   -0.009360703881035281   -0.0024458001139768017
0.011297400287503093   -0.027746599623389354   -0.004434083090359307
0.013065857251210226   -0.010297295408232694   -0.002828874662447625
0.00615003012075088   -0.009227015413255865   -0.0028252642923522835
0.011297400287503093   -0.027746599623389354   -0.004434083090359307
0.023123641827081126   -0.02850092376110057   -0.004697690010222603
0.013065857251210226   -0.010297295408232694   -0.002828874662447625
0.022689808072218348   -0.028269897383174862   -0.005374064148565847
0.00615003012075088   -0.009227015413255865   -0.0028252642923522835
0.012672514968288237   -0.010083181111514893   -0.003586873497202052
0.022689808072218348   -0.028269897383174862   -0.005374064148565847
0.013065857251210226   -0.010297295408232694   -0.002828874662447625
0.00615003012075088   -0.009227015413255865   -0.0028252642923522835
0.022689808072218348   -0.028269897383174862   -0.005374064148565847
0.01124133051852053   -0.027596877545228226   -0.00473723248489348
0.011297400287503093   -0.027746599623389354   -0.004434083090359307
0.00615003012075088   -0.009227015413255865   -0.0028252642923522835
0.022689808072218348   -0.028269897383174862   -0.005374064148565847
0.011297400287503093   -0.027746599623389354   -0.004434083090359307
0.013065857251210226   -0.010297295408232694   -0.002828874662447625
0.00615003012075088   -0.009227015413255865   -0.0028252642923522835
0.01124133051852053   -0.027596877545228226   -0.00473723248489348
0.012672514968288237   -0.010083181111514893   -0.003586873497202052
0.00626669302962639   -0.008868056937720475   -0.003197264949003157
0.01124133051852053   -0.027596877545228226   -0.00473723248489348
0.022689808072218348   -0.028269897383174862   -0.005374064148565847
0.012672514968288237   -0.010083181111514893   -0.003586873497202052
0.022042129675468494   -0.02775464642539795   -0.006077782394383402
0.00626669302962639   -0.008868056937720475   -0.003197264949003157
0.012088717222774588   -0.009534589249261437   -0.004388477341497032
0.022042129675468494   -0.02775464642539795   -0.006077782394383402
0.012672514968288237   -0.010083181111514893   -0.003586873497202052
0.00626669302962639   -0.008868056937720475   -0.003197264949003157
0.022042129675468494   -0.02775464642539795   -0.006077782394383402
0.011207797287419222   -0.02725665592639673   -0.00506461829009618
0.01124133051852053   -0.027596877545228226   -0.00473723248489348
0.00626669302962639   -0.008868056937720475   -0.003197264949003157
0.022042129675468494   -0.02775464642539795   -0.006077782394383402
0.01124133051852053   -0.027596877545228226   -0.00473723248489348
0.012672514968288237   -0.010083181111514893   -0.003586873497202052
-0.02929065570009603   -0.0286645207508384   -0.0070694678638380205
-0.04015824858889829   -0.053809628958698306   -0.00804918382969318
-0.0186960195201331   -0.027724803635739006   -0.005816929643520765
-0.03017278380188028   -0.029326842911697192   -0.006127839581875661
-0.04015824858889829   -0.053809628958698306   -0.00804918382969318
-0.025816259716396055   -0.053090630325964706   -0.007031772618300239
-0.0186960195201331   -0.027724803635739006   -0.005816929643520765
-0.0258769926337612   -0.053501079518089696   -0.006581607780568244
-0.03017278380188028   -0.029326842911697192   -0.006127839581875661
-0.01872154101245135   -0.02819971087290193   -0.005237369842095684
-0.0258769926337612   -0.053501079518089696   -0.006581607780568244
-0.0186960195201331   -0.027724803635739006   -0.005816929643520765
-0.03017278380188028   -0.029326842911697192   -0.006127839581875661
-0.0258769926337612   -0.053501079518089696   -0.006581607780568244
-0.04087801467695266   -0.054370341931865976   -0.007345773046588842
-0.04015824858889829   -0.053809628958698306   -0.00804918382969318
-0.03017278380188028   -0.029326842911697192   -0.006127839581875661
-0.0258769926337612   -0.053501079518089696   -0.006581607780568244
-0.04015824858889829   -0.053809628958698306   -0.00804918382969318
-0.0186960195201331   -0.027724803635739006   -0.005816929643520765
-0.03017278380188028   -0.029326842911697192   -0.006127839581875661
-0.04087801467695266   -0.054370341931865976   -0.007345773046588842
-0.01872154101245135   -0.02819971087290193   -0.005237369842095684
-0.03078712839524815   -0.029700593353894786   -0.005205516499571142
-0.04087801467695266   -0.054370341931865976   -0.007345773046588842
-0.0258769926337612   -0.053501079518089696   -0.006581607780568244
-0.01872154101245135   -0.02819971087290193   -0.005237369842095684
-0.025948006849197132   -0.05378640165122053   -0.006163872611474769
-0.03078712839524815   -0.029700593353894786   -0.005205516499571142
-0.01879896392898387   -0.028488904525859744   -0.004680213507366579
-0.025948006849197132   -0.05378640165122053   -0.006163872611474769
-0.01872154101245135   -0.02819971087290193   -0.005237369842095684
-0.03078712839524815   -0.029700593353894786   -0.005205516499571142
-0.025948006849197132   -0.05378640165122053   -0.006163872611474769
-0.04133365845224929   -0.05472159354360256   -0.006689914023656805
-0.04087801467695266   -0.054370341931865976   -0.007345773046588842
-0.03078712839524815   -0.029700593353894786   -0.005205516499571142
-0.025948006849197132   -0.05378640165122053   -0.006163872611474769
-0.04087801467695266   -0.054370341931865976   -0.007345773046588842
-0.01872154101245135   -0.02819971087290193   -0.005237369842095684
-0.03078712839524815   -0.029700593353894786   -0.005205516499571142
-0.04133365845224929   -0.05472159354360256   -0.006689914023656805
-0.01879896392898387   -0.028488904525859744   -0.004680213507366579
-0.03151341656617638   -0.029916983495249027   -0.004365879267204945
-0.04133365845224929   -0.05472159354360256   -0.006689914023656805
-0.025948006849197132   -0.05378640165122053   -0.006163872611474769
-0.01879896392898387   -0.028488904525859744   -0.004680213507366579
-0.025903733372514667   -0.05397363546728009   -0.0057716682036083435
-0.03151341656617638   -0.029916983495249027   -0.004365879267204945
-0.018746784391277988   -0.028638455808099088   -0.00415847338650107
-0.025903733372514667   -0.05397363546728009   -0.0057716682036083435
-0.01879896392898387   -0.028488904525859744   -0.004680213507366579
-0.03151341656617638   -0.029916983495249027   -0.004365879267204945
-0.025903733372514667   -0.05397363546728009   -0.0057716682036083435
-0.04185209199688469   -0.0549734259549818   -0.006086050006090021
-0.04133365845224929   -0.05472159354360256   -0.006689914023656805
-0.03151341656617638   -0.029916983495249027   -0.004365879267204945
-0.025903733372514667   -0.05397363546728009   -0.0057716682036083435
-0.04133365845224929   -0.05472159354360256   -0.006689914023656805
-0.01879896392898387   -0.028488904525859744   -0.004680213507366579
-0.0186960195201331   -0.027724803635739006   -0.005816929643520765
-0.025816259716396055   -0.053090630325964706   -0.007031772618300239
-0.008668950777200963   -0.027287564382254527   -0.004961587075899549
-0.01872154101245135   -0.02819971087290193   -0.005237369842095684
-0.025816259716396055   -0.053090630325964706   -0.007031772618300239
-0.012288050256093475   -0.05273247808961043   -0.0063247481601796576
-0.008668950777200963   -0.027287564382254527   -0.004961587075899549
-0.012261385536548878   -0.052995221297301096   -0.006070725503007828
-0.01872154101245135   -0.02819971087290193   -0.005237369842095684
-0.008597668747575267   -0.02759011396781143   -0.0046649156764806115
-0.012261385536548878   -0.052995221297301096   -0.006070725503007828
-0.008668950777200963   -0.027287564382254527   -0.004961587075899549
-0.01872154101245135   -0.02819971087290193   -0.005237369842095684
-0.012261385536548878   -0.052995221297301096   -0.006070725503007828
-0.0258769926337612   -0.053501079518089696   -0.006581607780568244
-0.025816259716396055   -0.053090630325964706   -0.007031772618300239
-0.01872154101245135   -0.02819971087290193   -0.005237369842095684
-0.012261385536548878   -0.052995221297301096   -0.006070725503007828
-0.025816259716396055   -0.053090630325964706   -0.007031772618300239
-0.008668950777200963   -0.027287564382254527   -0.004961587075899549
-0.01872154101245135   -0.02819971087290193   -0.005237369842095684
-0.0258769926337612   -0.053501079518089696   -0.006581607780568244
-0.008597668747575267   -0.02759011396781143   -0.0046649156764806115
-0.01879896392898387   -0.028488904525859744   -0.004680213507366579
-0.0258769926337612   -0.053501079518089696   -0.006581607780568244
-0.012261385536548878   -0.052995221297301096   -0.006070725503007828
-0.008597668747575267   -0.02759011396781143   -0.0046649156764806115
-0.012227774563980057   -0.05314943283373966   -0.005847608443525621
-0.01879896392898387   -0.028488904525859744   -0.004680213507366579
-0.008534896492013411   -0.027736733271964253   -0.004395828501666253
-0.012227774563980057   -0.05314943283373966   -0.005847608443525621
-0.008597668747575267   -0.02759011396781143   -0.0046649156764806115
-0.01879896392898387   -0.028488904525859744   -0.004680213507366579
-0.012227774563980057   -0.05314943283373966   -0.005847608443525621
-0.025948006849197132   -0.05378640165122053   -0.006163872611474769
-0.0258769926337612   -0.053501079518089696   -0.006581607780568244
-0.01879896392898387   -0.028488904525859744   -0.004680213507366579
-0.012227774563980057   -0.05314943283373966   -0.005847608443525621
-0.0258769926337612   -0.053501079518089696   -0.006581607780568244
-0.008597668747575267   -0.02759011396781143   -0.0046649156764806115
-0.01879896392898387   -0.028488904525859744   -0.004680213507366579
-0.025948006849197132   -0.05378640165122053   -0.006163872611474769
-0.008534896492013411   -0.027736733271964253   -0.004395828501666253
-0.018746784391277988   -0.028638455808099088   -0.00415847338650107
-0.025948006849197132   -0.05378640165122053   -0.006163872611474769
-0.012227774563980057   -0.05314943283373966   -0.005847608443525621
-0.008534896492013411   -0.027736733271964253   -0.004395828501666253
-0.012169952348664009   -0.053197318165830426   -0.0056552932479821405
-0.018746784391277988   -0.028638455808099088   -0.00415847338650107
-0.008439585015524904   -0.02773295791842158   -0.004161380144917974
-0.012169952348664009   -0.053197318165830426   -0.0056552932479821405
-0.008534896492013411   -0.027736733271964253   -0.004395828501666253
-0.018746784391277988   -0.028638455808099088   -0.00415847338650107
-0.012169952348664009   -0.053197318165830426   -0.0056552932479821405
-0.025903733372514667   -0.05397363546728009   -0.0057716682036083435
-0.025948006849197132   -0.05378640165122053   -0.006163872611474769
-0.018746784391277988   -0.028638455808099088   -0.00415847338650107
-0.012169952348664009   -0.053197318165830426   -0.0056552932479821405
-0.025948006849197132   -0.05378640165122053   -0.006163872611474769
-0.008534896492013411   -0.027736733271964253   -0.004395828501666253
-0.008668950777200963   -0.027287564382254527   -0.004961587075899549
-0.012288050256093475   -0.05273247808961043   -0.0063247481601796576
0.001002424944108417   -0.02730037222431912   -0.004420095647037147
-0.008597668747575267   -0.02759011396781143   -0.0046649156764806115
-0.012288050256093475   -0.05273247808961043   -0.0063247481601796576
0.0008445915776786549   -0.052713481150025575   -0.005885630842821337
0.001002424944108417   -0.02730037222431912   -0.004420095647037147
0.0008969343239954896   -0.052830933444666155   -0.00582667348560999
-0.008597668747575267   -0.02759011396781143   -0.0046649156764806115
0.0010906506345827408   -0.027444160850701754   -0.004401100542945453
0.0008969343239954896   -0.052830933444666155   -0.00582667348560999
0.001002424944108417   -0.02730037222431912   -0.004420095647037147
-0.008597668747575267   -0.02759011396781143   -0.0046649156764806115
0.0008969343239954896   -0.052830933444666155   -0.00582667348560999
-0.012261385536548878   -0.052995221297301096   -0.006070725503007828
-0.012288050256093475   -0.05273247808961043   -0.0063247481601796576
-0.008597668747575267   -0.02759011396781143   -0.0046649156764806115
0.0008969343239954896   -0.052830933444666155   -0.00582667348560999
-0.012288050256093475   -0.05273247808961043   -0.0063247481601796576
0.001002424944108417   -0.02730037222431912   -0.004420095647037147
-0.008597668747575267   -0.02759011396781143   -0.0046649156764806115
-0.012261385536548878   -0.052995221297301096   -0.006070725503007828
0.0010906506345827408   -0.027444160850701754   -0.004401100542945453
-0.008534896492013411   -0.027736733271964253   -0.004395828501666253
-0.012261385536548878   -0.052995221297301096   -0.006070725503007828
0.0008969343239954896   -0.052830933444666155   -0.00582667348560999
0.0010906506345827408   -0.027444160850701754   -0.004401100542945453
0.0009290250756284016   -0.052840297741178356   -0.005797800702191747
-0.008534896492013411   -0.027736733271964253   -0.004395828501666253
0.0011488997594151862   -0.027435686651497378   -0.004413426449863466
0.0009290250756284016   -0.052840297741178356   -0.005797800702191747
0.0010906506345827408   -0.027444160850701754   -0.004401100542945453
-0.008534896492013411   -0.027736733271964253   -0.004395828501666253
0.0009290250756284016   -0.052840297741178356   -0.005797800702191747
-0.012227774563980057   -0.05314943283373966   -0.005847608443525621
-0.012261385536548878   -0.052995221297301096   -0.006070725503007828
-0.008534896492013411   -0.027736733271964253   -0.004395828501666253
0.0009290250756284016   -0.052840297741178356   -0.005797800702191747
-0.012261385536548878   -0.052995221297301096   -0.006070725503007828
0.0010906506345827408   -0.027444160850701754   -0.004401100542945453
-0.008534896492013411   -0.027736733271964253   -0.004395828501666253
-0.012227774563980057   -0.05314943283373966   -0.005847608443525621
0.0011488997594151862   -0.027435686651497378   -0.004413426449863466
-0.008439585015524904   -0.02773295791842158   -0.004161380144917974
-0.012227774563980057   -0.05314943283373966   -0.005847608443525621
0.0009290250756284016   -0.052840297741178356   -0.005797800702191747
0.0011488997594151862   -0.027435686651497378   -0.004413426449863466
0.000951055588457272   -0.05273995708539503   -0.005800856142252403
-0.008439585015524904   -0.02773295791842158   -0.004161380144917974
0.001211653806963387   -0.027270286162315093   -0.004457573042462419
0.000951055588457272   -0.05273995708539503   -0.005800856142252403
0.0011488997594151862   -0.027435686651497378   -0.004413426449863466
-0.008439585015524904   -0.02773295791842158   -0.004161380144917974
0.000951055588457272   -0.05273995708539503   -0.005800856142252403
-0.012169952348664009   -0.053197318165830426   -0.0056552932479821405
-0.012227774563980057   -0.05314943283373966   -0.005847608443525621
-0.008439585015524904   -0.02773295791842158   -0.004161380144917974
0.000951055588457272   -0.05273995708539503   -0.005800856142252403
-0.012227774563980057   -0.05314943283373966   -0.005847608443525621
0.0011488997594151862   -0.027435686651497378   -0.004413426449863466
0.001002424944108417   -0.02730037222431912   -0.004420095647037147
0.0008445915776786549   -0.052713481150025575   -0.005885630842821337
0.01124942786185439   -0.02774691385368221   -0.004166372915061033
0.0010906506345827408   -0.027444160850701754   -0.004401100542945453
0.0008445915776786549   -0.052713481150025575   -0.005885630842821337
0.014536591013331917   -0.05301351588545517   -0.0057068001235713334
0.01124942786185439   -0.02774691385368221   -0.004166372915061033
0.01458138412343855   -0.05299793724342313   -0.0058469917280295925
0.0010906506345827408   -0.027444160850701754   -0.004401100542945453
0.011297400287503093   -0.027746599623389354   -0.004434083090359307
0.01458138412343855   -0.05299793724342313   -0.0058469917280295925
0.01124942786185439   -0.02774691385368221   -0.004166372915061033
0.0010906506345827408   -0.027444160850701754   -0.004401100542945453
0.01458138412343855   -0.05299793724342313   -0.0058469917280295925
0.0008969343239954896   -0.052830933444666155   -0.00582667348560999
0.0008445915776786549   -0.052713481150025575   -0.005885630842821337
0.0010906506345827408   -0.027444160850701754   -0.004401100542945453
0.01458138412343855   -0.05299793724342313   -0.0058469917280295925
0.0008445915776786549   -0.052713481150025575   -0.005885630842821337
0.01124942786185439   -0.02774691385368221   -0.004166372915061033
0.0010906506345827408   -0.027444160850701754   -0.004401100542945453
0.0008969343239954896   -0.052830933444666155   -0.00582667348560999
0.011297400287503093   -0.027746599623389354   -0.004434083090359307
0.0011488997594151862   -0.027435686651497378   -0.004413426449863466
0.0008969343239954896   -0.052830933444666155   -0.00582667348560999
0.01458138412343855   -0.05299793724342313   -0.0058469917280295925
0.011297400287503093   -0.027746599623389354   -0.004434083090359307
0.01453987434421854   -0.052876456486511514   -0.006015057248752331
0.0011488997594151862   -0.027435686651497378   -0.004413426449863466
0.01124133051852053   -0.027596877545228226   -0.00473723248489348
0.01453987434421854   -0.052876456486511514   -0.006015057248752331
0.011297400287503093   -0.027746599623389354   -0.004434083090359307
0.0011488997594151862   -0.027435686651497378   -0.004413426449863466
0.01453987434421854   -0.052876456486511514   -0.006015057248752331
0.0009290250756284016   -0.052840297741178356   -0.005797800702191747
0.0008969343239954896   -0.052830933444666155   -0.00582667348560999
0.0011488997594151862   -0.027435686651497378   -0.004413426449863466
0.01453987434421854   -0.052876456486511514   -0.006015057248752331
0.0008969343239954896   -0.052830933444666155   -0.00582667348560999
0.011297400287503093   -0.027746599623389354   -0.004434083090359307
0.0011488997594151862   -0.027435686651497378   -0.004413426449863466
0.0009290250756284016   -0.052840297741178356   -0.005797800702191747
0.01124133051852053   -0.027596877545228226   -0.00473723248489348
0.001211653806963387   -0.027270286162315093   -0.004457573042462419
0.0009290250756284016   -0.052840297741178356   -0.005797800702191747
0.01453987434421854   -0.052876456486511514   -0.006015057248752331
0.01124133051852053   -0.027596877545228226   -0.00473723248489348
0.014480265952637494   -0.05262299719747434   -0.006214286801181931
0.001211653806963387   -0.027270286162315093   -0.004457573042462419
0.011207797287419222   -0.02725665592639673   -0.00506461829009618
0.014480265952637494   -0.05262299719747434   -0.006214286801181931
0.01124133051852053   -0.027596877545228226   -0.00473723248489348
0.001211653806963387   -0.027270286162315093   -0.004457573042462419
0.014480265952637494   -0.05262299719747434   -0.006214286801181931
0.000951055588457272   -0.05273995708539503   -0.005800856142252403
0.0009290250756284016   -0.052840297741178356   -0.005797800702191747
0.001211653806963387   -0.027270286162315093   -0.004457573042462419
0.014480265952637494   -0.05262299719747434   -0.006214286801181931
0.0009290250756284016   -0.052840297741178356   -0.005797800702191747
0.01124133051852053   -0.027596877545228226   -0.00473723248489348
0.01124942786185439   -0.02774691385368221   -0.004166372915061033
0.014536591013331917   -0.05301351588545517   -0.0057068001235713334
0.023609626919075578   -0.028577607004916267   -0.0040959277569996
0.011297400287503093   -0.027746599623389354   -0.004434083090359307
0.014536591013331917   -0.05301351588545517   -0.0057068001235713334
0.030127353379393727   -0.0535586091362155   -0.005707285751632706
0.023609626919075578   -0.028577607004916267   -0.0040959277569996
0.02985868978408671   -0.053466599843491704   -0.00607268889227304
0.011297400287503093   -0.027746599623389354   -0.004434083090359307
0.023123641827081126   -0.02850092376110057   -0.004697690010222603
0.02985868978408671   -0.053466599843491704   -0.00607268889227304
0.023609626919075578   -0.028577607004916267   -0.0040959277569996
0.011297400287503093   -0.027746599623389354   -0.004434083090359307
0.02985868978408671   -0.053466599843491704   -0.00607268889227304
0.01458138412343855   -0.05299793724342313   -0.0058469917280295925
0.014536591013331917   -0.05301351588545517   -0.0057068001235713334
0.011297400287503093   -0.027746599623389354   -0.004434083090359307
0.02985868978408671   -0.053466599843491704   -0.00607268889227304
0.014536591013331917   -0.05301351588545517   -0.0057068001235713334
0.023609626919075578   -0.028577607004916267   -0.0040959277569996
0.011297400287503093   -0.027746599623389354   -0.004434083090359307
0.01458138412343855   -0.05299793724342313   -0.0058469917280295925
0.023123641827081126   -0.02850092376110057   -0.004697690010222603
0.01124133051852053   -0.027596877545228226   -0.00473723248489348
0.01458138412343855   -0.05299793724342313   -0.0058469917280295925
0.02985868978408671   -0.053466599843491704   -0.00607268889227304
0.023123641827081126   -0.02850092376110057   -0.004697690010222603
0.029591432010704723   -0.053279306560012105   -0.006488352263709711
0.01124133051852053   -0.027596877545228226   -0.00473723248489348
0.022689808072218348   -0.028269897383174862   -0.005374064148565847
0.029591432010704723   -0.053279306560012105   -0.006488352263709711
0.023123641827081126   -0.02850092376110057   -0.004697690010222603
0.01124133051852053   -0.027596877545228226   -0.00473723248489348
0.029591432010704723   -0.053279306560012105   -0.006488352263709711
0.01453987434421854   -0.052876456486511514   -0.006015057248752331
0.01458138412343855   -0.05299793724342313   -0.0058469917280295925
0.01124133051852053   -0.027596877545228226   -0.00473723248489348
0.029591432010704723   -0.053279306560012105   -0.006488352263709711
0.01458138412343855   -0.05299793724342313   -0.0058469917280295925
0.023123641827081126   -0.02850092376110057   -0.004697690010222603
0.01124133051852053   -0.027596877545228226   -0.00473723248489348
0.01453987434421854   -0.052876456486511514   -0.006015057248752331
0.022689808072218348   -0.028269897383174862   -0.005374064148565847
0.011207797287419222   -0.02725665592639673   -0.00506461829009618
0.01453987434421854   -0.052876456486511514   -0.006015057248752331
0.029591432010704723   -0.053279306560012105   -0.006488352263709711
0.022689808072218348   -0.028269897383174862   -0.005374064148565847
0.029120871151181695   -0.05288505044184752   -0.006954327750868125
0.011207797287419222   -0.02725665592639673   -0.00506461829009618
0.022042129675468494   -0.02775464642539795   -0.006077782394383402
0.029120871151181695   -0.05288505044184752   -0.006954327750868125
0.022689808072218348   -0.028269897383174862   -0.005374064148565847
0.011207797287419222   -0.02725665592639673   -0.00506461829009618
0.029120871151181695   -0.05288505044184752   -0.006954327750868125
0.014480265952637494   -0.05262299719747434   -0.006214286801181931
0.01453987434421854   -0.052876456486511514   -0.006015057248752331
0.011207797287419222   -0.02725665592639673   -0.00506461829009618
0.029120871151181695   -0.05288505044184752   -0.006954327750868125
0.01453987434421854   -0.052876456486511514   -0.006015057248752331
0.022689808072218348   -0.028269897383174862   -0.005374064148565847
-0.04015824858889829   -0.053809628958698306   -0.00804918382969318
-0.04798334273189954   -0.08365619684324442   -0.008580269036475179
-0.025816259716396055   -0.053090630325964706   -0.007031772618300239
-0.04087801467695266   -0.054370341931865976   -0.007345773046588842
-0.04798334273189954   -0.08365619684324442   -0.008580269036475179
-0.031138369935554334   -0.08319792825564142   -0.007749393070354524
-0.025816259716396055   -0.053090630325964706   -0.007031772618300239
-0.031179847690850325   -0.08355153234937256   -0.007426774439637835
-0.04087801467695266   -0.054370341931865976   -0.007345773046588842
-0.0258769926337612   -0.053501079518089696   -0.006581607780568244
-0.031179847690850325   -0.08355153234937256   -0.007426774439637835
-0.025816259716396055   -0.053090630325964706   -0.007031772618300239
-0.04087801467695266   -0.054370341931865976   -0.007345773046588842
-0.031179847690850325   -0.08355153234937256   -0.007426774439637835
-0.04847048762127763   -0.08413438049459315   -0.008112215427841437
-0.04798334273189954   -0.08365619684324442   -0.008580269036475179
-0.04087801467695266   -0.054370341931865976   -0.007345773046588842
-0.031179847690850325   -0.08355153234937256   -0.007426774439637835
-0.04798334273189954   -0.08365619684324442   -0.008580269036475179
-0.025816259716396055   -0.053090630325964706   -0.007031772618300239
-0.04087801467695266   -0.054370341931865976   -0.007345773046588842
-0.04847048762127763   -0.08413438049459315   -0.008112215427841437
-0.0258769926337612   -0.053501079518089696   -0.006581607780568244
-0.04133365845224929   -0.05472159354360256   -0.006689914023656805
-0.04847048762127763   -0.08413438049459315   -0.008112215427841437
-0.031179847690850325   -0.08355153234937256   -0.007426774439637835
-0.0258769926337612   -0.053501079518089696   -0.006581607780568244
-0.03121072571877356   -0.0838315376999865   -0.007136234605028663
-0.04133365845224929   -0.05472159354360256   -0.006689914023656805
-0.025948006849197132   -0.05378640165122053   -0.006163872611474769
-0.03121072571877356   -0.0838315376999865   -0.007136234605028663
-0.0258769926337612   -0.053501079518089696   -0.006581607780568244
-0.04133365845224929   -0.05472159354360256   -0.006689914023656805
-0.03121072571877356   -0.0838315376999865   -0.007136234605028663
-0.04875199111455548   -0.08447231019603565   -0.00768890442473074
-0.04847048762127763   -0.08413438049459315   -0.008112215427841437
-0.04133365845224929   -0.05472159354360256   -0.006689914023656805
-0.03121072571877356   -0.0838315376999865   -0.007136234605028663
-0.04847048762127763   -0.08413438049459315   -0.008112215427841437
-0.0258769926337612   -0.053501079518089696   -0.006581607780568244
-0.04133365845224929   -0.05472159354360256   -0.006689914023656805
-0.04875199111455548   -0.08447231019603565   -0.00768890442473074
-0.025948006849197132   -0.05378640165122053   -0.006163872611474769
-0.04185209199688469   -0.0549734259549818   -0.006086050006090021
-0.04875199111455548   -0.08447231019603565   -0.00768890442473074
-0.03121072571877356   -0.0838315376999865   -0.007136234605028663
-0.025948006849197132   -0.05378640165122053   -0.006163872611474769
-0.031150222551945675   -0.08406112911947045   -0.006873534503740869
-0.04185209199688469   -0.0549734259549818   -0.006086050006090021
-0.025903733372514667   -0.05397363546728009   -0.0057716682036083435
-0.031150222551945675   -0.08406112911947045   -0.006873534503740869
-0.025948006849197132   -0.05378640165122053   -0.006163872611474769
-0.04185209199688469   -0.0549734259549818   -0.006086050006090021
-0.031150222551945675   -0.08406112911947045   -0.006873534503740869
-0.04904228633663765   -0.0847745553468342   -0.007315631261321117
-0.04875199111455548   -0.08447231019603565   -0.00768890442473074
-0.04185209199688469   -0.0549734259549818   -0.006086050006090021
-0.031150222551945675   -0.08406112911947045   -0.006873534503740869
-0.04875199111455548   -0.08447231019603565   -0.00768890442473074
-0.025948006849197132   -0.05378640165122053   -0.006163872611474769
-0.025816259716396055   -0.053090630325964706   -0.007031772618300239
-0.031138369935554334   -0.08319792825564142   -0.007749393070354524
-0.012288050256093475   -0.05273247808961043   -0.0063247481601796576
-0.0258769926337612   -0.053501079518089696   -0.006581607780568244
-0.031138369935554334   -0.08319792825564142   -0.007749393070354524
-0.015343294022900118   -0.08296158745564217   -0.007173936162847018
-0.012288050256093475   -0.05273247808961043   -0.0063247481601796576
-0.015318055795064659   -0.08318375211462463   -0.006961387336717796
-0.0258769926337612   -0.053501079518089696   -0.006581607780568244
-0.012261385536548878   -0.052995221297301096   -0.006070725503007828
-0.015318055795064659   -0.08318375211462463   -0.006961387336717796
-0.012288050256093475   -0.05273247808961043   -0.0063247481601796576
-0.0258769926337612   -0.053501079518089696   -0.006581607780568244
-0.015318055795064659   -0.08318375211462463   -0.006961387336717796
-0.031179847690850325   -0.08355153234937256   -0.007426774439637835
-0.031138369935554334   -0.08319792825564142   -0.007749393070354524
-0.0258769926337612   -0.053501079518089696   -0.006581607780568244
-0.015318055795064659   -0.08318375211462463   -0.006961387336717796
-0.031138369935554334   -0.08319792825564142   -0.007749393070354524
-0.012288050256093475   -0.05273247808961043   -0.0063247481601796576
-0.0258769926337612   -0.053501079518089696   -0.006581607780568244
-0.031179847690850325   -0.08355153234937256   -0.007426774439637835
-0.012261385536548878   -0.052995221297301096   -0.006070725503007828
-0.025948006849197132   -0.05378640165122053   -0.006163872611474769
-0.031179847690850325   -0.08355153234937256   -0.007426774439637835
-0.015318055795064659   -0.08318375211462463   -0.006961387336717796
-0.012261385536548878   -0.052995221297301096   -0.006070725503007828
-0.015282096158308882   -0.08334427679502086   -0.0067804551619738045
-0.025948006849197132   -0.05378640165122053   -0.006163872611474769
-0.012227774563980057   -0.05314943283373966   -0.005847608443525621
-0.015282096158308882   -0.08334427679502086   -0.0067804551619738045
-0.012261385536548878   -0.052995221297301096   -0.006070725503007828
-0.025948006849197132   -0.05378640165122053   -0.006163872611474769
-0.015282096158308882   -0.08334427679502086   -0.0067804551619738045
-0.03121072571877356   -0.0838315376999865   -0.007136234605028663
-0.031179847690850325   -0.08355153234937256   -0.007426774439637835
-0.025948006849197132   -0.05378640165122053   -0.006163872611474769
-0.015282096158308882   -0.08334427679502086   -0.0067804551619738045
-0.031179847690850325   -0.08355153234937256   -0.007426774439637835
-0.012261385536548878   -0.052995221297301096   -0.006070725503007828
-0.025948006849197132   -0.05378640165122053   -0.006163872611474769
-0.03121072571877356   -0.0838315376999865   -0.007136234605028663
-0.012227774563980057   -0.05314943283373966   -0.005847608443525621
-0.025903733372514667   -0.05397363546728009   -0.0057716682036083435
-0.03121072571877356   -0.0838315376999865   -0.007136234605028663
-0.015282096158308882   -0.08334427679502086   -0.0067804551619738045
-0.012227774563980057   -0.05314943283373966   -0.005847608443525621
-0.015226586124628742   -0.08344420954739487   -0.006631649048370034
-0.025903733372514667   -0.05397363546728009   -0.0057716682036083435
-0.012169952348664009   -0.053197318165830426   -0.0056552932479821405
-0.015226586124628742   -0.08344420954739487   -0.006631649048370034
-0.012227774563980057   -0.05314943283373966   -0.005847608443525621
-0.025903733372514667   -0.05397363546728009   -0.0057716682036083435
-0.015226586124628742   -0.08344420954739487   -0.006631649048370034
-0.031150222551945675   -0.08406112911947045   -0.006873534503740869
-0.03121072571877356   -0.0838315376999865   -0.007136234605028663
-0.025903733372514667   -0.05397363546728009   -0.0057716682036083435
-0.015226586124628742   -0.08344420954739487   -0.006631649048370034
-0.03121072571877356   -0.0838315376999865   -0.007136234605028663
-0.012227774563980057   -0.05314943283373966   -0.005847608443525621
-0.012288050256093475   -0.05273247808961043   -0.0063247481601796576
-0.015343294022900118   -0.08296158745564217   -0.007173936162847018
0.0008445915776786549   -0.052713481150025575   -0.005885630842821337
-0.012261385536548878   -0.052995221297301096   -0.006070725503007828
-0.015343294022900118   -0.08296158745564217   -0.007173936162847018
2.381873009240268e-05   -0.0829212627297337   -0.00683799465297958
0.0008445915776786549   -0.052713481150025575   -0.005885630842821337
7.470047126674871e-05   -0.08301140064322406   -0.006736323697084604
-0.012261385536548878   -0.052995221297301096   -0.006070725503007828
0.0008969343239954896   -0.052830933444666155   -0.00582667348560999
7.470047126674871e-05   -0.08301140064322406   -0.006736323697084604
0.0008445915776786549   -0.052713481150025575   -0.005885630842821337
-0.012261385536548878   -0.052995221297301096   -0.006070725503007828
7.470047126674871e-05   -0.08301140064322406   -0.006736323697084604
-0.015318055795064659   -0.08318375211462463   -0.006961387336717796
-0.015343294022900118   -0.08296158745564217   -0.007173936162847018
-0.012261385536548878   -0.052995221297301096   -0.006070725503007828
7.470047126674871e-05   -0.08301140064322406   -0.006736323697084604
-0.015343294022900118   -0.08296158745564217   -0.007173936162847018
0.0008445915776786549   -0.052713481150025575   -0.005885630842821337
-0.012261385536548878   -0.052995221297301096   -0.006070725503007828
-0.015318055795064659   -0.08318375211462463   -0.006961387336717796
0.0008969343239954896   -0.052830933444666155   -0.00582667348560999
-0.012227774563980057   -0.05314943283373966   -0.005847608443525621
-0.015318055795064659   -0.08318375211462463   -0.006961387336717796
7.470047126674871e-05   -0.08301140064322406   -0.006736323697084604
0.0008969343239954896   -0.052830933444666155   -0.00582667348560999
0.00010979785524412395   -0.08303947848892894   -0.006665854719311506
-0.012227774563980057   -0.05314943283373966   -0.005847608443525621
0.0009290250756284016   -0.052840297741178356   -0.005797800702191747
0.00010979785524412395   -0.08303947848892894   -0.006665854719311506
0.0008969343239954896   -0.052830933444666155   -0.00582667348560999
-0.012227774563980057   -0.05314943283373966   -0.005847608443525621
0.00010979785524412395   -0.08303947848892894   -0.006665854719311506
-0.015282096158308882   -0.08334427679502086   -0.0067804551619738045
-0.015318055795064659   -0.08318375211462463   -0.006961387336717796
-0.012227774563980057   -0.05314943283373966   -0.005847608443525621
0.00010979785524412395   -0.08303947848892894   -0.006665854719311506
-0.015318055795064659   -0.08318375211462463   -0.006961387336717796
0.0008969343239954896   -0.052830933444666155   -0.00582667348560999
-0.012227774563980057   -0.05314943283373966   -0.005847608443525621
-0.015282096158308882   -0.08334427679502086   -0.0067804551619738045
0.0009290250756284016   -0.052840297741178356   -0.005797800702191747
-0.012169952348664009   -0.053197318165830426   -0.0056552932479821405
-0.015282096158308882   -0.08334427679502086   -0.0067804551619738045
0.00010979785524412395   -0.08303947848892894   -0.006665854719311506
0.0009290250756284016   -0.052840297741178356   -0.005797800702191747
0.00013057705074881956   -0.08300464863379861   -0.00662798026570647
-0.012169952348664009   -0.053197318165830426   -0.0056552932479821405
0.000951055588457272   -0.05273995708539503   -0.005800856142252403
0.00013057705074881956   -0.08300464863379861   -0.00662798026570647
0.0009290250756284016   -0.052840297741178356   -0.005797800702191747
-0.012169952348664009   -0.053197318165830426   -0.0056552932479821405
0.00013057705074881956   -0.08300464863379861   -0.00662798026570647
-0.015226586124628742   -0.08344420954739487   -0.006631649048370034
-0.015282096158308882   -0.08334427679502086   -0.0067804551619738045
-0.012169952348664009   -0.053197318165830426   -0.0056552932479821405
0.00013057705074881956   -0.08300464863379861   -0.00662798026570647
-0.015282096158308882   -0.08334427679502086   -0.0067804551619738045
0.0009290250756284016   -0.052840297741178356   -0.005797800702191747
0.0008445915776786549   -0.052713481150025575   -0.005885630842821337
2.381873009240268e-05   -0.0829212627297337   -0.00683799465297958
0.014536591013331917   -0.05301351588545517   -0.0057068001235713334
0.0008969343239954896   -0.052830933444666155   -0.00582667348560999
2.381873009240268e-05   -0.0829212627297337   -0.00683799465297958
0.015919148265370265   -0.08306030588297574   -0.006740067454393519
0.014536591013331917   -0.05301351588545517   -0.0057068001235713334
0.015981980906123662   -0.08302621525673122   -0.006751642341556246
0.0008969343239954896   -0.052830933444666155   -0.00582667348560999
0.01458138412343855   -0.05299793724342313   -0.0058469917280295925
0.015981980906123662   -0.08302621525673122   -0.006751642341556246
0.014536591013331917   -0.05301351588545517   -0.0057068001235713334
0.0008969343239954896   -0.052830933444666155   -0.00582667348560999
0.015981980906123662   -0.08302621525673122   -0.006751642341556246
7.470047126674871e-05   -0.08301140064322406   -0.006736323697084604
2.381873009240268e-05   -0.0829212627297337   -0.00683799465297958
0.0008969343239954896   -0.052830933444666155   -0.00582667348560999
0.015981980906123662   -0.08302621525673122   -0.006751642341556246
2.381873009240268e-05   -0.0829212627297337   -0.00683799465297958
0.014536591013331917   -0.05301351588545517   -0.0057068001235713334
0.0008969343239954896   -0.052830933444666155   -0.00582667348560999
7.470047126674871e-05   -0.08301140064322406   -0.006736323697084604
0.01458138412343855   -0.05299793724342313   -0.0058469917280295925
0.0009290250756284016   -0.052840297741178356   -0.005797800702191747
7.470047126674871e-05   -0.08301140064322406   -0.006736323697084604
0.015981980906123662   -0.08302621525673122   -0.006751642341556246
0.01458138412343855   -0.05299793724342313   -0.0058469917280295925
0.015982642352658623   -0.08293466291523652   -0.006792749966564836
0.0009290250756284016   -0.052840297741178356   -0.005797800702191747
0.01453987434421854   -0.052876456486511514   -0.006015057248752331
0.015982642352658623   -0.08293466291523652   -0.006792749966564836
0.01458138412343855   -0.05299793724342313   -0.0058469917280295925
0.0009290250756284016   -0.052840297741178356   -0.005797800702191747
0.015982642352658623   -0.08293466291523652   -0.006792749966564836
0.00010979785524412395   -0.08303947848892894   -0.006665854719311506
7.470047126674871e-05   -0.08301140064322406   -0.006736323697084604
0.0009290250756284016   -0.052840297741178356   -0.005797800702191747
0.015982642352658623   -0.08293466291523652   -0.006792749966564836
7.470047126674871e-05   -0.08301140064322406   -0.006736323697084604
0.01458138412343855   -0.05299793724342313   -0.0058469917280295925
0.0009290250756284016   -0.052840297741178356   -0.005797800702191747
0.00010979785524412395   -0.08303947848892894   -0.006665854719311506
0.01453987434421854   -0.052876456486511514   -0.006015057248752331
0.000951055588457272   -0.05273995708539503   -0.005800856142252403
0.00010979785524412395   -0.08303947848892894   -0.006665854719311506
0.015982642352658623   -0.08293466291523652   -0.006792749966564836
0.01453987434421854   -0.052876456486511514   -0.006015057248752331
0.015943585548272944   -0.08276258811318696   -0.006864501230325619
0.000951055588457272   -0.05273995708539503   -0.005800856142252403
0.014480265952637494   -0.05262299719747434   -0.006214286801181931
0.015943585548272944   -0.08276258811318696   -0.006864501230325619
0.01453987434421854   -0.052876456486511514   -0.006015057248752331
0.000951055588457272   -0.05273995708539503   -0.005800856142252403
0.015943585548272944   -0.08276258811318696   -0.006864501230325619
0.00013057705074881956   -0.08300464863379861   -0.00662798026570647
0.00010979785524412395   -0.08303947848892894   -0.006665854719311506
0.000951055588457272   -0.05273995708539503   -0.005800856142252403
0.015943585548272944   -0.08276258811318696   -0.006864501230325619
0.00010979785524412395   -0.08303947848892894   -0.006665854719311506
0.01453987434421854   -0.052876456486511514   -0.006015057248752331
0.014536591013331917   -0.05301351588545517   -0.0057068001235713334
0.015919148265370265   -0.08306030588297574   -0.006740067454393519
0.030127353379393727   -0.0535586091362155   -0.005707285751632706
0.01458138412343855   -0.05299793724342313   -0.0058469917280295925
0.015919148265370265   -0.08306030588297574   -0.006740067454393519
0.033471917973799045   -0.0833165363732654   -0.006827465780512356
0.030127353379393727   -0.0535586091362155   -0.005707285751632706
0.033434462682948946   -0.08319846802107755   -0.006961690640347485
0.01458138412343855   -0.05299793724342313   -0.0058469917280295925
0.02985868978408671   -0.053466599843491704   -0.00607268889227304
0.033434462682948946   -0.08319846802107755   -0.006961690640347485
0.030127353379393727   -0.0535586091362155   -0.005707285751632706
0.01458138412343855   -0.05299793724342313   -0.0058469917280295925
0.033434462682948946   -0.08319846802107755   -0.006961690640347485
0.015981980906123662   -0.08302621525673122   -0.006751642341556246
0.015919148265370265   -0.08306030588297574   -0.006740067454393519
0.01458138412343855   -0.05299793724342313   -0.0058469917280295925
0.033434462682948946   -0.08319846802107755   -0.006961690640347485
0.015919148265370265   -0.08306030588297574   -0.006740067454393519
0.030127353379393727   -0.0535586091362155   -0.005707285751632706
0.01458138412343855   -0.05299793724342313   -0.0058469917280295925
0.015981980906123662   -0.08302621525673122   -0.006751642341556246
0.02985868978408671   -0.053466599843491704   -0.00607268889227304
0.01453987434421854   -0.052876456486511514   -0.006015057248752331
0.015981980906123662   -0.08302621525673122   -0.006751642341556246
0.033434462682948946   -0.08319846802107755   -0.006961690640347485
0.02985868978408671   -0.053466599843491704   -0.00607268889227304
0.03334495121368137   -0.08304879312415879   -0.007143802067118767
0.01453987434421854   -0.052876456486511514   -0.006015057248752331
0.029591432010704723   -0.053279306560012105   -0.006488352263709711
0.03334495121368137   -0.08304879312415879   -0.007143802067118767
0.02985868978408671   -0.053466599843491704   -0.00607268889227304
0.01453987434421854   -0.052876456486511514   -0.006015057248752331
0.03334495121368137   -0.08304879312415879   -0.007143802067118767
0.015982642352658623   -0.08293466291523652   -0.006792749966564836
0.015981980906123662   -0.08302621525673122   -0.006751642341556246
0.01453987434421854   -0.052876456486511514   -0.006015057248752331
0.03334495121368137   -0.08304879312415879   -0.007143802067118767
0.015981980906123662   -0.08302621525673122   -0.006751642341556246
0.02985868978408671   -0.053466599843491704   -0.00607268889227304
0.01453987434421854   -0.052876456486511514   -0.006015057248752331
0.015982642352658623   -0.08293466291523652   -0.006792749966564836
0.029591432010704723   -0.053279306560012105   -0.006488352263709711
0.014480265952637494   -0.05262299719747434   -0.006214286801181931
0.015982642352658623   -0.08293466291523652   -0.006792749966564836
0.03334495121368137   -0.08304879312415879   -0.007143802067118767
0.029591432010704723   -0.053279306560012105   -0.006488352263709711
0.03311029622090849   -0.08276217947472575   -0.0073734534328821506
0.014480265952637494   -0.05262299719747434   -0.006214286801181931
0.029120871151181695   -0.05288505044184752   -0.006954327750868125
0.03311029622090849   -0.08276217947472575   -0.0073734534328821506
0.029591432010704723   -0.053279306560012105   -0.006488352263709711
0.014480265952637494   -0.05262299719747434   -0.006214286801181931
0.03311029622090849   -0.08276217947472575   -0.0073734534328821506
0.015943585548272944   -0.08276258811318696   -0.006864501230325619
0.015982642352658623   -0.08293466291523652   -0.006792749966564836
0.014480265952637494   -0.05262299719747434   -0.006214286801181931
0.03311029622090849   -0.08276217947472575   -0.0073734534328821506
0.015982642352658623   -0.08293466291523652   -0.006792749966564836
0.029591432010704723   -0.053279306560012105   -0.006488352263709711
-0.04798334273189954   -0.08365619684324442   -0.008580269036475179
-0.05273347151526035   -0.11617389480051389   -0.0087330316044085
-0.031138369935554334   -0.08319792825564142   -0.007749393070354524
-0.04847048762127763   -0.08413438049459315   -0.008112215427841437
-0.05273347151526035   -0.11617389480051389   -0.0087330316044085
-0.03463816556321764   -0.11598641913403458   -0.00807001924597951
-0.031138369935554334   -0.08319792825564142   -0.007749393070354524
-0.03462774688016498   -0.11628851910648765   -0.007871863853558099
-0.04847048762127763   -0.08413438049459315   -0.008112215427841437
-0.031179847690850325   -0.08355153234937256   -0.007426774439637835
-0.03462774688016498   -0.11628851910648765   -0.007871863853558099
-0.031138369935554334   -0.08319792825564142   -0.007749393070354524
-0.04847048762127763   -0.08413438049459315   -0.008112215427841437
-0.03462774688016498   -0.11628851910648765   -0.007871863853558099
-0.05296344567124287   -0.11657982096915599   -0.008490795315725733
-0.05273347151526035   -0.11617389480051389   -0.0087330316044085
-0.04847048762127763   -0.08413438049459315   -0.008112215427841437
-0.03462774688016498   -0.11628851910648765   -0.007871863853558099
-0.05273347151526035   -0.11617389480051389   -0.0087330316044085
-0.031138369935554334   -0.08319792825564142   -0.007749393070354524
-0.04847048762127763   -0.08413438049459315   -0.008112215427841437
-0.05296344567124287   -0.11657982096915599   -0.008490795315725733
-0.031179847690850325   -0.08355153234937256   -0.007426774439637835
-0.04875199111455548   -0.08447231019603565   -0.00768890442473074
-0.05296344567124287   -0.11657982096915599   -0.008490795315725733
-0.03462774688016498   -0.11628851910648765   -0.007871863853558099
-0.031179847690850325   -0.08355153234937256   -0.007426774439637835
-0.034584686008601276   -0.11656683875314314   -0.007706599708747746
-0.04875199111455548   -0.08447231019603565   -0.00768890442473074
-0.03121072571877356   -0.0838315376999865   -0.007136234605028663
-0.034584686008601276   -0.11656683875314314   -0.007706599708747746
-0.031179847690850325   -0.08355153234937256   -0.007426774439637835
-0.04875199111455548   -0.08447231019603565   -0.00768890442473074
-0.034584686008601276   -0.11656683875314314   -0.007706599708747746
-0.05303943578655021   -0.11691045765001369   -0.008295911491635985
-0.05296344567124287   -0.11657982096915599   -0.008490795315725733
-0.04875199111455548   -0.08447231019603565   -0.00768890442473074
-0.034584686008601276   -0.11656683875314314   -0.007706599708747746
-0.05296344567124287   -0.11657982096915599   -0.008490795315725733
-0.031179847690850325   -0.08355153234937256   -0.007426774439637835
-0.04875199111455548   -0.08447231019603565   -0.00768890442473074
-0.05303943578655021   -0.11691045765001369   -0.008295911491635985
-0.03121072571877356   -0.0838315376999865   -0.007136234605028663
-0.04904228633663765   -0.0847745553468342   -0.007315631261321117
-0.05303943578655021   -0.11691045765001369   -0.008295911491635985
-0.034584686008601276   -0.11656683875314314   -0.007706599708747746
-0.03121072571877356   -0.0838315376999865   -0.007136234605028663
-0.03447347012103689   -0.11684255868641455   -0.0075719534709829985
-0.04904228633663765   -0.0847745553468342   -0.007315631261321117
-0.031150222551945675   -0.08406112911947045   -0.006873534503740869
-0.03447347012103689   -0.11684255868641455   -0.0075719534709829985
-0.03121072571877356   -0.0838315376999865   -0.007136234605028663
-0.04904228633663765   -0.0847745553468342   -0.007315631261321117
-0.03447347012103689   -0.11684255868641455   -0.0075719534709829985
-0.05306794709835343   -0.1172689807123069   -0.008152411979959692
-0.05303943578655021   -0.11691045765001369   -0.008295911491635985
-0.04904228633663765   -0.0847745553468342   -0.007315631261321117
-0.03447347012103689   -0.11684255868641455   -0.0075719534709829985
-0.05303943578655021   -0.11691045765001369   -0.008295911491635985
-0.03121072571877356   -0.0838315376999865   -0.007136234605028663
-0.031138369935554334   -0.08319792825564142   -0.007749393070354524
-0.03463816556321764   -0.11598641913403458   -0.00807001924597951
-0.015343294022900118   -0.08296158745564217   -0.007173936162847018
-0.031179847690850325   -0.08355153234937256   -0.007426774439637835
-0.03463816556321764   -0.11598641913403458   -0.00807001924597951
-0.017828104192087118   -0.1158795478864034   -0.00761853191857429
-0.015343294022900118   -0.08296158745564217   -0.007173936162847018
-0.01776859654642456   -0.11606267211477607   -0.007446297039365372
-0.031179847690850325   -0.08355153234937256   -0.007426774439637835
-0.015318055795064659   -0.08318375211462463   -0.006961387336717796
-0.01776859654642456   -0.11606267211477607   -0.007446297039365372
-0.015343294022900118   -0.08296158745564217   -0.007173936162847018
-0.031179847690850325   -0.08355153234937256   -0.007426774439637835
-0.01776859654642456   -0.11606267211477607   -0.007446297039365372
-0.03462774688016498   -0.11628851910648765   -0.007871863853558099
-0.03463816556321764   -0.11598641913403458   -0.00807001924597951
-0.031179847690850325   -0.08355153234937256   -0.007426774439637835
-0.01776859654642456   -0.11606267211477607   -0.007446297039365372
-0.03463816556321764   -0.11598641913403458   -0.00807001924597951
-0.015343294022900118   -0.08296158745564217   -0.007173936162847018
-0.031179847690850325   -0.08355153234937256   -0.007426774439637835
-0.03462774688016498   -0.11628851910648765   -0.007871863853558099
-0.015318055795064659   -0.08318375211462463   -0.006961387336717796
-0.03121072571877356   -0.0838315376999865   -0.007136234605028663
-0.03462774688016498   -0.11628851910648765   -0.007871863853558099
-0.01776859654642456   -0.11606267211477607   -0.007446297039365372
-0.015318055795064659   -0.08318375211462463   -0.006961387336717796
-0.017694829047478596   -0.11623048158897369   -0.007306997526326165
-0.03121072571877356   -0.0838315376999865   -0.007136234605028663
-0.015282096158308882   -0.08334427679502086   -0.0067804551619738045
-0.017694829047478596   -0.11623048158897369   -0.007306997526326165
-0.015318055795064659   -0.08318375211462463   -0.006961387336717796
-0.03121072571877356   -0.0838315376999865   -0.007136234605028663
-0.017694829047478596   -0.11623048158897369   -0.007306997526326165
-0.034584686008601276   -0.11656683875314314   -0.007706599708747746
-0.03462774688016498   -0.11628851910648765   -0.007871863853558099
-0.03121072571877356   -0.0838315376999865   -0.007136234605028663
-0.017694829047478596   -0.11623048158897369   -0.007306997526326165
-0.03462774688016498   -0.11628851910648765   -0.007871863853558099
-0.015318055795064659   -0.08318375211462463   -0.006961387336717796
-0.03121072571877356   -0.0838315376999865   -0.007136234605028663
-0.034584686008601276   -0.11656683875314314   -0.007706599708747746
-0.015282096158308882   -0.08334427679502086   -0.0067804551619738045
-0.031150222551945675   -0.08406112911947045   -0.006873534503740869
-0.034584686008601276   -0.11656683875314314   -0.007706599708747746
-0.017694829047478596   -0.11623048158897369   -0.007306997526326165
-0.015282096158308882   -0.08334427679502086   -0.0067804551619738045
-0.01760558303417804   -0.11638352179652617   -0.007201408833398494
-0.031150222551945675   -0.08406112911947045   -0.006873534503740869
-0.015226586124628742   -0.08344420954739487   -0.006631649048370034
-0.01760558303417804   -0.11638352179652617   -0.007201408833398494
-0.015282096158308882   -0.08334427679502086   -0.0067804551619738045
-0.031150222551945675   -0.08406112911947045   -0.006873534503740869
-0.01760558303417804   -0.11638352179652617   -0.007201408833398494
-0.03447347012103689   -0.11684255868641455   -0.0075719534709829985
-0.034584686008601276   -0.11656683875314314   -0.007706599708747746
-0.031150222551945675   -0.08406112911947045   -0.006873534503740869
-0.01760558303417804   -0.11638352179652617   -0.007201408833398494
-0.034584686008601276   -0.11656683875314314   -0.007706599708747746
-0.015282096158308882   -0.08334427679502086   -0.0067804551619738045
-0.015343294022900118   -0.08296158745564217   -0.007173936162847018
-0.017828104192087118   -0.1158795478864034   -0.00761853191857429
2.381873009240268e-05   -0.0829212627297337   -0.00683799465297958
-0.015318055795064659   -0.08318375211462463   -0.006961387336717796
-0.017828104192087118   -0.1158795478864034   -0.00761853191857429
-0.0014727240348051957   -0.11581880279468579   -0.007384145339433083
2.381873009240268e-05   -0.0829212627297337   -0.00683799465297958
-0.0013883751146629975   -0.11588088115964931   -0.007239513718454595
-0.015318055795064659   -0.08318375211462463   -0.006961387336717796
7.470047126674871e-05   -0.08301140064322406   -0.006736323697084604
-0.0013883751146629975   -0.11588088115964931   -0.007239513718454595
2.381873009240268e-05   -0.0829212627297337   -0.00683799465297958
-0.015318055795064659   -0.08318375211462463   -0.006961387336717796
-0.0013883751146629975   -0.11588088115964931   -0.007239513718454595
-0.01776859654642456   -0.11606267211477607   -0.007446297039365372
-0.017828104192087118   -0.1158795478864034   -0.00761853191857429
-0.015318055795064659   -0.08318375211462463   -0.006961387336717796
-0.0013883751146629975   -0.11588088115964931   -0.007239513718454595
-0.017828104192087118   -0.1158795478864034   -0.00761853191857429
2.381873009240268e-05   -0.0829212627297337   -0.00683799465297958
-0.015318055795064659   -0.08318375211462463   -0.006961387336717796
-0.01776859654642456   -0.11606267211477607   -0.007446297039365372
7.470047126674871e-05   -0.08301140064322406   -0.006736323697084604
-0.015282096158308882   -0.08334427679502086   -0.0067804551619738045
-0.01776859654642456   -0.11606267211477607   -0.007446297039365372
-0.0013883751146629975   -0.11588088115964931   -0.007239513718454595
7.470047126674871e-05   -0.08301140064322406   -0.006736323697084604
-0.001315749036332599   -0.11592657826015204   -0.0071275193702287475
-0.015282096158308882   -0.08334427679502086   -0.0067804551619738045
0.00010979785524412395   -0.08303947848892894   -0.006665854719311506
-0.001315749036332599   -0.11592657826015204   -0.0071275193702287475
7.470047126674871e-05   -0.08301140064322406   -0.006736323697084604
-0.015282096158308882   -0.08334427679502086   -0.0067804551619738045
-0.001315749036332599   -0.11592657826015204   -0.0071275193702287475
-0.017694829047478596   -0.11623048158897369   -0.007306997526326165
-0.01776859654642456   -0.11606267211477607   -0.007446297039365372
-0.015282096158308882   -0.08334427679502086   -0.0067804551619738045
-0.001315749036332599   -0.11592657826015204   -0.0071275193702287475
-0.01776859654642456   -0.11606267211477607   -0.007446297039365372
7.470047126674871e-05   -0.08301140064322406   -0.006736323697084604
-0.015282096158308882   -0.08334427679502086   -0.0067804551619738045
-0.017694829047478596   -0.11623048158897369   -0.007306997526326165
0.00010979785524412395   -0.08303947848892894   -0.006665854719311506
-0.015226586124628742   -0.08344420954739487   -0.006631649048370034
-0.017694829047478596   -0.11623048158897369   -0.007306997526326165
-0.001315749036332599   -0.11592657826015204   -0.0071275193702287475
0.00010979785524412395   -0.08303947848892894   -0.006665854719311506
-0.0012612173162253357   -0.11595567028998727   -0.00704936109152225
-0.015226586124628742   -0.08344420954739487   -0.006631649048370034
0.00013057705074881956   -0.08300464863379861   -0.00662798026570647
-0.0012612173162253357   -0.11595567028998727   -0.00704936109152225
0.00010979785524412395   -0.08303947848892894   -0.006665854719311506
-0.015226586124628742   -0.08344420954739487   -0.006631649048370034
-0.0012612173162253357   -0.11595567028998727   -0.00704936109152225
-0.01760558303417804   -0.11638352179652617   -0.007201408833398494
-0.017694829047478596   -0.11623048158897369   -0.007306997526326165
-0.015226586124628742   -0.08344420954739487   -0.006631649048370034
-0.0012612173162253357   -0.11595567028998727   -0.00704936109152225
-0.017694829047478596   -0.11623048158897369   -0.007306997526326165
0.00010979785524412395   -0.08303947848892894   -0.006665854719311506
2.381873009240268e-05   -0.0829212627297337   -0.00683799465297958
-0.0014727240348051957   -0.11581880279468579   -0.007384145339433083
0.015919148265370265   -0.08306030588297574   -0.006740067454393519
7.470047126674871e-05   -0.08301140064322406   -0.006736323697084604
-0.0014727240348051957   -0.11581880279468579   -0.007384145339433083
0.015382559617439904   -0.11579374477551341   -0.007368776122567985
0.015919148265370265   -0.08306030588297574   -0.006740067454393519
0.01549509885846808   -0.11573867336325559   -0.0072531487281762
7.470047126674871e-05   -0.08301140064322406   -0.006736323697084604
0.015981980906123662   -0.08302621525673122   -0.006751642341556246
0.01549509885846808   -0.11573867336325559   -0.0072531487281762
0.015919148265370265   -0.08306030588297574   -0.006740067454393519
7.470047126674871e-05   -0.08301140064322406   -0.006736323697084604
0.01549509885846808   -0.11573867336325559   -0.0072531487281762
-0.0013883751146629975   -0.11588088115964931   -0.007239513718454595
-0.0014727240348051957   -0.11581880279468579   -0.007384145339433083
7.470047126674871e-05   -0.08301140064322406   -0.006736323697084604
0.01549509885846808   -0.11573867336325559   -0.0072531487281762
-0.0014727240348051957   -0.11581880279468579   -0.007384145339433083
0.015919148265370265   -0.08306030588297574   -0.006740067454393519
7.470047126674871e-05   -0.08301140064322406   -0.006736323697084604
-0.0013883751146629975   -0.11588088115964931   -0.007239513718454595
0.015981980906123662   -0.08302621525673122   -0.006751642341556246
0.00010979785524412395   -0.08303947848892894   -0.006665854719311506
-0.0013883751146629975   -0.11588088115964931   -0.007239513718454595
0.01549509885846808   -0.11573867336325559   -0.0072531487281762
0.015981980906123662   -0.08302621525673122   -0.006751642341556246
0.01556907668999162   -0.11567387220758389   -0.007169234225360137
0.00010979785524412395   -0.08303947848892894   -0.006665854719311506
0.015982642352658623   -0.08293466291523652   -0.006792749966564836
0.01556907668999162   -0.11567387220758389   -0.007169234225360137
0.015981980906123662   -0.08302621525673122   -0.006751642341556246
0.00010979785524412395   -0.08303947848892894   -0.006665854719311506
0.01556907668999162   -0.11567387220758389   -0.007169234225360137
-0.001315749036332599   -0.11592657826015204   -0.0071275193702287475
-0.0013883751146629975   -0.11588088115964931   -0.007239513718454595
0.00010979785524412395   -0.08303947848892894   -0.006665854719311506
0.01556907668999162   -0.11567387220758389   -0.007169234225360137
-0.0013883751146629975   -0.11588088115964931   -0.007239513718454595
0.015981980906123662   -0.08302621525673122   -0.006751642341556246
0.00010979785524412395   -0.08303947848892894   -0.006665854719311506
-0.001315749036332599   -0.11592657826015204   -0.0071275193702287475
0.015982642352658623   -0.08293466291523652   -0.006792749966564836
0.00013057705074881956   -0.08300464863379861   -0.00662798026570647
-0.001315749036332599   -0.11592657826015204   -0.0071275193702287475
0.01556907668999162   -0.11567387220758389   -0.007169234225360137
0.015982642352658623   -0.08293466291523652   -0.006792749966564836
0.015581291379683775   -0.11557788989925892   -0.007116374068775043
0.00013057705074881956   -0.08300464863379861   -0.00662798026570647
0.015943585548272944   -0.08276258811318696   -0.006864501230325619
0.015581291379683775   -0.11557788989925892   -0.007116374068775043
0.015982642352658623   -0.08293466291523652   -0.006792749966564836
0.00013057705074881956   -0.08300464863379861   -0.00662798026570647
0.015581291379683775   -0.11557788989925892   -0.007116374068775043
-0.0012612173162253357   -0.11595567028998727   -0.00704936109152225
-0.001315749036332599   -0.11592657826015204   -0.0071275193702287475
0.00013057705074881956   -0.08300464863379861   -0.00662798026570647
0.015581291379683775   -0.11557788989925892   -0.007116374068775043
-0.001315749036332599   -0.11592657826015204   -0.0071275193702287475
0.015982642352658623   -0.08293466291523652   -0.006792749966564836
0.015919148265370265   -0.08306030588297574   -0.006740067454393519
0.015382559617439904   -0.11579374477551341   -0.007368776122567985
0.033471917973799045   -0.0833165363732654   -0.006827465780512356
0.015981980906123662   -0.08302621525673122   -0.006751642341556246
0.015382559617439904   -0.11579374477551341   -0.007368776122567985
0.03365157307618865   -0.11576001069643167   -0.007549899236838057
0.033471917973799045   -0.0833165363732654   -0.006827465780512356
0.0338732577252234   -0.11561247409558206   -0.0074564240251255316
0.015981980906123662   -0.08302621525673122   -0.006751642341556246
0.033434462682948946   -0.08319846802107755   -0.006961690640347485
0.0338732577252234   -0.11561247409558206   -0.0074564240251255316
0.033471917973799045   -0.0833165363732654   -0.006827465780512356
0.015981980906123662   -0.08302621525673122   -0.006751642341556246
0.0338732577252234   -0.11561247409558206   -0.0074564240251255316
0.01549509885846808   -0.11573867336325559   -0.0072531487281762
0.015382559617439904   -0.11579374477551341   -0.007368776122567985
0.015981980906123662   -0.08302621525673122   -0.006751642341556246
0.0338732577252234   -0.11561247409558206   -0.0074564240251255316
0.015382559617439904   -0.11579374477551341   -0.007368776122567985
0.033471917973799045   -0.0833165363732654   -0.006827465780512356
0.015981980906123662   -0.08302621525673122   -0.006751642341556246
0.01549509885846808   -0.11573867336325559   -0.0072531487281762
0.033434462682948946   -0.08319846802107755   -0.006961690640347485
0.015982642352658623   -0.08293466291523652   -0.006792749966564836
0.01549509885846808   -0.11573867336325559   -0.0072531487281762
0.0338732577252234   -0.11561247409558206   -0.0074564240251255316
0.033434462682948946   -0.08319846802107755   -0.006961690640347485
0.033988289688598614   -0.11549560344301561   -0.007411095237333605
0.015982642352658623   -0.08293466291523652   -0.006792749966564836
0.03334495121368137   -0.08304879312415879   -0.007143802067118767
0.033988289688598614   -0.11549560344301561   -0.007411095237333605
0.033434462682948946   -0.08319846802107755   -0.006961690640347485
0.015982642352658623   -0.08293466291523652   -0.006792749966564836
0.033988289688598614   -0.11549560344301561   -0.007411095237333605
0.01556907668999162   -0.11567387220758389   -0.007169234225360137
0.01549509885846808   -0.11573867336325559   -0.0072531487281762
0.015982642352658623   -0.08293466291523652   -0.006792749966564836
0.033988289688598614   -0.11549560344301561   -0.007411095237333605
0.01549509885846808   -0.11573867336325559   -0.0072531487281762
0.033434462682948946   -0.08319846802107755   -0.006961690640347485
0.015982642352658623   -0.08293466291523652   -0.006792749966564836
0.01556907668999162   -0.11567387220758389   -0.007169234225360137
0.03334495121368137   -0.08304879312415879   -0.007143802067118767
0.015943585548272944   -0.08276258811318696   -0.006864501230325619
0.01556907668999162   -0.11567387220758389   -0.007169234225360137
0.033988289688598614   -0.11549560344301561   -0.007411095237333605
0.03334495121368137   -0.08304879312415879   -0.007143802067118767
0.0340112830724239   -0.11530696846489252   -0.007414731527538206
0.015943585548272944   -0.08276258811318696   -0.006864501230325619
0.03311029622090849   -0.08276217947472575   -0.0073734534328821506
0.0340112830724239   -0.11530696846489252   -0.007414731527538206
0.03334495121368137   -0.08304879312415879   -0.007143802067118767
0.015943585548272944   -0.08276258811318696   -0.006864501230325619
0.0340112830724239   -0.11530696846489252   -0.007414731527538206
0.015581291379683775   -0.11557788989925892   -0.007116374068775043
0.01556907668999162   -0.11567387220758389   -0.007169234225360137
0.015943585548272944   -0.08276258811318696   -0.006864501230325619
0.0340112830724239   -0.11530696846489252   -0.007414731527538206
0.01556907668999162   -0.11567387220758389   -0.007169234225360137
0.03334495121368137   -0.08304879312415879   -0.007143802067118767
-0.05273347151526035   -0.11617389480051389   -0.0087330316044085
-0.0544022567459898   -0.1493047353024106   -0.008581383109358172
-0.03463816556321764   -0.11598641913403458   -0.00807001924597951
-0.05296344567124287   -0.11657982096915599   -0.008490795315725733
-0.0544022567459898   -0.1493047353024106   -0.008581383109358172
-0.03631595861436499   -0.14939070333675902   -0.008090131788608984
-0.03463816556321764   -0.11598641913403458   -0.00807001924597951
-0.03622072070839197   -0.14964009502040707   -0.008014804952115524
-0.05296344567124287   -0.11657982096915599   -0.008490795315725733
-0.03462774688016498   -0.11628851910648765   -0.007871863853558099
-0.03622072070839197   -0.14964009502040707   -0.008014804952115524
-0.03463816556321764   -0.11598641913403458   -0.00807001924597951
-0.05296344567124287   -0.11657982096915599   -0.008490795315725733
-0.03622072070839197   -0.14964009502040707   -0.008014804952115524
-0.054343062640420776   -0.14963827665799256   -0.008564523593642756
-0.0544022567459898   -0.1493047353024106   -0.008581383109358172
-0.05296344567124287   -0.11657982096915599   -0.008490795315725733
-0.03622072070839197   -0.14964009502040707   -0.008014804952115524
-0.0544022567459898   -0.1493047353024106   -0.008581383109358172
-0.03463816556321764   -0.11598641913403458   -0.00807001924597951
-0.05296344567124287   -0.11657982096915599   -0.008490795315725733
-0.054343062640420776   -0.14963827665799256   -0.008564523593642756
-0.03462774688016498   -0.11628851910648765   -0.007871863853558099
-0.05303943578655021   -0.11691045765001369   -0.008295911491635985
-0.054343062640420776   -0.14963827665799256   -0.008564523593642756
-0.03622072070839197   -0.14964009502040707   -0.008014804952115524
-0.03462774688016498   -0.11628851910648765   -0.007871863853558099
-0.036070827358143334   -0.14991594686411222   -0.007973477280202958
-0.05303943578655021   -0.11691045765001369   -0.008295911491635985
-0.034584686008601276   -0.11656683875314314   -0.007706599708747746
-0.036070827358143334   -0.14991594686411222   -0.007973477280202958
-0.03462774688016498   -0.11628851910648765   -0.007871863853558099
-0.05303943578655021   -0.11691045765001369   -0.008295911491635985
-0.036070827358143334   -0.14991594686411222   -0.007973477280202958
-0.054179471571303754   -0.14996156807452324   -0.008598483301420405
-0.054343062640420776   -0.14963827665799256   -0.008564523593642756
-0.05303943578655021   -0.11691045765001369   -0.008295911491635985
-0.036070827358143334   -0.14991594686411222   -0.007973477280202958
-0.054343062640420776   -0.14963827665799256   -0.008564523593642756
-0.03462774688016498   -0.11628851910648765   -0.007871863853558099
-0.05303943578655021   -0.11691045765001369   -0.008295911491635985
-0.054179471571303754   -0.14996156807452324   -0.008598483301420405
-0.034584686008601276   -0.11656683875314314   -0.007706599708747746
-0.05306794709835343   -0.1172689807123069   -0.008152411979959692
-0.054179471571303754   -0.14996156807452324   -0.008598483301420405
-0.036070827358143334   -0.14991594686411222   -0.007973477280202958
-0.034584686008601276   -0.11656683875314314   -0.007706599708747746
-0.03587590984824215   -0.15023722008030665   -0.007965631118704748
-0.05306794709835343   -0.1172689807123069   -0.008152411979959692
-0.03447347012103689   -0.11684255868641455   -0.0075719534709829985
-0.03587590984824215   -0.15023722008030665   -0.007965631118704748
-0.034584686008601276   -0.11656683875314314   -0.007706599708747746
-0.05306794709835343   -0.1172689807123069   -0.008152411979959692
-0.03587590984824215   -0.15023722008030665   -0.007965631118704748
-0.05391217767809036   -0.1503775128533864   -0.008685788819106706
-0.054179471571303754   -0.14996156807452324   -0.008598483301420405
-0.05306794709835343   -0.1172689807123069   -0.008152411979959692
-0.03587590984824215   -0.15023722008030665   -0.007965631118704748
-0.054179471571303754   -0.14996156807452324   -0.008598483301420405
-0.034584686008601276   -0.11656683875314314   -0.007706599708747746
-0.03463816556321764   -0.11598641913403458   -0.00807001924597951
-0.03631595861436499   -0.14939070333675902   -0.008090131788608984
-0.017828104192087118   -0.1158795478864034   -0.00761853191857429
-0.03462774688016498   -0.11628851910648765   -0.007871863853558099
-0.03631595861436499   -0.14939070333675902   -0.008090131788608984
-0.019750867199212225   -0.1494098577439242   -0.007763484337988096
-0.017828104192087118   -0.1158795478864034   -0.00761853191857429
-0.019622530010121514   -0.14955317986404998   -0.007630463337526704
-0.03462774688016498   -0.11628851910648765   -0.007871863853558099
-0.01776859654642456   -0.11606267211477607   -0.007446297039365372
-0.019622530010121514   -0.14955317986404998   -0.007630463337526704
-0.017828104192087118   -0.1158795478864034   -0.00761853191857429
-0.03462774688016498   -0.11628851910648765   -0.007871863853558099
-0.019622530010121514   -0.14955317986404998   -0.007630463337526704
-0.03622072070839197   -0.14964009502040707   -0.008014804952115524
-0.03631595861436499   -0.14939070333675902   -0.008090131788608984
-0.03462774688016498   -0.11628851910648765   -0.007871863853558099
-0.019622530010121514   -0.14955317986404998   -0.007630463337526704
-0.03631595861436499   -0.14939070333675902   -0.008090131788608984
-0.017828104192087118   -0.1158795478864034   -0.00761853191857429
-0.03462774688016498   -0.11628851910648765   -0.007871863853558099
-0.03622072070839197   -0.14964009502040707   -0.008014804952115524
-0.01776859654642456   -0.11606267211477607   -0.007446297039365372
-0.034584686008601276   -0.11656683875314314   -0.007706599708747746
-0.03622072070839197   -0.14964009502040707   -0.008014804952115524
-0.019622530010121514   -0.14955317986404998   -0.007630463337526704
-0.01776859654642456   -0.11606267211477607   -0.007446297039365372
-0.01947720290609783   -0.14972701776170103   -0.007531582927487615
-0.034584686008601276   -0.11656683875314314   -0.007706599708747746
-0.017694829047478596   -0.11623048158897369   -0.007306997526326165
-0.01947720290609783   -0.14972701776170103   -0.007531582927487615
-0.01776859654642456   -0.11606267211477607   -0.007446297039365372
-0.034584686008601276   -0.11656683875314314   -0.007706599708747746
-0.01947720290609783   -0.14972701776170103   -0.007531582927487615
-0.036070827358143334   -0.14991594686411222   -0.007973477280202958
-0.03622072070839197   -0.14964009502040707   -0.008014804952115524
-0.034584686008601276   -0.11656683875314314   -0.007706599708747746
-0.01947720290609783   -0.14972701776170103   -0.007531582927487615
-0.03622072070839197   -0.14964009502040707   -0.008014804952115524
-0.01776859654642456   -0.11606267211477607   -0.007446297039365372
-0.034584686008601276   -0.11656683875314314   -0.007706599708747746
-0.036070827358143334   -0.14991594686411222   -0.007973477280202958
-0.017694829047478596   -0.11623048158897369   -0.007306997526326165
-0.03447347012103689   -0.11684255868641455   -0.0075719534709829985
-0.036070827358143334   -0.14991594686411222   -0.007973477280202958
-0.01947720290609783   -0.14972701776170103   -0.007531582927487615
-0.017694829047478596   -0.11623048158897369   -0.007306997526326165
-0.01932045680087996   -0.14993191240431022   -0.007467932704201348
-0.03447347012103689   -0.11684255868641455   -0.0075719534709829985
-0.01760558303417804   -0.11638352179652617   -0.007201408833398494
-0.01932045680087996   -0.14993191240431022   -0.007467932704201348
-0.017694829047478596   -0.11623048158897369   -0.007306997526326165
-0.03447347012103689   -0.11684255868641455   -0.0075719534709829985
-0.01932045680087996   -0.14993191240431022   -0.007467932704201348
-0.03587590984824215   -0.15023722008030665   -0.007965631118704748
-0.036070827358143334   -0.14991594686411222   -0.007973477280202958
-0.03447347012103689   -0.11684255868641455   -0.0075719534709829985
-0.01932045680087996   -0.14993191240431022   -0.007467932704201348
-0.036070827358143334   -0.14991594686411222   -0.007973477280202958
-0.017694829047478596   -0.11623048158897369   -0.007306997526326165
-0.017828104192087118   -0.1158795478864034   -0.00761853191857429
-0.019750867199212225   -0.1494098577439242   -0.007763484337988096
-0.0014727240348051957   -0.11581880279468579   -0.007384145339433083
-0.01776859654642456   -0.11606267211477607   -0.007446297039365372
-0.019750867199212225   -0.1494098577439242   -0.007763484337988096
-0.003654858145807579   -0.14932263453202646   -0.0076289601166425565
-0.0014727240348051957   -0.11581880279468579   -0.007384145339433083
-0.003502796045261547   -0.14935646355175128   -0.0074411103102531425
-0.01776859654642456   -0.11606267211477607   -0.007446297039365372
-0.0013883751146629975   -0.11588088115964931   -0.007239513718454595
-0.003502796045261547   -0.14935646355175128   -0.0074411103102531425
-0.0014727240348051957   -0.11581880279468579   -0.007384145339433083
-0.01776859654642456   -0.11606267211477607   -0.007446297039365372
-0.003502796045261547   -0.14935646355175128   -0.0074411103102531425
-0.019622530010121514   -0.14955317986404998   -0.007630463337526704
-0.019750867199212225   -0.1494098577439242   -0.007763484337988096
-0.01776859654642456   -0.11606267211477607   -0.007446297039365372
-0.003502796045261547   -0.14935646355175128   -0.0074411103102531425
-0.019750867199212225   -0.1494098577439242   -0.007763484337988096
-0.0014727240348051957   -0.11581880279468579   -0.007384145339433083
-0.01776859654642456   -0.11606267211477607   -0.007446297039365372
-0.019622530010121514   -0.14955317986404998   -0.007630463337526704
-0.0013883751146629975   -0.11588088115964931   -0.007239513718454595
-0.017694829047478596   -0.11623048158897369   -0.007306997526326165
-0.019622530010121514   -0.14955317986404998   -0.007630463337526704
-0.003502796045261547   -0.14935646355175128   -0.0074411103102531425
-0.0013883751146629975   -0.11588088115964931   -0.007239513718454595
-0.0033590565355796145   -0.14941837937409333   -0.007287145316470947
-0.017694829047478596   -0.11623048158897369   -0.007306997526326165
-0.001315749036332599   -0.11592657826015204   -0.0071275193702287475
-0.0033590565355796145   -0.14941837937409333   -0.007287145316470947
-0.0013883751146629975   -0.11588088115964931   -0.007239513718454595
-0.017694829047478596   -0.11623048158897369   -0.007306997526326165
-0.0033590565355796145   -0.14941837937409333   -0.007287145316470947
-0.01947720290609783   -0.14972701776170103   -0.007531582927487615
-0.019622530010121514   -0.14955317986404998   -0.007630463337526704
-0.017694829047478596   -0.11623048158897369   -0.007306997526326165
-0.0033590565355796145   -0.14941837937409333   -0.007287145316470947
-0.019622530010121514   -0.14955317986404998   -0.007630463337526704
-0.0013883751146629975   -0.11588088115964931   -0.007239513718454595
-0.017694829047478596   -0.11623048158897369   -0.007306997526326165
-0.01947720290609783   -0.14972701776170103   -0.007531582927487615
-0.001315749036332599   -0.11592657826015204   -0.0071275193702287475
-0.01760558303417804   -0.11638352179652617   -0.007201408833398494
-0.01947720290609783   -0.14972701776170103   -0.007531582927487615
-0.0033590565355796145   -0.14941837937409333   -0.007287145316470947
-0.001315749036332599   -0.11592657826015204   -0.0071275193702287475
-0.0032374276573411947   -0.149509813650564   -0.0071682563642244
-0.01760558303417804   -0.11638352179652617   -0.007201408833398494
-0.0012612173162253357   -0.11595567028998727   -0.00704936109152225
-0.0032374276573411947   -0.149509813650564   -0.0071682563642244
-0.001315749036332599   -0.11592657826015204   -0.0071275193702287475
-0.01760558303417804   -0.11638352179652617   -0.007201408833398494
-0.0032374276573411947   -0.149509813650564   -0.0071682563642244
-0.01932045680087996   -0.14993191240431022   -0.007467932704201348
-0.01947720290609783   -0.14972701776170103   -0.007531582927487615
-0.01760558303417804   -0.11638352179652617   -0.007201408833398494
-0.0032374276573411947   -0.149509813650564   -0.0071682563642244
-0.01947720290609783   -0.14972701776170103   -0.007531582927487615
-0.001315749036332599   -0.11592657826015204   -0.0071275193702287475
-0.0014727240348051957   -0.11581880279468579   -0.007384145339433083
-0.003654858145807579   -0.14932263453202646   -0.0076289601166425565
0.015382559617439904   -0.11579374477551341   -0.007368776122567985
-0.0013883751146629975   -0.11588088115964931   -0.007239513718454595
-0.003654858145807579   -0.14932263453202646   -0.0076289601166425565
0.012927540542304787   -0.14912847406248889   -0.007692831028884682
0.015382559617439904   -0.11579374477551341   -0.007368776122567985
0.013121804958164743   -0.1490525136284622   -0.00745118147393482
-0.0013883751146629975   -0.11588088115964931   -0.007239513718454595
0.01549509885846808   -0.11573867336325559   -0.0072531487281762
0.013121804958164743   -0.1490525136284622   -0.00745118147393482
0.015382559617439904   -0.11579374477551341   -0.007368776122567985
-0.0013883751146629975   -0.11588088115964931   -0.007239513718454595
0.013121804958164743   -0.1490525136284622   -0.00745118147393482
-0.003502796045261547   -0.14935646355175128   -0.0074411103102531425
-0.003654858145807579   -0.14932263453202646   -0.0076289601166425565
-0.0013883751146629975   -0.11588088115964931   -0.007239513718454595
0.013121804958164743   -0.1490525136284622   -0.00745118147393482
-0.003654858145807579   -0.14932263453202646   -0.0076289601166425565
0.015382559617439904   -0.11579374477551341   -0.007368776122567985
-0.0013883751146629975   -0.11588088115964931   -0.007239513718454595
-0.003502796045261547   -0.14935646355175128   -0.0074411103102531425
0.01549509885846808   -0.11573867336325559   -0.0072531487281762
-0.001315749036332599   -0.11592657826015204   -0.0071275193702287475
-0.003502796045261547   -0.14935646355175128   -0.0074411103102531425
0.013121804958164743   -0.1490525136284622   -0.00745118147393482
0.01549509885846808   -0.11573867336325559   -0.0072531487281762
0.013300923466261497   -0.14901305798104103   -0.00724332439634726
-0.001315749036332599   -0.11592657826015204   -0.0071275193702287475
0.01556907668999162   -0.11567387220758389   -0.007169234225360137
0.013300923466261497   -0.14901305798104103   -0.00724332439634726
0.01549509885846808   -0.11573867336325559   -0.0072531487281762
-0.001315749036332599   -0.11592657826015204   -0.0071275193702287475
0.013300923466261497   -0.14901305798104103   -0.00724332439634726
-0.0033590565355796145   -0.14941837937409333   -0.007287145316470947
-0.003502796045261547   -0.14935646355175128   -0.0074411103102531425
-0.001315749036332599   -0.11592657826015204   -0.0071275193702287475
0.013300923466261497   -0.14901305798104103   -0.00724332439634726
-0.003502796045261547   -0.14935646355175128   -0.0074411103102531425
0.01549509885846808   -0.11573867336325559   -0.0072531487281762
-0.001315749036332599   -0.11592657826015204   -0.0071275193702287475
-0.0033590565355796145   -0.14941837937409333   -0.007287145316470947
0.01556907668999162   -0.11567387220758389   -0.007169234225360137
-0.0012612173162253357   -0.11595567028998727   -0.00704936109152225
-0.0033590565355796145   -0.14941837937409333   -0.007287145316470947
0.013300923466261497   -0.14901305798104103   -0.00724332439634726
0.01556907668999162   -0.11567387220758389   -0.007169234225360137
0.013395855922024691   -0.14899074602785609   -0.007067053855026236
-0.0012612173162253357   -0.11595567028998727   -0.00704936109152225
0.015581291379683775   -0.11557788989925892   -0.007116374068775043
0.013395855922024691   -0.14899074602785609   -0.007067053855026236
0.01556907668999162   -0.11567387220758389   -0.007169234225360137
-0.0012612173162253357   -0.11595567028998727   -0.00704936109152225
0.013395855922024691   -0.14899074602785609   -0.007067053855026236
-0.0032374276573411947   -0.149509813650564   -0.0071682563642244
-0.0033590565355796145   -0.14941837937409333   -0.007287145316470947
-0.0012612173162253357   -0.11595567028998727   -0.00704936109152225
0.013395855922024691   -0.14899074602785609   -0.007067053855026236
-0.0033590565355796145   -0.14941837937409333   -0.007287145316470947
0.01556907668999162   -0.11567387220758389   -0.007169234225360137
0.015382559617439904   -0.11579374477551341   -0.007368776122567985
0.012927540542304787   -0.14912847406248889   -0.007692831028884682
0.03365157307618865   -0.11576001069643167   -0.007549899236838057
0.01549509885846808   -0.11573867336325559   -0.0072531487281762
0.012927540542304787   -0.14912847406248889   -0.007692831028884682
0.030687115424245372   -0.14880274908026983   -0.007965086257088515
0.03365157307618865   -0.11576001069643167   -0.007549899236838057
0.031196026201278846   -0.14862737719816302   -0.007648476418043342
0.01549509885846808   -0.11573867336325559   -0.0072531487281762
0.0338732577252234   -0.11561247409558206   -0.0074564240251255316
0.031196026201278846   -0.14862737719816302   -0.007648476418043342
0.03365157307618865   -0.11576001069643167   -0.007549899236838057
0.01549509885846808   -0.11573867336325559   -0.0072531487281762
0.031196026201278846   -0.14862737719816302   -0.007648476418043342
0.013121804958164743   -0.1490525136284622   -0.00745118147393482
0.012927540542304787   -0.14912847406248889   -0.007692831028884682
0.01549509885846808   -0.11573867336325559   -0.0072531487281762
0.031196026201278846   -0.14862737719816302   -0.007648476418043342
0.012927540542304787   -0.14912847406248889   -0.007692831028884682
0.03365157307618865   -0.11576001069643167   -0.007549899236838057
0.01549509885846808   -0.11573867336325559   -0.0072531487281762
0.013121804958164743   -0.1490525136284622   -0.00745118147393482
0.0338732577252234   -0.11561247409558206   -0.0074564240251255316
0.01556907668999162   -0.11567387220758389   -0.007169234225360137
0.013121804958164743   -0.1490525136284622   -0.00745118147393482
0.031196026201278846   -0.14862737719816302   -0.007648476418043342
0.0338732577252234   -0.11561247409558206   -0.0074564240251255316
0.03154467676782086   -0.1485423926999151   -0.0073799488494633685
0.01556907668999162   -0.11567387220758389   -0.007169234225360137
0.033988289688598614   -0.11549560344301561   -0.007411095237333605
0.03154467676782086   -0.1485423926999151   -0.0073799488494633685
0.0338732577252234   -0.11561247409558206   -0.0074564240251255316
0.01556907668999162   -0.11567387220758389   -0.007169234225360137
0.03154467676782086   -0.1485423926999151   -0.0073799488494633685
0.013300923466261497   -0.14901305798104103   -0.00724332439634726
0.013121804958164743   -0.1490525136284622   -0.00745118147393482
0.01556907668999162   -0.11567387220758389   -0.007169234225360137
0.03154467676782086   -0.1485423926999151   -0.0073799488494633685
0.013121804958164743   -0.1490525136284622   -0.00745118147393482
0.0338732577252234   -0.11561247409558206   -0.0074564240251255316
0.01556907668999162   -0.11567387220758389   -0.007169234225360137
0.013300923466261497   -0.14901305798104103   -0.00724332439634726
0.033988289688598614   -0.11549560344301561   -0.007411095237333605
0.015581291379683775   -0.11557788989925892   -0.007116374068775043
0.013300923466261497   -0.14901305798104103   -0.00724332439634726
0.03154467676782086   -0.1485423926999151   -0.0073799488494633685
0.033988289688598614   -0.11549560344301561   -0.007411095237333605
0.03185288621997516   -0.14844919107301197   -0.007161489049208275
0.015581291379683775   -0.11557788989925892   -0.007116374068775043
0.0340112830724239   -0.11530696846489252   -0.007414731527538206
0.03185288621997516   -0.14844919107301197   -0.007161489049208275
0.033988289688598614   -0.11549560344301561   -0.007411095237333605
0.015581291379683775   -0.11557788989925892   -0.007116374068775043
0.03185288621997516   -0.14844919107301197   -0.007161489049208275
0.013395855922024691   -0.14899074602785609   -0.007067053855026236
0.013300923466261497   -0.14901305798104103   -0.00724332439634726
0.015581291379683775   -0.11557788989925892   -0.007116374068775043
0.03185288621997516   -0.14844919107301197   -0.007161489049208275
0.013300923466261497   -0.14901305798104103   -0.00724332439634726
0.033988289688598614   -0.11549560344301561   -0.007411095237333605
-0.0544022567459898   -0.1493047353024106   -0.008581383109358172
-0.052956764326992534   -0.18096584897631773   -0.008201187851647172
-0.03631595861436499   -0.14939070333675902   -0.008090131788608984
-0.054343062640420776   -0.14963827665799256   -0.008564523593642756
-0.052956764326992534   -0.18096584897631773   -0.008201187851647172
-0.03617011962073748   -0.1813308776591363   -0.007904522986354705
-0.03631595861436499   -0.14939070333675902   -0.008090131788608984
-0.035958410835203874   -0.18151733609089699   -0.00794901192775997
-0.054343062640420776   -0.14963827665799256   -0.008564523593642756
-0.03622072070839197   -0.14964009502040707   -0.008014804952115524
-0.035958410835203874   -0.18151733609089699   -0.00794901192775997
-0.03631595861436499   -0.14939070333675902   -0.008090131788608984
-0.054343062640420776   -0.14963827665799256   -0.008564523593642756
-0.035958410835203874   -0.18151733609089699   -0.00794901192775997
-0.05257475239175307   -0.18121755955996013   -0.008410715954131648
-0.052956764326992534   -0.18096584897631773   -0.008201187851647172
-0.054343062640420776   -0.14963827665799256   -0.008564523593642756
-0.035958410835203874   -0.18151733609089699   -0.00794901192775997
-0.052956764326992534   -0.18096584897631773   -0.008201187851647172
-0.03631595861436499   -0.14939070333675902   -0.008090131788608984
-0.054343062640420776   -0.14963827665799256   -0.008564523593642756
-0.05257475239175307   -0.18121755955996013   -0.008410715954131648
-0.03622072070839197   -0.14964009502040707   -0.008014804952115524
-0.054179471571303754   -0.14996156807452324   -0.008598483301420405
-0.05257475239175307   -0.18121755955996013   -0.008410715954131648
-0.035958410835203874   -0.18151733609089699   -0.00794901192775997
-0.03622072070839197   -0.14964009502040707   -0.008014804952115524
-0.03567136058200827   -0.18178220124967365   -0.008028452302268625
-0.054179471571303754   -0.14996156807452324   -0.008598483301420405
-0.036070827358143334   -0.14991594686411222   -0.007973477280202958
-0.03567136058200827   -0.18178220124967365   -0.008028452302268625
-0.03622072070839197   -0.14964009502040707   -0.008014804952115524
-0.054179471571303754   -0.14996156807452324   -0.008598483301420405
-0.03567136058200827   -0.18178220124967365   -0.008028452302268625
-0.05213782029436375   -0.18152573721484913   -0.008675228977991101
-0.05257475239175307   -0.18121755955996013   -0.008410715954131648
-0.054179471571303754   -0.14996156807452324   -0.008598483301420405
-0.03567136058200827   -0.18178220124967365   -0.008028452302268625
-0.05257475239175307   -0.18121755955996013   -0.008410715954131648
-0.03622072070839197   -0.14964009502040707   -0.008014804952115524
-0.054179471571303754   -0.14996156807452324   -0.008598483301420405
-0.05213782029436375   -0.18152573721484913   -0.008675228977991101
-0.036070827358143334   -0.14991594686411222   -0.007973477280202958
-0.05391217767809036   -0.1503775128533864   -0.008685788819106706
-0.05213782029436375   -0.18152573721484913   -0.008675228977991101
-0.03567136058200827   -0.18178220124967365   -0.008028452302268625
-0.036070827358143334   -0.14991594686411222   -0.007973477280202958
-0.03536316954666537   -0.18214160145640332   -0.00814390422741488
-0.05391217767809036   -0.1503775128533864   -0.008685788819106706
-0.03587590984824215   -0.15023722008030665   -0.007965631118704748
-0.03536316954666537   -0.18214160145640332   -0.00814390422741488
-0.036070827358143334   -0.14991594686411222   -0.007973477280202958
-0.05391217767809036   -0.1503775128533864   -0.008685788819106706
-0.03536316954666537   -0.18214160145640332   -0.00814390422741488
-0.05154221627459296   -0.18199445951470233   -0.008995696506526702
-0.05213782029436375   -0.18152573721484913   -0.008675228977991101
-0.05391217767809036   -0.1503775128533864   -0.008685788819106706
-0.03536316954666537   -0.18214160145640332   -0.00814390422741488
-0.05213782029436375   -0.18152573721484913   -0.008675228977991101
-0.036070827358143334   -0.14991594686411222   -0.007973477280202958
-0.03631595861436499   -0.14939070333675902   -0.008090131788608984
-0.03617011962073748   -0.1813308776591363   -0.007904522986354705
-0.019750867199212225   -0.1494098577439242   -0.007763484337988096
-0.03622072070839197   -0.14964009502040707   -0.008014804952115524
-0.03617011962073748   -0.1813308776591363   -0.007904522986354705
-0.021127591473390762   -0.18147604584012245   -0.007714463379661186
-0.019750867199212225   -0.1494098577439242   -0.007763484337988096
-0.020896814483301794   -0.1815732492218263   -0.007617641004240248
-0.03622072070839197   -0.14964009502040707   -0.008014804952115524
-0.019622530010121514   -0.14955317986404998   -0.007630463337526704
-0.020896814483301794   -0.1815732492218263   -0.007617641004240248
-0.019750867199212225   -0.1494098577439242   -0.007763484337988096
-0.03622072070839197   -0.14964009502040707   -0.008014804952115524
-0.020896814483301794   -0.1815732492218263   -0.007617641004240248
-0.035958410835203874   -0.18151733609089699   -0.00794901192775997
-0.03617011962073748   -0.1813308776591363   -0.007904522986354705
-0.03622072070839197   -0.14964009502040707   -0.008014804952115524
-0.020896814483301794   -0.1815732492218263   -0.007617641004240248
-0.03617011962073748   -0.1813308776591363   -0.007904522986354705
-0.019750867199212225   -0.1494098577439242   -0.007763484337988096
-0.03622072070839197   -0.14964009502040707   -0.008014804952115524
-0.035958410835203874   -0.18151733609089699   -0.00794901192775997
-0.019622530010121514   -0.14955317986404998   -0.007630463337526704
-0.036070827358143334   -0.14991594686411222   -0.007973477280202958
-0.035958410835203874   -0.18151733609089699   -0.00794901192775997
-0.020896814483301794   -0.1815732492218263   -0.007617641004240248
-0.019622530010121514   -0.14955317986404998   -0.007630463337526704
-0.02064847485044417   -0.18174588943679917   -0.007555349752610298
-0.036070827358143334   -0.14991594686411222   -0.007973477280202958
-0.01947720290609783   -0.14972701776170103   -0.007531582927487615
-0.02064847485044417   -0.18174588943679917   -0.007555349752610298
-0.019622530010121514   -0.14955317986404998   -0.007630463337526704
-0.036070827358143334   -0.14991594686411222   -0.007973477280202958
-0.02064847485044417   -0.18174588943679917   -0.007555349752610298
-0.03567136058200827   -0.18178220124967365   -0.008028452302268625
-0.035958410835203874   -0.18151733609089699   -0.00794901192775997
-0.036070827358143334   -0.14991594686411222   -0.007973477280202958
-0.02064847485044417   -0.18174588943679917   -0.007555349752610298
-0.035958410835203874   -0.18151733609089699   -0.00794901192775997
-0.019622530010121514   -0.14955317986404998   -0.007630463337526704
-0.036070827358143334   -0.14991594686411222   -0.007973477280202958
-0.03567136058200827   -0.18178220124967365   -0.008028452302268625
-0.01947720290609783   -0.14972701776170103   -0.007531582927487615
-0.03587590984824215   -0.15023722008030665   -0.007965631118704748
-0.03567136058200827   -0.18178220124967365   -0.008028452302268625
-0.02064847485044417   -0.18174588943679917   -0.007555349752610298
-0.01947720290609783   -0.14972701776170103   -0.007531582927487615
-0.020393206403507197   -0.18199617449135708   -0.0075292599450239054
-0.03587590984824215   -0.15023722008030665   -0.007965631118704748
-0.01932045680087996   -0.14993191240431022   -0.007467932704201348
-0.020393206403507197   -0.18199617449135708   -0.0075292599450239054
-0.01947720290609783   -0.14972701776170103   -0.007531582927487615
-0.03587590984824215   -0.15023722008030665   -0.007965631118704748
-0.020393206403507197   -0.18199617449135708   -0.0075292599450239054
-0.03536316954666537   -0.18214160145640332   -0.00814390422741488
-0.03567136058200827   -0.18178220124967365   -0.008028452302268625
-0.03587590984824215   -0.15023722008030665   -0.007965631118704748
-0.020393206403507197   -0.18199617449135708   -0.0075292599450239054
-0.03567136058200827   -0.18178220124967365   -0.008028452302268625
-0.01947720290609783   -0.14972701776170103   -0.007531582927487615
-0.019750867199212225   -0.1494098577439242   -0.007763484337988096
-0.021127591473390762   -0.18147604584012245   -0.007714463379661186
-0.003654858145807579   -0.14932263453202646   -0.0076289601166425565
-0.019622530010121514   -0.14955317986404998   -0.007630463337526704
-0.021127591473390762   -0.18147604584012245   -0.007714463379661186
-0.006541430401328568   -0.18136604653464658   -0.007681734118989303
-0.003654858145807579   -0.14932263453202646   -0.0076289601166425565
-0.0062861392706181525   -0.18136894964447556   -0.007448447651340149
-0.019622530010121514   -0.14955317986404998   -0.007630463337526704
-0.003502796045261547   -0.14935646355175128   -0.0074411103102531425
-0.0062861392706181525   -0.18136894964447556   -0.007448447651340149
-0.003654858145807579   -0.14932263453202646   -0.0076289601166425565
-0.019622530010121514   -0.14955317986404998   -0.007630463337526704
-0.0062861392706181525   -0.18136894964447556   -0.007448447651340149
-0.020896814483301794   -0.1815732492218263   -0.007617641004240248
-0.021127591473390762   -0.18147604584012245   -0.007714463379661186
-0.019622530010121514   -0.14955317986404998   -0.007630463337526704
-0.0062861392706181525   -0.18136894964447556   -0.007448447651340149
-0.021127591473390762   -0.18147604584012245   -0.007714463379661186
-0.003654858145807579   -0.14932263453202646   -0.0076289601166425565
-0.019622530010121514   -0.14955317986404998   -0.007630463337526704
-0.020896814483301794   -0.1815732492218263   -0.007617641004240248
-0.003502796045261547   -0.14935646355175128   -0.0074411103102531425
-0.01947720290609783   -0.14972701776170103   -0.007531582927487615
-0.020896814483301794   -0.1815732492218263   -0.007617641004240248
-0.0062861392706181525   -0.18136894964447556   -0.007448447651340149
-0.003502796045261547   -0.14935646355175128   -0.0074411103102531425
-0.006037599172488729   -0.1814416910852671   -0.007249765286799
-0.01947720290609783   -0.14972701776170103   -0.007531582927487615
-0.0033590565355796145   -0.14941837937409333   -0.007287145316470947
-0.006037599172488729   -0.1814416910852671   -0.007249765286799
-0.003502796045261547   -0.14935646355175128   -0.0074411103102531425
-0.01947720290609783   -0.14972701776170103   -0.007531582927487615
-0.006037599172488729   -0.1814416910852671   -0.007249765286799
-0.02064847485044417   -0.18174588943679917   -0.007555349752610298
-0.020896814483301794   -0.1815732492218263   -0.007617641004240248
-0.01947720290609783   -0.14972701776170103   -0.007531582927487615
-0.006037599172488729   -0.1814416910852671   -0.007249765286799
-0.020896814483301794   -0.1815732492218263   -0.007617641004240248
-0.003502796045261547   -0.14935646355175128   -0.0074411103102531425
-0.01947720290609783   -0.14972701776170103   -0.007531582927487615
-0.02064847485044417   -0.18174588943679917   -0.007555349752610298
-0.0033590565355796145   -0.14941837937409333   -0.007287145316470947
-0.01932045680087996   -0.14993191240431022   -0.007467932704201348
-0.02064847485044417   -0.18174588943679917   -0.007555349752610298
-0.006037599172488729   -0.1814416910852671   -0.007249765286799
-0.0033590565355796145   -0.14941837937409333   -0.007287145316470947
-0.005816020105654973   -0.1815903574770988   -0.0070868956594787305
-0.01932045680087996   -0.14993191240431022   -0.007467932704201348
-0.0032374276573411947   -0.149509813650564   -0.0071682563642244
-0.005816020105654973   -0.1815903574770988   -0.0070868956594787305
-0.0033590565355796145   -0.14941837937409333   -0.007287145316470947
-0.01932045680087996   -0.14993191240431022   -0.007467932704201348
-0.005816020105654973   -0.1815903574770988   -0.0070868956594787305
-0.020393206403507197   -0.18199617449135708   -0.0075292599450239054
-0.02064847485044417   -0.18174588943679917   -0.007555349752610298
-0.01932045680087996   -0.14993191240431022   -0.007467932704201348
-0.005816020105654973   -0.1815903574770988   -0.0070868956594787305
-0.02064847485044417   -0.18174588943679917   -0.007555349752610298
-0.0033590565355796145   -0.14941837937409333   -0.007287145316470947
-0.003654858145807579   -0.14932263453202646   -0.0076289601166425565
-0.006541430401328568   -0.18136604653464658   -0.007681734118989303
0.012927540542304787   -0.14912847406248889   -0.007692831028884682
-0.003502796045261547   -0.14935646355175128   -0.0074411103102531425
-0.006541430401328568   -0.18136604653464658   -0.007681734118989303
0.008551037036628593   -0.18100872290172834   -0.007818709540731418
0.012927540542304787   -0.14912847406248889   -0.007692831028884682
0.008863098124545343   -0.18091098027845606   -0.007450310693871267
-0.003502796045261547   -0.14935646355175128   -0.0074411103102531425
0.013121804958164743   -0.1490525136284622   -0.00745118147393482
0.008863098124545343   -0.18091098027845606   -0.007450310693871267
0.012927540542304787   -0.14912847406248889   -0.007692831028884682
-0.003502796045261547   -0.14935646355175128   -0.0074411103102531425
0.008863098124545343   -0.18091098027845606   -0.007450310693871267
-0.0062861392706181525   -0.18136894964447556   -0.007448447651340149
-0.006541430401328568   -0.18136604653464658   -0.007681734118989303
-0.003502796045261547   -0.14935646355175128   -0.0074411103102531425
0.008863098124545343   -0.18091098027845606   -0.007450310693871267
-0.006541430401328568   -0.18136604653464658   -0.007681734118989303
0.012927540542304787   -0.14912847406248889   -0.007692831028884682
-0.003502796045261547   -0.14935646355175128   -0.0074411103102531425
-0.0062861392706181525   -0.18136894964447556   -0.007448447651340149
0.013121804958164743   -0.1490525136284622   -0.00745118147393482
-0.0033590565355796145   -0.14941837937409333   -0.007287145316470947
-0.0062861392706181525   -0.18136894964447556   -0.007448447651340149
0.008863098124545343   -0.18091098027845606   -0.007450310693871267
0.013121804958164743   -0.1490525136284622   -0.00745118147393482
0.009182827656026793   -0.18089299281205407   -0.007118749945863601
-0.0033590565355796145   -0.14941837937409333   -0.007287145316470947
0.013300923466261497   -0.14901305798104103   -0.00724332439634726
0.009182827656026793   -0.18089299281205407   -0.007118749945863601
0.013121804958164743   -0.1490525136284622   -0.00745118147393482
-0.0033590565355796145   -0.14941837937409333   -0.007287145316470947
0.009182827656026793   -0.18089299281205407   -0.007118749945863601
-0.006037599172488729   -0.1814416910852671   -0.007249765286799
-0.0062861392706181525   -0.18136894964447556   -0.007448447651340149
-0.0033590565355796145   -0.14941837937409333   -0.007287145316470947
0.009182827656026793   -0.18089299281205407   -0.007118749945863601
-0.0062861392706181525   -0.18136894964447556   -0.007448447651340149
0.013121804958164743   -0.1490525136284622   -0.00745118147393482
-0.0033590565355796145   -0.14941837937409333   -0.007287145316470947
-0.006037599172488729   -0.1814416910852671   -0.007249765286799
0.013300923466261497   -0.14901305798104103   -0.00724332439634726
-0.0032374276573411947   -0.149509813650564   -0.0071682563642244
-0.006037599172488729   -0.1814416910852671   -0.007249765286799
0.009182827656026793   -0.18089299281205407   -0.007118749945863601
0.013300923466261497   -0.14901305798104103   -0.00724332439634726
0.009395016963918038   -0.18093999133828959   -0.00681917498581272
-0.0032374276573411947   -0.149509813650564   -0.0071682563642244
0.013395855922024691   -0.14899074602785609   -0.007067053855026236
0.009395016963918038   -0.18093999133828959   -0.00681917498581272
0.013300923466261497   -0.14901305798104103   -0.00724332439634726
-0.0032374276573411947   -0.149509813650564   -0.0071682563642244
0.009395016963918038   -0.18093999133828959   -0.00681917498581272
-0.005816020105654973   -0.1815903574770988   -0.0070868956594787305
-0.006037599172488729   -0.1814416910852671   -0.007249765286799
-0.0032374276573411947   -0.149509813650564   -0.0071682563642244
0.009395016963918038   -0.18093999133828959   -0.00681917498581272
-0.006037599172488729   -0.1814416910852671   -0.007249765286799
0.013300923466261497   -0.14901305798104103   -0.00724332439634726
0.012927540542304787   -0.14912847406248889   -0.007692831028884682
0.008551037036628593   -0.18100872290172834   -0.007818709540731418
0.030687115424245372   -0.14880274908026983   -0.007965086257088515
0.013121804958164743   -0.1490525136284622   -0.00745118147393482
0.008551037036628593   -0.18100872290172834   -0.007818709540731418
0.02461466423541599   -0.18039461895632708   -0.008174630113563817
0.030687115424245372   -0.14880274908026983   -0.007965086257088515
0.025444627864775783   -0.18019251179658546   -0.007638962799156757
0.013121804958164743   -0.1490525136284622   -0.00745118147393482
0.031196026201278846   -0.14862737719816302   -0.007648476418043342
0.025444627864775783   -0.18019251179658546   -0.007638962799156757
0.030687115424245372   -0.14880274908026983   -0.007965086257088515
0.013121804958164743   -0.1490525136284622   -0.00745118147393482
0.025444627864775783   -0.18019251179658546   -0.007638962799156757
0.008863098124545343   -0.18091098027845606   -0.007450310693871267
0.008551037036628593   -0.18100872290172834   -0.007818709540731418
0.013121804958164743   -0.1490525136284622   -0.00745118147393482
0.025444627864775783   -0.18019251179658546   -0.007638962799156757
0.008551037036628593   -0.18100872290172834   -0.007818709540731418
0.030687115424245372   -0.14880274908026983   -0.007965086257088515
0.013121804958164743   -0.1490525136284622   -0.00745118147393482
0.008863098124545343   -0.18091098027845606   -0.007450310693871267
0.031196026201278846   -0.14862737719816302   -0.007648476418043342
0.013300923466261497   -0.14901305798104103   -0.00724332439634726
0.008863098124545343   -0.18091098027845606   -0.007450310693871267
0.025444627864775783   -0.18019251179658546   -0.007638962799156757
0.031196026201278846   -0.14862737719816302   -0.007648476418043342
0.026058649054988996   -0.18013717111625993   -0.007152247214393947
0.013300923466261497   -0.14901305798104103   -0.00724332439634726
0.03154467676782086   -0.1485423926999151   -0.0073799488494633685
0.026058649054988996   -0.18013717111625993   -0.007152247214393947
0.031196026201278846   -0.14862737719816302   -0.007648476418043342
0.013300923466261497   -0.14901305798104103   -0.00724332439634726
0.026058649054988996   -0.18013717111625993   -0.007152247214393947
0.009182827656026793   -0.18089299281205407   -0.007118749945863601
0.008863098124545343   -0.18091098027845606   -0.007450310693871267
0.013300923466261497   -0.14901305798104103   -0.00724332439634726
0.026058649054988996   -0.18013717111625993   -0.007152247214393947
0.008863098124545343   -0.18091098027845606   -0.007450310693871267
0.031196026201278846   -0.14862737719816302   -0.007648476418043342
0.013300923466261497   -0.14901305798104103   -0.00724332439634726
0.009182827656026793   -0.18089299281205407   -0.007118749945863601
0.03154467676782086   -0.1485423926999151   -0.0073799488494633685
0.013395855922024691   -0.14899074602785609   -0.007067053855026236
0.009182827656026793   -0.18089299281205407   -0.007118749945863601
0.026058649054988996   -0.18013717111625993   -0.007152247214393947
0.03154467676782086   -0.1485423926999151   -0.0073799488494633685
0.02668013056271606   -0.18013642852853187   -0.006716686078619108
0.013395855922024691   -0.14899074602785609   -0.007067053855026236
0.03185288621997516   -0.14844919107301197   -0.007161489049208275
0.02668013056271606   -0.18013642852853187   -0.006716686078619108
0.03154467676782086   -0.1485423926999151   -0.0073799488494633685
0.013395855922024691   -0.14899074602785609   -0.007067053855026236
0.02668013056271606   -0.18013642852853187   -0.006716686078619108
0.009395016963918038   -0.18093999133828959   -0.00681917498581272
0.009182827656026793   -0.18089299281205407   -0.007118749945863601
0.013395855922024691   -0.14899074602785609   -0.007067053855026236
0.02668013056271606   -0.18013642852853187   -0.006716686078619108
0.009182827656026793   -0.18089299281205407   -0.007118749945863601
0.03154467676782086   -0.1485423926999151   -0.0073799488494633685
-0.052956764326992534   -0.18096584897631773   -0.008201187851647172
-0.048325655924166704   -0.20900031678709322   -0.00764531143708324
-0.03617011962073748   -0.1813308776591363   -0.007904522986354705
-0.05257475239175307   -0.18121755955996013   -0.008410715954131648
-0.048325655924166704   -0.20900031678709322   -0.00764531143708324
-0.03419262662273765   -0.20966051514518783   -0.007596915124235136
-0.03617011962073748   -0.1813308776591363   -0.007904522986354705
-0.03383872139844449   -0.20975611626894763   -0.007752789112194455
-0.05257475239175307   -0.18121755955996013   -0.008410715954131648
-0.035958410835203874   -0.18151733609089699   -0.00794901192775997
-0.03383872139844449   -0.20975611626894763   -0.007752789112194455
-0.03617011962073748   -0.1813308776591363   -0.007904522986354705
-0.05257475239175307   -0.18121755955996013   -0.008410715954131648
-0.03383872139844449   -0.20975611626894763   -0.007752789112194455
-0.04758977870454095   -0.20914232832979798   -0.008081105683778138
-0.048325655924166704   -0.20900031678709322   -0.00764531143708324
-0.05257475239175307   -0.18121755955996013   -0.008410715954131648
-0.03383872139844449   -0.20975611626894763   -0.007752789112194455
-0.048325655924166704   -0.20900031678709322   -0.00764531143708324
-0.03617011962073748   -0.1813308776591363   -0.007904522986354705
-0.05257475239175307   -0.18121755955996013   -0.008410715954131648
-0.04758977870454095   -0.20914232832979798   -0.008081105683778138
-0.035958410835203874   -0.18151733609089699   -0.00794901192775997
-0.05213782029436375   -0.18152573721484913   -0.008675228977991101
-0.04758977870454095   -0.20914232832979798   -0.008081105683778138
-0.03383872139844449   -0.20975611626894763   -0.007752789112194455
-0.035958410835203874   -0.18151733609089699   -0.00794901192775997
-0.033394260300671254   -0.209984597407935   -0.007944220971623086
-0.05213782029436375   -0.18152573721484913   -0.008675228977991101
-0.03567136058200827   -0.18178220124967365   -0.008028452302268625
-0.033394260300671254   -0.209984597407935   -0.007944220971623086
-0.035958410835203874   -0.18151733609089699   -0.00794901192775997
-0.05213782029436375   -0.18152573721484913   -0.008675228977991101
-0.033394260300671254   -0.209984597407935   -0.007944220971623086
-0.04685512582002633   -0.20941044226781858   -0.008574806902531845
-0.04758977870454095   -0.20914232832979798   -0.008081105683778138
-0.05213782029436375   -0.18152573721484913   -0.008675228977991101
-0.033394260300671254   -0.209984597407935   -0.007944220971623086
-0.04758977870454095   -0.20914232832979798   -0.008081105683778138
-0.035958410835203874   -0.18151733609089699   -0.00794901192775997
-0.05213782029436375   -0.18152573721484913   -0.008675228977991101
-0.04685512582002633   -0.20941044226781858   -0.008574806902531845
-0.03567136058200827   -0.18178220124967365   -0.008028452302268625
-0.05154221627459296   -0.18199445951470233   -0.008995696506526702
-0.04685512582002633   -0.20941044226781858   -0.008574806902531845
-0.033394260300671254   -0.209984597407935   -0.007944220971623086
-0.03567136058200827   -0.18178220124967365   -0.008028452302268625
-0.03295559591606203   -0.21035892480214813   -0.008170878784127682
-0.05154221627459296   -0.18199445951470233   -0.008995696506526702
-0.03536316954666537   -0.18214160145640332   -0.00814390422741488
-0.03295559591606203   -0.21035892480214813   -0.008170878784127682
-0.03567136058200827   -0.18178220124967365   -0.008028452302268625
-0.05154221627459296   -0.18199445951470233   -0.008995696506526702
-0.03295559591606203   -0.21035892480214813   -0.008170878784127682
-0.045913899224678846   -0.2099103889329797   -0.009125296827292736
-0.04685512582002633   -0.20941044226781858   -0.008574806902531845
-0.05154221627459296   -0.18199445951470233   -0.008995696506526702
-0.03295559591606203   -0.21035892480214813   -0.008170878784127682
-0.04685512582002633   -0.20941044226781858   -0.008574806902531845
-0.03567136058200827   -0.18178220124967365   -0.008028452302268625
-0.03617011962073748   -0.1813308776591363   -0.007904522986354705
-0.03419262662273765   -0.20966051514518783   -0.007596915124235136
-0.021127591473390762   -0.18147604584012245   -0.007714463379661186
-0.035958410835203874   -0.18151733609089699   -0.00794901192775997
-0.03419262662273765   -0.20966051514518783   -0.007596915124235136
-0.02196314890844679   -0.20997100515603226   -0.007577332998871694
-0.021127591473390762   -0.18147604584012245   -0.007714463379661186
-0.02159981494740002   -0.21000254783838296   -0.007507885333600213
-0.035958410835203874   -0.18151733609089699   -0.00794901192775997
-0.020896814483301794   -0.1815732492218263   -0.007617641004240248
-0.02159981494740002   -0.21000254783838296   -0.007507885333600213
-0.021127591473390762   -0.18147604584012245   -0.007714463379661186
-0.035958410835203874   -0.18151733609089699   -0.00794901192775997
-0.02159981494740002   -0.21000254783838296   -0.007507885333600213
-0.03383872139844449   -0.20975611626894763   -0.007752789112194455
-0.03419262662273765   -0.20966051514518783   -0.007596915124235136
-0.035958410835203874   -0.18151733609089699   -0.00794901192775997
-0.02159981494740002   -0.21000254783838296   -0.007507885333600213
-0.03419262662273765   -0.20966051514518783   -0.007596915124235136
-0.021127591473390762   -0.18147604584012245   -0.007714463379661186
-0.035958410835203874   -0.18151733609089699   -0.00794901192775997
-0.03383872139844449   -0.20975611626894763   -0.007752789112194455
-0.020896814483301794   -0.1815732492218263   -0.007617641004240248
-0.03567136058200827   -0.18178220124967365   -0.008028452302268625
-0.03383872139844449   -0.20975611626894763   -0.007752789112194455
-0.02159981494740002   -0.21000254783838296   -0.007507885333600213
-0.020896814483301794   -0.1815732492218263   -0.007617641004240248
-0.021224901550246533   -0.21015268869960824   -0.007472944079662181
-0.03567136058200827   -0.18178220124967365   -0.008028452302268625
-0.02064847485044417   -0.18174588943679917   -0.007555349752610298
-0.021224901550246533   -0.21015268869960824   -0.007472944079662181
-0.020896814483301794   -0.1815732492218263   -0.007617641004240248
-0.03567136058200827   -0.18178220124967365   -0.008028452302268625
-0.021224901550246533   -0.21015268869960824   -0.007472944079662181
-0.033394260300671254   -0.209984597407935   -0.007944220971623086
-0.03383872139844449   -0.20975611626894763   -0.007752789112194455
-0.03567136058200827   -0.18178220124967365   -0.008028452302268625
-0.021224901550246533   -0.21015268869960824   -0.007472944079662181
-0.03383872139844449   -0.20975611626894763   -0.007752789112194455
-0.020896814483301794   -0.1815732492218263   -0.007617641004240248
-0.03567136058200827   -0.18178220124967365   -0.008028452302268625
-0.033394260300671254   -0.209984597407935   -0.007944220971623086
-0.02064847485044417   -0.18174588943679917   -0.007555349752610298
-0.03536316954666537   -0.18214160145640332   -0.00814390422741488
-0.033394260300671254   -0.209984597407935   -0.007944220971623086
-0.021224901550246533   -0.21015268869960824   -0.007472944079662181
-0.02064847485044417   -0.18174588943679917   -0.007555349752610298
-0.020850649873652177   -0.210428532720729   -0.007472029462504348
-0.03536316954666537   -0.18214160145640332   -0.00814390422741488
-0.020393206403507197   -0.18199617449135708   -0.0075292599450239054
-0.020850649873652177   -0.210428532720729   -0.007472029462504348
-0.02064847485044417   -0.18174588943679917   -0.007555349752610298
-0.03536316954666537   -0.18214160145640332   -0.00814390422741488
-0.020850649873652177   -0.210428532720729   -0.007472029462504348
-0.03295559591606203   -0.21035892480214813   -0.008170878784127682
-0.033394260300671254   -0.209984597407935   -0.007944220971623086
-0.03536316954666537   -0.18214160145640332   -0.00814390422741488
-0.020850649873652177   -0.210428532720729   -0.007472029462504348
-0.033394260300671254   -0.209984597407935   -0.007944220971623086
-0.02064847485044417   -0.18174588943679917   -0.007555349752610298
-0.021127591473390762   -0.18147604584012245   -0.007714463379661186
-0.02196314890844679   -0.20997100515603226   -0.007577332998871694
-0.006541430401328568   -0.18136604653464658   -0.007681734118989303
-0.020896814483301794   -0.1815732492218263   -0.007617641004240248
-0.02196314890844679   -0.20997100515603226   -0.007577332998871694
-0.01014050662214848   -0.20991708779120555   -0.0076640854015200596
-0.006541430401328568   -0.18136604653464658   -0.007681734118989303
-0.009742504747071811   -0.2098767793998016   -0.007377247035717551
-0.020896814483301794   -0.1815732492218263   -0.007617641004240248
-0.0062861392706181525   -0.18136894964447556   -0.007448447651340149
-0.009742504747071811   -0.2098767793998016   -0.007377247035717551
-0.006541430401328568   -0.18136604653464658   -0.007681734118989303
-0.020896814483301794   -0.1815732492218263   -0.007617641004240248
-0.009742504747071811   -0.2098767793998016   -0.007377247035717551
-0.02159981494740002   -0.21000254783838296   -0.007507885333600213
-0.02196314890844679   -0.20997100515603226   -0.007577332998871694
-0.020896814483301794   -0.1815732492218263   -0.007617641004240248
-0.009742504747071811   -0.2098767793998016   -0.007377247035717551
-0.02196314890844679   -0.20997100515603226   -0.007577332998871694
-0.006541430401328568   -0.18136604653464658   -0.007681734118989303
-0.020896814483301794   -0.1815732492218263   -0.007617641004240248
-0.02159981494740002   -0.21000254783838296   -0.007507885333600213
-0.0062861392706181525   -0.18136894964447556   -0.007448447651340149
-0.02064847485044417   -0.18174588943679917   -0.007555349752610298
-0.02159981494740002   -0.21000254783838296   -0.007507885333600213
-0.009742504747071811   -0.2098767793998016   -0.007377247035717551
-0.0062861392706181525   -0.18136894964447556   -0.007448447651340149
-0.0093563744339254   -0.20994357461973273   -0.007127185541607462
-0.02064847485044417   -0.18174588943679917   -0.007555349752610298
-0.006037599172488729   -0.1814416910852671   -0.007249765286799
-0.0093563744339254   -0.20994357461973273   -0.007127185541607462
-0.0062861392706181525   -0.18136894964447556   -0.007448447651340149
-0.02064847485044417   -0.18174588943679917   -0.007555349752610298
-0.0093563744339254   -0.20994357461973273   -0.007127185541607462
-0.021224901550246533   -0.21015268869960824   -0.007472944079662181
-0.02159981494740002   -0.21000254783838296   -0.007507885333600213
-0.02064847485044417   -0.18174588943679917   -0.007555349752610298
-0.0093563744339254   -0.20994357461973273   -0.007127185541607462
-0.02159981494740002   -0.21000254783838296   -0.007507885333600213
-0.0062861392706181525   -0.18136894964447556   -0.007448447651340149
-0.02064847485044417   -0.18174588943679917   -0.007555349752610298
-0.021224901550246533   -0.21015268869960824   -0.007472944079662181
-0.006037599172488729   -0.1814416910852671   -0.007249765286799
-0.020393206403507197   -0.18199617449135708   -0.0075292599450239054
-0.021224901550246533   -0.21015268869960824   -0.007472944079662181
-0.0093563744339254   -0.20994357461973273   -0.007127185541607462
-0.006037599172488729   -0.1814416910852671   -0.007249765286799
-0.009007644847520688   -0.21013325704887276   -0.006910696369407721
-0.020393206403507197   -0.18199617449135708   -0.0075292599450239054
-0.005816020105654973   -0.1815903574770988   -0.0070868956594787305
-0.009007644847520688   -0.21013325704887276   -0.006910696369407721
-0.006037599172488729   -0.1814416910852671   -0.007249765286799
-0.020393206403507197   -0.18199617449135708   -0.0075292599450239054
-0.009007644847520688   -0.21013325704887276   -0.006910696369407721
-0.020850649873652177   -0.210428532720729   -0.007472029462504348
-0.021224901550246533   -0.21015268869960824   -0.007472944079662181
-0.020393206403507197   -0.18199617449135708   -0.0075292599450239054
-0.009007644847520688   -0.21013325704887276   -0.006910696369407721
-0.021224901550246533   -0.21015268869960824   -0.007472944079662181
-0.006037599172488729   -0.1814416910852671   -0.007249765286799
-0.006541430401328568   -0.18136604653464658   -0.007681734118989303
-0.01014050662214848   -0.20991708779120555   -0.0076640854015200596
0.008551037036628593   -0.18100872290172834   -0.007818709540731418
-0.0062861392706181525   -0.18136894964447556   -0.007448447651340149
-0.01014050662214848   -0.20991708779120555   -0.0076640854015200596
0.0022421143395418334   -0.20948577594054538   -0.007876600296297024
0.008551037036628593   -0.18100872290172834   -0.007818709540731418
0.0027260299856725575   -0.20935404841388386   -0.007373190592634686
-0.0062861392706181525   -0.18136894964447556   -0.007448447651340149
0.008863098124545343   -0.18091098027845606   -0.007450310693871267
0.0027260299856725575   -0.20935404841388386   -0.007373190592634686
0.008551037036628593   -0.18100872290172834   -0.007818709540731418
-0.0062861392706181525   -0.18136894964447556   -0.007448447651340149
0.0027260299856725575   -0.20935404841388386   -0.007373190592634686
-0.009742504747071811   -0.2098767793998016   -0.007377247035717551
-0.01014050662214848   -0.20991708779120555   -0.0076640854015200596
-0.0062861392706181525   -0.18136894964447556   -0.007448447651340149
0.0027260299856725575   -0.20935404841388386   -0.007373190592634686
-0.01014050662214848   -0.20991708779120555   -0.0076640854015200596
0.008551037036628593   -0.18100872290172834   -0.007818709540731418
-0.0062861392706181525   -0.18136894964447556   -0.007448447651340149
-0.009742504747071811   -0.2098767793998016   -0.007377247035717551
0.008863098124545343   -0.18091098027845606   -0.007450310693871267
-0.006037599172488729   -0.1814416910852671   -0.007249765286799
-0.009742504747071811   -0.2098767793998016   -0.007377247035717551
0.0027260299856725575   -0.20935404841388386   -0.007373190592634686
0.008863098124545343   -0.18091098027845606   -0.007450310693871267
0.0032355793464156728   -0.20934208682367123   -0.0069164348466670324
-0.006037599172488729   -0.1814416910852671   -0.007249765286799
0.009182827656026793   -0.18089299281205407   -0.007118749945863601
0.0032355793464156728   -0.20934208682367123   -0.0069164348466670324
0.008863098124545343   -0.18091098027845606   -0.007450310693871267
-0.006037599172488729   -0.1814416910852671   -0.007249765286799
0.0032355793464156728   -0.20934208682367123   -0.0069164348466670324
-0.0093563744339254   -0.20994357461973273   -0.007127185541607462
-0.009742504747071811   -0.2098767793998016   -0.007377247035717551
-0.006037599172488729   -0.1814416910852671   -0.007249765286799
0.0032355793464156728   -0.20934208682367123   -0.0069164348466670324
-0.009742504747071811   -0.2098767793998016   -0.007377247035717551
0.008863098124545343   -0.18091098027845606   -0.007450310693871267
-0.006037599172488729   -0.1814416910852671   -0.007249765286799
-0.0093563744339254   -0.20994357461973273   -0.007127185541607462
0.009182827656026793   -0.18089299281205407   -0.007118749945863601
-0.005816020105654973   -0.1815903574770988   -0.0070868956594787305
-0.0093563744339254   -0.20994357461973273   -0.007127185541607462
0.0032355793464156728   -0.20934208682367123   -0.0069164348466670324
0.009182827656026793   -0.18089299281205407   -0.007118749945863601
0.003608256843059613   -0.20944450280072213   -0.006491819088075687
-0.005816020105654973   -0.1815903574770988   -0.0070868956594787305
0.009395016963918038   -0.18093999133828959   -0.00681917498581272
0.003608256843059613   -0.20944450280072213   -0.006491819088075687
0.009182827656026793   -0.18089299281205407   -0.007118749945863601
-0.005816020105654973   -0.1815903574770988   -0.0070868956594787305
0.003608256843059613   -0.20944450280072213   -0.006491819088075687
-0.009007644847520688   -0.21013325704887276   -0.006910696369407721
-0.0093563744339254   -0.20994357461973273   -0.007127185541607462
-0.005816020105654973   -0.1815903574770988   -0.0070868956594787305
0.003608256843059613   -0.20944450280072213   -0.006491819088075687
-0.0093563744339254   -0.20994357461973273   -0.007127185541607462
0.009182827656026793   -0.18089299281205407   -0.007118749945863601
0.008551037036628593   -0.18100872290172834   -0.007818709540731418
0.0022421143395418334   -0.20948577594054538   -0.007876600296297024
0.02461466423541599   -0.18039461895632708   -0.008174630113563817
0.008863098124545343   -0.18091098027845606   -0.007450310693871267
0.0022421143395418334   -0.20948577594054538   -0.007876600296297024
0.015454808028199247   -0.20863599224663112   -0.00833301446540667
0.02461466423541599   -0.18039461895632708   -0.008174630113563817
0.016677091412801937   -0.2083828243568842   -0.007562753343422978
0.008863098124545343   -0.18091098027845606   -0.007450310693871267
0.025444627864775783   -0.18019251179658546   -0.007638962799156757
0.016677091412801937   -0.2083828243568842   -0.007562753343422978
0.02461466423541599   -0.18039461895632708   -0.008174630113563817
0.008863098124545343   -0.18091098027845606   -0.007450310693871267
0.016677091412801937   -0.2083828243568842   -0.007562753343422978
0.0027260299856725575   -0.20935404841388386   -0.007373190592634686
0.0022421143395418334   -0.20948577594054538   -0.007876600296297024
0.008863098124545343   -0.18091098027845606   -0.007450310693871267
0.016677091412801937   -0.2083828243568842   -0.007562753343422978
0.0022421143395418334   -0.20948577594054538   -0.007876600296297024
0.02461466423541599   -0.18039461895632708   -0.008174630113563817
0.008863098124545343   -0.18091098027845606   -0.007450310693871267
0.0027260299856725575   -0.20935404841388386   -0.007373190592634686
0.025444627864775783   -0.18019251179658546   -0.007638962799156757
0.009182827656026793   -0.18089299281205407   -0.007118749945863601
0.0027260299856725575   -0.20935404841388386   -0.007373190592634686
0.016677091412801937   -0.2083828243568842   -0.007562753343422978
0.025444627864775783   -0.18019251179658546   -0.007638962799156757
0.017613997476642898   -0.20833899983555013   -0.006850333550558946
0.009182827656026793   -0.18089299281205407   -0.007118749945863601
0.026058649054988996   -0.18013717111625993   -0.007152247214393947
0.017613997476642898   -0.20833899983555013   -0.006850333550558946
0.025444627864775783   -0.18019251179658546   -0.007638962799156757
0.009182827656026793   -0.18089299281205407   -0.007118749945863601
0.017613997476642898   -0.20833899983555013   -0.006850333550558946
0.0032355793464156728   -0.20934208682367123   -0.0069164348466670324
0.0027260299856725575   -0.20935404841388386   -0.007373190592634686
0.009182827656026793   -0.18089299281205407   -0.007118749945863601
0.017613997476642898   -0.20833899983555013   -0.006850333550558946
0.0027260299856725575   -0.20935404841388386   -0.007373190592634686
0.025444627864775783   -0.18019251179658546   -0.007638962799156757
0.009182827656026793   -0.18089299281205407   -0.007118749945863601
0.0032355793464156728   -0.20934208682367123   -0.0069164348466670324
0.026058649054988996   -0.18013717111625993   -0.007152247214393947
0.009395016963918038   -0.18093999133828959   -0.00681917498581272
0.0032355793464156728   -0.20934208682367123   -0.0069164348466670324
0.017613997476642898   -0.20833899983555013   -0.006850333550558946
0.026058649054988996   -0.18013717111625993   -0.007152247214393947
0.018583210240727656   -0.20841354144121782   -0.006201601984997569
0.009395016963918038   -0.18093999133828959   -0.00681917498581272
0.02668013056271606   -0.18013642852853187   -0.006716686078619108
0.018583210240727656   -0.20841354144121782   -0.006201601984997569
0.026058649054988996   -0.18013717111625993   -0.007152247214393947
0.009395016963918038   -0.18093999133828959   -0.00681917498581272
0.018583210240727656   -0.20841354144121782   -0.006201601984997569
0.003608256843059613   -0.20944450280072213   -0.006491819088075687
0.0032355793464156728   -0.20934208682367123   -0.0069164348466670324
0.009395016963918038   -0.18093999133828959   -0.00681917498581272
0.018583210240727656   -0.20841354144121782   -0.006201601984997569
0.0032355793464156728   -0.20934208682367123   -0.0069164348466670324
0.026058649054988996   -0.18013717111625993   -0.007152247214393947
-0.048325655924166704   -0.20900031678709322   -0.00764531143708324
-0.04044381546423469   -0.23101457929493804   -0.006934183039142243
-0.03419262662273765   -0.20966051514518783   -0.007596915124235136
-0.04758977870454095   -0.20914232832979798   -0.008081105683778138
-0.04044381546423469   -0.23101457929493804   -0.006934183039142243
-0.030389359495987173   -0.23199412331434185   -0.007228395255817481
-0.03419262662273765   -0.20966051514518783   -0.007596915124235136
-0.02987772881314758   -0.23194301117892055   -0.007468385950053345
-0.04758977870454095   -0.20914232832979798   -0.008081105683778138
-0.03383872139844449   -0.20975611626894763   -0.007752789112194455
-0.02987772881314758   -0.23194301117892055   -0.007468385950053345
-0.03419262662273765   -0.20966051514518783   -0.007596915124235136
-0.04758977870454095   -0.20914232832979798   -0.008081105683778138
-0.02987772881314758   -0.23194301117892055   -0.007468385950053345
-0.03934371021912439   -0.2309865769012785   -0.007581379972396497
-0.04044381546423469   -0.23101457929493804   -0.006934183039142243
-0.04758977870454095   -0.20914232832979798   -0.008081105683778138
-0.02987772881314758   -0.23194301117892055   -0.007468385950053345
-0.04044381546423469   -0.23101457929493804   -0.006934183039142243
-0.03419262662273765   -0.20966051514518783   -0.007596915124235136
-0.04758977870454095   -0.20914232832979798   -0.008081105683778138
-0.03934371021912439   -0.2309865769012785   -0.007581379972396497
-0.03383872139844449   -0.20975611626894763   -0.007752789112194455
-0.04685512582002633   -0.20941044226781858   -0.008574806902531845
-0.03934371021912439   -0.2309865769012785   -0.007581379972396497
-0.02987772881314758   -0.23194301117892055   -0.007468385950053345
-0.03383872139844449   -0.20975611626894763   -0.007752789112194455
-0.029276417856088616   -0.23208284539743618   -0.007744789144589814
-0.04685512582002633   -0.20941044226781858   -0.008574806902531845
-0.033394260300671254   -0.209984597407935   -0.007944220971623086
-0.029276417856088616   -0.23208284539743618   -0.007744789144589814
-0.03383872139844449   -0.20975611626894763   -0.007752789112194455
-0.04685512582002633   -0.20941044226781858   -0.008574806902531845
-0.029276417856088616   -0.23208284539743618   -0.007744789144589814
-0.03832918662610955   -0.2311595370450931   -0.008279825533752467
-0.03934371021912439   -0.2309865769012785   -0.007581379972396497
-0.04685512582002633   -0.20941044226781858   -0.008574806902531845
-0.029276417856088616   -0.23208284539743618   -0.007744789144589814
-0.03934371021912439   -0.2309865769012785   -0.007581379972396497
-0.03383872139844449   -0.20975611626894763   -0.007752789112194455
-0.04685512582002633   -0.20941044226781858   -0.008574806902531845
-0.03832918662610955   -0.2311595370450931   -0.008279825533752467
-0.033394260300671254   -0.209984597407935   -0.007944220971623086
-0.045913899224678846   -0.2099103889329797   -0.009125296827292736
-0.03832918662610955   -0.2311595370450931   -0.008279825533752467
-0.029276417856088616   -0.23208284539743618   -0.007744789144589814
-0.033394260300671254   -0.209984597407935   -0.007944220971623086
-0.028730886198008617   -0.2324167442151882   -0.008055266589687178
-0.045913899224678846   -0.2099103889329797   -0.009125296827292736
-0.03295559591606203   -0.21035892480214813   -0.008170878784127682
-0.028730886198008617   -0.2324167442151882   -0.008055266589687178
-0.033394260300671254   -0.209984597407935   -0.007944220971623086
-0.045913899224678846   -0.2099103889329797   -0.009125296827292736
-0.028730886198008617   -0.2324167442151882   -0.008055266589687178
-0.03709212510824825   -0.23162292831996117   -0.00902644923688684
-0.03832918662610955   -0.2311595370450931   -0.008279825533752467
-0.045913899224678846   -0.2099103889329797   -0.009125296827292736
-0.028730886198008617   -0.2324167442151882   -0.008055266589687178
-0.03832918662610955   -0.2311595370450931   -0.008279825533752467
-0.033394260300671254   -0.209984597407935   -0.007944220971623086
-0.03419262662273765   -0.20966051514518783   -0.007596915124235136
-0.030389359495987173   -0.23199412331434185   -0.007228395255817481
-0.02196314890844679   -0.20997100515603226   -0.007577332998871694
-0.03383872139844449   -0.20975611626894763   -0.007752789112194455
-0.030389359495987173   -0.23199412331434185   -0.007228395255817481
-0.022184442966920456   -0.23263214101889393   -0.007458537999393635
-0.02196314890844679   -0.20997100515603226   -0.007577332998871694
-0.021659010669778742   -0.2325509347859042   -0.007385049289753273
-0.03383872139844449   -0.20975611626894763   -0.007752789112194455
-0.02159981494740002   -0.21000254783838296   -0.007507885333600213
-0.021659010669778742   -0.2325509347859042   -0.007385049289753273
-0.02196314890844679   -0.20997100515603226   -0.007577332998871694
-0.03383872139844449   -0.20975611626894763   -0.007752789112194455
-0.021659010669778742   -0.2325509347859042   -0.007385049289753273
-0.02987772881314758   -0.23194301117892055   -0.007468385950053345
-0.030389359495987173   -0.23199412331434185   -0.007228395255817481
-0.03383872139844449   -0.20975611626894763   -0.007752789112194455
-0.021659010669778742   -0.2325509347859042   -0.007385049289753273
-0.030389359495987173   -0.23199412331434185   -0.007228395255817481
-0.02196314890844679   -0.20997100515603226   -0.007577332998871694
-0.03383872139844449   -0.20975611626894763   -0.007752789112194455
-0.02987772881314758   -0.23194301117892055   -0.007468385950053345
-0.02159981494740002   -0.21000254783838296   -0.007507885333600213
-0.033394260300671254   -0.209984597407935   -0.007944220971623086
-0.02987772881314758   -0.23194301117892055   -0.007468385950053345
-0.021659010669778742   -0.2325509347859042   -0.007385049289753273
-0.02159981494740002   -0.21000254783838296   -0.007507885333600213
-0.021141227499097155   -0.23263440978924568   -0.0073468962696235296
-0.033394260300671254   -0.209984597407935   -0.007944220971623086
-0.021224901550246533   -0.21015268869960824   -0.007472944079662181
-0.021141227499097155   -0.23263440978924568   -0.0073468962696235296
-0.02159981494740002   -0.21000254783838296   -0.007507885333600213
-0.033394260300671254   -0.209984597407935   -0.007944220971623086
-0.021141227499097155   -0.23263440978924568   -0.0073468962696235296
-0.029276417856088616   -0.23208284539743618   -0.007744789144589814
-0.02987772881314758   -0.23194301117892055   -0.007468385950053345
-0.033394260300671254   -0.209984597407935   -0.007944220971623086
-0.021141227499097155   -0.23263440978924568   -0.0073468962696235296
-0.02987772881314758   -0.23194301117892055   -0.007468385950053345
-0.02159981494740002   -0.21000254783838296   -0.007507885333600213
-0.033394260300671254   -0.209984597407935   -0.007944220971623086
-0.029276417856088616   -0.23208284539743618   -0.007744789144589814
-0.021224901550246533   -0.21015268869960824   -0.007472944079662181
-0.03295559591606203   -0.21035892480214813   -0.008170878784127682
-0.029276417856088616   -0.23208284539743618   -0.007744789144589814
-0.021141227499097155   -0.23263440978924568   -0.0073468962696235296
-0.021224901550246533   -0.21015268869960824   -0.007472944079662181
-0.020665081729685907   -0.23288814788999382   -0.007351527006777987
-0.03295559591606203   -0.21035892480214813   -0.008170878784127682
-0.020850649873652177   -0.210428532720729   -0.007472029462504348
-0.020665081729685907   -0.23288814788999382   -0.007351527006777987
-0.021224901550246533   -0.21015268869960824   -0.007472944079662181
-0.03295559591606203   -0.21035892480214813   -0.008170878784127682
-0.020665081729685907   -0.23288814788999382   -0.007351527006777987
-0.028730886198008617   -0.2324167442151882   -0.008055266589687178
-0.029276417856088616   -0.23208284539743618   -0.007744789144589814
-0.03295559591606203   -0.21035892480214813   -0.008170878784127682
-0.020665081729685907   -0.23288814788999382   -0.007351527006777987
-0.029276417856088616   -0.23208284539743618   -0.007744789144589814
-0.021224901550246533   -0.21015268869960824   -0.007472944079662181
-0.02196314890844679   -0.20997100515603226   -0.007577332998871694
-0.022184442966920456   -0.23263214101889393   -0.007458537999393635
-0.01014050662214848   -0.20991708779120555   -0.0076640854015200596
-0.02159981494740002   -0.21000254783838296   -0.007507885333600213
-0.022184442966920456   -0.23263214101889393   -0.007458537999393635
-0.01432688375004639   -0.23297219121321228   -0.0077294356622738805
-0.01014050662214848   -0.20991708779120555   -0.0076640854015200596
-0.013734466781407486   -0.23285566780814396   -0.007360503741430017
-0.02159981494740002   -0.21000254783838296   -0.007507885333600213
-0.009742504747071811   -0.2098767793998016   -0.007377247035717551
-0.013734466781407486   -0.23285566780814396   -0.007360503741430017
-0.01014050662214848   -0.20991708779120555   -0.0076640854015200596
-0.02159981494740002   -0.21000254783838296   -0.007507885333600213
-0.013734466781407486   -0.23285566780814396   -0.007360503741430017
-0.021659010669778742   -0.2325509347859042   -0.007385049289753273
-0.022184442966920456   -0.23263214101889393   -0.007458537999393635
-0.02159981494740002   -0.21000254783838296   -0.007507885333600213
-0.013734466781407486   -0.23285566780814396   -0.007360503741430017
-0.022184442966920456   -0.23263214101889393   -0.007458537999393635
-0.01014050662214848   -0.20991708779120555   -0.0076640854015200596
-0.02159981494740002   -0.21000254783838296   -0.007507885333600213
-0.021659010669778742   -0.2325509347859042   -0.007385049289753273
-0.009742504747071811   -0.2098767793998016   -0.007377247035717551
-0.021224901550246533   -0.21015268869960824   -0.007472944079662181
-0.021659010669778742   -0.2325509347859042   -0.007385049289753273
-0.013734466781407486   -0.23285566780814396   -0.007360503741430017
-0.009742504747071811   -0.2098767793998016   -0.007377247035717551
-0.013169961773667953   -0.23288368626709058   -0.007022691888238631
-0.021224901550246533   -0.21015268869960824   -0.007472944079662181
-0.0093563744339254   -0.20994357461973273   -0.007127185541607462
-0.013169961773667953   -0.23288368626709058   -0.007022691888238631
-0.009742504747071811   -0.2098767793998016   -0.007377247035717551
-0.021224901550246533   -0.21015268869960824   -0.007472944079662181
-0.013169961773667953   -0.23288368626709058   -0.007022691888238631
-0.021141227499097155   -0.23263440978924568   -0.0073468962696235296
-0.021659010669778742   -0.2325509347859042   -0.007385049289753273
-0.021224901550246533   -0.21015268869960824   -0.007472944079662181
-0.013169961773667953   -0.23288368626709058   -0.007022691888238631
-0.021659010669778742   -0.2325509347859042   -0.007385049289753273
-0.009742504747071811   -0.2098767793998016   -0.007377247035717551
-0.021224901550246533   -0.21015268869960824   -0.007472944079662181
-0.021141227499097155   -0.23263440978924568   -0.0073468962696235296
-0.0093563744339254   -0.20994357461973273   -0.007127185541607462
-0.020850649873652177   -0.210428532720729   -0.007472029462504348
-0.021141227499097155   -0.23263440978924568   -0.0073468962696235296
-0.013169961773667953   -0.23288368626709058   -0.007022691888238631
-0.0093563744339254   -0.20994357461973273   -0.007127185541607462
-0.012700895018655423   -0.23308490265753062   -0.0067357085877455
-0.020850649873652177   -0.210428532720729   -0.007472029462504348
-0.009007644847520688   -0.21013325704887276   -0.006910696369407721
-0.012700895018655423   -0.23308490265753062   -0.0067357085877455
-0.0093563744339254   -0.20994357461973273   -0.007127185541607462
-0.020850649873652177   -0.210428532720729   -0.007472029462504348
-0.012700895018655423   -0.23308490265753062   -0.0067357085877455
-0.020665081729685907   -0.23288814788999382   -0.007351527006777987
-0.021141227499097155   -0.23263440978924568   -0.0073468962696235296
-0.020850649873652177   -0.210428532720729   -0.007472029462504348
-0.012700895018655423   -0.23308490265753062   -0.0067357085877455
-0.021141227499097155   -0.23263440978924568   -0.0073468962696235296
-0.0093563744339254   -0.20994357461973273   -0.007127185541607462
-0.01014050662214848   -0.20991708779120555   -0.0076640854015200596
-0.01432688375004639   -0.23297219121321228   -0.0077294356622738805
0.0022421143395418334   -0.20948577594054538   -0.007876600296297024
-0.009742504747071811   -0.2098767793998016   -0.007377247035717551
-0.01432688375004639   -0.23297219121321228   -0.0077294356622738805
-0.005963522206065115   -0.2328966674706484   -0.008047632342796767
0.0022421143395418334   -0.20948577594054538   -0.007876600296297024
-0.0052029237510982825   -0.23271416776707785   -0.007396323865099306
-0.009742504747071811   -0.2098767793998016   -0.007377247035717551
0.0027260299856725575   -0.20935404841388386   -0.007373190592634686
-0.0052029237510982825   -0.23271416776707785   -0.007396323865099306
0.0022421143395418334   -0.20948577594054538   -0.007876600296297024
-0.009742504747071811   -0.2098767793998016   -0.007377247035717551
-0.0052029237510982825   -0.23271416776707785   -0.007396323865099306
-0.013734466781407486   -0.23285566780814396   -0.007360503741430017
-0.01432688375004639   -0.23297219121321228   -0.0077294356622738805
-0.009742504747071811   -0.2098767793998016   -0.007377247035717551
-0.0052029237510982825   -0.23271416776707785   -0.007396323865099306
-0.01432688375004639   -0.23297219121321228   -0.0077294356622738805
0.0022421143395418334   -0.20948577594054538   -0.007876600296297024
-0.009742504747071811   -0.2098767793998016   -0.007377247035717551
-0.013734466781407486   -0.23285566780814396   -0.007360503741430017
0.0027260299856725575   -0.20935404841388386   -0.007373190592634686
-0.0093563744339254   -0.20994357461973273   -0.007127185541607462
-0.013734466781407486   -0.23285566780814396   -0.007360503741430017
-0.0052029237510982825   -0.23271416776707785   -0.007396323865099306
0.0027260299856725575   -0.20935404841388386   -0.007373190592634686
-0.004426281652865985   -0.2326813806816033   -0.006778375159150223
-0.0093563744339254   -0.20994357461973273   -0.007127185541607462
0.0032355793464156728   -0.20934208682367123   -0.0069164348466670324
-0.004426281652865985   -0.2326813806816033   -0.006778375159150223
0.0027260299856725575   -0.20935404841388386   -0.007373190592634686
-0.0093563744339254   -0.20994357461973273   -0.007127185541607462
-0.004426281652865985   -0.2326813806816033   -0.006778375159150223
-0.013169961773667953   -0.23288368626709058   -0.007022691888238631
-0.013734466781407486   -0.23285566780814396   -0.007360503741430017
-0.0093563744339254   -0.20994357461973273   -0.007127185541607462
-0.004426281652865985   -0.2326813806816033   -0.006778375159150223
-0.013734466781407486   -0.23285566780814396   -0.007360503741430017
0.0027260299856725575   -0.20935404841388386   -0.007373190592634686
-0.0093563744339254   -0.20994357461973273   -0.007127185541607462
-0.013169961773667953   -0.23288368626709058   -0.007022691888238631
0.0032355793464156728   -0.20934208682367123   -0.0069164348466670324
-0.009007644847520688   -0.21013325704887276   -0.006910696369407721
-0.013169961773667953   -0.23288368626709058   -0.007022691888238631
-0.004426281652865985   -0.2326813806816033   -0.006778375159150223
0.0032355793464156728   -0.20934208682367123   -0.0069164348466670324
-0.0038504505896860405   -0.2328310115829637   -0.00621764732093821
-0.009007644847520688   -0.21013325704887276   -0.006910696369407721
0.003608256843059613   -0.20944450280072213   -0.006491819088075687
-0.0038504505896860405   -0.2328310115829637   -0.00621764732093821
0.0032355793464156728   -0.20934208682367123   -0.0069164348466670324
-0.009007644847520688   -0.21013325704887276   -0.006910696369407721
-0.0038504505896860405   -0.2328310115829637   -0.00621764732093821
-0.012700895018655423   -0.23308490265753062   -0.0067357085877455
-0.013169961773667953   -0.23288368626709058   -0.007022691888238631
-0.009007644847520688   -0.21013325704887276   -0.006910696369407721
-0.0038504505896860405   -0.2328310115829637   -0.00621764732093821
-0.013169961773667953   -0.23288368626709058   -0.007022691888238631
0.0032355793464156728   -0.20934208682367123   -0.0069164348466670324
0.0022421143395418334   -0.20948577594054538   -0.007876600296297024
-0.005963522206065115   -0.2328966674706484   -0.008047632342796767
0.015454808028199247   -0.20863599224663112   -0.00833301446540667
0.0027260299856725575   -0.20935404841388386   -0.007373190592634686
-0.005963522206065115   -0.2328966674706484   -0.008047632342796767
0.003053128648722304   -0.23209649683918052   -0.008702851836066654
0.015454808028199247   -0.20863599224663112   -0.00833301446540667
0.004818247104192163   -0.23169835937464323   -0.007636917146499397
0.0027260299856725575   -0.20935404841388386   -0.007373190592634686
0.016677091412801937   -0.2083828243568842   -0.007562753343422978
0.004818247104192163   -0.23169835937464323   -0.007636917146499397
0.015454808028199247   -0.20863599224663112   -0.00833301446540667
0.0027260299856725575   -0.20935404841388386   -0.007373190592634686
0.004818247104192163   -0.23169835937464323   -0.007636917146499397
-0.0052029237510982825   -0.23271416776707785   -0.007396323865099306
-0.005963522206065115   -0.2328966674706484   -0.008047632342796767
0.0027260299856725575   -0.20935404841388386   -0.007373190592634686
0.004818247104192163   -0.23169835937464323   -0.007636917146499397
-0.005963522206065115   -0.2328966674706484   -0.008047632342796767
0.015454808028199247   -0.20863599224663112   -0.00833301446540667
0.0027260299856725575   -0.20935404841388386   -0.007373190592634686
-0.0052029237510982825   -0.23271416776707785   -0.007396323865099306
0.016677091412801937   -0.2083828243568842   -0.007562753343422978
0.0032355793464156728   -0.20934208682367123   -0.0069164348466670324
-0.0052029237510982825   -0.23271416776707785   -0.007396323865099306
0.004818247104192163   -0.23169835937464323   -0.007636917146499397
0.016677091412801937   -0.2083828243568842   -0.007562753343422978
0.006205828850261651   -0.23161723905400342   -0.006636705402199133
0.0032355793464156728   -0.20934208682367123   -0.0069164348466670324
0.017613997476642898   -0.20833899983555013   -0.006850333550558946
0.006205828850261651   -0.23161723905400342   -0.006636705402199133
0.016677091412801937   -0.2083828243568842   -0.007562753343422978
0.0032355793464156728   -0.20934208682367123   -0.0069164348466670324
0.006205828850261651   -0.23161723905400342   -0.006636705402199133
-0.004426281652865985   -0.2326813806816033   -0.006778375159150223
-0.0052029237510982825   -0.23271416776707785   -0.007396323865099306
0.0032355793464156728   -0.20934208682367123   -0.0069164348466670324
0.006205828850261651   -0.23161723905400342   -0.006636705402199133
-0.0052029237510982825   -0.23271416776707785   -0.007396323865099306
0.016677091412801937   -0.2083828243568842   -0.007562753343422978
0.0032355793464156728   -0.20934208682367123   -0.0069164348466670324
-0.004426281652865985   -0.2326813806816033   -0.006778375159150223
0.017613997476642898   -0.20833899983555013   -0.006850333550558946
0.003608256843059613   -0.20944450280072213   -0.006491819088075687
-0.004426281652865985   -0.2326813806816033   -0.006778375159150223
0.006205828850261651   -0.23161723905400342   -0.006636705402199133
0.017613997476642898   -0.20833899983555013   -0.006850333550558946
0.007645904258279196   -0.23168300731182875   -0.005724000266859124
0.003608256843059613   -0.20944450280072213   -0.006491819088075687
0.018583210240727656   -0.20841354144121782   -0.006201601984997569
0.007645904258279196   -0.23168300731182875   -0.005724000266859124
0.017613997476642898   -0.20833899983555013   -0.006850333550558946
0.003608256843059613   -0.20944450280072213   -0.006491819088075687
0.007645904258279196   -0.23168300731182875   -0.005724000266859124
-0.0038504505896860405   -0.2328310115829637   -0.00621764732093821
-0.004426281652865985   -0.2326813806816033   -0.006778375159150223
0.003608256843059613   -0.20944450280072213   -0.006491819088075687
0.007645904258279196   -0.23168300731182875   -0.005724000266859124
-0.004426281652865985   -0.2326813806816033   -0.006778375159150223
0.017613997476642898   -0.20833899983555013   -0.006850333550558946
-0.04044381546423469   -0.23101457929493804   -0.006934183039142243
-0.029590433424785557   -0.2440866519783866   -0.006099892516459685
-0.030389359495987173   -0.23199412331434185   -0.007228395255817481
-0.03934371021912439   -0.2309865769012785   -0.007581379972396497
-0.029590433424785557   -0.2440866519783866   -0.006099892516459685
-0.024928527113889425   -0.24532699584486925   -0.006847370300061434
-0.030389359495987173   -0.23199412331434185   -0.007228395255817481
-0.024281718015496976   -0.2450803728343119   -0.0071021843766026875
-0.03934371021912439   -0.2309865769012785   -0.007581379972396497
-0.02987772881314758   -0.23194301117892055   -0.007468385950053345
-0.024281718015496976   -0.2450803728343119   -0.0071021843766026875
-0.030389359495987173   -0.23199412331434185   -0.007228395255817481
-0.03934371021912439   -0.2309865769012785   -0.007581379972396497
-0.024281718015496976   -0.2450803728343119   -0.0071021843766026875
-0.028217600250378633   -0.24380901118580817   -0.0068767305769234085
-0.029590433424785557   -0.2440866519783866   -0.006099892516459685
-0.03934371021912439   -0.2309865769012785   -0.007581379972396497
-0.024281718015496976   -0.2450803728343119   -0.0071021843766026875
-0.029590433424785557   -0.2440866519783866   -0.006099892516459685
-0.030389359495987173   -0.23199412331434185   -0.007228395255817481
-0.03934371021912439   -0.2309865769012785   -0.007581379972396497
-0.028217600250378633   -0.24380901118580817   -0.0068767305769234085
-0.02987772881314758   -0.23194301117892055   -0.007468385950053345
-0.03832918662610955   -0.2311595370450931   -0.008279825533752467
-0.028217600250378633   -0.24380901118580817   -0.0068767305769234085
-0.024281718015496976   -0.2450803728343119   -0.0071021843766026875
-0.02987772881314758   -0.23194301117892055   -0.007468385950053345
-0.02356610677301411   -0.24509052071537124   -0.0073595454892241355
-0.03832918662610955   -0.2311595370450931   -0.008279825533752467
-0.029276417856088616   -0.23208284539743618   -0.007744789144589814
-0.02356610677301411   -0.24509052071537124   -0.0073595454892241355
-0.02987772881314758   -0.23194301117892055   -0.007468385950053345
-0.03832918662610955   -0.2311595370450931   -0.008279825533752467
-0.02356610677301411   -0.24509052071537124   -0.0073595454892241355
-0.02703293130728547   -0.2438304714828955   -0.0076503969561343395
-0.028217600250378633   -0.24380901118580817   -0.0068767305769234085
-0.03832918662610955   -0.2311595370450931   -0.008279825533752467
-0.02356610677301411   -0.24509052071537124   -0.0073595454892241355
-0.028217600250378633   -0.24380901118580817   -0.0068767305769234085
-0.02987772881314758   -0.23194301117892055   -0.007468385950053345
-0.03832918662610955   -0.2311595370450931   -0.008279825533752467
-0.02703293130728547   -0.2438304714828955   -0.0076503969561343395
-0.029276417856088616   -0.23208284539743618   -0.007744789144589814
-0.03709212510824825   -0.23162292831996117   -0.00902644923688684
-0.02703293130728547   -0.2438304714828955   -0.0076503969561343395
-0.02356610677301411   -0.24509052071537124   -0.0073595454892241355
-0.029276417856088616   -0.23208284539743618   -0.007744789144589814
-0.022900899761872522   -0.2453585365186592   -0.0076205360000071816
-0.03709212510824825   -0.23162292831996117   -0.00902644923688684
-0.028730886198008617   -0.2324167442151882   -0.008055266589687178
-0.022900899761872522   -0.2453585365186592   -0.0076205360000071816
-0.029276417856088616   -0.23208284539743618   -0.007744789144589814
-0.03709212510824825   -0.23162292831996117   -0.00902644923688684
-0.022900899761872522   -0.2453585365186592   -0.0076205360000071816
-0.02562835620859285   -0.2441679880783899   -0.008440784978274966
-0.02703293130728547   -0.2438304714828955   -0.0076503969561343395
-0.03709212510824825   -0.23162292831996117   -0.00902644923688684
-0.022900899761872522   -0.2453585365186592   -0.0076205360000071816
-0.02703293130728547   -0.2438304714828955   -0.0076503969561343395
-0.029276417856088616   -0.23208284539743618   -0.007744789144589814
-0.030389359495987173   -0.23199412331434185   -0.007228395255817481
-0.024928527113889425   -0.24532699584486925   -0.006847370300061434
-0.022184442966920456   -0.23263214101889393   -0.007458537999393635
-0.02987772881314758   -0.23194301117892055   -0.007468385950053345
-0.024928527113889425   -0.24532699584486925   -0.006847370300061434
-0.021522339210082248   -0.2465791757059369   -0.007508506090118258
-0.022184442966920456   -0.23263214101889393   -0.007458537999393635
-0.02083918909186692   -0.24632652255662288   -0.007327850133735933
-0.02987772881314758   -0.23194301117892055   -0.007468385950053345
-0.021659010669778742   -0.2325509347859042   -0.007385049289753273
-0.02083918909186692   -0.24632652255662288   -0.007327850133735933
-0.022184442966920456   -0.23263214101889393   -0.007458537999393635
-0.02987772881314758   -0.23194301117892055   -0.007468385950053345
-0.02083918909186692   -0.24632652255662288   -0.007327850133735933
-0.024281718015496976   -0.2450803728343119   -0.0071021843766026875
-0.024928527113889425   -0.24532699584486925   -0.006847370300061434
-0.02987772881314758   -0.23194301117892055   -0.007468385950053345
-0.02083918909186692   -0.24632652255662288   -0.007327850133735933
-0.024928527113889425   -0.24532699584486925   -0.006847370300061434
-0.022184442966920456   -0.23263214101889393   -0.007458537999393635
-0.02987772881314758   -0.23194301117892055   -0.007468385950053345
-0.024281718015496976   -0.2450803728343119   -0.0071021843766026875
-0.021659010669778742   -0.2325509347859042   -0.007385049289753273
-0.029276417856088616   -0.23208284539743618   -0.007744789144589814
-0.024281718015496976   -0.2450803728343119   -0.0071021843766026875
-0.02083918909186692   -0.24632652255662288   -0.007327850133735933
-0.021659010669778742   -0.2325509347859042   -0.007385049289753273
-0.02017901846998029   -0.24632047347909325   -0.007144896768763742
-0.029276417856088616   -0.23208284539743618   -0.007744789144589814
-0.021141227499097155   -0.23263440978924568   -0.0073468962696235296
-0.02017901846998029   -0.24632047347909325   -0.007144896768763742
-0.021659010669778742   -0.2325509347859042   -0.007385049289753273
-0.029276417856088616   -0.23208284539743618   -0.007744789144589814
-0.02017901846998029   -0.24632047347909325   -0.007144896768763742
-0.02356610677301411   -0.24509052071537124   -0.0073595454892241355
-0.024281718015496976   -0.2450803728343119   -0.0071021843766026875
-0.029276417856088616   -0.23208284539743618   -0.007744789144589814
-0.02017901846998029   -0.24632047347909325   -0.007144896768763742
-0.024281718015496976   -0.2450803728343119   -0.0071021843766026875
-0.021659010669778742   -0.2325509347859042   -0.007385049289753273
-0.029276417856088616   -0.23208284539743618   -0.007744789144589814
-0.02356610677301411   -0.24509052071537124   -0.0073595454892241355
-0.021141227499097155   -0.23263440978924568   -0.0073468962696235296
-0.028730886198008617   -0.2324167442151882   -0.008055266589687178
-0.02356610677301411   -0.24509052071537124   -0.0073595454892241355
-0.02017901846998029   -0.24632047347909325   -0.007144896768763742
-0.021141227499097155   -0.23263440978924568   -0.0073468962696235296
-0.019490504872182277   -0.24655578659509494   -0.0069690443166470694
-0.028730886198008617   -0.2324167442151882   -0.008055266589687178
-0.020665081729685907   -0.23288814788999382   -0.007351527006777987
-0.019490504872182277   -0.24655578659509494   -0.0069690443166470694
-0.021141227499097155   -0.23263440978924568   -0.0073468962696235296
-0.028730886198008617   -0.2324167442151882   -0.008055266589687178
-0.019490504872182277   -0.24655578659509494   -0.0069690443166470694
-0.022900899761872522   -0.2453585365186592   -0.0076205360000071816
-0.02356610677301411   -0.24509052071537124   -0.0073595454892241355
-0.028730886198008617   -0.2324167442151882   -0.008055266589687178
-0.019490504872182277   -0.24655578659509494   -0.0069690443166470694
-0.02356610677301411   -0.24509052071537124   -0.0073595454892241355
-0.021141227499097155   -0.23263440978924568   -0.0073468962696235296
-0.022184442966920456   -0.23263214101889393   -0.007458537999393635
-0.021522339210082248   -0.2465791757059369   -0.007508506090118258
-0.01432688375004639   -0.23297219121321228   -0.0077294356622738805
-0.021659010669778742   -0.2325509347859042   -0.007385049289753273
-0.021522339210082248   -0.2465791757059369   -0.007508506090118258
-0.01841448141675474   -0.24809806000184303   -0.00823550682990989
-0.01432688375004639   -0.23297219121321228   -0.0077294356622738805
-0.017576542782261104   -0.24787960869990106   -0.007594796231206811
-0.021659010669778742   -0.2325509347859042   -0.007385049289753273
-0.013734466781407486   -0.23285566780814396   -0.007360503741430017
-0.017576542782261104   -0.24787960869990106   -0.007594796231206811
-0.01432688375004639   -0.23297219121321228   -0.0077294356622738805
-0.021659010669778742   -0.2325509347859042   -0.007385049289753273
-0.017576542782261104   -0.24787960869990106   -0.007594796231206811
-0.02083918909186692   -0.24632652255662288   -0.007327850133735933
-0.021522339210082248   -0.2465791757059369   -0.007508506090118258
-0.021659010669778742   -0.2325509347859042   -0.007385049289753273
-0.017576542782261104   -0.24787960869990106   -0.007594796231206811
-0.021522339210082248   -0.2465791757059369   -0.007508506090118258
-0.01432688375004639   -0.23297219121321228   -0.0077294356622738805
-0.021659010669778742   -0.2325509347859042   -0.007385049289753273
-0.02083918909186692   -0.24632652255662288   -0.007327850133735933
-0.013734466781407486   -0.23285566780814396   -0.007360503741430017
-0.021141227499097155   -0.23263440978924568   -0.0073468962696235296
-0.02083918909186692   -0.24632652255662288   -0.007327850133735933
-0.017576542782261104   -0.24787960869990106   -0.007594796231206811
-0.013734466781407486   -0.23285566780814396   -0.007360503741430017
-0.016800642906662146   -0.24786703143469513   -0.006956564296039511
-0.021141227499097155   -0.23263440978924568   -0.0073468962696235296
-0.013169961773667953   -0.23288368626709058   -0.007022691888238631
-0.016800642906662146   -0.24786703143469513   -0.006956564296039511
-0.013734466781407486   -0.23285566780814396   -0.007360503741430017
-0.021141227499097155   -0.23263440978924568   -0.0073468962696235296
-0.016800642906662146   -0.24786703143469513   -0.006956564296039511
-0.02017901846998029   -0.24632047347909325   -0.007144896768763742
-0.02083918909186692   -0.24632652255662288   -0.007327850133735933
-0.021141227499097155   -0.23263440978924568   -0.0073468962696235296
-0.016800642906662146   -0.24786703143469513   -0.006956564296039511
-0.02083918909186692   -0.24632652255662288   -0.007327850133735933
-0.013734466781407486   -0.23285566780814396   -0.007360503741430017
-0.021141227499097155   -0.23263440978924568   -0.0073468962696235296
-0.02017901846998029   -0.24632047347909325   -0.007144896768763742
-0.013169961773667953   -0.23288368626709058   -0.007022691888238631
-0.020665081729685907   -0.23288814788999382   -0.007351527006777987
-0.02017901846998029   -0.24632047347909325   -0.007144896768763742
-0.016800642906662146   -0.24786703143469513   -0.006956564296039511
-0.013169961773667953   -0.23288368626709058   -0.007022691888238631
-0.015966953037813793   -0.24804897780801505   -0.0063163777307038175
-0.020665081729685907   -0.23288814788999382   -0.007351527006777987
-0.012700895018655423   -0.23308490265753062   -0.0067357085877455
-0.015966953037813793   -0.24804897780801505   -0.0063163777307038175
-0.013169961773667953   -0.23288368626709058   -0.007022691888238631
-0.020665081729685907   -0.23288814788999382   -0.007351527006777987
-0.015966953037813793   -0.24804897780801505   -0.0063163777307038175
-0.019490504872182277   -0.24655578659509494   -0.0069690443166470694
-0.02017901846998029   -0.24632047347909325   -0.007144896768763742
-0.020665081729685907   -0.23288814788999382   -0.007351527006777987
-0.015966953037813793   -0.24804897780801505   -0.0063163777307038175
-0.02017901846998029   -0.24632047347909325   -0.007144896768763742
-0.013169961773667953   -0.23288368626709058   -0.007022691888238631
-0.01432688375004639   -0.23297219121321228   -0.0077294356622738805
-0.01841448141675474   -0.24809806000184303   -0.00823550682990989
-0.005963522206065115   -0.2328966674706484   -0.008047632342796767
-0.013734466781407486   -0.23285566780814396   -0.007360503741430017
-0.01841448141675474   -0.24809806000184303   -0.00823550682990989
-0.015355822551144442   -0.25   -0.008789922952663329
-0.005963522206065115   -0.2328966674706484   -0.008047632342796767
-0.01430307398942223   -0.25   -0.007820027868669144
-0.013734466781407486   -0.23285566780814396   -0.007360503741430017
-0.0052029237510982825   -0.23271416776707785   -0.007396323865099306
-0.01430307398942223   -0.25   -0.007820027868669144
-0.005963522206065115   -0.2328966674706484   -0.008047632342796767
-0.013734466781407486   -0.23285566780814396   -0.007360503741430017
-0.01430307398942223   -0.25   -0.007820027868669144
-0.017576542782261104   -0.24787960869990106   -0.007594796231206811
-0.01841448141675474   -0.24809806000184303   -0.00823550682990989
-0.013734466781407486   -0.23285566780814396   -0.007360503741430017
-0.01430307398942223   -0.25   -0.007820027868669144
-0.01841448141675474   -0.24809806000184303   -0.00823550682990989
-0.005963522206065115   -0.2328966674706484   -0.008047632342796767
-0.013734466781407486   -0.23285566780814396   -0.007360503741430017
-0.017576542782261104   -0.24787960869990106   -0.007594796231206811
-0.0052029237510982825   -0.23271416776707785   -0.007396323865099306
-0.013169961773667953   -0.23288368626709058   -0.007022691888238631
-0.017576542782261104   -0.24787960869990106   -0.007594796231206811
-0.01430307398942223   -0.25   -0.007820027868669144
-0.0052029237510982825   -0.23271416776707785   -0.007396323865099306
-0.01324626067607907   -0.25   -0.006838598705486124
-0.013169961773667953   -0.23288368626709058   -0.007022691888238631
-0.004426281652865985   -0.2326813806816033   -0.006778375159150223
-0.01324626067607907   -0.25   -0.006838598705486124
-0.0052029237510982825   -0.23271416776707785   -0.007396323865099306
-0.013169961773667953   -0.23288368626709058   -0.007022691888238631
-0.01324626067607907   -0.25   -0.006838598705486124
-0.016800642906662146   -0.24786703143469513   -0.006956564296039511
-0.017576542782261104   -0.24787960869990106   -0.007594796231206811
-0.013169961773667953   -0.23288368626709058   -0.007022691888238631
-0.01324626067607907   -0.25   -0.006838598705486124
-0.017576542782261104   -0.24787960869990106   -0.007594796231206811
-0.0052029237510982825   -0.23271416776707785   -0.007396323865099306
-0.013169961773667953   -0.23288368626709058   -0.007022691888238631
-0.016800642906662146   -0.24786703143469513   -0.006956564296039511
-0.004426281652865985   -0.2326813806816033   -0.006778375159150223
-0.012700895018655423   -0.23308490265753062   -0.0067357085877455
-0.016800642906662146   -0.24786703143469513   -0.006956564296039511
-0.01324626067607907   -0.25   -0.006838598705486124
-0.004426281652865985   -0.2326813806816033   -0.006778375159150223
-0.012212022821233978   -0.25   -0.0058700636287952
-0.012700895018655423   -0.23308490265753062   -0.0067357085877455
-0.0038504505896860405   -0.2328310115829637   -0.00621764732093821
-0.012212022821233978   -0.25   -0.0058700636287952
-0.004426281652865985   -0.2326813806816033   -0.006778375159150223
-0.012700895018655423   -0.23308490265753062   -0.0067357085877455
-0.012212022821233978   -0.25   -0.0058700636287952
-0.015966953037813793   -0.24804897780801505   -0.0063163777307038175
-0.016800642906662146   -0.24786703143469513   -0.006956564296039511
-0.012700895018655423   -0.23308490265753062   -0.0067357085877455
-0.012212022821233978   -0.25   -0.0058700636287952
-0.016800642906662146   -0.24786703143469513   -0.006956564296039511
-0.004426281652865985   -0.2326813806816033   -0.006778375159150223
-0.005963522206065115   -0.2328966674706484   -0.008047632342796767
-0.015355822551144442   -0.25   -0.008789922952663329
0.003053128648722304   -0.23209649683918052   -0.008702851836066654
-0.0052029237510982825   -0.23271416776707785   -0.007396323865099306
-0.015355822551144442   -0.25   -0.008789922952663329
-0.013147387462528047   -0.25   -0.009461405621460722
0.003053128648722304   -0.23209649683918052   -0.008702851836066654
-0.010953839588876082   -0.25   -0.00805996634860837
-0.0052029237510982825   -0.23271416776707785   -0.007396323865099306
0.004818247104192163   -0.23169835937464323   -0.007636917146499397
-0.010953839588876082   -0.25   -0.00805996634860837
0.003053128648722304   -0.23209649683918052   -0.008702851836066654
-0.0052029237510982825   -0.23271416776707785   -0.007396323865099306
-0.010953839588876082   -0.25   -0.00805996634860837
-0.01430307398942223   -0.25   -0.007820027868669144
-0.015355822551144442   -0.25   -0.008789922952663329
-0.0052029237510982825   -0.23271416776707785   -0.007396323865099306
-0.010953839588876082   -0.25   -0.00805996634860837
-0.015355822551144442   -0.25   -0.008789922952663329
0.003053128648722304   -0.23209649683918052   -0.008702851836066654
-0.0052029237510982825   -0.23271416776707785   -0.007396323865099306
-0.01430307398942223   -0.25   -0.007820027868669144
0.004818247104192163   -0.23169835937464323   -0.007636917146499397
-0.004426281652865985   -0.2326813806816033   -0.006778375159150223
-0.01430307398942223   -0.25   -0.007820027868669144
-0.010953839588876082   -0.25   -0.00805996634860837
0.004818247104192163   -0.23169835937464323   -0.007636917146499397
-0.009204440565482858   -0.25   -0.006719218036909495
-0.004426281652865985   -0.2326813806816033   -0.006778375159150223
0.006205828850261651   -0.23161723905400342   -0.006636705402199133
-0.009204440565482858   -0.25   -0.006719218036909495
0.004818247104192163   -0.23169835937464323   -0.007636917146499397
-0.004426281652865985   -0.2326813806816033   -0.006778375159150223
-0.009204440565482858   -0.25   -0.006719218036909495
-0.01324626067607907   -0.25   -0.006838598705486124
-0.01430307398942223   -0.25   -0.007820027868669144
-0.004426281652865985   -0.2326813806816033   -0.006778375159150223
-0.009204440565482858   -0.25   -0.006719218036909495
-0.01430307398942223   -0.25   -0.007820027868669144
0.004818247104192163   -0.23169835937464323   -0.007636917146499397
-0.004426281652865985   -0.2326813806816033   -0.006778375159150223
-0.01324626067607907   -0.25   -0.006838598705486124
0.006205828850261651   -0.23161723905400342   -0.006636705402199133
-0.0038504505896860405   -0.2328310115829637   -0.00621764732093821
-0.01324626067607907   -0.25   -0.006838598705486124
-0.009204440565482858   -0.25   -0.006719218036909495
0.006205828850261651   -0.23161723905400342   -0.006636705402199133
-0.007043091445817893   -0.25   -0.005327454690274411
-0.0038504505896860405   -0.2328310115829637   -0.00621764732093821
0.007645904258279196   -0.23168300731182875   -0.005724000266859124
-0.007043091445817893   -0.25   -0.005327454690274411
0.006205828850261651   -0.23161723905400342   -0.006636705402199133
-0.0038504505896860405   -0.2328310115829637   -0.00621764732093821
-0.007043091445817893   -0.25   -0.005327454690274411
-0.012212022821233978   -0.25   -0.0058700636287952
-0.01324626067607907   -0.25   -0.006838598705486124
-0.0038504505896860405   -0.2328310115829637   -0.00621764732093821
-0.007043091445817893   -0.25   -0.005327454690274411
-0.01324626067607907   -0.25   -0.006838598705486124
0.006205828850261651   -0.23161723905400342   -0.006636705402199133
-0.029590433424785557   -0.2440866519783866   -0.006099892516459685
-0.017582470956750963   -0.24467895227738548   -0.005219522823404311
-0.024928527113889425   -0.24532699584486925   -0.006847370300061434
-0.028217600250378633   -0.24380901118580817   -0.0068767305769234085
-0.017582470956750963   -0.24467895227738548   -0.005219522823404311
-0.01869199479727119   -0.2456317830623629   -0.006181753221573557
-0.024928527113889425   -0.24532699584486925   -0.006847370300061434
-0.018203385555114467   -0.24529533423687164   -0.006530458767651937
-0.028217600250378633   -0.24380901118580817   -0.0068767305769234085
-0.024281718015496976   -0.2450803728343119   -0.0071021843766026875
-0.018203385555114467   -0.24529533423687164   -0.006530458767651937
-0.024928527113889425   -0.24532699584486925   -0.006847370300061434
-0.028217600250378633   -0.24380901118580817   -0.0068767305769234085
-0.018203385555114467   -0.24529533423687164   -0.006530458767651937
-0.01633987337396949   -0.24424717983492827   -0.006035505888259526
-0.017582470956750963   -0.24467895227738548   -0.005219522823404311
-0.028217600250378633   -0.24380901118580817   -0.0068767305769234085
-0.018203385555114467   -0.24529533423687164   -0.006530458767651937
-0.017582470956750963   -0.24467895227738548   -0.005219522823404311
-0.024928527113889425   -0.24532699584486925   -0.006847370300061434
-0.028217600250378633   -0.24380901118580817   -0.0068767305769234085
-0.01633987337396949   -0.24424717983492827   -0.006035505888259526
-0.024281718015496976   -0.2450803728343119   -0.0071021843766026875
-0.02703293130728547   -0.2438304714828955   -0.0076503969561343395
-0.01633987337396949   -0.24424717983492827   -0.006035505888259526
-0.018203385555114467   -0.24529533423687164   -0.006530458767651937
-0.024281718015496976   -0.2450803728343119   -0.0071021843766026875
-0.01763076388866856   -0.24516906230846647   -0.006851839148118789
-0.02703293130728547   -0.2438304714828955   -0.0076503969561343395
-0.02356610677301411   -0.24509052071537124   -0.0073595454892241355
-0.01763076388866856   -0.24516906230846647   -0.006851839148118789
-0.024281718015496976   -0.2450803728343119   -0.0071021843766026875
-0.02703293130728547   -0.2438304714828955   -0.0076503969561343395
-0.01763076388866856   -0.24516906230846647   -0.006851839148118789
-0.015305357380728215   -0.24411191521190564   -0.00681756135788676
-0.01633987337396949   -0.24424717983492827   -0.006035505888259526
-0.02703293130728547   -0.2438304714828955   -0.0076503969561343395
-0.01763076388866856   -0.24516906230846647   -0.006851839148118789
-0.01633987337396949   -0.24424717983492827   -0.006035505888259526
-0.024281718015496976   -0.2450803728343119   -0.0071021843766026875
-0.02703293130728547   -0.2438304714828955   -0.0076503969561343395
-0.015305357380728215   -0.24411191521190564   -0.00681756135788676
-0.02356610677301411   -0.24509052071537124   -0.0073595454892241355
-0.02562835620859285   -0.2441679880783899   -0.008440784978274966
-0.015305357380728215   -0.24411191521190564   -0.00681756135788676
-0.01763076388866856   -0.24516906230846647   -0.006851839148118789
-0.02356610677301411   -0.24509052071537124   -0.0073595454892241355
-0.017139942204785975   -0.2452546983774608   -0.0071441777201019215
-0.02562835620859285   -0.2441679880783899   -0.008440784978274966
-0.022900899761872522   -0.2453585365186592   -0.0076205360000071816
-0.017139942204785975   -0.2452546983774608   -0.0071441777201019215
-0.02356610677301411   -0.24509052071537124   -0.0073595454892241355
-0.02562835620859285   -0.2441679880783899   -0.008440784978274966
-0.017139942204785975   -0.2452546983774608   -0.0071441777201019215
-0.014136002426204651   -0.24421885684348774   -0.007562140864227185
-0.015305357380728215   -0.24411191521190564   -0.00681756135788676
-0.02562835620859285   -0.2441679880783899   -0.008440784978274966
-0.017139942204785975   -0.2452546983774608   -0.0071441777201019215
-0.015305357380728215   -0.24411191521190564   -0.00681756135788676
-0.02356610677301411   -0.24509052071537124   -0.0073595454892241355
-0.024928527113889425   -0.24532699584486925   -0.006847370300061434
-0.01869199479727119   -0.2456317830623629   -0.006181753221573557
-0.021522339210082248   -0.2465791757059369   -0.007508506090118258
-0.024281718015496976   -0.2450803728343119   -0.0071021843766026875
-0.01869199479727119   -0.2456317830623629   -0.006181753221573557
-0.020175872794229964   -0.24622432324247354   -0.006951627630211902
-0.021522339210082248   -0.2465791757059369   -0.007508506090118258
-0.019743124441568543   -0.24592404204203397   -0.006961249612584955
-0.024281718015496976   -0.2450803728343119   -0.0071021843766026875
-0.02083918909186692   -0.24632652255662288   -0.007327850133735933
-0.019743124441568543   -0.24592404204203397   -0.006961249612584955
-0.021522339210082248   -0.2465791757059369   -0.007508506090118258
-0.024281718015496976   -0.2450803728343119   -0.0071021843766026875
-0.019743124441568543   -0.24592404204203397   -0.006961249612584955
-0.018203385555114467   -0.24529533423687164   -0.006530458767651937
-0.01869199479727119   -0.2456317830623629   -0.006181753221573557
-0.024281718015496976   -0.2450803728343119   -0.0071021843766026875
-0.019743124441568543   -0.24592404204203397   -0.006961249612584955
-0.01869199479727119   -0.2456317830623629   -0.006181753221573557
-0.021522339210082248   -0.2465791757059369   -0.007508506090118258
-0.024281718015496976   -0.2450803728343119   -0.0071021843766026875
-0.018203385555114467   -0.24529533423687164   -0.006530458767651937
-0.02083918909186692   -0.24632652255662288   -0.007327850133735933
-0.02356610677301411   -0.24509052071537124   -0.0073595454892241355
-0.018203385555114467   -0.24529533423687164   -0.006530458767651937
-0.019743124441568543   -0.24592404204203397   -0.006961249612584955
-0.02083918909186692   -0.24632652255662288   -0.007327850133735933
-0.019261319578934313   -0.24581414591507258   -0.0069354406204161926
-0.02356610677301411   -0.24509052071537124   -0.0073595454892241355
-0.02017901846998029   -0.24632047347909325   -0.007144896768763742
-0.019261319578934313   -0.24581414591507258   -0.0069354406204161926
-0.02083918909186692   -0.24632652255662288   -0.007327850133735933
-0.02356610677301411   -0.24509052071537124   -0.0073595454892241355
-0.019261319578934313   -0.24581414591507258   -0.0069354406204161926
-0.01763076388866856   -0.24516906230846647   -0.006851839148118789
-0.018203385555114467   -0.24529533423687164   -0.006530458767651937
-0.02356610677301411   -0.24509052071537124   -0.0073595454892241355
-0.019261319578934313   -0.24581414591507258   -0.0069354406204161926
-0.018203385555114467   -0.24529533423687164   -0.006530458767651937
-0.02083918909186692   -0.24632652255662288   -0.007327850133735933
-0.02356610677301411   -0.24509052071537124   -0.0073595454892241355
-0.01763076388866856   -0.24516906230846647   -0.006851839148118789
-0.02017901846998029   -0.24632047347909325   -0.007144896768763742
-0.022900899761872522   -0.2453585365186592   -0.0076205360000071816
-0.01763076388866856   -0.24516906230846647   -0.006851839148118789
-0.019261319578934313   -0.24581414591507258   -0.0069354406204161926
-0.02017901846998029   -0.24632047347909325   -0.007144896768763742
-0.018771302483144042   -0.24588575830236398   -0.006881837250941564
-0.022900899761872522   -0.2453585365186592   -0.0076205360000071816
-0.019490504872182277   -0.24655578659509494   -0.0069690443166470694
-0.018771302483144042   -0.24588575830236398   -0.006881837250941564
-0.02017901846998029   -0.24632047347909325   -0.007144896768763742
-0.022900899761872522   -0.2453585365186592   -0.0076205360000071816
-0.018771302483144042   -0.24588575830236398   -0.006881837250941564
-0.017139942204785975   -0.2452546983774608   -0.0071441777201019215
-0.01763076388866856   -0.24516906230846647   -0.006851839148118789
-0.022900899761872522   -0.2453585365186592   -0.0076205360000071816
-0.018771302483144042   -0.24588575830236398   -0.006881837250941564
-0.01763076388866856   -0.24516906230846647   -0.006851839148118789
-0.02017901846998029   -0.24632047347909325   -0.007144896768763742
-0.021522339210082248   -0.2465791757059369   -0.007508506090118258
-0.020175872794229964   -0.24622432324247354   -0.006951627630211902
-0.01841448141675474   -0.24809806000184303   -0.00823550682990989
-0.02083918909186692   -0.24632652255662288   -0.007327850133735933
-0.020175872794229964   -0.24622432324247354   -0.006951627630211902
-0.021764247474409196   -0.24647871008724942   -0.0077088051008492595
-0.01841448141675474   -0.24809806000184303   -0.00823550682990989
-0.021315987044927407   -0.24619282658922143   -0.007392423828890002
-0.02083918909186692   -0.24632652255662288   -0.007327850133735933
-0.017576542782261104   -0.24787960869990106   -0.007594796231206811
-0.021315987044927407   -0.24619282658922143   -0.007392423828890002
-0.01841448141675474   -0.24809806000184303   -0.00823550682990989
-0.02083918909186692   -0.24632652255662288   -0.007327850133735933
-0.021315987044927407   -0.24619282658922143   -0.007392423828890002
-0.019743124441568543   -0.24592404204203397   -0.006961249612584955
-0.020175872794229964   -0.24622432324247354   -0.006951627630211902
-0.02083918909186692   -0.24632652255662288   -0.007327850133735933
-0.021315987044927407   -0.24619282658922143   -0.007392423828890002
-0.020175872794229964   -0.24622432324247354   -0.006951627630211902
-0.01841448141675474   -0.24809806000184303   -0.00823550682990989
-0.02083918909186692   -0.24632652255662288   -0.007327850133735933
-0.019743124441568543   -0.24592404204203397   -0.006961249612584955
-0.017576542782261104   -0.24787960869990106   -0.007594796231206811
-0.02017901846998029   -0.24632047347909325   -0.007144896768763742
-0.019743124441568543   -0.24592404204203397   -0.006961249612584955
-0.021315987044927407   -0.24619282658922143   -0.007392423828890002
-0.017576542782261104   -0.24787960869990106   -0.007594796231206811
-0.02077793253113284   -0.24610048582105953   -0.007032903739949929
-0.02017901846998029   -0.24632047347909325   -0.007144896768763742
-0.016800642906662146   -0.24786703143469513   -0.006956564296039511
-0.02077793253113284   -0.24610048582105953   -0.007032903739949929
-0.017576542782261104   -0.24787960869990106   -0.007594796231206811
-0.02017901846998029   -0.24632047347909325   -0.007144896768763742
-0.02077793253113284   -0.24610048582105953   -0.007032903739949929
-0.019261319578934313   -0.24581414591507258   -0.0069354406204161926
-0.019743124441568543   -0.24592404204203397   -0.006961249612584955
-0.02017901846998029   -0.24632047347909325   -0.007144896768763742
-0.02077793253113284   -0.24610048582105953   -0.007032903739949929
-0.019743124441568543   -0.24592404204203397   -0.006961249612584955
-0.017576542782261104   -0.24787960869990106   -0.007594796231206811
-0.02017901846998029   -0.24632047347909325   -0.007144896768763742
-0.019261319578934313   -0.24581414591507258   -0.0069354406204161926
-0.016800642906662146   -0.24786703143469513   -0.006956564296039511
-0.019490504872182277   -0.24655578659509494   -0.0069690443166470694
-0.019261319578934313   -0.24581414591507258   -0.0069354406204161926
-0.02077793253113284   -0.24610048582105953   -0.007032903739949929
-0.016800642906662146   -0.24786703143469513   -0.006956564296039511
-0.020224372464426238   -0.246170830599575   -0.006649743487425634
-0.019490504872182277   -0.24655578659509494   -0.0069690443166470694
-0.015966953037813793   -0.24804897780801505   -0.0063163777307038175
-0.020224372464426238   -0.246170830599575   -0.006649743487425634
-0.016800642906662146   -0.24786703143469513   -0.006956564296039511
-0.019490504872182277   -0.24655578659509494   -0.0069690443166470694
-0.020224372464426238   -0.246170830599575   -0.006649743487425634
-0.018771302483144042   -0.24588575830236398   -0.006881837250941564
-0.019261319578934313   -0.24581414591507258   -0.0069354406204161926
-0.019490504872182277   -0.24655578659509494   -0.0069690443166470694
-0.020224372464426238   -0.246170830599575   -0.006649743487425634
-0.019261319578934313   -0.24581414591507258   -0.0069354406204161926
-0.016800642906662146   -0.24786703143469513   -0.006956564296039511
-0.01841448141675474   -0.24809806000184303   -0.00823550682990989
-0.021764247474409196   -0.24647871008724942   -0.0077088051008492595
-0.015355822551144442   -0.25   -0.008789922952663329
-0.017576542782261104   -0.24787960869990106   -0.007594796231206811
-0.021764247474409196   -0.24647871008724942   -0.0077088051008492595
-0.02406309469878077   -0.2462200723460563   -0.008426738932585335
-0.015355822551144442   -0.25   -0.008789922952663329
-0.02347739575963662   -0.245950986674429   -0.007800311834622673
-0.017576542782261104   -0.24787960869990106   -0.007594796231206811
-0.01430307398942223   -0.25   -0.007820027868669144
-0.02347739575963662   -0.245950986674429   -0.007800311834622673
-0.015355822551144442   -0.25   -0.008789922952663329
-0.017576542782261104   -0.24787960869990106   -0.007594796231206811
-0.02347739575963662   -0.245950986674429   -0.007800311834622673
-0.021315987044927407   -0.24619282658922143   -0.007392423828890002
-0.021764247474409196   -0.24647871008724942   -0.0077088051008492595
-0.017576542782261104   -0.24787960869990106   -0.007594796231206811
-0.02347739575963662   -0.245950986674429   -0.007800311834622673
-0.021764247474409196   -0.24647871008724942   -0.0077088051008492595
-0.015355822551144442   -0.25   -0.008789922952663329
-0.017576542782261104   -0.24787960869990106   -0.007594796231206811
-0.021315987044927407   -0.24619282658922143   -0.007392423828890002
-0.01430307398942223   -0.25   -0.007820027868669144
-0.016800642906662146   -0.24786703143469513   -0.006956564296039511
-0.021315987044927407   -0.24619282658922143   -0.007392423828890002
-0.02347739575963662   -0.245950986674429   -0.007800311834622673
-0.01430307398942223   -0.25   -0.007820027868669144
-0.022705497301053007   -0.24588866931382694   -0.007125986400246737
-0.016800642906662146   -0.24786703143469513   -0.006956564296039511
-0.01324626067607907   -0.25   -0.006838598705486124
-0.022705497301053007   -0.24588866931382694   -0.007125986400246737
-0.01430307398942223   -0.25   -0.007820027868669144
-0.016800642906662146   -0.24786703143469513   -0.006956564296039511
-0.022705497301053007   -0.24588866931382694   -0.007125986400246737
-0.02077793253113284   -0.24610048582105953   -0.007032903739949929
-0.021315987044927407   -0.24619282658922143   -0.007392423828890002
-0.016800642906662146   -0.24786703143469513   -0.006956564296039511
-0.022705497301053007   -0.24588866931382694   -0.007125986400246737
-0.021315987044927407   -0.24619282658922143   -0.007392423828890002
-0.01430307398942223   -0.25   -0.007820027868669144
-0.016800642906662146   -0.24786703143469513   -0.006956564296039511
-0.02077793253113284   -0.24610048582105953   -0.007032903739949929
-0.01324626067607907   -0.25   -0.006838598705486124
-0.015966953037813793   -0.24804897780801505   -0.0063163777307038175
-0.02077793253113284   -0.24610048582105953   -0.007032903739949929
-0.022705497301053007   -0.24588866931382694   -0.007125986400246737
-0.01324626067607907   -0.25   -0.006838598705486124
-0.021977961911482477   -0.24599288504196706   -0.0064253147743836446
-0.015966953037813793   -0.24804897780801505   -0.0063163777307038175
-0.012212022821233978   -0.25   -0.0058700636287952
-0.021977961911482477   -0.24599288504196706   -0.0064253147743836446
-0.01324626067607907   -0.25   -0.006838598705486124
-0.015966953037813793   -0.24804897780801505   -0.0063163777307038175
-0.021977961911482477   -0.24599288504196706   -0.0064253147743836446
-0.020224372464426238   -0.246170830599575   -0.006649743487425634
-0.02077793253113284   -0.24610048582105953   -0.007032903739949929
-0.015966953037813793   -0.24804897780801505   -0.0063163777307038175
-0.021977961911482477   -0.24599288504196706   -0.0064253147743836446
-0.02077793253113284   -0.24610048582105953   -0.007032903739949929
-0.01324626067607907   -0.25   -0.006838598705486124
-0.015355822551144442   -0.25   -0.008789922952663329
-0.02406309469878077   -0.2462200723460563   -0.008426738932585335
-0.013147387462528047   -0.25   -0.009461405621460722
-0.01430307398942223   -0.25   -0.007820027868669144
-0.02406309469878077   -0.2462200723460563   -0.008426738932585335
-0.028511797575323336   -0.24501332318500416   -0.009185209884114824
-0.013147387462528047   -0.25   -0.009461405621460722
-0.02696466596544979   -0.24478792792148985   -0.008157271975882613
-0.01430307398942223   -0.25   -0.007820027868669144
-0.010953839588876082   -0.25   -0.00805996634860837
-0.02696466596544979   -0.24478792792148985   -0.008157271975882613
-0.013147387462528047   -0.25   -0.009461405621460722
-0.01430307398942223   -0.25   -0.007820027868669144
-0.02696466596544979   -0.24478792792148985   -0.008157271975882613
-0.02347739575963662   -0.245950986674429   -0.007800311834622673
-0.02406309469878077   -0.2462200723460563   -0.008426738932585335
-0.01430307398942223   -0.25   -0.007820027868669144
-0.02696466596544979   -0.24478792792148985   -0.008157271975882613
-0.02406309469878077   -0.2462200723460563   -0.008426738932585335
-0.013147387462528047   -0.25   -0.009461405621460722
-0.01430307398942223   -0.25   -0.007820027868669144
-0.02347739575963662   -0.245950986674429   -0.007800311834622673
-0.010953839588876082   -0.25   -0.00805996634860837
-0.01324626067607907   -0.25   -0.006838598705486124
-0.02347739575963662   -0.245950986674429   -0.007800311834622673
-0.02696466596544979   -0.24478792792148985   -0.008157271975882613
-0.010953839588876082   -0.25   -0.00805996634860837
-0.025541106291715434   -0.24475604876629894   -0.007059128755371182
-0.01324626067607907   -0.25   -0.006838598705486124
-0.009204440565482858   -0.25   -0.006719218036909495
-0.025541106291715434   -0.24475604876629894   -0.007059128755371182
-0.010953839588876082   -0.25   -0.00805996634860837
-0.01324626067607907   -0.25   -0.006838598705486124
-0.025541106291715434   -0.24475604876629894   -0.007059128755371182
-0.022705497301053007   -0.24588866931382694   -0.007125986400246737
-0.02347739575963662   -0.245950986674429   -0.007800311834622673
-0.01324626067607907   -0.25   -0.006838598705486124
-0.025541106291715434   -0.24475604876629894   -0.007059128755371182
-0.02347739575963662   -0.245950986674429   -0.007800311834622673
-0.010953839588876082   -0.25   -0.00805996634860837
-0.01324626067607907   -0.25   -0.006838598705486124
-0.022705497301053007   -0.24588866931382694   -0.007125986400246737
-0.009204440565482858   -0.25   -0.006719218036909495
-0.012212022821233978   -0.25   -0.0058700636287952
-0.022705497301053007   -0.24588866931382694   -0.007125986400246737
-0.025541106291715434   -0.24475604876629894   -0.007059128755371182
-0.009204440565482858   -0.25   -0.006719218036909495
-0.023743684970223305   -0.245052237334496   -0.0059098333512866575
-0.012212022821233978   -0.25   -0.0058700636287952
-0.007043091445817893   -0.25   -0.005327454690274411
-0.023743684970223305   -0.245052237334496   -0.0059098333512866575
-0.009204440565482858   -0.25   -0.006719218036909495
-0.012212022821233978   -0.25   -0.0058700636287952
-0.023743684970223305   -0.245052237334496   -0.0059098333512866575
-0.021977961911482477   -0.24599288504196706   -0.0064253147743836446
-0.022705497301053007   -0.24588866931382694   -0.007125986400246737
-0.012212022821233978   -0.25   -0.0058700636287952
-0.023743684970223305   -0.245052237334496   -0.0059098333512866575
-0.022705497301053007   -0.24588866931382694   -0.007125986400246737
-0.009204440565482858   -0.25   -0.006719218036909495
-0.017582470956750963   -0.24467895227738548   -0.005219522823404311
-0.0070422889454096   -0.23532785034606582   -0.004513909305381712
-0.01869199479727119   -0.2456317830623629   -0.006181753221573557
-0.01633987337396949   -0.24424717983492827   -0.006035505888259526
-0.0070422889454096   -0.23532785034606582   -0.004513909305381712
-0.01335672786352175   -0.23604405379591345   -0.005535290462747029
-0.01869199479727119   -0.2456317830623629   -0.006181753221573557
-0.013010168129315018   -0.2356371109866424   -0.005845593307321659
-0.01633987337396949   -0.24424717983492827   -0.006035505888259526
-0.018203385555114467   -0.24529533423687164   -0.006530458767651937
-0.013010168129315018   -0.2356371109866424   -0.005845593307321659
-0.01869199479727119   -0.2456317830623629   -0.006181753221573557
-0.01633987337396949   -0.24424717983492827   -0.006035505888259526
-0.013010168129315018   -0.2356371109866424   -0.005845593307321659
-0.006053849343195528   -0.2348247283665557   -0.005217496089339526
-0.0070422889454096   -0.23532785034606582   -0.004513909305381712
-0.01633987337396949   -0.24424717983492827   -0.006035505888259526
-0.013010168129315018   -0.2356371109866424   -0.005845593307321659
-0.0070422889454096   -0.23532785034606582   -0.004513909305381712
-0.01869199479727119   -0.2456317830623629   -0.006181753221573557
-0.01633987337396949   -0.24424717983492827   -0.006035505888259526
-0.006053849343195528   -0.2348247283665557   -0.005217496089339526
-0.018203385555114467   -0.24529533423687164   -0.006530458767651937
-0.015305357380728215   -0.24411191521190564   -0.00681756135788676
-0.006053849343195528   -0.2348247283665557   -0.005217496089339526
-0.013010168129315018   -0.2356371109866424   -0.005845593307321659
-0.018203385555114467   -0.24529533423687164   -0.006530458767651937
-0.012620610322617788   -0.23540944226781643   -0.0061275969939142486
-0.015305357380728215   -0.24411191521190564   -0.00681756135788676
-0.01763076388866856   -0.24516906230846647   -0.006851839148118789
-0.012620610322617788   -0.23540944226781643   -0.0061275969939142486
-0.018203385555114467   -0.24529533423687164   -0.006530458767651937
-0.015305357380728215   -0.24411191521190564   -0.00681756135788676
-0.012620610322617788   -0.23540944226781643   -0.0061275969939142486
-0.005276123874267701   -0.23458260641559248   -0.005879116508321503
-0.006053849343195528   -0.2348247283665557   -0.005217496089339526
-0.015305357380728215   -0.24411191521190564   -0.00681756135788676
-0.012620610322617788   -0.23540944226781643   -0.0061275969939142486
-0.006053849343195528   -0.2348247283665557   -0.005217496089339526
-0.018203385555114467   -0.24529533423687164   -0.006530458767651937
-0.015305357380728215   -0.24411191521190564   -0.00681756135788676
-0.005276123874267701   -0.23458260641559248   -0.005879116508321503
-0.01763076388866856   -0.24516906230846647   -0.006851839148118789
-0.014136002426204651   -0.24421885684348774   -0.007562140864227185
-0.005276123874267701   -0.23458260641559248   -0.005879116508321503
-0.012620610322617788   -0.23540944226781643   -0.0061275969939142486
-0.01763076388866856   -0.24516906230846647   -0.006851839148118789
-0.012321760192545484   -0.23535471528777355   -0.006382185165952728
-0.014136002426204651   -0.24421885684348774   -0.007562140864227185
-0.017139942204785975   -0.2452546983774608   -0.0071441777201019215
-0.012321760192545484   -0.23535471528777355   -0.006382185165952728
-0.01763076388866856   -0.24516906230846647   -0.006851839148118789
-0.014136002426204651   -0.24421885684348774   -0.007562140864227185
-0.012321760192545484   -0.23535471528777355   -0.006382185165952728
-0.0044281368583676635   -0.23453241110458217   -0.006496970585600172
-0.005276123874267701   -0.23458260641559248   -0.005879116508321503
-0.014136002426204651   -0.24421885684348774   -0.007562140864227185
-0.012321760192545484   -0.23535471528777355   -0.006382185165952728
-0.005276123874267701   -0.23458260641559248   -0.005879116508321503
-0.01763076388866856   -0.24516906230846647   -0.006851839148118789
-0.01869199479727119   -0.2456317830623629   -0.006181753221573557
-0.01335672786352175   -0.23604405379591345   -0.005535290462747029
-0.020175872794229964   -0.24622432324247354   -0.006951627630211902
-0.018203385555114467   -0.24529533423687164   -0.006530458767651937
-0.01335672786352175   -0.23604405379591345   -0.005535290462747029
-0.01958010440413961   -0.2362976061304591   -0.006369357447817941
-0.020175872794229964   -0.24622432324247354   -0.006951627630211902
-0.01928833882974465   -0.2359424992069849   -0.006386985540573
-0.018203385555114467   -0.24529533423687164   -0.006530458767651937
-0.019743124441568543   -0.24592404204203397   -0.006961249612584955
-0.01928833882974465   -0.2359424992069849   -0.006386985540573
-0.020175872794229964   -0.24622432324247354   -0.006951627630211902
-0.018203385555114467   -0.24529533423687164   -0.006530458767651937
-0.01928833882974465   -0.2359424992069849   -0.006386985540573
-0.013010168129315018   -0.2356371109866424   -0.005845593307321659
-0.01335672786352175   -0.23604405379591345   -0.005535290462747029
-0.018203385555114467   -0.24529533423687164   -0.006530458767651937
-0.01928833882974465   -0.2359424992069849   -0.006386985540573
-0.01335672786352175   -0.23604405379591345   -0.005535290462747029
-0.020175872794229964   -0.24622432324247354   -0.006951627630211902
-0.018203385555114467   -0.24529533423687164   -0.006530458767651937
-0.013010168129315018   -0.2356371109866424   -0.005845593307321659
-0.019743124441568543   -0.24592404204203397   -0.006961249612584955
-0.01763076388866856   -0.24516906230846647   -0.006851839148118789
-0.013010168129315018   -0.2356371109866424   -0.005845593307321659
-0.01928833882974465   -0.2359424992069849   -0.006386985540573
-0.019743124441568543   -0.24592404204203397   -0.006961249612584955
-0.01898663969787114   -0.23574903003607736   -0.006378414180441888
-0.01763076388866856   -0.24516906230846647   -0.006851839148118789
-0.019261319578934313   -0.24581414591507258   -0.0069354406204161926
-0.01898663969787114   -0.23574903003607736   -0.006378414180441888
-0.019743124441568543   -0.24592404204203397   -0.006961249612584955
-0.01763076388866856   -0.24516906230846647   -0.006851839148118789
-0.01898663969787114   -0.23574903003607736   -0.006378414180441888
-0.012620610322617788   -0.23540944226781643   -0.0061275969939142486
-0.013010168129315018   -0.2356371109866424   -0.005845593307321659
-0.01763076388866856   -0.24516906230846647   -0.006851839148118789
-0.01898663969787114   -0.23574903003607736   -0.006378414180441888
-0.013010168129315018   -0.2356371109866424   -0.005845593307321659
-0.019743124441568543   -0.24592404204203397   -0.006961249612584955
-0.01763076388866856   -0.24516906230846647   -0.006851839148118789
-0.012620610322617788   -0.23540944226781643   -0.0061275969939142486
-0.019261319578934313   -0.24581414591507258   -0.0069354406204161926
-0.017139942204785975   -0.2452546983774608   -0.0071441777201019215
-0.012620610322617788   -0.23540944226781643   -0.0061275969939142486
-0.01898663969787114   -0.23574903003607736   -0.006378414180441888
-0.019261319578934313   -0.24581414591507258   -0.0069354406204161926
-0.018695598574396302   -0.2357092584367364   -0.00634335718923114
-0.017139942204785975   -0.2452546983774608   -0.0071441777201019215
-0.018771302483144042   -0.24588575830236398   -0.006881837250941564
-0.018695598574396302   -0.2357092584367364   -0.00634335718923114
-0.019261319578934313   -0.24581414591507258   -0.0069354406204161926
-0.017139942204785975   -0.2452546983774608   -0.0071441777201019215
-0.018695598574396302   -0.2357092584367364   -0.00634335718923114
-0.012321760192545484   -0.23535471528777355   -0.006382185165952728
-0.012620610322617788   -0.23540944226781643   -0.0061275969939142486
-0.017139942204785975   -0.2452546983774608   -0.0071441777201019215
-0.018695598574396302   -0.2357092584367364   -0.00634335718923114
-0.012620610322617788   -0.23540944226781643   -0.0061275969939142486
-0.019261319578934313   -0.24581414591507258   -0.0069354406204161926
-0.020175872794229964   -0.24622432324247354   -0.006951627630211902
-0.01958010440413961   -0.2362976061304591   -0.006369357447817941
-0.021764247474409196   -0.24647871008724942   -0.0077088051008492595
-0.019743124441568543   -0.24592404204203397   -0.006961249612584955
-0.01958010440413961   -0.2362976061304591   -0.006369357447817941
-0.02575897165713069   -0.23607409126615153   -0.007149719426356315
-0.021764247474409196   -0.24647871008724942   -0.0077088051008492595
-0.025469507256004085   -0.23575892821085914   -0.006886801678135496
-0.019743124441568543   -0.24592404204203397   -0.006961249612584955
-0.021315987044927407   -0.24619282658922143   -0.007392423828890002
-0.025469507256004085   -0.23575892821085914   -0.006886801678135496
-0.021764247474409196   -0.24647871008724942   -0.0077088051008492595
-0.019743124441568543   -0.24592404204203397   -0.006961249612584955
-0.025469507256004085   -0.23575892821085914   -0.006886801678135496
-0.01928833882974465   -0.2359424992069849   -0.006386985540573
-0.01958010440413961   -0.2362976061304591   -0.006369357447817941
-0.019743124441568543   -0.24592404204203397   -0.006961249612584955
-0.025469507256004085   -0.23575892821085914   -0.006886801678135496
-0.01958010440413961   -0.2362976061304591   -0.006369357447817941
-0.021764247474409196   -0.24647871008724942   -0.0077088051008492595
-0.019743124441568543   -0.24592404204203397   -0.006961249612584955
-0.01928833882974465   -0.2359424992069849   -0.006386985540573
-0.021315987044927407   -0.24619282658922143   -0.007392423828890002
-0.019261319578934313   -0.24581414591507258   -0.0069354406204161926
-0.01928833882974465   -0.2359424992069849   -0.006386985540573
-0.025469507256004085   -0.23575892821085914   -0.006886801678135496
-0.021315987044927407   -0.24619282658922143   -0.007392423828890002
-0.0251446491605919   -0.23560264440555134   -0.006598054033911716
-0.019261319578934313   -0.24581414591507258   -0.0069354406204161926
-0.02077793253113284   -0.24610048582105953   -0.007032903739949929
-0.0251446491605919   -0.23560264440555134   -0.006598054033911716
-0.021315987044927407   -0.24619282658922143   -0.007392423828890002
-0.019261319578934313   -0.24581414591507258   -0.0069354406204161926
-0.0251446491605919   -0.23560264440555134   -0.006598054033911716
-0.01898663969787114   -0.23574903003607736   -0.006378414180441888
-0.01928833882974465   -0.2359424992069849   -0.006386985540573
-0.019261319578934313   -0.24581414591507258   -0.0069354406204161926
-0.0251446491605919   -0.23560264440555134   -0.006598054033911716
-0.01928833882974465   -0.2359424992069849   -0.006386985540573
-0.021315987044927407   -0.24619282658922143   -0.007392423828890002
-0.019261319578934313   -0.24581414591507258   -0.0069354406204161926
-0.01898663969787114   -0.23574903003607736   -0.006378414180441888
-0.02077793253113284   -0.24610048582105953   -0.007032903739949929
-0.018771302483144042   -0.24588575830236398   -0.006881837250941564
-0.01898663969787114   -0.23574903003607736   -0.006378414180441888
-0.0251446491605919   -0.23560264440555134   -0.006598054033911716
-0.02077793253113284   -0.24610048582105953   -0.007032903739949929
-0.024818242268283112   -0.23558972413157883   -0.0062803261284645135
-0.018771302483144042   -0.24588575830236398   -0.006881837250941564
-0.020224372464426238   -0.246170830599575   -0.006649743487425634
-0.024818242268283112   -0.23558972413157883   -0.0062803261284645135
-0.02077793253113284   -0.24610048582105953   -0.007032903739949929
-0.018771302483144042   -0.24588575830236398   -0.006881837250941564
-0.024818242268283112   -0.23558972413157883   -0.0062803261284645135
-0.018695598574396302   -0.2357092584367364   -0.00634335718923114
-0.01898663969787114   -0.23574903003607736   -0.006378414180441888
-0.018771302483144042   -0.24588575830236398   -0.006881837250941564
-0.024818242268283112   -0.23558972413157883   -0.0062803261284645135
-0.01898663969787114   -0.23574903003607736   -0.006378414180441888
-0.02077793253113284   -0.24610048582105953   -0.007032903739949929
-0.021764247474409196   -0.24647871008724942   -0.0077088051008492595
-0.02575897165713069   -0.23607409126615153   -0.007149719426356315
-0.02406309469878077   -0.2462200723460563   -0.008426738932585335
-0.021315987044927407   -0.24619282658922143   -0.007392423828890002
-0.02575897165713069   -0.23607409126615153   -0.007149719426356315
-0.03255146154249128   -0.23534356819604574   -0.007865713635813686
-0.02406309469878077   -0.2462200723460563   -0.008426738932585335
-0.03219768682678312   -0.2350685993815826   -0.007328715877778666
-0.021315987044927407   -0.24619282658922143   -0.007392423828890002
-0.02347739575963662   -0.245950986674429   -0.007800311834622673
-0.03219768682678312   -0.2350685993815826   -0.007328715877778666
-0.02406309469878077   -0.2462200723460563   -0.008426738932585335
-0.021315987044927407   -0.24619282658922143   -0.007392423828890002
-0.03219768682678312   -0.2350685993815826   -0.007328715877778666
-0.025469507256004085   -0.23575892821085914   -0.006886801678135496
-0.02575897165713069   -0.23607409126615153   -0.007149719426356315
-0.021315987044927407   -0.24619282658922143   -0.007392423828890002
-0.03219768682678312   -0.2350685993815826   -0.007328715877778666
-0.02575897165713069   -0.23607409126615153   -0.007149719426356315
-0.02406309469878077   -0.2462200723460563   -0.008426738932585335
-0.021315987044927407   -0.24619282658922143   -0.007392423828890002
-0.025469507256004085   -0.23575892821085914   -0.006886801678135496
-0.02347739575963662   -0.245950986674429   -0.007800311834622673
-0.02077793253113284   -0.24610048582105953   -0.007032903739949929
-0.025469507256004085   -0.23575892821085914   -0.006886801678135496
-0.03219768682678312   -0.2350685993815826   -0.007328715877778666
-0.02347739575963662   -0.245950986674429   -0.007800311834622673
-0.031709789927521215   -0.2349493513421106   -0.0067677267657207645
-0.02077793253113284   -0.24610048582105953   -0.007032903739949929
-0.022705497301053007   -0.24588866931382694   -0.007125986400246737
-0.031709789927521215   -0.2349493513421106   -0.0067677267657207645
-0.02347739575963662   -0.245950986674429   -0.007800311834622673
-0.02077793253113284   -0.24610048582105953   -0.007032903739949929
-0.031709789927521215   -0.2349493513421106   -0.0067677267657207645
-0.0251446491605919   -0.23560264440555134   -0.006598054033911716
-0.025469507256004085   -0.23575892821085914   -0.006886801678135496
-0.02077793253113284   -0.24610048582105953   -0.007032903739949929
-0.031709789927521215   -0.2349493513421106   -0.0067677267657207645
-0.025469507256004085   -0.23575892821085914   -0.006886801678135496
-0.02347739575963662   -0.245950986674429   -0.007800311834622673
-0.02077793253113284   -0.24610048582105953   -0.007032903739949929
-0.0251446491605919   -0.23560264440555134   -0.006598054033911716
-0.022705497301053007   -0.24588866931382694   -0.007125986400246737
-0.020224372464426238   -0.246170830599575   -0.006649743487425634
-0.0251446491605919   -0.23560264440555134   -0.006598054033911716
-0.031709789927521215   -0.2349493513421106   -0.0067677267657207645
-0.022705497301053007   -0.24588866931382694   -0.007125986400246737
-0.03128300228907328   -0.2349860612973054   -0.006166963501350464
-0.020224372464426238   -0.246170830599575   -0.006649743487425634
-0.021977961911482477   -0.24599288504196706   -0.0064253147743836446
-0.03128300228907328   -0.2349860612973054   -0.006166963501350464
-0.022705497301053007   -0.24588866931382694   -0.007125986400246737
-0.020224372464426238   -0.246170830599575   -0.006649743487425634
-0.03128300228907328   -0.2349860612973054   -0.006166963501350464
-0.024818242268283112   -0.23558972413157883   -0.0062803261284645135
-0.0251446491605919   -0.23560264440555134   -0.006598054033911716
-0.020224372464426238   -0.246170830599575   -0.006649743487425634
-0.03128300228907328   -0.2349860612973054   -0.006166963501350464
-0.0251446491605919   -0.23560264440555134   -0.006598054033911716
-0.022705497301053007   -0.24588866931382694   -0.007125986400246737
-0.02406309469878077   -0.2462200723460563   -0.008426738932585335
-0.03255146154249128   -0.23534356819604574   -0.007865713635813686
-0.028511797575323336   -0.24501332318500416   -0.009185209884114824
-0.02347739575963662   -0.245950986674429   -0.007800311834622673
-0.03255146154249128   -0.23534356819604574   -0.007865713635813686
-0.04129939876895013   -0.2341555073100023   -0.00855047039456807
-0.028511797575323336   -0.24501332318500416   -0.009185209884114824
-0.04016822468398928   -0.23385844413091486   -0.007702905609042671
-0.02347739575963662   -0.245950986674429   -0.007800311834622673
-0.02696466596544979   -0.24478792792148985   -0.008157271975882613
-0.04016822468398928   -0.23385844413091486   -0.007702905609042671
-0.028511797575323336   -0.24501332318500416   -0.009185209884114824
-0.02347739575963662   -0.245950986674429   -0.007800311834622673
-0.04016822468398928   -0.23385844413091486   -0.007702905609042671
-0.03219768682678312   -0.2350685993815826   -0.007328715877778666
-0.03255146154249128   -0.23534356819604574   -0.007865713635813686
-0.02347739575963662   -0.245950986674429   -0.007800311834622673
-0.04016822468398928   -0.23385844413091486   -0.007702905609042671
-0.03255146154249128   -0.23534356819604574   -0.007865713635813686
-0.028511797575323336   -0.24501332318500416   -0.009185209884114824
-0.02347739575963662   -0.245950986674429   -0.007800311834622673
-0.03219768682678312   -0.2350685993815826   -0.007328715877778666
-0.02696466596544979   -0.24478792792148985   -0.008157271975882613
-0.022705497301053007   -0.24588866931382694   -0.007125986400246737
-0.03219768682678312   -0.2350685993815826   -0.007328715877778666
-0.04016822468398928   -0.23385844413091486   -0.007702905609042671
-0.02696466596544979   -0.24478792792148985   -0.008157271975882613
-0.03915260015993497   -0.23374814296478238   -0.006805155915429508
-0.022705497301053007   -0.24588866931382694   -0.007125986400246737
-0.025541106291715434   -0.24475604876629894   -0.007059128755371182
-0.03915260015993497   -0.23374814296478238   -0.006805155915429508
-0.02696466596544979   -0.24478792792148985   -0.008157271975882613
-0.022705497301053007   -0.24588866931382694   -0.007125986400246737
-0.03915260015993497   -0.23374814296478238   -0.006805155915429508
-0.031709789927521215   -0.2349493513421106   -0.0067677267657207645
-0.03219768682678312   -0.2350685993815826   -0.007328715877778666
-0.022705497301053007   -0.24588866931382694   -0.007125986400246737
-0.03915260015993497   -0.23374814296478238   -0.006805155915429508
-0.03219768682678312   -0.2350685993815826   -0.007328715877778666
-0.02696466596544979   -0.24478792792148985   -0.008157271975882613
-0.022705497301053007   -0.24588866931382694   -0.007125986400246737
-0.031709789927521215   -0.2349493513421106   -0.0067677267657207645
-0.025541106291715434   -0.24475604876629894   -0.007059128755371182
-0.021977961911482477   -0.24599288504196706   -0.0064253147743836446
-0.031709789927521215   -0.2349493513421106   -0.0067677267657207645
-0.03915260015993497   -0.23374814296478238   -0.006805155915429508
-0.025541106291715434   -0.24475604876629894   -0.007059128755371182
-0.03783608314291908   -0.23388096296628214   -0.005865818382306216
-0.021977961911482477   -0.24599288504196706   -0.0064253147743836446
-0.023743684970223305   -0.245052237334496   -0.0059098333512866575
-0.03783608314291908   -0.23388096296628214   -0.005865818382306216
-0.025541106291715434   -0.24475604876629894   -0.007059128755371182
-0.021977961911482477   -0.24599288504196706   -0.0064253147743836446
-0.03783608314291908   -0.23388096296628214   -0.005865818382306216
-0.03128300228907328   -0.2349860612973054   -0.006166963501350464
-0.031709789927521215   -0.2349493513421106   -0.0067677267657207645
-0.021977961911482477   -0.24599288504196706   -0.0064253147743836446
-0.03783608314291908   -0.23388096296628214   -0.005865818382306216
-0.031709789927521215   -0.2349493513421106   -0.0067677267657207645
-0.025541106291715434   -0.24475604876629894   -0.007059128755371182
-0.0070422889454096   -0.23532785034606582   -0.004513909305381712
0.0014823979652642662   -0.21820625274040523   -0.0037372724552920946
-0.01335672786352175   -0.23604405379591345   -0.005535290462747029
-0.006053849343195528   -0.2348247283665557   -0.005217496089339526
0.0014823979652642662   -0.21820625274040523   -0.0037372724552920946
-0.009132554512487652   -0.21872947006103108   -0.004739397999526789
-0.01335672786352175   -0.23604405379591345   -0.005535290462747029
-0.00894955580932996   -0.2183031383603761   -0.004984832696724673
-0.006053849343195528   -0.2348247283665557   -0.005217496089339526
-0.013010168129315018   -0.2356371109866424   -0.005845593307321659
-0.00894955580932996   -0.2183031383603761   -0.004984832696724673
-0.01335672786352175   -0.23604405379591345   -0.005535290462747029
-0.006053849343195528   -0.2348247283665557   -0.005217496089339526
-0.00894955580932996   -0.2183031383603761   -0.004984832696724673
0.0021698553920019978   -0.21769547473146525   -0.004295697634342324
0.0014823979652642662   -0.21820625274040523   -0.0037372724552920946
-0.006053849343195528   -0.2348247283665557   -0.005217496089339526
-0.00894955580932996   -0.2183031383603761   -0.004984832696724673
0.0014823979652642662   -0.21820625274040523   -0.0037372724552920946
-0.01335672786352175   -0.23604405379591345   -0.005535290462747029
-0.006053849343195528   -0.2348247283665557   -0.005217496089339526
0.0021698553920019978   -0.21769547473146525   -0.004295697634342324
-0.013010168129315018   -0.2356371109866424   -0.005845593307321659
-0.005276123874267701   -0.23458260641559248   -0.005879116508321503
0.0021698553920019978   -0.21769547473146525   -0.004295697634342324
-0.00894955580932996   -0.2183031383603761   -0.004984832696724673
-0.013010168129315018   -0.2356371109866424   -0.005845593307321659
-0.00874163831700645   -0.21802253602196114   -0.005201337104897774
-0.005276123874267701   -0.23458260641559248   -0.005879116508321503
-0.012620610322617788   -0.23540944226781643   -0.0061275969939142486
-0.00874163831700645   -0.21802253602196114   -0.005201337104897774
-0.013010168129315018   -0.2356371109866424   -0.005845593307321659
-0.005276123874267701   -0.23458260641559248   -0.005879116508321503
-0.00874163831700645   -0.21802253602196114   -0.005201337104897774
0.00267525578742388   -0.21739779953552407   -0.004813632584876444
0.0021698553920019978   -0.21769547473146525   -0.004295697634342324
-0.005276123874267701   -0.23458260641559248   -0.005879116508321503
-0.00874163831700645   -0.21802253602196114   -0.005201337104897774
0.0021698553920019978   -0.21769547473146525   -0.004295697634342324
-0.013010168129315018   -0.2356371109866424   -0.005845593307321659
-0.005276123874267701   -0.23458260641559248   -0.005879116508321503
0.00267525578742388   -0.21739779953552407   -0.004813632584876444
-0.012620610322617788   -0.23540944226781643   -0.0061275969939142486
-0.0044281368583676635   -0.23453241110458217   -0.006496970585600172
0.00267525578742388   -0.21739779953552407   -0.004813632584876444
-0.00874163831700645   -0.21802253602196114   -0.005201337104897774
-0.012620610322617788   -0.23540944226781643   -0.0061275969939142486
-0.00861738975273338   -0.2178794349629418   -0.005391764389837443
-0.0044281368583676635   -0.23453241110458217   -0.006496970585600172
-0.012321760192545484   -0.23535471528777355   -0.006382185165952728
-0.00861738975273338   -0.2178794349629418   -0.005391764389837443
-0.012620610322617788   -0.23540944226781643   -0.0061275969939142486
-0.0044281368583676635   -0.23453241110458217   -0.006496970585600172
-0.00861738975273338   -0.2178794349629418   -0.005391764389837443
0.0032150229826797   -0.21724724718199984   -0.005290858204867815
0.00267525578742388   -0.21739779953552407   -0.004813632584876444
-0.0044281368583676635   -0.23453241110458217   -0.006496970585600172
-0.00861738975273338   -0.2178794349629418   -0.005391764389837443
0.00267525578742388   -0.21739779953552407   -0.004813632584876444
-0.012620610322617788   -0.23540944226781643   -0.0061275969939142486
-0.01335672786352175   -0.23604405379591345   -0.005535290462747029
-0.009132554512487652   -0.21872947006103108   -0.004739397999526789
-0.01958010440413961   -0.2362976061304591   -0.006369357447817941
-0.013010168129315018   -0.2356371109866424   -0.005845593307321659
-0.009132554512487652   -0.21872947006103108   -0.004739397999526789
-0.01939243093233676   -0.21882932808071118   -0.005566529028937396
-0.01958010440413961   -0.2362976061304591   -0.006369357447817941
-0.019257565947361964   -0.21846301436449056   -0.005573240372477898
-0.013010168129315018   -0.2356371109866424   -0.005845593307321659
-0.01928833882974465   -0.2359424992069849   -0.006386985540573
-0.019257565947361964   -0.21846301436449056   -0.005573240372477898
-0.01958010440413961   -0.2362976061304591   -0.006369357447817941
-0.013010168129315018   -0.2356371109866424   -0.005845593307321659
-0.019257565947361964   -0.21846301436449056   -0.005573240372477898
-0.00894955580932996   -0.2183031383603761   -0.004984832696724673
-0.009132554512487652   -0.21872947006103108   -0.004739397999526789
-0.013010168129315018   -0.2356371109866424   -0.005845593307321659
-0.019257565947361964   -0.21846301436449056   -0.005573240372477898
-0.009132554512487652   -0.21872947006103108   -0.004739397999526789
-0.01958010440413961   -0.2362976061304591   -0.006369357447817941
-0.013010168129315018   -0.2356371109866424   -0.005845593307321659
-0.00894955580932996   -0.2183031383603761   -0.004984832696724673
-0.01928833882974465   -0.2359424992069849   -0.006386985540573
-0.012620610322617788   -0.23540944226781643   -0.0061275969939142486
-0.00894955580932996   -0.2183031383603761   -0.004984832696724673
-0.019257565947361964   -0.21846301436449056   -0.005573240372477898
-0.01928833882974465   -0.2359424992069849   -0.006386985540573
-0.01911894660178229   -0.21822717033790265   -0.005552253586809042
-0.012620610322617788   -0.23540944226781643   -0.0061275969939142486
-0.01898663969787114   -0.23574903003607736   -0.006378414180441888
-0.01911894660178229   -0.21822717033790265   -0.005552253586809042
-0.01928833882974465   -0.2359424992069849   -0.006386985540573
-0.012620610322617788   -0.23540944226781643   -0.0061275969939142486
-0.01911894660178229   -0.21822717033790265   -0.005552253586809042
-0.00874163831700645   -0.21802253602196114   -0.005201337104897774
-0.00894955580932996   -0.2183031383603761   -0.004984832696724673
-0.012620610322617788   -0.23540944226781643   -0.0061275969939142486
-0.01911894660178229   -0.21822717033790265   -0.005552253586809042
-0.00894955580932996   -0.2183031383603761   -0.004984832696724673
-0.01928833882974465   -0.2359424992069849   -0.006386985540573
-0.012620610322617788   -0.23540944226781643   -0.0061275969939142486
-0.00874163831700645   -0.21802253602196114   -0.005201337104897774
-0.01898663969787114   -0.23574903003607736   -0.006378414180441888
-0.012321760192545484   -0.23535471528777355   -0.006382185165952728
-0.00874163831700645   -0.21802253602196114   -0.005201337104897774
-0.01911894660178229   -0.21822717033790265   -0.005552253586809042
-0.01898663969787114   -0.23574903003607736   -0.006378414180441888
-0.018997679765295084   -0.21811958630763348   -0.005505381980451234
-0.012321760192545484   -0.23535471528777355   -0.006382185165952728
-0.018695598574396302   -0.2357092584367364   -0.00634335718923114
-0.018997679765295084   -0.21811958630763348   -0.005505381980451234
-0.01898663969787114   -0.23574903003607736   -0.006378414180441888
-0.012321760192545484   -0.23535471528777355   -0.006382185165952728
-0.018997679765295084   -0.21811958630763348   -0.005505381980451234
-0.00861738975273338   -0.2178794349629418   -0.005391764389837443
-0.00874163831700645   -0.21802253602196114   -0.005201337104897774
-0.012321760192545484   -0.23535471528777355   -0.006382185165952728
-0.018997679765295084   -0.21811958630763348   -0.005505381980451234
-0.00874163831700645   -0.21802253602196114   -0.005201337104897774
-0.01898663969787114   -0.23574903003607736   -0.006378414180441888
-0.01958010440413961   -0.2362976061304591   -0.006369357447817941
-0.01939243093233676   -0.21882932808071118   -0.005566529028937396
-0.02575897165713069   -0.23607409126615153   -0.007149719426356315
-0.01928833882974465   -0.2359424992069849   -0.006386985540573
-0.01939243093233676   -0.21882932808071118   -0.005566529028937396
-0.029489114296674047   -0.2185034899972888   -0.006313297291844905
-0.02575897165713069   -0.23607409126615153   -0.007149719426356315
-0.02936352034614141   -0.21818731939961442   -0.006087066948827372
-0.01928833882974465   -0.2359424992069849   -0.006386985540573
-0.025469507256004085   -0.23575892821085914   -0.006886801678135496
-0.02936352034614141   -0.21818731939961442   -0.006087066948827372
-0.02575897165713069   -0.23607409126615153   -0.007149719426356315
-0.01928833882974465   -0.2359424992069849   -0.006386985540573
-0.02936352034614141   -0.21818731939961442   -0.006087066948827372
-0.019257565947361964   -0.21846301436449056   -0.005573240372477898
-0.01939243093233676   -0.21882932808071118   -0.005566529028937396
-0.01928833882974465   -0.2359424992069849   -0.006386985540573
-0.02936352034614141   -0.21818731939961442   -0.006087066948827372
-0.01939243093233676   -0.21882932808071118   -0.005566529028937396
-0.02575897165713069   -0.23607409126615153   -0.007149719426356315
-0.01928833882974465   -0.2359424992069849   -0.006386985540573
-0.019257565947361964   -0.21846301436449056   -0.005573240372477898
-0.025469507256004085   -0.23575892821085914   -0.006886801678135496
-0.01898663969787114   -0.23574903003607736   -0.006378414180441888
-0.019257565947361964   -0.21846301436449056   -0.005573240372477898
-0.02936352034614141   -0.21818731939961442   -0.006087066948827372
-0.025469507256004085   -0.23575892821085914   -0.006886801678135496
-0.029211793443681487   -0.21800017337626995   -0.005833722232474932
-0.01898663969787114   -0.23574903003607736   -0.006378414180441888
-0.0251446491605919   -0.23560264440555134   -0.006598054033911716
-0.029211793443681487   -0.21800017337626995   -0.005833722232474932
-0.025469507256004085   -0.23575892821085914   -0.006886801678135496
-0.01898663969787114   -0.23574903003607736   -0.006378414180441888
-0.029211793443681487   -0.21800017337626995   -0.005833722232474932
-0.01911894660178229   -0.21822717033790265   -0.005552253586809042
-0.019257565947361964   -0.21846301436449056   -0.005573240372477898
-0.01898663969787114   -0.23574903003607736   -0.006378414180441888
-0.029211793443681487   -0.21800017337626995   -0.005833722232474932
-0.019257565947361964   -0.21846301436449056   -0.005573240372477898
-0.025469507256004085   -0.23575892821085914   -0.006886801678135496
-0.01898663969787114   -0.23574903003607736   -0.006378414180441888
-0.01911894660178229   -0.21822717033790265   -0.005552253586809042
-0.0251446491605919   -0.23560264440555134   -0.006598054033911716
-0.018695598574396302   -0.2357092584367364   -0.00634335718923114
-0.01911894660178229   -0.21822717033790265   -0.005552253586809042
-0.029211793443681487   -0.21800017337626995   -0.005833722232474932
-0.0251446491605919   -0.23560264440555134   -0.006598054033911716
-0.029064093712040533   -0.21793594899795507   -0.005554102316737778
-0.018695598574396302   -0.2357092584367364   -0.00634335718923114
-0.024818242268283112   -0.23558972413157883   -0.0062803261284645135
-0.029064093712040533   -0.21793594899795507   -0.005554102316737778
-0.0251446491605919   -0.23560264440555134   -0.006598054033911716
-0.018695598574396302   -0.2357092584367364   -0.00634335718923114
-0.029064093712040533   -0.21793594899795507   -0.005554102316737778
-0.018997679765295084   -0.21811958630763348   -0.005505381980451234
-0.01911894660178229   -0.21822717033790265   -0.005552253586809042
-0.018695598574396302   -0.2357092584367364   -0.00634335718923114
-0.029064093712040533   -0.21793594899795507   -0.005554102316737778
-0.01911894660178229   -0.21822717033790265   -0.005552253586809042
-0.0251446491605919   -0.23560264440555134   -0.006598054033911716
-0.02575897165713069   -0.23607409126615153   -0.007149719426356315
-0.029489114296674047   -0.2185034899972888   -0.006313297291844905
-0.03255146154249128   -0.23534356819604574   -0.007865713635813686
-0.025469507256004085   -0.23575892821085914   -0.006886801678135496
-0.029489114296674047   -0.2185034899972888   -0.006313297291844905
-0.040072609398479155   -0.2177637688568527   -0.006976489394210319
-0.03255146154249128   -0.23534356819604574   -0.007865713635813686
-0.03990912085733382   -0.21749566076829313   -0.006517116958132637
-0.025469507256004085   -0.23575892821085914   -0.006886801678135496
-0.03219768682678312   -0.2350685993815826   -0.007328715877778666
-0.03990912085733382   -0.21749566076829313   -0.006517116958132637
-0.03255146154249128   -0.23534356819604574   -0.007865713635813686
-0.025469507256004085   -0.23575892821085914   -0.006886801678135496
-0.03990912085733382   -0.21749566076829313   -0.006517116958132637
-0.02936352034614141   -0.21818731939961442   -0.006087066948827372
-0.029489114296674047   -0.2185034899972888   -0.006313297291844905
-0.025469507256004085   -0.23575892821085914   -0.006886801678135496
-0.03990912085733382   -0.21749566076829313   -0.006517116958132637
-0.029489114296674047   -0.2185034899972888   -0.006313297291844905
-0.03255146154249128   -0.23534356819604574   -0.007865713635813686
-0.025469507256004085   -0.23575892821085914   -0.006886801678135496
-0.02936352034614141   -0.21818731939961442   -0.006087066948827372
-0.03219768682678312   -0.2350685993815826   -0.007328715877778666
-0.0251446491605919   -0.23560264440555134   -0.006598054033911716
-0.02936352034614141   -0.21818731939961442   -0.006087066948827372
-0.03990912085733382   -0.21749566076829313   -0.006517116958132637
-0.03219768682678312   -0.2350685993815826   -0.007328715877778666
-0.03963228597258788   -0.21735266845414195   -0.006034769590308563
-0.0251446491605919   -0.23560264440555134   -0.006598054033911716
-0.031709789927521215   -0.2349493513421106   -0.0067677267657207645
-0.03963228597258788   -0.21735266845414195   -0.006034769590308563
-0.03219768682678312   -0.2350685993815826   -0.007328715877778666
-0.0251446491605919   -0.23560264440555134   -0.006598054033911716
-0.03963228597258788   -0.21735266845414195   -0.006034769590308563
-0.029211793443681487   -0.21800017337626995   -0.005833722232474932
-0.02936352034614141   -0.21818731939961442   -0.006087066948827372
-0.0251446491605919   -0.23560264440555134   -0.006598054033911716
-0.03963228597258788   -0.21735266845414195   -0.006034769590308563
-0.02936352034614141   -0.21818731939961442   -0.006087066948827372
-0.03219768682678312   -0.2350685993815826   -0.007328715877778666
-0.0251446491605919   -0.23560264440555134   -0.006598054033911716
-0.029211793443681487   -0.21800017337626995   -0.005833722232474932
-0.031709789927521215   -0.2349493513421106   -0.0067677267657207645
-0.024818242268283112   -0.23558972413157883   -0.0062803261284645135
-0.029211793443681487   -0.21800017337626995   -0.005833722232474932
-0.03963228597258788   -0.21735266845414195   -0.006034769590308563
-0.031709789927521215   -0.2349493513421106   -0.0067677267657207645
-0.039406748081139684   -0.21734222579713355   -0.005522340606597017
-0.024818242268283112   -0.23558972413157883   -0.0062803261284645135
-0.03128300228907328   -0.2349860612973054   -0.006166963501350464
-0.039406748081139684   -0.21734222579713355   -0.005522340606597017
-0.031709789927521215   -0.2349493513421106   -0.0067677267657207645
-0.024818242268283112   -0.23558972413157883   -0.0062803261284645135
-0.039406748081139684   -0.21734222579713355   -0.005522340606597017
-0.029064093712040533   -0.21793594899795507   -0.005554102316737778
-0.029211793443681487   -0.21800017337626995   -0.005833722232474932
-0.024818242268283112   -0.23558972413157883   -0.0062803261284645135
-0.039406748081139684   -0.21734222579713355   -0.005522340606597017
-0.029211793443681487   -0.21800017337626995   -0.005833722232474932
-0.031709789927521215   -0.2349493513421106   -0.0067677267657207645
-0.03255146154249128   -0.23534356819604574   -0.007865713635813686
-0.040072609398479155   -0.2177637688568527   -0.006976489394210319
-0.04129939876895013   -0.2341555073100023   -0.00855047039456807
-0.03219768682678312   -0.2350685993815826   -0.007328715877778666
-0.040072609398479155   -0.2177637688568527   -0.006976489394210319
-0.05241671484003419   -0.21670052239395948   -0.0075930948880173705
-0.04129939876895013   -0.2341555073100023   -0.00855047039456807
-0.05158512679246549   -0.21642171007766117   -0.006874467866375272
-0.03219768682678312   -0.2350685993815826   -0.007328715877778666
-0.04016822468398928   -0.23385844413091486   -0.007702905609042671
-0.05158512679246549   -0.21642171007766117   -0.006874467866375272
-0.04129939876895013   -0.2341555073100023   -0.00855047039456807
-0.03219768682678312   -0.2350685993815826   -0.007328715877778666
-0.05158512679246549   -0.21642171007766117   -0.006874467866375272
-0.03990912085733382   -0.21749566076829313   -0.006517116958132637
-0.040072609398479155   -0.2177637688568527   -0.006976489394210319
-0.03219768682678312   -0.2350685993815826   -0.007328715877778666
-0.05158512679246549   -0.21642171007766117   -0.006874467866375272
-0.040072609398479155   -0.2177637688568527   -0.006976489394210319
-0.04129939876895013   -0.2341555073100023   -0.00855047039456807
-0.03219768682678312   -0.2350685993815826   -0.007328715877778666
-0.03990912085733382   -0.21749566076829313   -0.006517116958132637
-0.04016822468398928   -0.23385844413091486   -0.007702905609042671
-0.031709789927521215   -0.2349493513421106   -0.0067677267657207645
-0.03990912085733382   -0.21749566076829313   -0.006517116958132637
-0.05158512679246549   -0.21642171007766117   -0.006874467866375272
-0.04016822468398928   -0.23385844413091486   -0.007702905609042671
-0.05086227780400331   -0.2162906985858831   -0.006118040043370065
-0.031709789927521215   -0.2349493513421106   -0.0067677267657207645
-0.03915260015993497   -0.23374814296478238   -0.006805155915429508
-0.05086227780400331   -0.2162906985858831   -0.006118040043370065
-0.04016822468398928   -0.23385844413091486   -0.007702905609042671
-0.031709789927521215   -0.2349493513421106   -0.0067677267657207645
-0.05086227780400331   -0.2162906985858831   -0.006118040043370065
-0.03963228597258788   -0.21735266845414195   -0.006034769590308563
-0.03990912085733382   -0.21749566076829313   -0.006517116958132637
-0.031709789927521215   -0.2349493513421106   -0.0067677267657207645
-0.05086227780400331   -0.2162906985858831   -0.006118040043370065
-0.03990912085733382   -0.21749566076829313   -0.006517116958132637
-0.04016822468398928   -0.23385844413091486   -0.007702905609042671
-0.031709789927521215   -0.2349493513421106   -0.0067677267657207645
-0.03963228597258788   -0.21735266845414195   -0.006034769590308563
-0.03915260015993497   -0.23374814296478238   -0.006805155915429508
-0.03128300228907328   -0.2349860612973054   -0.006166963501350464
-0.03963228597258788   -0.21735266845414195   -0.006034769590308563
-0.05086227780400331   -0.2162906985858831   -0.006118040043370065
-0.03915260015993497   -0.23374814296478238   -0.006805155915429508
-0.049887934108551295   -0.21636255066470045   -0.00532864677755179
-0.03128300228907328   -0.2349860612973054   -0.006166963501350464
-0.03783608314291908   -0.23388096296628214   -0.005865818382306216
-0.049887934108551295   -0.21636255066470045   -0.00532864677755179
-0.03915260015993497   -0.23374814296478238   -0.006805155915429508
-0.03128300228907328   -0.2349860612973054   -0.006166963501350464
-0.049887934108551295   -0.21636255066470045   -0.00532864677755179
-0.039406748081139684   -0.21734222579713355   -0.005522340606597017
-0.03963228597258788   -0.21735266845414195   -0.006034769590308563
-0.03128300228907328   -0.2349860612973054   -0.006166963501350464
-0.049887934108551295   -0.21636255066470045   -0.00532864677755179
-0.03963228597258788   -0.21735266845414195   -0.006034769590308563
-0.03915260015993497   -0.23374814296478238   -0.006805155915429508
0.0014823979652642662   -0.21820625274040523   -0.0037372724552920946
0.007930930496315826   -0.19502270670961286   -0.0028491482023243887
-0.009132554512487652   -0.21872947006103108   -0.004739397999526789
0.0021698553920019978   -0.21769547473146525   -0.004295697634342324
0.007930930496315826   -0.19502270670961286   -0.0028491482023243887
-0.006094686374224113   -0.195366791489103   -0.00380539221001189
-0.009132554512487652   -0.21872947006103108   -0.004739397999526789
-0.006057574237662008   -0.19494277271721486   -0.003974751450397386
0.0021698553920019978   -0.21769547473146525   -0.004295697634342324
-0.00894955580932996   -0.2183031383603761   -0.004984832696724673
-0.006057574237662008   -0.19494277271721486   -0.003974751450397386
-0.009132554512487652   -0.21872947006103108   -0.004739397999526789
0.0021698553920019978   -0.21769547473146525   -0.004295697634342324
-0.006057574237662008   -0.19494277271721486   -0.003974751450397386
0.008336289537340573   -0.19452452182584684   -0.0032604432124469654
0.007930930496315826   -0.19502270670961286   -0.0028491482023243887
0.0021698553920019978   -0.21769547473146525   -0.004295697634342324
-0.006057574237662008   -0.19494277271721486   -0.003974751450397386
0.007930930496315826   -0.19502270670961286   -0.0028491482023243887
-0.009132554512487652   -0.21872947006103108   -0.004739397999526789
0.0021698553920019978   -0.21769547473146525   -0.004295697634342324
0.008336289537340573   -0.19452452182584684   -0.0032604432124469654
-0.00894955580932996   -0.2183031383603761   -0.004984832696724673
0.00267525578742388   -0.21739779953552407   -0.004813632584876444
0.008336289537340573   -0.19452452182584684   -0.0032604432124469654
-0.006057574237662008   -0.19494277271721486   -0.003974751450397386
-0.00894955580932996   -0.2183031383603761   -0.004984832696724673
-0.006010520893228819   -0.19463332192510877   -0.004117757410744517
0.00267525578742388   -0.21739779953552407   -0.004813632584876444
-0.00874163831700645   -0.21802253602196114   -0.005201337104897774
-0.006010520893228819   -0.19463332192510877   -0.004117757410744517
-0.00894955580932996   -0.2183031383603761   -0.004984832696724673
0.00267525578742388   -0.21739779953552407   -0.004813632584876444
-0.006010520893228819   -0.19463332192510877   -0.004117757410744517
0.008594662454749174   -0.19419516423867922   -0.0036345166446646445
0.008336289537340573   -0.19452452182584684   -0.0032604432124469654
0.00267525578742388   -0.21739779953552407   -0.004813632584876444
-0.006010520893228819   -0.19463332192510877   -0.004117757410744517
0.008336289537340573   -0.19452452182584684   -0.0032604432124469654
-0.00894955580932996   -0.2183031383603761   -0.004984832696724673
0.00267525578742388   -0.21739779953552407   -0.004813632584876444
0.008594662454749174   -0.19419516423867922   -0.0036345166446646445
-0.00874163831700645   -0.21802253602196114   -0.005201337104897774
0.0032150229826797   -0.21724724718199984   -0.005290858204867815
0.008594662454749174   -0.19419516423867922   -0.0036345166446646445
-0.006010520893228819   -0.19463332192510877   -0.004117757410744517
-0.00874163831700645   -0.21802253602196114   -0.005201337104897774
-0.006034719012779547   -0.1944286523319676   -0.004236335691594383
0.0032150229826797   -0.21724724718199984   -0.005290858204867815
-0.00861738975273338   -0.2178794349629418   -0.005391764389837443
-0.006034719012779547   -0.1944286523319676   -0.004236335691594383
-0.00874163831700645   -0.21802253602196114   -0.005201337104897774
0.0032150229826797   -0.21724724718199984   -0.005290858204867815
-0.006034719012779547   -0.1944286523319676   -0.004236335691594383
0.008858722144188251   -0.19397145731542334   -0.0039721308042656904
0.008594662454749174   -0.19419516423867922   -0.0036345166446646445
0.0032150229826797   -0.21724724718199984   -0.005290858204867815
-0.006034719012779547   -0.1944286523319676   -0.004236335691594383
0.008594662454749174   -0.19419516423867922   -0.0036345166446646445
-0.00874163831700645   -0.21802253602196114   -0.005201337104897774
-0.009132554512487652   -0.21872947006103108   -0.004739397999526789
-0.006094686374224113   -0.195366791489103   -0.00380539221001189
-0.01939243093233676   -0.21882932808071118   -0.005566529028937396
-0.00894955580932996   -0.2183031383603761   -0.004984832696724673
-0.006094686374224113   -0.195366791489103   -0.00380539221001189
-0.019583989837752024   -0.19536765958056518   -0.004595847510554713
-0.01939243093233676   -0.21882932808071118   -0.005566529028937396
-0.019586189599438877   -0.1950083167579074   -0.00457991307179787
-0.00894955580932996   -0.2183031383603761   -0.004984832696724673
-0.019257565947361964   -0.21846301436449056   -0.005573240372477898
-0.019586189599438877   -0.1950083167579074   -0.00457991307179787
-0.01939243093233676   -0.21882932808071118   -0.005566529028937396
-0.00894955580932996   -0.2183031383603761   -0.004984832696724673
-0.019586189599438877   -0.1950083167579074   -0.00457991307179787
-0.006057574237662008   -0.19494277271721486   -0.003974751450397386
-0.006094686374224113   -0.195366791489103   -0.00380539221001189
-0.00894955580932996   -0.2183031383603761   -0.004984832696724673
-0.019586189599438877   -0.1950083167579074   -0.00457991307179787
-0.006094686374224113   -0.195366791489103   -0.00380539221001189
-0.01939243093233676   -0.21882932808071118   -0.005566529028937396
-0.00894955580932996   -0.2183031383603761   -0.004984832696724673
-0.006057574237662008   -0.19494277271721486   -0.003974751450397386
-0.019257565947361964   -0.21846301436449056   -0.005573240372477898
-0.00874163831700645   -0.21802253602196114   -0.005201337104897774
-0.006057574237662008   -0.19494277271721486   -0.003974751450397386
-0.019586189599438877   -0.1950083167579074   -0.00457991307179787
-0.019257565947361964   -0.21846301436449056   -0.005573240372477898
-0.019587514813854522   -0.1947500053469048   -0.004537749889457653
-0.00874163831700645   -0.21802253602196114   -0.005201337104897774
-0.01911894660178229   -0.21822717033790265   -0.005552253586809042
-0.019587514813854522   -0.1947500053469048   -0.004537749889457653
-0.019257565947361964   -0.21846301436449056   -0.005573240372477898
-0.00874163831700645   -0.21802253602196114   -0.005201337104897774
-0.019587514813854522   -0.1947500053469048   -0.004537749889457653
-0.006010520893228819   -0.19463332192510877   -0.004117757410744517
-0.006057574237662008   -0.19494277271721486   -0.003974751450397386
-0.00874163831700645   -0.21802253602196114   -0.005201337104897774
-0.019587514813854522   -0.1947500053469048   -0.004537749889457653
-0.006057574237662008   -0.19494277271721486   -0.003974751450397386
-0.019257565947361964   -0.21846301436449056   -0.005573240372477898
-0.00874163831700645   -0.21802253602196114   -0.005201337104897774
-0.006010520893228819   -0.19463332192510877   -0.004117757410744517
-0.01911894660178229   -0.21822717033790265   -0.005552253586809042
-0.00861738975273338   -0.2178794349629418   -0.005391764389837443
-0.006010520893228819   -0.19463332192510877   -0.004117757410744517
-0.019587514813854522   -0.1947500053469048   -0.004537749889457653
-0.01911894660178229   -0.21822717033790265   -0.005552253586809042
-0.019606929473004475   -0.1945928946698265   -0.004470690021267313
-0.00861738975273338   -0.2178794349629418   -0.005391764389837443
-0.018997679765295084   -0.21811958630763348   -0.005505381980451234
-0.019606929473004475   -0.1945928946698265   -0.004470690021267313
-0.01911894660178229   -0.21822717033790265   -0.005552253586809042
-0.00861738975273338   -0.2178794349629418   -0.005391764389837443
-0.019606929473004475   -0.1945928946698265   -0.004470690021267313
-0.006034719012779547   -0.1944286523319676   -0.004236335691594383
-0.006010520893228819   -0.19463332192510877   -0.004117757410744517
-0.00861738975273338   -0.2178794349629418   -0.005391764389837443
-0.019606929473004475   -0.1945928946698265   -0.004470690021267313
-0.006010520893228819   -0.19463332192510877   -0.004117757410744517
-0.01911894660178229   -0.21822717033790265   -0.005552253586809042
-0.01939243093233676   -0.21882932808071118   -0.005566529028937396
-0.019583989837752024   -0.19536765958056518   -0.004595847510554713
-0.029489114296674047   -0.2185034899972888   -0.006313297291844905
-0.019257565947361964   -0.21846301436449056   -0.005573240372477898
-0.019583989837752024   -0.19536765958056518   -0.004595847510554713
-0.032842381689488664   -0.195032629968906   -0.005288834280392377
-0.029489114296674047   -0.2185034899972888   -0.006313297291844905
-0.03285450093177354   -0.19473029466070896   -0.005089817751002154
-0.019257565947361964   -0.21846301436449056   -0.005573240372477898
-0.02936352034614141   -0.21818731939961442   -0.006087066948827372
-0.03285450093177354   -0.19473029466070896   -0.005089817751002154
-0.029489114296674047   -0.2185034899972888   -0.006313297291844905
-0.019257565947361964   -0.21846301436449056   -0.005573240372477898
-0.03285450093177354   -0.19473029466070896   -0.005089817751002154
-0.019586189599438877   -0.1950083167579074   -0.00457991307179787
-0.019583989837752024   -0.19536765958056518   -0.004595847510554713
-0.019257565947361964   -0.21846301436449056   -0.005573240372477898
-0.03285450093177354   -0.19473029466070896   -0.005089817751002154
-0.019583989837752024   -0.19536765958056518   -0.004595847510554713
-0.029489114296674047   -0.2185034899972888   -0.006313297291844905
-0.019257565947361964   -0.21846301436449056   -0.005573240372477898
-0.019586189599438877   -0.1950083167579074   -0.00457991307179787
-0.02936352034614141   -0.21818731939961442   -0.006087066948827372
-0.01911894660178229   -0.21822717033790265   -0.005552253586809042
-0.019586189599438877   -0.1950083167579074   -0.00457991307179787
-0.03285450093177354   -0.19473029466070896   -0.005089817751002154
-0.02936352034614141   -0.21818731939961442   -0.006087066948827372
-0.032843974802047864   -0.19452809429238038   -0.004865066433415273
-0.01911894660178229   -0.21822717033790265   -0.005552253586809042
-0.029211793443681487   -0.21800017337626995   -0.005833722232474932
-0.032843974802047864   -0.19452809429238038   -0.004865066433415273
-0.02936352034614141   -0.21818731939961442   -0.006087066948827372
-0.01911894660178229   -0.21822717033790265   -0.005552253586809042
-0.032843974802047864   -0.19452809429238038   -0.004865066433415273
-0.019587514813854522   -0.1947500053469048   -0.004537749889457653
-0.019586189599438877   -0.1950083167579074   -0.00457991307179787
-0.01911894660178229   -0.21822717033790265   -0.005552253586809042
-0.032843974802047864   -0.19452809429238038   -0.004865066433415273
-0.019586189599438877   -0.1950083167579074   -0.00457991307179787
-0.02936352034614141   -0.21818731939961442   -0.006087066948827372
-0.01911894660178229   -0.21822717033790265   -0.005552253586809042
-0.019587514813854522   -0.1947500053469048   -0.004537749889457653
-0.029211793443681487   -0.21800017337626995   -0.005833722232474932
-0.018997679765295084   -0.21811958630763348   -0.005505381980451234
-0.019587514813854522   -0.1947500053469048   -0.004537749889457653
-0.032843974802047864   -0.19452809429238038   -0.004865066433415273
-0.029211793443681487   -0.21800017337626995   -0.005833722232474932
-0.03283746409749805   -0.19442424204771638   -0.004615338130492965
-0.018997679765295084   -0.21811958630763348   -0.005505381980451234
-0.029064093712040533   -0.21793594899795507   -0.005554102316737778
-0.03283746409749805   -0.19442424204771638   -0.004615338130492965
-0.029211793443681487   -0.21800017337626995   -0.005833722232474932
-0.018997679765295084   -0.21811958630763348   -0.005505381980451234
-0.03283746409749805   -0.19442424204771638   -0.004615338130492965
-0.019606929473004475   -0.1945928946698265   -0.004470690021267313
-0.019587514813854522   -0.1947500053469048   -0.004537749889457653
-0.018997679765295084   -0.21811958630763348   -0.005505381980451234
-0.03283746409749805   -0.19442424204771638   -0.004615338130492965
-0.019587514813854522   -0.1947500053469048   -0.004537749889457653
-0.029211793443681487   -0.21800017337626995   -0.005833722232474932
-0.029489114296674047   -0.2185034899972888   -0.006313297291844905
-0.032842381689488664   -0.195032629968906   -0.005288834280392377
-0.040072609398479155   -0.2177637688568527   -0.006976489394210319
-0.02936352034614141   -0.21818731939961442   -0.006087066948827372
-0.032842381689488664   -0.195032629968906   -0.005288834280392377
-0.046515218100586286   -0.19437460890477695   -0.005885384479744411
-0.040072609398479155   -0.2177637688568527   -0.006976489394210319
-0.04649983602809729   -0.1941270243519116   -0.005501161070336847
-0.02936352034614141   -0.21818731939961442   -0.006087066948827372
-0.03990912085733382   -0.21749566076829313   -0.006517116958132637
-0.04649983602809729   -0.1941270243519116   -0.005501161070336847
-0.040072609398479155   -0.2177637688568527   -0.006976489394210319
-0.02936352034614141   -0.21818731939961442   -0.006087066948827372
-0.04649983602809729   -0.1941270243519116   -0.005501161070336847
-0.03285450093177354   -0.19473029466070896   -0.005089817751002154
-0.032842381689488664   -0.195032629968906   -0.005288834280392377
-0.02936352034614141   -0.21818731939961442   -0.006087066948827372
-0.04649983602809729   -0.1941270243519116   -0.005501161070336847
-0.032842381689488664   -0.195032629968906   -0.005288834280392377
-0.040072609398479155   -0.2177637688568527   -0.006976489394210319
-0.02936352034614141   -0.21818731939961442   -0.006087066948827372
-0.03285450093177354   -0.19473029466070896   -0.005089817751002154
-0.03990912085733382   -0.21749566076829313   -0.006517116958132637
-0.029211793443681487   -0.21800017337626995   -0.005833722232474932
-0.03285450093177354   -0.19473029466070896   -0.005089817751002154
-0.04649983602809729   -0.1941270243519116   -0.005501161070336847
-0.03990912085733382   -0.21749566076829313   -0.006517116958132637
-0.04638616591194747   -0.19397569293452685   -0.0050950720879077566
-0.029211793443681487   -0.21800017337626995   -0.005833722232474932
-0.03963228597258788   -0.21735266845414195   -0.006034769590308563
-0.04638616591194747   -0.19397569293452685   -0.0050950720879077566
-0.03990912085733382   -0.21749566076829313   -0.006517116958132637
-0.029211793443681487   -0.21800017337626995   -0.005833722232474932
-0.04638616591194747   -0.19397569293452685   -0.0050950720879077566
-0.032843974802047864   -0.19452809429238038   -0.004865066433415273
-0.03285450093177354   -0.19473029466070896   -0.005089817751002154
-0.029211793443681487   -0.21800017337626995   -0.005833722232474932
-0.04638616591194747   -0.19397569293452685   -0.0050950720879077566
-0.03285450093177354   -0.19473029466070896   -0.005089817751002154
-0.03990912085733382   -0.21749566076829313   -0.006517116958132637
-0.029211793443681487   -0.21800017337626995   -0.005833722232474932
-0.032843974802047864   -0.19452809429238038   -0.004865066433415273
-0.03963228597258788   -0.21735266845414195   -0.006034769590308563
-0.029064093712040533   -0.21793594899795507   -0.005554102316737778
-0.032843974802047864   -0.19452809429238038   -0.004865066433415273
-0.04638616591194747   -0.19397569293452685   -0.0050950720879077566
-0.03963228597258788   -0.21735266845414195   -0.006034769590308563
-0.04630996397026293   -0.1939309445643099   -0.004662015262161305
-0.029064093712040533   -0.21793594899795507   -0.005554102316737778
-0.039406748081139684   -0.21734222579713355   -0.005522340606597017
-0.04630996397026293   -0.1939309445643099   -0.004662015262161305
-0.03963228597258788   -0.21735266845414195   -0.006034769590308563
-0.029064093712040533   -0.21793594899795507   -0.005554102316737778
-0.04630996397026293   -0.1939309445643099   -0.004662015262161305
-0.03283746409749805   -0.19442424204771638   -0.004615338130492965
-0.032843974802047864   -0.19452809429238038   -0.004865066433415273
-0.029064093712040533   -0.21793594899795507   -0.005554102316737778
-0.04630996397026293   -0.1939309445643099   -0.004662015262161305
-0.032843974802047864   -0.19452809429238038   -0.004865066433415273
-0.03963228597258788   -0.21735266845414195   -0.006034769590308563
-0.040072609398479155   -0.2177637688568527   -0.006976489394210319
-0.046515218100586286   -0.19437460890477695   -0.005885384479744411
-0.05241671484003419   -0.21670052239395948   -0.0075930948880173705
-0.03990912085733382   -0.21749566076829313   -0.006517116958132637
-0.046515218100586286   -0.19437460890477695   -0.005885384479744411
-0.061787114577659216   -0.19346966413944017   -0.006422327889285044
-0.05241671484003419   -0.21670052239395948   -0.0075930948880173705
-0.061221410285360045   -0.19322716866961237   -0.005835134731767444
-0.03990912085733382   -0.21749566076829313   -0.006517116958132637
-0.05158512679246549   -0.21642171007766117   -0.006874467866375272
-0.061221410285360045   -0.19322716866961237   -0.005835134731767444
-0.05241671484003419   -0.21670052239395948   -0.0075930948880173705
-0.03990912085733382   -0.21749566076829313   -0.006517116958132637
-0.061221410285360045   -0.19322716866961237   -0.005835134731767444
-0.04649983602809729   -0.1941270243519116   -0.005501161070336847
-0.046515218100586286   -0.19437460890477695   -0.005885384479744411
-0.03990912085733382   -0.21749566076829313   -0.006517116958132637
-0.061221410285360045   -0.19322716866961237   -0.005835134731767444
-0.046515218100586286   -0.19437460890477695   -0.005885384479744411
-0.05241671484003419   -0.21670052239395948   -0.0075930948880173705
-0.03990912085733382   -0.21749566076829313   -0.006517116958132637
-0.04649983602809729   -0.1941270243519116   -0.005501161070336847
-0.05158512679246549   -0.21642171007766117   -0.006874467866375272
-0.03963228597258788   -0.21735266845414195   -0.006034769590308563
-0.04649983602809729   -0.1941270243519116   -0.005501161070336847
-0.061221410285360045   -0.19322716866961237   -0.005835134731767444
-0.05158512679246549   -0.21642171007766117   -0.006874467866375272
-0.060736891349046945   -0.19309436219814988   -0.005211256908907426
-0.03963228597258788   -0.21735266845414195   -0.006034769590308563
-0.05086227780400331   -0.2162906985858831   -0.006118040043370065
-0.060736891349046945   -0.19309436219814988   -0.005211256908907426
-0.05158512679246549   -0.21642171007766117   -0.006874467866375272
-0.03963228597258788   -0.21735266845414195   -0.006034769590308563
-0.060736891349046945   -0.19309436219814988   -0.005211256908907426
-0.04638616591194747   -0.19397569293452685   -0.0050950720879077566
-0.04649983602809729   -0.1941270243519116   -0.005501161070336847
-0.03963228597258788   -0.21735266845414195   -0.006034769590308563
-0.060736891349046945   -0.19309436219814988   -0.005211256908907426
-0.04649983602809729   -0.1941270243519116   -0.005501161070336847
-0.05158512679246549   -0.21642171007766117   -0.006874467866375272
-0.03963228597258788   -0.21735266845414195   -0.006034769590308563
-0.04638616591194747   -0.19397569293452685   -0.0050950720879077566
-0.05086227780400331   -0.2162906985858831   -0.006118040043370065
-0.039406748081139684   -0.21734222579713355   -0.005522340606597017
-0.04638616591194747   -0.19397569293452685   -0.0050950720879077566
-0.060736891349046945   -0.19309436219814988   -0.005211256908907426
-0.05086227780400331   -0.2162906985858831   -0.006118040043370065
-0.06003665992577606   -0.19313088003986928   -0.004555691145237367
-0.039406748081139684   -0.21734222579713355   -0.005522340606597017
-0.049887934108551295   -0.21636255066470045   -0.00532864677755179
-0.06003665992577606   -0.19313088003986928   -0.004555691145237367
-0.05086227780400331   -0.2162906985858831   -0.006118040043370065
-0.039406748081139684   -0.21734222579713355   -0.005522340606597017
-0.06003665992577606   -0.19313088003986928   -0.004555691145237367
-0.04630996397026293   -0.1939309445643099   -0.004662015262161305
-0.04638616591194747   -0.19397569293452685   -0.0050950720879077566
-0.039406748081139684   -0.21734222579713355   -0.005522340606597017
-0.06003665992577606   -0.19313088003986928   -0.004555691145237367
-0.04638616591194747   -0.19397569293452685   -0.0050950720879077566
-0.05086227780400331   -0.2162906985858831   -0.006118040043370065
0.007930930496315826   -0.19502270670961286   -0.0028491482023243887
0.012351964852843723   -0.1671907166004871   -0.0018968357387885255
-0.006094686374224113   -0.195366791489103   -0.00380539221001189
0.008336289537340573   -0.19452452182584684   -0.0032604432124469654
0.012351964852843723   -0.1671907166004871   -0.0018968357387885255
-0.004261596279985003   -0.1673579797724553   -0.002796668540676949
-0.006094686374224113   -0.195366791489103   -0.00380539221001189
-0.004341539448920364   -0.16694416263405776   -0.0028870610790115913
0.008336289537340573   -0.19452452182584684   -0.0032604432124469654
-0.006057574237662008   -0.19494277271721486   -0.003974751450397386
-0.004341539448920364   -0.16694416263405776   -0.0028870610790115913
-0.006094686374224113   -0.195366791489103   -0.00380539221001189
0.008336289537340573   -0.19452452182584684   -0.0032604432124469654
-0.004341539448920364   -0.16694416263405776   -0.0028870610790115913
0.012508519639264866   -0.16671077317233537   -0.002164585789734771
0.012351964852843723   -0.1671907166004871   -0.0018968357387885255
0.008336289537340573   -0.19452452182584684   -0.0032604432124469654
-0.004341539448920364   -0.16694416263405776   -0.0028870610790115913
0.012351964852843723   -0.1671907166004871   -0.0018968357387885255
-0.006094686374224113   -0.195366791489103   -0.00380539221001189
0.008336289537340573   -0.19452452182584684   -0.0032604432124469654
0.012508519639264866   -0.16671077317233537   -0.002164585789734771
-0.006057574237662008   -0.19494277271721486   -0.003974751450397386
0.008594662454749174   -0.19419516423867922   -0.0036345166446646445
0.012508519639264866   -0.16671077317233537   -0.002164585789734771
-0.004341539448920364   -0.16694416263405776   -0.0028870610790115913
-0.006057574237662008   -0.19494277271721486   -0.003974751450397386
-0.004425775157941466   -0.16661489509286684   -0.002954016531066698
0.008594662454749174   -0.19419516423867922   -0.0036345166446646445
-0.006010520893228819   -0.19463332192510877   -0.004117757410744517
-0.004425775157941466   -0.16661489509286684   -0.002954016531066698
-0.006057574237662008   -0.19494277271721486   -0.003974751450397386
0.008594662454749174   -0.19419516423867922   -0.0036345166446646445
-0.004425775157941466   -0.16661489509286684   -0.002954016531066698
0.012553496879934125   -0.16635862636493282   -0.0023977808937350573
0.012508519639264866   -0.16671077317233537   -0.002164585789734771
0.008594662454749174   -0.19419516423867922   -0.0036345166446646445
-0.004425775157941466   -0.16661489509286684   -0.002954016531066698
0.012508519639264866   -0.16671077317233537   -0.002164585789734771
-0.006057574237662008   -0.19494277271721486   -0.003974751450397386
0.008594662454749174   -0.19419516423867922   -0.0036345166446646445
0.012553496879934125   -0.16635862636493282   -0.0023977808937350573
-0.006010520893228819   -0.19463332192510877   -0.004117757410744517
0.008858722144188251   -0.19397145731542334   -0.0039721308042656904
0.012553496879934125   -0.16635862636493282   -0.0023977808937350573
-0.004425775157941466   -0.16661489509286684   -0.002954016531066698
-0.006010520893228819   -0.19463332192510877   -0.004117757410744517
-0.004567583720860486   -0.1663599768622004   -0.0029983323204793837
0.008858722144188251   -0.19397145731542334   -0.0039721308042656904
-0.006034719012779547   -0.1944286523319676   -0.004236335691594383
-0.004567583720860486   -0.1663599768622004   -0.0029983323204793837
-0.006010520893228819   -0.19463332192510877   -0.004117757410744517
0.008858722144188251   -0.19397145731542334   -0.0039721308042656904
-0.004567583720860486   -0.1663599768622004   -0.0029983323204793837
0.0125758365996487   -0.16607309282768332   -0.00259804514780831
0.012553496879934125   -0.16635862636493282   -0.0023977808937350573
0.008858722144188251   -0.19397145731542334   -0.0039721308042656904
-0.004567583720860486   -0.1663599768622004   -0.0029983323204793837
0.012553496879934125   -0.16635862636493282   -0.0023977808937350573
-0.006010520893228819   -0.19463332192510877   -0.004117757410744517
-0.006094686374224113   -0.195366791489103   -0.00380539221001189
-0.004261596279985003   -0.1673579797724553   -0.002796668540676949
-0.019583989837752024   -0.19536765958056518   -0.004595847510554713
-0.006057574237662008   -0.19494277271721486   -0.003974751450397386
-0.004261596279985003   -0.1673579797724553   -0.002796668540676949
-0.02018107625112834   -0.16726939621388565   -0.003539816962979028
-0.019583989837752024   -0.19536765958056518   -0.004595847510554713
-0.02029075438917292   -0.16692272701620464   -0.0034968222515804055
-0.006057574237662008   -0.19494277271721486   -0.003974751450397386
-0.019586189599438877   -0.1950083167579074   -0.00457991307179787
-0.02029075438917292   -0.16692272701620464   -0.0034968222515804055
-0.019583989837752024   -0.19536765958056518   -0.004595847510554713
-0.006057574237662008   -0.19494277271721486   -0.003974751450397386
-0.02029075438917292   -0.16692272701620464   -0.0034968222515804055
-0.004341539448920364   -0.16694416263405776   -0.0028870610790115913
-0.004261596279985003   -0.1673579797724553   -0.002796668540676949
-0.006057574237662008   -0.19494277271721486   -0.003974751450397386
-0.02029075438917292   -0.16692272701620464   -0.0034968222515804055
-0.004261596279985003   -0.1673579797724553   -0.002796668540676949
-0.019583989837752024   -0.19536765958056518   -0.004595847510554713
-0.006057574237662008   -0.19494277271721486   -0.003974751450397386
-0.004341539448920364   -0.16694416263405776   -0.0028870610790115913
-0.019586189599438877   -0.1950083167579074   -0.00457991307179787
-0.006010520893228819   -0.19463332192510877   -0.004117757410744517
-0.004341539448920364   -0.16694416263405776   -0.0028870610790115913
-0.02029075438917292   -0.16692272701620464   -0.0034968222515804055
-0.019586189599438877   -0.1950083167579074   -0.00457991307179787
-0.020401927494772407   -0.16664855653693583   -0.003429720787511977
-0.006010520893228819   -0.19463332192510877   -0.004117757410744517
-0.019587514813854522   -0.1947500053469048   -0.004537749889457653
-0.020401927494772407   -0.16664855653693583   -0.003429720787511977
-0.019586189599438877   -0.1950083167579074   -0.00457991307179787
-0.006010520893228819   -0.19463332192510877   -0.004117757410744517
-0.020401927494772407   -0.16664855653693583   -0.003429720787511977
-0.004425775157941466   -0.16661489509286684   -0.002954016531066698
-0.004341539448920364   -0.16694416263405776   -0.0028870610790115913
-0.006010520893228819   -0.19463332192510877   -0.004117757410744517
-0.020401927494772407   -0.16664855653693583   -0.003429720787511977
-0.004341539448920364   -0.16694416263405776   -0.0028870610790115913
-0.019586189599438877   -0.1950083167579074   -0.00457991307179787
-0.006010520893228819   -0.19463332192510877   -0.004117757410744517
-0.004425775157941466   -0.16661489509286684   -0.002954016531066698
-0.019587514813854522   -0.1947500053469048   -0.004537749889457653
-0.006034719012779547   -0.1944286523319676   -0.004236335691594383
-0.004425775157941466   -0.16661489509286684   -0.002954016531066698
-0.020401927494772407   -0.16664855653693583   -0.003429720787511977
-0.019587514813854522   -0.1947500053469048   -0.004537749889457653
-0.020530236012664613   -0.16644812692406175   -0.003339648052296686
-0.006034719012779547   -0.1944286523319676   -0.004236335691594383
-0.019606929473004475   -0.1945928946698265   -0.004470690021267313
-0.020530236012664613   -0.16644812692406175   -0.003339648052296686
-0.019587514813854522   -0.1947500053469048   -0.004537749889457653
-0.006034719012779547   -0.1944286523319676   -0.004236335691594383
-0.020530236012664613   -0.16644812692406175   -0.003339648052296686
-0.004567583720860486   -0.1663599768622004   -0.0029983323204793837
-0.004425775157941466   -0.16661489509286684   -0.002954016531066698
-0.006034719012779547   -0.1944286523319676   -0.004236335691594383
-0.020530236012664613   -0.16644812692406175   -0.003339648052296686
-0.004425775157941466   -0.16661489509286684   -0.002954016531066698
-0.019587514813854522   -0.1947500053469048   -0.004537749889457653
-0.019583989837752024   -0.19536765958056518   -0.004595847510554713
-0.02018107625112834   -0.16726939621388565   -0.003539816962979028
-0.032842381689488664   -0.195032629968906   -0.005288834280392377
-0.019586189599438877   -0.1950083167579074   -0.00457991307179787
-0.02018107625112834   -0.16726939621388565   -0.003539816962979028
-0.035830249756456635   -0.16694021651826255   -0.0041766955407921405
-0.032842381689488664   -0.195032629968906   -0.005288834280392377
-0.035948315776731916   -0.16665473382494173   -0.00400090502145038
-0.019586189599438877   -0.1950083167579074   -0.00457991307179787
-0.03285450093177354   -0.19473029466070896   -0.005089817751002154
-0.035948315776731916   -0.16665473382494173   -0.00400090502145038
-0.032842381689488664   -0.195032629968906   -0.005288834280392377
-0.019586189599438877   -0.1950083167579074   -0.00457991307179787
-0.035948315776731916   -0.16665473382494173   -0.00400090502145038
-0.02029075438917292   -0.16692272701620464   -0.0034968222515804055
-0.02018107625112834   -0.16726939621388565   -0.003539816962979028
-0.019586189599438877   -0.1950083167579074   -0.00457991307179787
-0.035948315776731916   -0.16665473382494173   -0.00400090502145038
-0.02018107625112834   -0.16726939621388565   -0.003539816962979028
-0.032842381689488664   -0.195032629968906   -0.005288834280392377
-0.019586189599438877   -0.1950083167579074   -0.00457991307179787
-0.02029075438917292   -0.16692272701620464   -0.0034968222515804055
-0.03285450093177354   -0.19473029466070896   -0.005089817751002154
-0.019587514813854522   -0.1947500053469048   -0.004537749889457653
-0.02029075438917292   -0.16692272701620464   -0.0034968222515804055
-0.035948315776731916   -0.16665473382494173   -0.00400090502145038
-0.03285450093177354   -0.19473029466070896   -0.005089817751002154
-0.03604632105482958   -0.16644105334402826   -0.0038014213095261713
-0.019587514813854522   -0.1947500053469048   -0.004537749889457653
-0.032843974802047864   -0.19452809429238038   -0.004865066433415273
-0.03604632105482958   -0.16644105334402826   -0.0038014213095261713
-0.03285450093177354   -0.19473029466070896   -0.005089817751002154
-0.019587514813854522   -0.1947500053469048   -0.004537749889457653
-0.03604632105482958   -0.16644105334402826   -0.0038014213095261713
-0.020401927494772407   -0.16664855653693583   -0.003429720787511977
-0.02029075438917292   -0.16692272701620464   -0.0034968222515804055
-0.019587514813854522   -0.1947500053469048   -0.004537749889457653
-0.03604632105482958   -0.16644105334402826   -0.0038014213095261713
-0.02029075438917292   -0.16692272701620464   -0.0034968222515804055
-0.03285450093177354   -0.19473029466070896   -0.005089817751002154
-0.019587514813854522   -0.1947500053469048   -0.004537749889457653
-0.020401927494772407   -0.16664855653693583   -0.003429720787511977
-0.032843974802047864   -0.19452809429238038   -0.004865066433415273
-0.019606929473004475   -0.1945928946698265   -0.004470690021267313
-0.020401927494772407   -0.16664855653693583   -0.003429720787511977
-0.03604632105482958   -0.16644105334402826   -0.0038014213095261713
-0.032843974802047864   -0.19452809429238038   -0.004865066433415273
-0.03614711476832532   -0.16629888381767174   -0.0035789504807296492
-0.019606929473004475   -0.1945928946698265   -0.004470690021267313
-0.03283746409749805   -0.19442424204771638   -0.004615338130492965
-0.03614711476832532   -0.16629888381767174   -0.0035789504807296492
-0.032843974802047864   -0.19452809429238038   -0.004865066433415273
-0.019606929473004475   -0.1945928946698265   -0.004470690021267313
-0.03614711476832532   -0.16629888381767174   -0.0035789504807296492
-0.020530236012664613   -0.16644812692406175   -0.003339648052296686
-0.020401927494772407   -0.16664855653693583   -0.003429720787511977
-0.019606929473004475   -0.1945928946698265   -0.004470690021267313
-0.03614711476832532   -0.16629888381767174   -0.0035789504807296492
-0.020401927494772407   -0.16664855653693583   -0.003429720787511977
-0.032843974802047864   -0.19452809429238038   -0.004865066433415273
-0.032842381689488664   -0.195032629968906   -0.005288834280392377
-0.035830249756456635   -0.16694021651826255   -0.0041766955407921405
-0.046515218100586286   -0.19437460890477695   -0.005885384479744411
-0.03285450093177354   -0.19473029466070896   -0.005089817751002154
-0.035830249756456635   -0.16694021651826255   -0.0041766955407921405
-0.05185178598585869   -0.16637710655977164   -0.004709504898292529
-0.046515218100586286   -0.19437460890477695   -0.005885384479744411
-0.05194994313663859   -0.16615151641814577   -0.004399136570140726
-0.03285450093177354   -0.19473029466070896   -0.005089817751002154
-0.04649983602809729   -0.1941270243519116   -0.005501161070336847
-0.05194994313663859   -0.16615151641814577   -0.004399136570140726
-0.046515218100586286   -0.19437460890477695   -0.005885384479744411
-0.03285450093177354   -0.19473029466070896   -0.005089817751002154
-0.05194994313663859   -0.16615151641814577   -0.004399136570140726
-0.035948315776731916   -0.16665473382494173   -0.00400090502145038
-0.035830249756456635   -0.16694021651826255   -0.0041766955407921405
-0.03285450093177354   -0.19473029466070896   -0.005089817751002154
-0.05194994313663859   -0.16615151641814577   -0.004399136570140726
-0.035830249756456635   -0.16694021651826255   -0.0041766955407921405
-0.046515218100586286   -0.19437460890477695   -0.005885384479744411
-0.03285450093177354   -0.19473029466070896   -0.005089817751002154
-0.035948315776731916   -0.16665473382494173   -0.00400090502145038
-0.04649983602809729   -0.1941270243519116   -0.005501161070336847
-0.032843974802047864   -0.19452809429238038   -0.004865066433415273
-0.035948315776731916   -0.16665473382494173   -0.00400090502145038
-0.05194994313663859   -0.16615151641814577   -0.004399136570140726
-0.04649983602809729   -0.1941270243519116   -0.005501161070336847
-0.05196415276916056   -0.1659931261331921   -0.0040683579967429
-0.032843974802047864   -0.19452809429238038   -0.004865066433415273
-0.04638616591194747   -0.19397569293452685   -0.0050950720879077566
-0.05196415276916056   -0.1659931261331921   -0.0040683579967429
-0.04649983602809729   -0.1941270243519116   -0.005501161070336847
-0.032843974802047864   -0.19452809429238038   -0.004865066433415273
-0.05196415276916056   -0.1659931261331921   -0.0040683579967429
-0.03604632105482958   -0.16644105334402826   -0.0038014213095261713
-0.035948315776731916   -0.16665473382494173   -0.00400090502145038
-0.032843974802047864   -0.19452809429238038   -0.004865066433415273
-0.05196415276916056   -0.1659931261331921   -0.0040683579967429
-0.035948315776731916   -0.16665473382494173   -0.00400090502145038
-0.04649983602809729   -0.1941270243519116   -0.005501161070336847
-0.032843974802047864   -0.19452809429238038   -0.004865066433415273
-0.03604632105482958   -0.16644105334402826   -0.0038014213095261713
-0.04638616591194747   -0.19397569293452685   -0.0050950720879077566
-0.03283746409749805   -0.19442424204771638   -0.004615338130492965
-0.03604632105482958   -0.16644105334402826   -0.0038014213095261713
-0.05196415276916056   -0.1659931261331921   -0.0040683579967429
-0.04638616591194747   -0.19397569293452685   -0.0050950720879077566
-0.052001806413187836   -0.16591263742913176   -0.003712860301372329
-0.03283746409749805   -0.19442424204771638   -0.004615338130492965
-0.04630996397026293   -0.1939309445643099   -0.004662015262161305
-0.052001806413187836   -0.16591263742913176   -0.003712860301372329
-0.04638616591194747   -0.19397569293452685   -0.0050950720879077566
-0.03283746409749805   -0.19442424204771638   -0.004615338130492965
-0.052001806413187836   -0.16591263742913176   -0.003712860301372329
-0.03614711476832532   -0.16629888381767174   -0.0035789504807296492
-0.03604632105482958   -0.16644105334402826   -0.0038014213095261713
-0.03283746409749805   -0.19442424204771638   -0.004615338130492965
-0.052001806413187836   -0.16591263742913176   -0.003712860301372329
-0.03604632105482958   -0.16644105334402826   -0.0038014213095261713
-0.04638616591194747   -0.19397569293452685   -0.0050950720879077566
-0.046515218100586286   -0.19437460890477695   -0.005885384479744411
-0.05185178598585869   -0.16637710655977164   -0.004709504898292529
-0.061787114577659216   -0.19346966413944017   -0.006422327889285044
-0.04649983602809729   -0.1941270243519116   -0.005501161070336847
-0.05185178598585869   -0.16637710655977164   -0.004709504898292529
-0.06932022872461276   -0.16564035459536686   -0.005164546269719286
-0.061787114577659216   -0.19346966413944017   -0.006422327889285044
-0.06899150469933457   -0.16543430853169566   -0.004712470641571833
-0.04649983602809729   -0.1941270243519116   -0.005501161070336847
-0.061221410285360045   -0.19322716866961237   -0.005835134731767444
-0.06899150469933457   -0.16543430853169566   -0.004712470641571833
-0.061787114577659216   -0.19346966413944017   -0.006422327889285044
-0.04649983602809729   -0.1941270243519116   -0.005501161070336847
-0.06899150469933457   -0.16543430853169566   -0.004712470641571833
-0.05194994313663859   -0.16615151641814577   -0.004399136570140726
-0.05185178598585869   -0.16637710655977164   -0.004709504898292529
-0.04649983602809729   -0.1941270243519116   -0.005501161070336847
-0.06899150469933457   -0.16543430853169566   -0.004712470641571833
-0.05185178598585869   -0.16637710655977164   -0.004709504898292529
-0.061787114577659216   -0.19346966413944017   -0.006422327889285044
-0.04649983602809729   -0.1941270243519116   -0.005501161070336847
-0.05194994313663859   -0.16615151641814577   -0.004399136570140726
-0.061221410285360045   -0.19322716866961237   -0.005835134731767444
-0.04638616591194747   -0.19397569293452685   -0.0050950720879077566
-0.05194994313663859   -0.16615151641814577   -0.004399136570140726
-0.06899150469933457   -0.16543430853169566   -0.004712470641571833
-0.061221410285360045   -0.19322716866961237   -0.005835134731767444
-0.06871402286216999   -0.1652993289368706   -0.00422479944071615
-0.04638616591194747   -0.19397569293452685   -0.0050950720879077566
-0.060736891349046945   -0.19309436219814988   -0.005211256908907426
-0.06871402286216999   -0.1652993289368706   -0.00422479944071615
-0.061221410285360045   -0.19322716866961237   -0.005835134731767444
-0.04638616591194747   -0.19397569293452685   -0.0050950720879077566
-0.06871402286216999   -0.1652993289368706   -0.00422479944071615
-0.05196415276916056   -0.1659931261331921   -0.0040683579967429
-0.05194994313663859   -0.16615151641814577   -0.004399136570140726
-0.04638616591194747   -0.19397569293452685   -0.0050950720879077566
-0.06871402286216999   -0.1652993289368706   -0.00422479944071615
-0.05194994313663859   -0.16615151641814577   -0.004399136570140726
-0.061221410285360045   -0.19322716866961237   -0.005835134731767444
-0.04638616591194747   -0.19397569293452685   -0.0050950720879077566
-0.05196415276916056   -0.1659931261331921   -0.0040683579967429
-0.060736891349046945   -0.19309436219814988   -0.005211256908907426
-0.04630996397026293   -0.1939309445643099   -0.004662015262161305
-0.05196415276916056   -0.1659931261331921   -0.0040683579967429
-0.06871402286216999   -0.1652993289368706   -0.00422479944071615
-0.060736891349046945   -0.19309436219814988   -0.005211256908907426
-0.06825419477258944   -0.16529702763473805   -0.003705957979879558
-0.04630996397026293   -0.1939309445643099   -0.004662015262161305
-0.06003665992577606   -0.19313088003986928   -0.004555691145237367
-0.06825419477258944   -0.16529702763473805   -0.003705957979879558
-0.060736891349046945   -0.19309436219814988   -0.005211256908907426
-0.04630996397026293   -0.1939309445643099   -0.004662015262161305
-0.06825419477258944   -0.16529702763473805   -0.003705957979879558
-0.052001806413187836   -0.16591263742913176   -0.003712860301372329
-0.05196415276916056   -0.1659931261331921   -0.0040683579967429
-0.04630996397026293   -0.1939309445643099   -0.004662015262161305
-0.06825419477258944   -0.16529702763473805   -0.003705957979879558
-0.05196415276916056   -0.1659931261331921   -0.0040683579967429
-0.060736891349046945   -0.19309436219814988   -0.005211256908907426
0.012351964852843723   -0.1671907166004871   -0.0018968357387885255
0.014783297432048164   -0.1360089531802025   -0.0009627987715756385
-0.004261596279985003   -0.1673579797724553   -0.002796668540676949
0.012508519639264866   -0.16671077317233537   -0.002164585789734771
0.014783297432048164   -0.1360089531802025   -0.0009627987715756385
-0.003635118281152452   -0.1360018518423471   -0.0017979481860398259
-0.004261596279985003   -0.1673579797724553   -0.002796668540676949
-0.003802233804258224   -0.13560127254839036   -0.0018086821553764
0.012508519639264866   -0.16671077317233537   -0.002164585789734771
-0.004341539448920364   -0.16694416263405776   -0.0028870610790115913
-0.003802233804258224   -0.13560127254839036   -0.0018086821553764
-0.004261596279985003   -0.1673579797724553   -0.002796668540676949
0.012508519639264866   -0.16671077317233537   -0.002164585789734771
-0.003802233804258224   -0.13560127254839036   -0.0018086821553764
0.014724653490771086   -0.13554925838880924   -0.0010891575601737534
0.014783297432048164   -0.1360089531802025   -0.0009627987715756385
0.012508519639264866   -0.16671077317233537   -0.002164585789734771
-0.003802233804258224   -0.13560127254839036   -0.0018086821553764
0.014783297432048164   -0.1360089531802025   -0.0009627987715756385
-0.004261596279985003   -0.1673579797724553   -0.002796668540676949
0.012508519639264866   -0.16671077317233537   -0.002164585789734771
0.014724653490771086   -0.13554925838880924   -0.0010891575601737534
-0.004341539448920364   -0.16694416263405776   -0.0028870610790115913
0.012553496879934125   -0.16635862636493282   -0.0023977808937350573
0.014724653490771086   -0.13554925838880924   -0.0010891575601737534
-0.003802233804258224   -0.13560127254839036   -0.0018086821553764
-0.004341539448920364   -0.16694416263405776   -0.0028870610790115913
-0.00398788507656482   -0.13525482391036314   -0.001798722405198946
0.012553496879934125   -0.16635862636493282   -0.0023977808937350573
-0.004425775157941466   -0.16661489509286684   -0.002954016531066698
-0.00398788507656482   -0.13525482391036314   -0.001798722405198946
-0.004341539448920364   -0.16694416263405776   -0.0028870610790115913
0.012553496879934125   -0.16635862636493282   -0.0023977808937350573
-0.00398788507656482   -0.13525482391036314   -0.001798722405198946
0.014587628482601598   -0.13517715650425205   -0.0011823486080727592
0.014724653490771086   -0.13554925838880924   -0.0010891575601737534
0.012553496879934125   -0.16635862636493282   -0.0023977808937350573
-0.00398788507656482   -0.13525482391036314   -0.001798722405198946
0.014724653490771086   -0.13554925838880924   -0.0010891575601737534
-0.004341539448920364   -0.16694416263405776   -0.0028870610790115913
0.012553496879934125   -0.16635862636493282   -0.0023977808937350573
0.014587628482601598   -0.13517715650425205   -0.0011823486080727592
-0.004425775157941466   -0.16661489509286684   -0.002954016531066698
0.0125758365996487   -0.16607309282768332   -0.00259804514780831
0.014587628482601598   -0.13517715650425205   -0.0011823486080727592
-0.00398788507656482   -0.13525482391036314   -0.001798722405198946
-0.004425775157941466   -0.16661489509286684   -0.002954016531066698
-0.0042174693946770885   -0.13495366617930252   -0.0017672531341171843
0.0125758365996487   -0.16607309282768332   -0.00259804514780831
-0.004567583720860486   -0.1663599768622004   -0.0029983323204793837
-0.0042174693946770885   -0.13495366617930252   -0.0017672531341171843
-0.004425775157941466   -0.16661489509286684   -0.002954016531066698
0.0125758365996487   -0.16607309282768332   -0.00259804514780831
-0.0042174693946770885   -0.13495366617930252   -0.0017672531341171843
0.014397136591839655   -0.13483295545690283   -0.0012446872964754234
0.014587628482601598   -0.13517715650425205   -0.0011823486080727592
0.0125758365996487   -0.16607309282768332   -0.00259804514780831
-0.0042174693946770885   -0.13495366617930252   -0.0017672531341171843
0.014587628482601598   -0.13517715650425205   -0.0011823486080727592
-0.004425775157941466   -0.16661489509286684   -0.002954016531066698
-0.004261596279985003   -0.1673579797724553   -0.002796668540676949
-0.003635118281152452   -0.1360018518423471   -0.0017979481860398259
-0.02018107625112834   -0.16726939621388565   -0.003539816962979028
-0.004341539448920364   -0.16694416263405776   -0.0028870610790115913
-0.003635118281152452   -0.1360018518423471   -0.0017979481860398259
-0.02120046306489218   -0.13583465417715138   -0.0024896783948118472
-0.02018107625112834   -0.16726939621388565   -0.003539816962979028
-0.021386622647358418   -0.13550109536458776   -0.0024174874175951883
-0.004341539448920364   -0.16694416263405776   -0.0028870610790115913
-0.02029075438917292   -0.16692272701620464   -0.0034968222515804055
-0.021386622647358418   -0.13550109536458776   -0.0024174874175951883
-0.02018107625112834   -0.16726939621388565   -0.003539816962979028
-0.004341539448920364   -0.16694416263405776   -0.0028870610790115913
-0.021386622647358418   -0.13550109536458776   -0.0024174874175951883
-0.003802233804258224   -0.13560127254839036   -0.0018086821553764
-0.003635118281152452   -0.1360018518423471   -0.0017979481860398259
-0.004341539448920364   -0.16694416263405776   -0.0028870610790115913
-0.021386622647358418   -0.13550109536458776   -0.0024174874175951883
-0.003635118281152452   -0.1360018518423471   -0.0017979481860398259
-0.02018107625112834   -0.16726939621388565   -0.003539816962979028
-0.004341539448920364   -0.16694416263405776   -0.0028870610790115913
-0.003802233804258224   -0.13560127254839036   -0.0018086821553764
-0.02029075438917292   -0.16692272701620464   -0.0034968222515804055
-0.004425775157941466   -0.16661489509286684   -0.002954016531066698
-0.003802233804258224   -0.13560127254839036   -0.0018086821553764
-0.021386622647358418   -0.13550109536458776   -0.0024174874175951883
-0.02029075438917292   -0.16692272701620464   -0.0034968222515804055
-0.021576469655842086   -0.13521160881878946   -0.002323763445452861
-0.004425775157941466   -0.16661489509286684   -0.002954016531066698
-0.020401927494772407   -0.16664855653693583   -0.003429720787511977
-0.021576469655842086   -0.13521160881878946   -0.002323763445452861
-0.02029075438917292   -0.16692272701620464   -0.0034968222515804055
-0.004425775157941466   -0.16661489509286684   -0.002954016531066698
-0.021576469655842086   -0.13521160881878946   -0.002323763445452861
-0.00398788507656482   -0.13525482391036314   -0.001798722405198946
-0.003802233804258224   -0.13560127254839036   -0.0018086821553764
-0.004425775157941466   -0.16661489509286684   -0.002954016531066698
-0.021576469655842086   -0.13521160881878946   -0.002323763445452861
-0.003802233804258224   -0.13560127254839036   -0.0018086821553764
-0.02029075438917292   -0.16692272701620464   -0.0034968222515804055
-0.004425775157941466   -0.16661489509286684   -0.002954016531066698
-0.00398788507656482   -0.13525482391036314   -0.001798722405198946
-0.020401927494772407   -0.16664855653693583   -0.003429720787511977
-0.004567583720860486   -0.1663599768622004   -0.0029983323204793837
-0.00398788507656482   -0.13525482391036314   -0.001798722405198946
-0.021576469655842086   -0.13521160881878946   -0.002323763445452861
-0.020401927494772407   -0.16664855653693583   -0.003429720787511977
-0.021782231622784105   -0.1349688605432523   -0.00220949004706612
-0.004567583720860486   -0.1663599768622004   -0.0029983323204793837
-0.020530236012664613   -0.16644812692406175   -0.003339648052296686
-0.021782231622784105   -0.1349688605432523   -0.00220949004706612
-0.020401927494772407   -0.16664855653693583   -0.003429720787511977
-0.004567583720860486   -0.1663599768622004   -0.0029983323204793837
-0.021782231622784105   -0.1349688605432523   -0.00220949004706612
-0.0042174693946770885   -0.13495366617930252   -0.0017672531341171843
-0.00398788507656482   -0.13525482391036314   -0.001798722405198946
-0.004567583720860486   -0.1663599768622004   -0.0029983323204793837
-0.021782231622784105   -0.1349688605432523   -0.00220949004706612
-0.00398788507656482   -0.13525482391036314   -0.001798722405198946
-0.020401927494772407   -0.16664855653693583   -0.003429720787511977
-0.02018107625112834   -0.16726939621388565   -0.003539816962979028
-0.02120046306489218   -0.13583465417715138   -0.0024896783948118472
-0.035830249756456635   -0.16694021651826255   -0.0041766955407921405
-0.02029075438917292   -0.16692272701620464   -0.0034968222515804055
-0.02120046306489218   -0.13583465417715138   -0.0024896783948118472
-0.038468675582882486   -0.13552486236625072   -0.0030746281069052705
-0.035830249756456635   -0.16694021651826255   -0.0041766955407921405
-0.03866003757355372   -0.13525325757192805   -0.002919583977714782
-0.02029075438917292   -0.16692272701620464   -0.0034968222515804055
-0.035948315776731916   -0.16665473382494173   -0.00400090502145038
-0.03866003757355372   -0.13525325757192805   -0.002919583977714782
-0.035830249756456635   -0.16694021651826255   -0.0041766955407921405
-0.02029075438917292   -0.16692272701620464   -0.0034968222515804055
-0.03866003757355372   -0.13525325757192805   -0.002919583977714782
-0.021386622647358418   -0.13550109536458776   -0.0024174874175951883
-0.02120046306489218   -0.13583465417715138   -0.0024896783948118472
-0.02029075438917292   -0.16692272701620464   -0.0034968222515804055
-0.03866003757355372   -0.13525325757192805   -0.002919583977714782
-0.02120046306489218   -0.13583465417715138   -0.0024896783948118472
-0.035830249756456635   -0.16694021651826255   -0.0041766955407921405
-0.02029075438917292   -0.16692272701620464   -0.0034968222515804055
-0.021386622647358418   -0.13550109536458776   -0.0024174874175951883
-0.035948315776731916   -0.16665473382494173   -0.00400090502145038
-0.020401927494772407   -0.16664855653693583   -0.003429720787511977
-0.021386622647358418   -0.13550109536458776   -0.0024174874175951883
-0.03866003757355372   -0.13525325757192805   -0.002919583977714782
-0.035948315776731916   -0.16665473382494173   -0.00400090502145038
-0.03883377571763649   -0.13502541270805865   -0.0027435003532347447
-0.020401927494772407   -0.16664855653693583   -0.003429720787511977
-0.03604632105482958   -0.16644105334402826   -0.0038014213095261713
-0.03883377571763649   -0.13502541270805865   -0.0027435003532347447
-0.035948315776731916   -0.16665473382494173   -0.00400090502145038
-0.020401927494772407   -0.16664855653693583   -0.003429720787511977
-0.03883377571763649   -0.13502541270805865   -0.0027435003532347447
-0.021576469655842086   -0.13521160881878946   -0.002323763445452861
-0.021386622647358418   -0.13550109536458776   -0.0024174874175951883
-0.020401927494772407   -0.16664855653693583   -0.003429720787511977
-0.03883377571763649   -0.13502541270805865   -0.0027435003532347447
-0.021386622647358418   -0.13550109536458776   -0.0024174874175951883
-0.035948315776731916   -0.16665473382494173   -0.00400090502145038
-0.020401927494772407   -0.16664855653693583   -0.003429720787511977
-0.021576469655842086   -0.13521160881878946   -0.002323763445452861
-0.03604632105482958   -0.16644105334402826   -0.0038014213095261713
-0.020530236012664613   -0.16644812692406175   -0.003339648052296686
-0.021576469655842086   -0.13521160881878946   -0.002323763445452861
-0.03883377571763649   -0.13502541270805865   -0.0027435003532347447
-0.03604632105482958   -0.16644105334402826   -0.0038014213095261713
-0.03900914246824566   -0.1348417316283857   -0.002547189425082969
-0.020530236012664613   -0.16644812692406175   -0.003339648052296686
-0.03614711476832532   -0.16629888381767174   -0.0035789504807296492
-0.03900914246824566   -0.1348417316283857   -0.002547189425082969
-0.03604632105482958   -0.16644105334402826   -0.0038014213095261713
-0.020530236012664613   -0.16644812692406175   -0.003339648052296686
-0.03900914246824566   -0.1348417316283857   -0.002547189425082969
-0.021782231622784105   -0.1349688605432523   -0.00220949004706612
-0.021576469655842086   -0.13521160881878946   -0.002323763445452861
-0.020530236012664613   -0.16644812692406175   -0.003339648052296686
-0.03900914246824566   -0.1348417316283857   -0.002547189425082969
-0.021576469655842086   -0.13521160881878946   -0.002323763445452861
-0.03604632105482958   -0.16644105334402826   -0.0038014213095261713
-0.035830249756456635   -0.16694021651826255   -0.0041766955407921405
-0.038468675582882486   -0.13552486236625072   -0.0030746281069052705
-0.05185178598585869   -0.16637710655977164   -0.004709504898292529
-0.035948315776731916   -0.16665473382494173   -0.00400090502145038
-0.038468675582882486   -0.13552486236625072   -0.0030746281069052705
-0.056078288662637775   -0.13506584207122796   -0.003553949447443914
-0.05185178598585869   -0.16637710655977164   -0.004709504898292529
-0.056256239934863235   -0.13485679396777192   -0.0033154328484978172
-0.035948315776731916   -0.16665473382494173   -0.00400090502145038
-0.05194994313663859   -0.16615151641814577   -0.004399136570140726
-0.056256239934863235   -0.13485679396777192   -0.0033154328484978172
-0.05185178598585869   -0.16637710655977164   -0.004709504898292529
-0.035948315776731916   -0.16665473382494173   -0.00400090502145038
-0.056256239934863235   -0.13485679396777192   -0.0033154328484978172
-0.03866003757355372   -0.13525325757192805   -0.002919583977714782
-0.038468675582882486   -0.13552486236625072   -0.0030746281069052705
-0.035948315776731916   -0.16665473382494173   -0.00400090502145038
-0.056256239934863235   -0.13485679396777192   -0.0033154328484978172
-0.038468675582882486   -0.13552486236625072   -0.0030746281069052705
-0.05185178598585869   -0.16637710655977164   -0.004709504898292529
-0.035948315776731916   -0.16665473382494173   -0.00400090502145038
-0.03866003757355372   -0.13525325757192805   -0.002919583977714782
-0.05194994313663859   -0.16615151641814577   -0.004399136570140726
-0.03604632105482958   -0.16644105334402826   -0.0038014213095261713
-0.03866003757355372   -0.13525325757192805   -0.002919583977714782
-0.056256239934863235   -0.13485679396777192   -0.0033154328484978172
-0.05194994313663859   -0.16615151641814577   -0.004399136570140726
-0.05636506471762433   -0.13468571172834745   -0.0030587380854453076
-0.03604632105482958   -0.16644105334402826   -0.0038014213095261713
-0.05196415276916056   -0.1659931261331921   -0.0040683579967429
-0.05636506471762433   -0.13468571172834745   -0.0030587380854453076
-0.05194994313663859   -0.16615151641814577   -0.004399136570140726
-0.03604632105482958   -0.16644105334402826   -0.0038014213095261713
-0.05636506471762433   -0.13468571172834745   -0.0030587380854453076
-0.03883377571763649   -0.13502541270805865   -0.0027435003532347447
-0.03866003757355372   -0.13525325757192805   -0.002919583977714782
-0.03604632105482958   -0.16644105334402826   -0.0038014213095261713
-0.05636506471762433   -0.13468571172834745   -0.0030587380854453076
-0.03866003757355372   -0.13525325757192805   -0.002919583977714782
-0.05194994313663859   -0.16615151641814577   -0.004399136570140726
-0.03604632105482958   -0.16644105334402826   -0.0038014213095261713
-0.03883377571763649   -0.13502541270805865   -0.0027435003532347447
-0.05196415276916056   -0.1659931261331921   -0.0040683579967429
-0.03614711476832532   -0.16629888381767174   -0.0035789504807296492
-0.03883377571763649   -0.13502541270805865   -0.0027435003532347447
-0.05636506471762433   -0.13468571172834745   -0.0030587380854453076
-0.05196415276916056   -0.1659931261331921   -0.0040683579967429
-0.05648405680944441   -0.13456257239034738   -0.0027800958846471
-0.03614711476832532   -0.16629888381767174   -0.0035789504807296492
-0.052001806413187836   -0.16591263742913176   -0.003712860301372329
-0.05648405680944441   -0.13456257239034738   -0.0027800958846471
-0.05196415276916056   -0.1659931261331921   -0.0040683579967429
-0.03614711476832532   -0.16629888381767174   -0.0035789504807296492
-0.05648405680944441   -0.13456257239034738   -0.0027800958846471
-0.03900914246824566   -0.1348417316283857   -0.002547189425082969
-0.03883377571763649   -0.13502541270805865   -0.0027435003532347447
-0.03614711476832532   -0.16629888381767174   -0.0035789504807296492
-0.05648405680944441   -0.13456257239034738   -0.0027800958846471
-0.03883377571763649   -0.13502541270805865   -0.0027435003532347447
-0.05196415276916056   -0.1659931261331921   -0.0040683579967429
-0.05185178598585869   -0.16637710655977164   -0.004709504898292529
-0.056078288662637775   -0.13506584207122796   -0.003553949447443914
-0.06932022872461276   -0.16564035459536686   -0.005164546269719286
-0.05194994313663859   -0.16615151641814577   -0.004399136570140726
-0.056078288662637775   -0.13506584207122796   -0.003553949447443914
-0.07497295326594515   -0.13450294516159564   -0.003935974374622235
-0.06932022872461276   -0.16564035459536686   -0.005164546269719286
-0.07484852828275008   -0.1343261514739327   -0.003619320103946038
-0.05194994313663859   -0.16615151641814577   -0.004399136570140726
-0.06899150469933457   -0.16543430853169566   -0.004712470641571833
-0.07484852828275008   -0.1343261514739327   -0.003619320103946038
-0.06932022872461276   -0.16564035459536686   -0.005164546269719286
-0.05194994313663859   -0.16615151641814577   -0.004399136570140726
-0.07484852828275008   -0.1343261514739327   -0.003619320103946038
-0.056256239934863235   -0.13485679396777192   -0.0033154328484978172
-0.056078288662637775   -0.13506584207122796   -0.003553949447443914
-0.05194994313663859   -0.16615151641814577   -0.004399136570140726
-0.07484852828275008   -0.1343261514739327   -0.003619320103946038
-0.056078288662637775   -0.13506584207122796   -0.003553949447443914
-0.06932022872461276   -0.16564035459536686   -0.005164546269719286
-0.05194994313663859   -0.16615151641814577   -0.004399136570140726
-0.056256239934863235   -0.13485679396777192   -0.0033154328484978172
-0.06899150469933457   -0.16543430853169566   -0.004712470641571833
-0.05196415276916056   -0.1659931261331921   -0.0040683579967429
-0.056256239934863235   -0.13485679396777192   -0.0033154328484978172
-0.07484852828275008   -0.1343261514739327   -0.003619320103946038
-0.06899150469933457   -0.16543430853169566   -0.004712470641571833
-0.07474720895650906   -0.13418178839070202   -0.003269313741384624
-0.05196415276916056   -0.1659931261331921   -0.0040683579967429
-0.06871402286216999   -0.1652993289368706   -0.00422479944071615
-0.07474720895650906   -0.13418178839070202   -0.003269313741384624
-0.06899150469933457   -0.16543430853169566   -0.004712470641571833
-0.05196415276916056   -0.1659931261331921   -0.0040683579967429
-0.07474720895650906   -0.13418178839070202   -0.003269313741384624
-0.05636506471762433   -0.13468571172834745   -0.0030587380854453076
-0.056256239934863235   -0.13485679396777192   -0.0033154328484978172
-0.05196415276916056   -0.1659931261331921   -0.0040683579967429
-0.07474720895650906   -0.13418178839070202   -0.003269313741384624
-0.056256239934863235   -0.13485679396777192   -0.0033154328484978172
-0.06899150469933457   -0.16543430853169566   -0.004712470641571833
-0.05196415276916056   -0.1659931261331921   -0.0040683579967429
-0.05636506471762433   -0.13468571172834745   -0.0030587380854453076
-0.06871402286216999   -0.1652993289368706   -0.00422479944071615
-0.052001806413187836   -0.16591263742913176   -0.003712860301372329
-0.05636506471762433   -0.13468571172834745   -0.0030587380854453076
-0.07474720895650906   -0.13418178839070202   -0.003269313741384624
-0.06871402286216999   -0.1652993289368706   -0.00422479944071615
-0.07449851225390977   -0.13413094774370396   -0.0028897663758219137
-0.052001806413187836   -0.16591263742913176   -0.003712860301372329
-0.06825419477258944   -0.16529702763473805   -0.003705957979879558
-0.07449851225390977   -0.13413094774370396   -0.0028897663758219137
-0.06871402286216999   -0.1652993289368706   -0.00422479944071615
-0.052001806413187836   -0.16591263742913176   -0.003712860301372329
-0.07449851225390977   -0.13413094774370396   -0.0028897663758219137
-0.05648405680944441   -0.13456257239034738   -0.0027800958846471
-0.05636506471762433   -0.13468571172834745   -0.0030587380854453076
-0.052001806413187836   -0.16591263742913176   -0.003712860301372329
-0.07449851225390977   -0.13413094774370396   -0.0028897663758219137
-0.05636506471762433   -0.13468571172834745   -0.0030587380854453076
-0.06871402286216999   -0.1652993289368706   -0.00422479944071615
0.014783297432048164   -0.1360089531802025   -0.0009627987715756385
0.015233240497921574   -0.10271835978825548   -0.00014408599308344362
-0.003635118281152452   -0.1360018518423471   -0.0017979481860398259
0.014724653490771086   -0.13554925838880924   -0.0010891575601737534
0.015233240497921574   -0.10271835978825548   -0.00014408599308344362
-0.004206789774001978   -0.10254441046049939   -0.0008963941450155122
-0.003635118281152452   -0.1360018518423471   -0.0017979481860398259
-0.004435072646410036   -0.10216054250502414   -0.0008278215259215289
0.014724653490771086   -0.13554925838880924   -0.0010891575601737534
-0.003802233804258224   -0.13560127254839036   -0.0018086821553764
-0.004435072646410036   -0.10216054250502414   -0.0008278215259215289
-0.003635118281152452   -0.1360018518423471   -0.0017979481860398259
0.014724653490771086   -0.13554925838880924   -0.0010891575601737534
-0.004435072646410036   -0.10216054250502414   -0.0008278215259215289
0.01498797184425923   -0.10227936794245682   -0.00012708165990570254
0.015233240497921574   -0.10271835978825548   -0.00014408599308344362
0.014724653490771086   -0.13554925838880924   -0.0010891575601737534
-0.004435072646410036   -0.10216054250502414   -0.0008278215259215289
0.015233240497921574   -0.10271835978825548   -0.00014408599308344362
-0.003635118281152452   -0.1360018518423471   -0.0017979481860398259
0.014724653490771086   -0.13554925838880924   -0.0010891575601737534
0.01498797184425923   -0.10227936794245682   -0.00012708165990570254
-0.003802233804258224   -0.13560127254839036   -0.0018086821553764
0.014587628482601598   -0.13517715650425205   -0.0011823486080727592
0.01498797184425923   -0.10227936794245682   -0.00012708165990570254
-0.004435072646410036   -0.10216054250502414   -0.0008278215259215289
-0.003802233804258224   -0.13560127254839036   -0.0018086821553764
-0.004696189382229393   -0.10179704083106401   -0.0007405640111234321
0.014587628482601598   -0.13517715650425205   -0.0011823486080727592
-0.00398788507656482   -0.13525482391036314   -0.001798722405198946
-0.004696189382229393   -0.10179704083106401   -0.0007405640111234321
-0.003802233804258224   -0.13560127254839036   -0.0018086821553764
0.014587628482601598   -0.13517715650425205   -0.0011823486080727592
-0.004696189382229393   -0.10179704083106401   -0.0007405640111234321
0.014689254567035483   -0.10188528728389921   -7.18451298896407e-05
0.01498797184425923   -0.10227936794245682   -0.00012708165990570254
0.014587628482601598   -0.13517715650425205   -0.0011823486080727592
-0.004696189382229393   -0.10179704083106401   -0.0007405640111234321
0.01498797184425923   -0.10227936794245682   -0.00012708165990570254
-0.003802233804258224   -0.13560127254839036   -0.0018086821553764
0.014587628482601598   -0.13517715650425205   -0.0011823486080727592
0.014689254567035483   -0.10188528728389921   -7.18451298896407e-05
-0.00398788507656482   -0.13525482391036314   -0.001798722405198946
0.014397136591839655   -0.13483295545690283   -0.0012446872964754234
0.014689254567035483   -0.10188528728389921   -7.18451298896407e-05
-0.004696189382229393   -0.10179704083106401   -0.0007405640111234321
-0.00398788507656482   -0.13525482391036314   -0.001798722405198946
-0.004988682716004805   -0.10144899198580047   -0.0006299272451978064
0.014397136591839655   -0.13483295545690283   -0.0012446872964754234
-0.0042174693946770885   -0.13495366617930252   -0.0017672531341171843
-0.004988682716004805   -0.10144899198580047   -0.0006299272451978064
-0.00398788507656482   -0.13525482391036314   -0.001798722405198946
0.014397136591839655   -0.13483295545690283   -0.0012446872964754234
-0.004988682716004805   -0.10144899198580047   -0.0006299272451978064
0.014296106564855474   -0.10147215389282858   1.9876854235610444e-05
0.014689254567035483   -0.10188528728389921   -7.18451298896407e-05
0.014397136591839655   -0.13483295545690283   -0.0012446872964754234
-0.004988682716004805   -0.10144899198580047   -0.0006299272451978064
0.014689254567035483   -0.10188528728389921   -7.18451298896407e-05
-0.00398788507656482   -0.13525482391036314   -0.001798722405198946
-0.003635118281152452   -0.1360018518423471   -0.0017979481860398259
-0.004206789774001978   -0.10254441046049939   -0.0008963941450155122
-0.02120046306489218   -0.13583465417715138   -0.0024896783948118472
-0.003802233804258224   -0.13560127254839036   -0.0018086821553764
-0.004206789774001978   -0.10254441046049939   -0.0008963941450155122
-0.02262801510357027   -0.10234474268248704   -0.0015356034611509807
-0.02120046306489218   -0.13583465417715138   -0.0024896783948118472
-0.022860103186349432   -0.10202256095019296   -0.0014325264279490227
-0.003802233804258224   -0.13560127254839036   -0.0018086821553764
-0.021386622647358418   -0.13550109536458776   -0.0024174874175951883
-0.022860103186349432   -0.10202256095019296   -0.0014325264279490227
-0.02120046306489218   -0.13583465417715138   -0.0024896783948118472
-0.003802233804258224   -0.13560127254839036   -0.0018086821553764
-0.022860103186349432   -0.10202256095019296   -0.0014325264279490227
-0.004435072646410036   -0.10216054250502414   -0.0008278215259215289
-0.004206789774001978   -0.10254441046049939   -0.0008963941450155122
-0.003802233804258224   -0.13560127254839036   -0.0018086821553764
-0.022860103186349432   -0.10202256095019296   -0.0014325264279490227
-0.004206789774001978   -0.10254441046049939   -0.0008963941450155122
-0.02120046306489218   -0.13583465417715138   -0.0024896783948118472
-0.003802233804258224   -0.13560127254839036   -0.0018086821553764
-0.004435072646410036   -0.10216054250502414   -0.0008278215259215289
-0.021386622647358418   -0.13550109536458776   -0.0024174874175951883
-0.00398788507656482   -0.13525482391036314   -0.001798722405198946
-0.004435072646410036   -0.10216054250502414   -0.0008278215259215289
-0.022860103186349432   -0.10202256095019296   -0.0014325264279490227
-0.021386622647358418   -0.13550109536458776   -0.0024174874175951883
-0.02309729398981349   -0.10171621462504439   -0.001311686714235574
-0.00398788507656482   -0.13525482391036314   -0.001798722405198946
-0.021576469655842086   -0.13521160881878946   -0.002323763445452861
-0.02309729398981349   -0.10171621462504439   -0.001311686714235574
-0.021386622647358418   -0.13550109536458776   -0.0024174874175951883
-0.00398788507656482   -0.13525482391036314   -0.001798722405198946
-0.02309729398981349   -0.10171621462504439   -0.001311686714235574
-0.004696189382229393   -0.10179704083106401   -0.0007405640111234321
-0.004435072646410036   -0.10216054250502414   -0.0008278215259215289
-0.00398788507656482   -0.13525482391036314   -0.001798722405198946
-0.02309729398981349   -0.10171621462504439   -0.001311686714235574
-0.004435072646410036   -0.10216054250502414   -0.0008278215259215289
-0.021386622647358418   -0.13550109536458776   -0.0024174874175951883
-0.00398788507656482   -0.13525482391036314   -0.001798722405198946
-0.004696189382229393   -0.10179704083106401   -0.0007405640111234321
-0.021576469655842086   -0.13521160881878946   -0.002323763445452861
-0.0042174693946770885   -0.13495366617930252   -0.0017672531341171843
-0.004696189382229393   -0.10179704083106401   -0.0007405640111234321
-0.02309729398981349   -0.10171621462504439   -0.001311686714235574
-0.021576469655842086   -0.13521160881878946   -0.002323763445452861
-0.023349421491554233   -0.10143031337716095   -0.0011728585316566611
-0.0042174693946770885   -0.13495366617930252   -0.0017672531341171843
-0.021782231622784105   -0.1349688605432523   -0.00220949004706612
-0.023349421491554233   -0.10143031337716095   -0.0011728585316566611
-0.021576469655842086   -0.13521160881878946   -0.002323763445452861
-0.0042174693946770885   -0.13495366617930252   -0.0017672531341171843
-0.023349421491554233   -0.10143031337716095   -0.0011728585316566611
-0.004988682716004805   -0.10144899198580047   -0.0006299272451978064
-0.004696189382229393   -0.10179704083106401   -0.0007405640111234321
-0.0042174693946770885   -0.13495366617930252   -0.0017672531341171843
-0.023349421491554233   -0.10143031337716095   -0.0011728585316566611
-0.004696189382229393   -0.10179704083106401   -0.0007405640111234321
-0.021576469655842086   -0.13521160881878946   -0.002323763445452861
-0.02120046306489218   -0.13583465417715138   -0.0024896783948118472
-0.02262801510357027   -0.10234474268248704   -0.0015356034611509807
-0.038468675582882486   -0.13552486236625072   -0.0030746281069052705
-0.021386622647358418   -0.13550109536458776   -0.0024174874175951883
-0.02262801510357027   -0.10234474268248704   -0.0015356034611509807
-0.04075116032101286   -0.10210671103087181   -0.0020799555543262477
-0.038468675582882486   -0.13552486236625072   -0.0030746281069052705
-0.04098126090758868   -0.10184186279482021   -0.0019422770223693332
-0.021386622647358418   -0.13550109536458776   -0.0024174874175951883
-0.03866003757355372   -0.13525325757192805   -0.002919583977714782
-0.04098126090758868   -0.10184186279482021   -0.0019422770223693332
-0.038468675582882486   -0.13552486236625072   -0.0030746281069052705
-0.021386622647358418   -0.13550109536458776   -0.0024174874175951883
-0.04098126090758868   -0.10184186279482021   -0.0019422770223693332
-0.022860103186349432   -0.10202256095019296   -0.0014325264279490227
-0.02262801510357027   -0.10234474268248704   -0.0015356034611509807
-0.021386622647358418   -0.13550109536458776   -0.0024174874175951883
-0.04098126090758868   -0.10184186279482021   -0.0019422770223693332
-0.02262801510357027   -0.10234474268248704   -0.0015356034611509807
-0.038468675582882486   -0.13552486236625072   -0.0030746281069052705
-0.021386622647358418   -0.13550109536458776   -0.0024174874175951883
-0.022860103186349432   -0.10202256095019296   -0.0014325264279490227
-0.03866003757355372   -0.13525325757192805   -0.002919583977714782
-0.021576469655842086   -0.13521160881878946   -0.002323763445452861
-0.022860103186349432   -0.10202256095019296   -0.0014325264279490227
-0.04098126090758868   -0.10184186279482021   -0.0019422770223693332
-0.03866003757355372   -0.13525325757192805   -0.002919583977714782
-0.041196561525606544   -0.10159380485635533   -0.0017874452048678843
-0.021576469655842086   -0.13521160881878946   -0.002323763445452861
-0.03883377571763649   -0.13502541270805865   -0.0027435003532347447
-0.041196561525606544   -0.10159380485635533   -0.0017874452048678843
-0.03866003757355372   -0.13525325757192805   -0.002919583977714782
-0.021576469655842086   -0.13521160881878946   -0.002323763445452861
-0.041196561525606544   -0.10159380485635533   -0.0017874452048678843
-0.02309729398981349   -0.10171621462504439   -0.001311686714235574
-0.022860103186349432   -0.10202256095019296   -0.0014325264279490227
-0.021576469655842086   -0.13521160881878946   -0.002323763445452861
-0.041196561525606544   -0.10159380485635533   -0.0017874452048678843
-0.022860103186349432   -0.10202256095019296   -0.0014325264279490227
-0.03866003757355372   -0.13525325757192805   -0.002919583977714782
-0.021576469655842086   -0.13521160881878946   -0.002323763445452861
-0.02309729398981349   -0.10171621462504439   -0.001311686714235574
-0.03883377571763649   -0.13502541270805865   -0.0027435003532347447
-0.021782231622784105   -0.1349688605432523   -0.00220949004706612
-0.02309729398981349   -0.10171621462504439   -0.001311686714235574
-0.041196561525606544   -0.10159380485635533   -0.0017874452048678843
-0.03883377571763649   -0.13502541270805865   -0.0027435003532347447
-0.04141262938520935   -0.10136324529112241   -0.0016163197972561942
-0.021782231622784105   -0.1349688605432523   -0.00220949004706612
-0.03900914246824566   -0.1348417316283857   -0.002547189425082969
-0.04141262938520935   -0.10136324529112241   -0.0016163197972561942
-0.03883377571763649   -0.13502541270805865   -0.0027435003532347447
-0.021782231622784105   -0.1349688605432523   -0.00220949004706612
-0.04141262938520935   -0.10136324529112241   -0.0016163197972561942
-0.023349421491554233   -0.10143031337716095   -0.0011728585316566611
-0.02309729398981349   -0.10171621462504439   -0.001311686714235574
-0.021782231622784105   -0.1349688605432523   -0.00220949004706612
-0.04141262938520935   -0.10136324529112241   -0.0016163197972561942
-0.02309729398981349   -0.10171621462504439   -0.001311686714235574
-0.03883377571763649   -0.13502541270805865   -0.0027435003532347447
-0.038468675582882486   -0.13552486236625072   -0.0030746281069052705
-0.04075116032101286   -0.10210671103087181   -0.0020799555543262477
-0.056078288662637775   -0.13506584207122796   -0.003553949447443914
-0.03866003757355372   -0.13525325757192805   -0.002919583977714782
-0.04075116032101286   -0.10210671103087181   -0.0020799555543262477
-0.059200693330334224   -0.10178582930152262   -0.0025248216982852595
-0.056078288662637775   -0.13506584207122796   -0.003553949447443914
-0.05942116431961385   -0.10158132130909452   -0.0023529463888454275
-0.03866003757355372   -0.13525325757192805   -0.002919583977714782
-0.056256239934863235   -0.13485679396777192   -0.0033154328484978172
-0.05942116431961385   -0.10158132130909452   -0.0023529463888454275
-0.056078288662637775   -0.13506584207122796   -0.003553949447443914
-0.03866003757355372   -0.13525325757192805   -0.002919583977714782
-0.05942116431961385   -0.10158132130909452   -0.0023529463888454275
-0.04098126090758868   -0.10184186279482021   -0.0019422770223693332
-0.04075116032101286   -0.10210671103087181   -0.0020799555543262477
-0.03866003757355372   -0.13525325757192805   -0.002919583977714782
-0.05942116431961385   -0.10158132130909452   -0.0023529463888454275
-0.04075116032101286   -0.10210671103087181   -0.0020799555543262477
-0.056078288662637775   -0.13506584207122796   -0.003553949447443914
-0.03866003757355372   -0.13525325757192805   -0.002919583977714782
-0.04098126090758868   -0.10184186279482021   -0.0019422770223693332
-0.056256239934863235   -0.13485679396777192   -0.0033154328484978172
-0.03883377571763649   -0.13502541270805865   -0.0027435003532347447
-0.04098126090758868   -0.10184186279482021   -0.0019422770223693332
-0.05942116431961385   -0.10158132130909452   -0.0023529463888454275
-0.056256239934863235   -0.13485679396777192   -0.0033154328484978172
-0.05958902010301121   -0.10138685758113604   -0.0021667960313679034
-0.03883377571763649   -0.13502541270805865   -0.0027435003532347447
-0.05636506471762433   -0.13468571172834745   -0.0030587380854453076
-0.05958902010301121   -0.10138685758113604   -0.0021667960313679034
-0.056256239934863235   -0.13485679396777192   -0.0033154328484978172
-0.03883377571763649   -0.13502541270805865   -0.0027435003532347447
-0.05958902010301121   -0.10138685758113604   -0.0021667960313679034
-0.041196561525606544   -0.10159380485635533   -0.0017874452048678843
-0.04098126090758868   -0.10184186279482021   -0.0019422770223693332
-0.03883377571763649   -0.13502541270805865   -0.0027435003532347447
-0.05958902010301121   -0.10138685758113604   -0.0021667960313679034
-0.04098126090758868   -0.10184186279482021   -0.0019422770223693332
-0.056256239934863235   -0.13485679396777192   -0.0033154328484978172
-0.03883377571763649   -0.13502541270805865   -0.0027435003532347447
-0.041196561525606544   -0.10159380485635533   -0.0017874452048678843
-0.05636506471762433   -0.13468571172834745   -0.0030587380854453076
-0.03900914246824566   -0.1348417316283857   -0.002547189425082969
-0.041196561525606544   -0.10159380485635533   -0.0017874452048678843
-0.05958902010301121   -0.10138685758113604   -0.0021667960313679034
-0.05636506471762433   -0.13468571172834745   -0.0030587380854453076
-0.05975539865212874   -0.10121080227220956   -0.0019626046672418457
-0.03900914246824566   -0.1348417316283857   -0.002547189425082969
-0.05648405680944441   -0.13456257239034738   -0.0027800958846471
-0.05975539865212874   -0.10121080227220956   -0.0019626046672418457
-0.05636506471762433   -0.13468571172834745   -0.0030587380854453076
-0.03900914246824566   -0.1348417316283857   -0.002547189425082969
-0.05975539865212874   -0.10121080227220956   -0.0019626046672418457
-0.04141262938520935   -0.10136324529112241   -0.0016163197972561942
-0.041196561525606544   -0.10159380485635533   -0.0017874452048678843
-0.03900914246824566   -0.1348417316283857   -0.002547189425082969
-0.05975539865212874   -0.10121080227220956   -0.0019626046672418457
-0.041196561525606544   -0.10159380485635533   -0.0017874452048678843
-0.05636506471762433   -0.13468571172834745   -0.0030587380854453076
-0.056078288662637775   -0.13506584207122796   -0.003553949447443914
-0.059200693330334224   -0.10178582930152262   -0.0025248216982852595
-0.07497295326594515   -0.13450294516159564   -0.003935974374622235
-0.056256239934863235   -0.13485679396777192   -0.0033154328484978172
-0.059200693330334224   -0.10178582930152262   -0.0025248216982852595
-0.07874765573658163   -0.10140830326705613   -0.002856950133144435
-0.07497295326594515   -0.13450294516159564   -0.003935974374622235
-0.07878548361801302   -0.1012439712920911   -0.0026683706225357913
-0.056256239934863235   -0.13485679396777192   -0.0033154328484978172
-0.07484852828275008   -0.1343261514739327   -0.003619320103946038
-0.07878548361801302   -0.1012439712920911   -0.0026683706225357913
-0.07497295326594515   -0.13450294516159564   -0.003935974374622235
-0.056256239934863235   -0.13485679396777192   -0.0033154328484978172
-0.07878548361801302   -0.1012439712920911   -0.0026683706225357913
-0.05942116431961385   -0.10158132130909452   -0.0023529463888454275
-0.059200693330334224   -0.10178582930152262   -0.0025248216982852595
-0.056256239934863235   -0.13485679396777192   -0.0033154328484978172
-0.07878548361801302   -0.1012439712920911   -0.0026683706225357913
-0.059200693330334224   -0.10178582930152262   -0.0025248216982852595
-0.07497295326594515   -0.13450294516159564   -0.003935974374622235
-0.056256239934863235   -0.13485679396777192   -0.0033154328484978172
-0.05942116431961385   -0.10158132130909452   -0.0023529463888454275
-0.07484852828275008   -0.1343261514739327   -0.003619320103946038
-0.05636506471762433   -0.13468571172834745   -0.0030587380854453076
-0.05942116431961385   -0.10158132130909452   -0.0023529463888454275
-0.07878548361801302   -0.1012439712920911   -0.0026683706225357913
-0.07484852828275008   -0.1343261514739327   -0.003619320103946038
-0.07882366993803969   -0.10107701651566056   -0.002450995524573986
-0.05636506471762433   -0.13468571172834745   -0.0030587380854453076
-0.07474720895650906   -0.13418178839070202   -0.003269313741384624
-0.07882366993803969   -0.10107701651566056   -0.002450995524573986
-0.07484852828275008   -0.1343261514739327   -0.003619320103946038
-0.05636506471762433   -0.13468571172834745   -0.0030587380854453076
-0.07882366993803969   -0.10107701651566056   -0.002450995524573986
-0.05958902010301121   -0.10138685758113604   -0.0021667960313679034
-0.05942116431961385   -0.10158132130909452   -0.0023529463888454275
-0.05636506471762433   -0.13468571172834745   -0.0030587380854453076
-0.07882366993803969   -0.10107701651566056   -0.002450995524573986
-0.05942116431961385   -0.10158132130909452   -0.0023529463888454275
-0.07484852828275008   -0.1343261514739327   -0.003619320103946038
-0.05636506471762433   -0.13468571172834745   -0.0030587380854453076
-0.05958902010301121   -0.10138685758113604   -0.0021667960313679034
-0.07474720895650906   -0.13418178839070202   -0.003269313741384624
-0.05648405680944441   -0.13456257239034738   -0.0027800958846471
-0.05958902010301121   -0.10138685758113604   -0.0021667960313679034
-0.07882366993803969   -0.10107701651566056   -0.002450995524573986
-0.07474720895650906   -0.13418178839070202   -0.003269313741384624
-0.07875306287260261   -0.10096372142884927   -0.0022082717494859676
-0.05648405680944441   -0.13456257239034738   -0.0027800958846471
-0.07449851225390977   -0.13413094774370396   -0.0028897663758219137
-0.07875306287260261   -0.10096372142884927   -0.0022082717494859676
-0.07474720895650906   -0.13418178839070202   -0.003269313741384624
-0.05648405680944441   -0.13456257239034738   -0.0027800958846471
-0.07875306287260261   -0.10096372142884927   -0.0022082717494859676
-0.05975539865212874   -0.10121080227220956   -0.0019626046672418457
-0.05958902010301121   -0.10138685758113604   -0.0021667960313679034
-0.05648405680944441   -0.13456257239034738   -0.0027800958846471
-0.07875306287260261   -0.10096372142884927   -0.0022082717494859676
-0.05958902010301121   -0.10138685758113604   -0.0021667960313679034
-0.07474720895650906   -0.13418178839070202   -0.003269313741384624
0.015233240497921574   -0.10271835978825548   -0.00014408599308344362
0.01362250969502094   -0.06848070622173892   0.00042055018614404647
-0.004206789774001978   -0.10254441046049939   -0.0008963941450155122
0.01498797184425923   -0.10227936794245682   -0.00012708165990570254
0.01362250969502094   -0.06848070622173892   0.00042055018614404647
-0.0059397023939267105   -0.06815527439967126   -0.00018026783150998425
-0.004206789774001978   -0.10254441046049939   -0.0008963941450155122
-0.006211116082114392   -0.06780698984295358   -3.909118001338934e-05
0.01498797184425923   -0.10227936794245682   -0.00012708165990570254
-0.004435072646410036   -0.10216054250502414   -0.0008278215259215289
-0.006211116082114392   -0.06780698984295358   -3.909118001338934e-05
-0.004206789774001978   -0.10254441046049939   -0.0008963941450155122
0.01498797184425923   -0.10227936794245682   -0.00012708165990570254
-0.006211116082114392   -0.06780698984295358   -3.909118001338934e-05
0.013192902710353166   -0.0680618611867547   0.0005980711636917317
0.01362250969502094   -0.06848070622173892   0.00042055018614404647
0.01498797184425923   -0.10227936794245682   -0.00012708165990570254
-0.006211116082114392   -0.06780698984295358   -3.909118001338934e-05
0.01362250969502094   -0.06848070622173892   0.00042055018614404647
-0.004206789774001978   -0.10254441046049939   -0.0008963941450155122
0.01498797184425923   -0.10227936794245682   -0.00012708165990570254
0.013192902710353166   -0.0680618611867547   0.0005980711636917317
-0.004435072646410036   -0.10216054250502414   -0.0008278215259215289
0.014689254567035483   -0.10188528728389921   -7.18451298896407e-05
0.013192902710353166   -0.0680618611867547   0.0005980711636917317
-0.006211116082114392   -0.06780698984295358   -3.909118001338934e-05
-0.004435072646410036   -0.10216054250502414   -0.0008278215259215289
-0.006528267539688664   -0.0674389474199656   0.00012692104278656468
0.014689254567035483   -0.10188528728389921   -7.18451298896407e-05
-0.004696189382229393   -0.10179704083106401   -0.0007405640111234321
-0.006528267539688664   -0.0674389474199656   0.00012692104278656468
-0.004435072646410036   -0.10216054250502414   -0.0008278215259215289
0.014689254567035483   -0.10188528728389921   -7.18451298896407e-05
-0.006528267539688664   -0.0674389474199656   0.00012692104278656468
0.01271523103185916   -0.06764479499007334   0.0008514147322665657
0.013192902710353166   -0.0680618611867547   0.0005980711636917317
0.014689254567035483   -0.10188528728389921   -7.18451298896407e-05
-0.006528267539688664   -0.0674389474199656   0.00012692104278656468
0.013192902710353166   -0.0680618611867547   0.0005980711636917317
-0.004435072646410036   -0.10216054250502414   -0.0008278215259215289
0.014689254567035483   -0.10188528728389921   -7.18451298896407e-05
0.01271523103185916   -0.06764479499007334   0.0008514147322665657
-0.004696189382229393   -0.10179704083106401   -0.0007405640111234321
0.014296106564855474   -0.10147215389282858   1.9876854235610444e-05
0.01271523103185916   -0.06764479499007334   0.0008514147322665657
-0.006528267539688664   -0.0674389474199656   0.00012692104278656468
-0.004696189382229393   -0.10179704083106401   -0.0007405640111234321
-0.006855903834928087   -0.06704775069334316   0.0003173805910971322
0.014296106564855474   -0.10147215389282858   1.9876854235610444e-05
-0.004988682716004805   -0.10144899198580047   -0.0006299272451978064
-0.006855903834928087   -0.06704775069334316   0.0003173805910971322
-0.004696189382229393   -0.10179704083106401   -0.0007405640111234321
0.014296106564855474   -0.10147215389282858   1.9876854235610444e-05
-0.006855903834928087   -0.06704775069334316   0.0003173805910971322
0.012131755523332375   -0.06713288402804297   0.0011299017377779717
0.01271523103185916   -0.06764479499007334   0.0008514147322665657
0.014296106564855474   -0.10147215389282858   1.9876854235610444e-05
-0.006855903834928087   -0.06704775069334316   0.0003173805910971322
0.01271523103185916   -0.06764479499007334   0.0008514147322665657
-0.004696189382229393   -0.10179704083106401   -0.0007405640111234321
-0.004206789774001978   -0.10254441046049939   -0.0008963941450155122
-0.0059397023939267105   -0.06815527439967126   -0.00018026783150998425
-0.02262801510357027   -0.10234474268248704   -0.0015356034611509807
-0.004435072646410036   -0.10216054250502414   -0.0008278215259215289
-0.0059397023939267105   -0.06815527439967126   -0.00018026783150998425
-0.02436708305964985   -0.06807119842979109   -0.0007606889843810477
-0.02262801510357027   -0.10234474268248704   -0.0015356034611509807
-0.024611731593667533   -0.06776622355477256   -0.0006302129296395634
-0.004435072646410036   -0.10216054250502414   -0.0008278215259215289
-0.022860103186349432   -0.10202256095019296   -0.0014325264279490227
-0.024611731593667533   -0.06776622355477256   -0.0006302129296395634
-0.02262801510357027   -0.10234474268248704   -0.0015356034611509807
-0.004435072646410036   -0.10216054250502414   -0.0008278215259215289
-0.024611731593667533   -0.06776622355477256   -0.0006302129296395634
-0.006211116082114392   -0.06780698984295358   -3.909118001338934e-05
-0.0059397023939267105   -0.06815527439967126   -0.00018026783150998425
-0.004435072646410036   -0.10216054250502414   -0.0008278215259215289
-0.024611731593667533   -0.06776622355477256   -0.0006302129296395634
-0.0059397023939267105   -0.06815527439967126   -0.00018026783150998425
-0.02262801510357027   -0.10234474268248704   -0.0015356034611509807
-0.004435072646410036   -0.10216054250502414   -0.0008278215259215289
-0.006211116082114392   -0.06780698984295358   -3.909118001338934e-05
-0.022860103186349432   -0.10202256095019296   -0.0014325264279490227
-0.004696189382229393   -0.10179704083106401   -0.0007405640111234321
-0.006211116082114392   -0.06780698984295358   -3.909118001338934e-05
-0.024611731593667533   -0.06776622355477256   -0.0006302129296395634
-0.022860103186349432   -0.10202256095019296   -0.0014325264279490227
-0.024864635842454602   -0.06744881402080033   -0.00048696077598976874
-0.004696189382229393   -0.10179704083106401   -0.0007405640111234321
-0.02309729398981349   -0.10171621462504439   -0.001311686714235574
-0.024864635842454602   -0.06744881402080033   -0.00048696077598976874
-0.022860103186349432   -0.10202256095019296   -0.0014325264279490227
-0.004696189382229393   -0.10179704083106401   -0.0007405640111234321
-0.024864635842454602   -0.06744881402080033   -0.00048696077598976874
-0.006528267539688664   -0.0674389474199656   0.00012692104278656468
-0.006211116082114392   -0.06780698984295358   -3.909118001338934e-05
-0.004696189382229393   -0.10179704083106401   -0.0007405640111234321
-0.024864635842454602   -0.06744881402080033   -0.00048696077598976874
-0.006211116082114392   -0.06780698984295358   -3.909118001338934e-05
-0.022860103186349432   -0.10202256095019296   -0.0014325264279490227
-0.004696189382229393   -0.10179704083106401   -0.0007405640111234321
-0.006528267539688664   -0.0674389474199656   0.00012692104278656468
-0.02309729398981349   -0.10171621462504439   -0.001311686714235574
-0.004988682716004805   -0.10144899198580047   -0.0006299272451978064
-0.006528267539688664   -0.0674389474199656   0.00012692104278656468
-0.024864635842454602   -0.06744881402080033   -0.00048696077598976874
-0.02309729398981349   -0.10171621462504439   -0.001311686714235574
-0.02512775625740379   -0.06712440679997915   -0.00032834058344709943
-0.004988682716004805   -0.10144899198580047   -0.0006299272451978064
-0.023349421491554233   -0.10143031337716095   -0.0011728585316566611
-0.02512775625740379   -0.06712440679997915   -0.00032834058344709943
-0.02309729398981349   -0.10171621462504439   -0.001311686714235574
-0.004988682716004805   -0.10144899198580047   -0.0006299272451978064
-0.02512775625740379   -0.06712440679997915   -0.00032834058344709943
-0.006855903834928087   -0.06704775069334316   0.0003173805910971322
-0.006528267539688664   -0.0674389474199656   0.00012692104278656468
-0.004988682716004805   -0.10144899198580047   -0.0006299272451978064
-0.02512775625740379   -0.06712440679997915   -0.00032834058344709943
-0.006528267539688664   -0.0674389474199656   0.00012692104278656468
-0.02309729398981349   -0.10171621462504439   -0.001311686714235574
-0.02262801510357027   -0.10234474268248704   -0.0015356034611509807
-0.02436708305964985   -0.06807119842979109   -0.0007606889843810477
-0.04075116032101286   -0.10210671103087181   -0.0020799555543262477
-0.022860103186349432   -0.10202256095019296   -0.0014325264279490227
-0.02436708305964985   -0.06807119842979109   -0.0007606889843810477
-0.042609891908510306   -0.06804803273437908   -0.0012861405823786838
-0.04075116032101286   -0.10210671103087181   -0.0020799555543262477
-0.042843437259640134   -0.0677798970434488   -0.0011624205424056724
-0.022860103186349432   -0.10202256095019296   -0.0014325264279490227
-0.04098126090758868   -0.10184186279482021   -0.0019422770223693332
-0.042843437259640134   -0.0677798970434488   -0.0011624205424056724
-0.04075116032101286   -0.10210671103087181   -0.0020799555543262477
-0.022860103186349432   -0.10202256095019296   -0.0014325264279490227
-0.042843437259640134   -0.0677798970434488   -0.0011624205424056724
-0.024611731593667533   -0.06776622355477256   -0.0006302129296395634
-0.02436708305964985   -0.06807119842979109   -0.0007606889843810477
-0.022860103186349432   -0.10202256095019296   -0.0014325264279490227
-0.042843437259640134   -0.0677798970434488   -0.0011624205424056724
-0.02436708305964985   -0.06807119842979109   -0.0007606889843810477
-0.04075116032101286   -0.10210671103087181   -0.0020799555543262477
-0.022860103186349432   -0.10202256095019296   -0.0014325264279490227
-0.024611731593667533   -0.06776622355477256   -0.0006302129296395634
-0.04098126090758868   -0.10184186279482021   -0.0019422770223693332
-0.02309729398981349   -0.10171621462504439   -0.001311686714235574
-0.024611731593667533   -0.06776622355477256   -0.0006302129296395634
-0.042843437259640134   -0.0677798970434488   -0.0011624205424056724
-0.04098126090758868   -0.10184186279482021   -0.0019422770223693332
-0.0430658940450919   -0.06750662056068824   -0.001027557289051478
-0.02309729398981349   -0.10171621462504439   -0.001311686714235574
-0.041196561525606544   -0.10159380485635533   -0.0017874452048678843
-0.0430658940450919   -0.06750662056068824   -0.001027557289051478
-0.04098126090758868   -0.10184186279482021   -0.0019422770223693332
-0.02309729398981349   -0.10171621462504439   -0.001311686714235574
-0.0430658940450919   -0.06750662056068824   -0.001027557289051478
-0.024864635842454602   -0.06744881402080033   -0.00048696077598976874
-0.024611731593667533   -0.06776622355477256   -0.0006302129296395634
-0.02309729398981349   -0.10171621462504439   -0.001311686714235574
-0.0430658940450919   -0.06750662056068824   -0.001027557289051478
-0.024611731593667533   -0.06776622355477256   -0.0006302129296395634
-0.04098126090758868   -0.10184186279482021   -0.0019422770223693332
-0.02309729398981349   -0.10171621462504439   -0.001311686714235574
-0.024864635842454602   -0.06744881402080033   -0.00048696077598976874
-0.041196561525606544   -0.10159380485635533   -0.0017874452048678843
-0.023349421491554233   -0.10143031337716095   -0.0011728585316566611
-0.024864635842454602   -0.06744881402080033   -0.00048696077598976874
-0.0430658940450919   -0.06750662056068824   -0.001027557289051478
-0.041196561525606544   -0.10159380485635533   -0.0017874452048678843
-0.04328609410688683   -0.06722668988407302   -0.0008822092546754558
-0.023349421491554233   -0.10143031337716095   -0.0011728585316566611
-0.04141262938520935   -0.10136324529112241   -0.0016163197972561942
-0.04328609410688683   -0.06722668988407302   -0.0008822092546754558
-0.041196561525606544   -0.10159380485635533   -0.0017874452048678843
-0.023349421491554233   -0.10143031337716095   -0.0011728585316566611
-0.04328609410688683   -0.06722668988407302   -0.0008822092546754558
-0.02512775625740379   -0.06712440679997915   -0.00032834058344709943
-0.024864635842454602   -0.06744881402080033   -0.00048696077598976874
-0.023349421491554233   -0.10143031337716095   -0.0011728585316566611
-0.04328609410688683   -0.06722668988407302   -0.0008822092546754558
-0.024864635842454602   -0.06744881402080033   -0.00048696077598976874
-0.041196561525606544   -0.10159380485635533   -0.0017874452048678843
-0.04075116032101286   -0.10210671103087181   -0.0020799555543262477
-0.042609891908510306   -0.06804803273437908   -0.0012861405823786838
-0.059200693330334224   -0.10178582930152262   -0.0025248216982852595
-0.04098126090758868   -0.10184186279482021   -0.0019422770223693332
-0.042609891908510306   -0.06804803273437908   -0.0012861405823786838
-0.06123850385314506   -0.06794309974448866   -0.0017291171648299282
-0.059200693330334224   -0.10178582930152262   -0.0025248216982852595
-0.06146115985806586   -0.06772341160228565   -0.0016126822997757713
-0.04098126090758868   -0.10184186279482021   -0.0019422770223693332
-0.05942116431961385   -0.10158132130909452   -0.0023529463888454275
-0.06146115985806586   -0.06772341160228565   -0.0016126822997757713
-0.059200693330334224   -0.10178582930152262   -0.0025248216982852595
-0.04098126090758868   -0.10184186279482021   -0.0019422770223693332
-0.06146115985806586   -0.06772341160228565   -0.0016126822997757713
-0.042843437259640134   -0.0677798970434488   -0.0011624205424056724
-0.042609891908510306   -0.06804803273437908   -0.0012861405823786838
-0.04098126090758868   -0.10184186279482021   -0.0019422770223693332
-0.06146115985806586   -0.06772341160228565   -0.0016126822997757713
-0.042609891908510306   -0.06804803273437908   -0.0012861405823786838
-0.059200693330334224   -0.10178582930152262   -0.0025248216982852595
-0.04098126090758868   -0.10184186279482021   -0.0019422770223693332
-0.042843437259640134   -0.0677798970434488   -0.0011624205424056724
-0.05942116431961385   -0.10158132130909452   -0.0023529463888454275
-0.041196561525606544   -0.10159380485635533   -0.0017874452048678843
-0.042843437259640134   -0.0677798970434488   -0.0011624205424056724
-0.06146115985806586   -0.06772341160228565   -0.0016126822997757713
-0.05942116431961385   -0.10158132130909452   -0.0023529463888454275
-0.06165019367387773   -0.06749157036857067   -0.0014884180903813429
-0.041196561525606544   -0.10159380485635533   -0.0017874452048678843
-0.05958902010301121   -0.10138685758113604   -0.0021667960313679034
-0.06165019367387773   -0.06749157036857067   -0.0014884180903813429
-0.05942116431961385   -0.10158132130909452   -0.0023529463888454275
-0.041196561525606544   -0.10159380485635533   -0.0017874452048678843
-0.06165019367387773   -0.06749157036857067   -0.0014884180903813429
-0.0430658940450919   -0.06750662056068824   -0.001027557289051478
-0.042843437259640134   -0.0677798970434488   -0.0011624205424056724
-0.041196561525606544   -0.10159380485635533   -0.0017874452048678843
-0.06165019367387773   -0.06749157036857067   -0.0014884180903813429
-0.042843437259640134   -0.0677798970434488   -0.0011624205424056724
-0.05942116431961385   -0.10158132130909452   -0.0023529463888454275
-0.041196561525606544   -0.10159380485635533   -0.0017874452048678843
-0.0430658940450919   -0.06750662056068824   -0.001027557289051478
-0.05958902010301121   -0.10138685758113604   -0.0021667960313679034
-0.04141262938520935   -0.10136324529112241   -0.0016163197972561942
-0.0430658940450919   -0.06750662056068824   -0.001027557289051478
-0.06165019367387773   -0.06749157036857067   -0.0014884180903813429
-0.05958902010301121   -0.10138685758113604   -0.0021667960313679034
-0.061828879983173136   -0.06725337666572719   -0.0013528346779993958
-0.04141262938520935   -0.10136324529112241   -0.0016163197972561942
-0.05975539865212874   -0.10121080227220956   -0.0019626046672418457
-0.061828879983173136   -0.06725337666572719   -0.0013528346779993958
-0.05958902010301121   -0.10138685758113604   -0.0021667960313679034
-0.04141262938520935   -0.10136324529112241   -0.0016163197972561942
-0.061828879983173136   -0.06725337666572719   -0.0013528346779993958
-0.04328609410688683   -0.06722668988407302   -0.0008822092546754558
-0.0430658940450919   -0.06750662056068824   -0.001027557289051478
-0.04141262938520935   -0.10136324529112241   -0.0016163197972561942
-0.061828879983173136   -0.06725337666572719   -0.0013528346779993958
-0.0430658940450919   -0.06750662056068824   -0.001027557289051478
-0.05958902010301121   -0.10138685758113604   -0.0021667960313679034
-0.059200693330334224   -0.10178582930152262   -0.0025248216982852595
-0.06123850385314506   -0.06794309974448866   -0.0017291171648299282
-0.07874765573658163   -0.10140830326705613   -0.002856950133144435
-0.05942116431961385   -0.10158132130909452   -0.0023529463888454275
-0.06123850385314506   -0.06794309974448866   -0.0017291171648299282
-0.08074388460772507   -0.06777131173745844   -0.0020594618085775706
-0.07874765573658163   -0.10140830326705613   -0.002856950133144435
-0.08088428182856439   -0.06758576286101642   -0.0019733378397789234
-0.05942116431961385   -0.10158132130909452   -0.0023529463888454275
-0.07878548361801302   -0.1012439712920911   -0.0026683706225357913
-0.08088428182856439   -0.06758576286101642   -0.0019733378397789234
-0.07874765573658163   -0.10140830326705613   -0.002856950133144435
-0.05942116431961385   -0.10158132130909452   -0.0023529463888454275
-0.08088428182856439   -0.06758576286101642   -0.0019733378397789234
-0.06146115985806586   -0.06772341160228565   -0.0016126822997757713
-0.06123850385314506   -0.06794309974448866   -0.0017291171648299282
-0.05942116431961385   -0.10158132130909452   -0.0023529463888454275
-0.08088428182856439   -0.06758576286101642   -0.0019733378397789234
-0.06123850385314506   -0.06794309974448866   -0.0017291171648299282
-0.07874765573658163   -0.10140830326705613   -0.002856950133144435
-0.05942116431961385   -0.10158132130909452   -0.0023529463888454275
-0.06146115985806586   -0.06772341160228565   -0.0016126822997757713
-0.07878548361801302   -0.1012439712920911   -0.0026683706225357913
-0.05958902010301121   -0.10138685758113604   -0.0021667960313679034
-0.06146115985806586   -0.06772341160228565   -0.0016126822997757713
-0.08088428182856439   -0.06758576286101642   -0.0019733378397789234
-0.07878548361801302   -0.1012439712920911   -0.0026683706225357913
-0.08101265756719095   -0.06737628145903762   -0.0018678363165019387
-0.05958902010301121   -0.10138685758113604   -0.0021667960313679034
-0.07882366993803969   -0.10107701651566056   -0.002450995524573986
-0.08101265756719095   -0.06737628145903762   -0.0018678363165019387
-0.07878548361801302   -0.1012439712920911   -0.0026683706225357913
-0.05958902010301121   -0.10138685758113604   -0.0021667960313679034
-0.08101265756719095   -0.06737628145903762   -0.0018678363165019387
-0.06165019367387773   -0.06749157036857067   -0.0014884180903813429
-0.06146115985806586   -0.06772341160228565   -0.0016126822997757713
-0.05958902010301121   -0.10138685758113604   -0.0021667960313679034
-0.08101265756719095   -0.06737628145903762   -0.0018678363165019387
-0.06146115985806586   -0.06772341160228565   -0.0016126822997757713
-0.07878548361801302   -0.1012439712920911   -0.0026683706225357913
-0.05958902010301121   -0.10138685758113604   -0.0021667960313679034
-0.06165019367387773   -0.06749157036857067   -0.0014884180903813429
-0.07882366993803969   -0.10107701651566056   -0.002450995524573986
-0.05975539865212874   -0.10121080227220956   -0.0019626046672418457
-0.06165019367387773   -0.06749157036857067   -0.0014884180903813429
-0.08101265756719095   -0.06737628145903762   -0.0018678363165019387
-0.07882366993803969   -0.10107701651566056   -0.002450995524573986
-0.08107713545208757   -0.06718263086840548   -0.0017478965770330594
-0.05975539865212874   -0.10121080227220956   -0.0019626046672418457
-0.07875306287260261   -0.10096372142884927   -0.0022082717494859676
-0.08107713545208757   -0.06718263086840548   -0.0017478965770330594
-0.07882366993803969   -0.10107701651566056   -0.002450995524573986
-0.05975539865212874   -0.10121080227220956   -0.0019626046672418457
-0.08107713545208757   -0.06718263086840548   -0.0017478965770330594
-0.061828879983173136   -0.06725337666572719   -0.0013528346779993958
-0.06165019367387773   -0.06749157036857067   -0.0014884180903813429
-0.05975539865212874   -0.10121080227220956   -0.0019626046672418457
-0.08107713545208757   -0.06718263086840548   -0.0017478965770330594
-0.06165019367387773   -0.06749157036857067   -0.0014884180903813429
-0.07882366993803969   -0.10107701651566056   -0.002450995524573986
0.01362250969502094   -0.06848070622173892   0.00042055018614404647
0.009523798640405971   -0.03435046713206202   0.0004494070470692744
-0.0059397023939267105   -0.06815527439967126   -0.00018026783150998425
0.013192902710353166   -0.0680618611867547   0.0005980711636917317
0.009523798640405971   -0.03435046713206202   0.0004494070470692744
-0.00869300594311855   -0.03389883066749774   0.00021830028415368598
-0.0059397023939267105   -0.06815527439967126   -0.00018026783150998425
-0.00896213870771168   -0.03371985020831431   0.00041314173286097677
0.013192902710353166   -0.0680618611867547   0.0005980711636917317
-0.006211116082114392   -0.06780698984295358   -3.909118001338934e-05
-0.00896213870771168   -0.03371985020831431   0.00041314173286097677
-0.0059397023939267105   -0.06815527439967126   -0.00018026783150998425
0.013192902710353166   -0.0680618611867547   0.0005980711636917317
-0.00896213870771168   -0.03371985020831431   0.00041314173286097677
0.008685905487413902   -0.03390698528946401   0.0009329924885291952
0.009523798640405971   -0.03435046713206202   0.0004494070470692744
0.013192902710353166   -0.0680618611867547   0.0005980711636917317
-0.00896213870771168   -0.03371985020831431   0.00041314173286097677
0.009523798640405971   -0.03435046713206202   0.0004494070470692744
-0.0059397023939267105   -0.06815527439967126   -0.00018026783150998425
0.013192902710353166   -0.0680618611867547   0.0005980711636917317
0.008685905487413902   -0.03390698528946401   0.0009329924885291952
-0.006211116082114392   -0.06780698984295358   -3.909118001338934e-05
0.01271523103185916   -0.06764479499007334   0.0008514147322665657
0.008685905487413902   -0.03390698528946401   0.0009329924885291952
-0.00896213870771168   -0.03371985020831431   0.00041314173286097677
-0.006211116082114392   -0.06780698984295358   -3.909118001338934e-05
-0.009314368201575527   -0.03340610391505681   0.0006493089824288161
0.01271523103185916   -0.06764479499007334   0.0008514147322665657
-0.006528267539688664   -0.0674389474199656   0.00012692104278656468
-0.009314368201575527   -0.03340610391505681   0.0006493089824288161
-0.006211116082114392   -0.06780698984295358   -3.909118001338934e-05
0.01271523103185916   -0.06764479499007334   0.0008514147322665657
-0.009314368201575527   -0.03340610391505681   0.0006493089824288161
0.008194592649718191   -0.03354186999614775   0.0012946986955605184
0.008685905487413902   -0.03390698528946401   0.0009329924885291952
0.01271523103185916   -0.06764479499007334   0.0008514147322665657
-0.009314368201575527   -0.03340610391505681   0.0006493089824288161
0.008685905487413902   -0.03390698528946401   0.0009329924885291952
-0.006211116082114392   -0.06780698984295358   -3.909118001338934e-05
0.01271523103185916   -0.06764479499007334   0.0008514147322665657
0.008194592649718191   -0.03354186999614775   0.0012946986955605184
-0.006528267539688664   -0.0674389474199656   0.00012692104278656468
0.012131755523332375   -0.06713288402804297   0.0011299017377779717
0.008194592649718191   -0.03354186999614775   0.0012946986955605184
-0.009314368201575527   -0.03340610391505681   0.0006493089824288161
-0.006528267539688664   -0.0674389474199656   0.00012692104278656468
-0.009609850312359617   -0.03306785761875906   0.0008572936086306022
0.012131755523332375   -0.06713288402804297   0.0011299017377779717
-0.006855903834928087   -0.06704775069334316   0.0003173805910971322
-0.009609850312359617   -0.03306785761875906   0.0008572936086306022
-0.006528267539688664   -0.0674389474199656   0.00012692104278656468
0.012131755523332375   -0.06713288402804297   0.0011299017377779717
-0.009609850312359617   -0.03306785761875906   0.0008572936086306022
0.007566022746200899   -0.032986046292833866   0.001708479598001834
0.008194592649718191   -0.03354186999614775   0.0012946986955605184
0.012131755523332375   -0.06713288402804297   0.0011299017377779717
-0.009609850312359617   -0.03306785761875906   0.0008572936086306022
0.008194592649718191   -0.03354186999614775   0.0012946986955605184
-0.006528267539688664   -0.0674389474199656   0.00012692104278656468
-0.0059397023939267105   -0.06815527439967126   -0.00018026783150998425
-0.00869300594311855   -0.03389883066749774   0.00021830028415368598
-0.02436708305964985   -0.06807119842979109   -0.0007606889843810477
-0.006211116082114392   -0.06780698984295358   -3.909118001338934e-05
-0.00869300594311855   -0.03389883066749774   0.00021830028415368598
-0.02604985131088492   -0.034395402915076874   -0.00024685155031535
-0.02436708305964985   -0.06807119842979109   -0.0007606889843810477
-0.026296352186972172   -0.03412522915119202   -0.00010937173476934184
-0.006211116082114392   -0.06780698984295358   -3.909118001338934e-05
-0.024611731593667533   -0.06776622355477256   -0.0006302129296395634
-0.026296352186972172   -0.03412522915119202   -0.00010937173476934184
-0.02436708305964985   -0.06807119842979109   -0.0007606889843810477
-0.006211116082114392   -0.06780698984295358   -3.909118001338934e-05
-0.026296352186972172   -0.03412522915119202   -0.00010937173476934184
-0.00896213870771168   -0.03371985020831431   0.00041314173286097677
-0.00869300594311855   -0.03389883066749774   0.00021830028415368598
-0.006211116082114392   -0.06780698984295358   -3.909118001338934e-05
-0.026296352186972172   -0.03412522915119202   -0.00010937173476934184
-0.00869300594311855   -0.03389883066749774   0.00021830028415368598
-0.02436708305964985   -0.06807119842979109   -0.0007606889843810477
-0.006211116082114392   -0.06780698984295358   -3.909118001338934e-05
-0.00896213870771168   -0.03371985020831431   0.00041314173286097677
-0.024611731593667533   -0.06776622355477256   -0.0006302129296395634
-0.006528267539688664   -0.0674389474199656   0.00012692104278656468
-0.00896213870771168   -0.03371985020831431   0.00041314173286097677
-0.026296352186972172   -0.03412522915119202   -0.00010937173476934184
-0.024611731593667533   -0.06776622355477256   -0.0006302129296395634
-0.026553659434206907   -0.033821087295488335   3.576726930049644e-05
-0.006528267539688664   -0.0674389474199656   0.00012692104278656468
-0.024864635842454602   -0.06744881402080033   -0.00048696077598976874
-0.026553659434206907   -0.033821087295488335   3.576726930049644e-05
-0.024611731593667533   -0.06776622355477256   -0.0006302129296395634
-0.006528267539688664   -0.0674389474199656   0.00012692104278656468
-0.026553659434206907   -0.033821087295488335   3.576726930049644e-05
-0.009314368201575527   -0.03340610391505681   0.0006493089824288161
-0.00896213870771168   -0.03371985020831431   0.00041314173286097677
-0.006528267539688664   -0.0674389474199656   0.00012692104278656468
-0.026553659434206907   -0.033821087295488335   3.576726930049644e-05
-0.00896213870771168   -0.03371985020831431   0.00041314173286097677
-0.024611731593667533   -0.06776622355477256   -0.0006302129296395634
-0.006528267539688664   -0.0674389474199656   0.00012692104278656468
-0.009314368201575527   -0.03340610391505681   0.0006493089824288161
-0.024864635842454602   -0.06744881402080033   -0.00048696077598976874
-0.006855903834928087   -0.06704775069334316   0.0003173805910971322
-0.009314368201575527   -0.03340610391505681   0.0006493089824288161
-0.026553659434206907   -0.033821087295488335   3.576726930049644e-05
-0.024864635842454602   -0.06744881402080033   -0.00048696077598976874
-0.02679763659227308   -0.03348775873383325   0.00019561990707558471
-0.006855903834928087   -0.06704775069334316   0.0003173805910971322
-0.02512775625740379   -0.06712440679997915   -0.00032834058344709943
-0.02679763659227308   -0.03348775873383325   0.00019561990707558471
-0.024864635842454602   -0.06744881402080033   -0.00048696077598976874
-0.006855903834928087   -0.06704775069334316   0.0003173805910971322
-0.02679763659227308   -0.03348775873383325   0.00019561990707558471
-0.009609850312359617   -0.03306785761875906   0.0008572936086306022
-0.009314368201575527   -0.03340610391505681   0.0006493089824288161
-0.006855903834928087   -0.06704775069334316   0.0003173805910971322
-0.02679763659227308   -0.03348775873383325   0.00019561990707558471
-0.009314368201575527   -0.03340610391505681   0.0006493089824288161
-0.024864635842454602   -0.06744881402080033   -0.00048696077598976874
-0.02436708305964985   -0.06807119842979109   -0.0007606889843810477
-0.02604985131088492   -0.034395402915076874   -0.00024685155031535
-0.042609891908510306   -0.06804803273437908   -0.0012861405823786838
-0.024611731593667533   -0.06776622355477256   -0.0006302129296395634
-0.02604985131088492   -0.034395402915076874   -0.00024685155031535
-0.04384047632107389   -0.03478318812822956   -0.000760102383172093
-0.042609891908510306   -0.06804803273437908   -0.0012861405823786838
-0.044061293299983054   -0.03450607379622984   -0.0006540168617323354
-0.024611731593667533   -0.06776622355477256   -0.0006302129296395634
-0.042843437259640134   -0.0677798970434488   -0.0011624205424056724
-0.044061293299983054   -0.03450607379622984   -0.0006540168617323354
-0.042609891908510306   -0.06804803273437908   -0.0012861405823786838
-0.024611731593667533   -0.06776622355477256   -0.0006302129296395634
-0.044061293299983054   -0.03450607379622984   -0.0006540168617323354
-0.026296352186972172   -0.03412522915119202   -0.00010937173476934184
-0.02604985131088492   -0.034395402915076874   -0.00024685155031535
-0.024611731593667533   -0.06776622355477256   -0.0006302129296395634
-0.044061293299983054   -0.03450607379622984   -0.0006540168617323354
-0.02604985131088492   -0.034395402915076874   -0.00024685155031535
-0.042609891908510306   -0.06804803273437908   -0.0012861405823786838
-0.024611731593667533   -0.06776622355477256   -0.0006302129296395634
-0.026296352186972172   -0.03412522915119202   -0.00010937173476934184
-0.042843437259640134   -0.0677798970434488   -0.0011624205424056724
-0.024864635842454602   -0.06744881402080033   -0.00048696077598976874
-0.026296352186972172   -0.03412522915119202   -0.00010937173476934184
-0.044061293299983054   -0.03450607379622984   -0.0006540168617323354
-0.042843437259640134   -0.0677798970434488   -0.0011624205424056724
-0.04427224779492244   -0.034213797906364043   -0.0005485348736372719
-0.024864635842454602   -0.06744881402080033   -0.00048696077598976874
-0.0430658940450919   -0.06750662056068824   -0.001027557289051478
-0.04427224779492244   -0.034213797906364043   -0.0005485348736372719
-0.042843437259640134   -0.0677798970434488   -0.0011624205424056724
-0.024864635842454602   -0.06744881402080033   -0.00048696077598976874
-0.04427224779492244   -0.034213797906364043   -0.0005485348736372719
-0.026553659434206907   -0.033821087295488335   3.576726930049644e-05
-0.026296352186972172   -0.03412522915119202   -0.00010937173476934184
-0.024864635842454602   -0.06744881402080033   -0.00048696077598976874
-0.04427224779492244   -0.034213797906364043   -0.0005485348736372719
-0.026296352186972172   -0.03412522915119202   -0.00010937173476934184
-0.042843437259640134   -0.0677798970434488   -0.0011624205424056724
-0.024864635842454602   -0.06744881402080033   -0.00048696077598976874
-0.026553659434206907   -0.033821087295488335   3.576726930049644e-05
-0.0430658940450919   -0.06750662056068824   -0.001027557289051478
-0.02512775625740379   -0.06712440679997915   -0.00032834058344709943
-0.026553659434206907   -0.033821087295488335   3.576726930049644e-05
-0.04427224779492244   -0.034213797906364043   -0.0005485348736372719
-0.0430658940450919   -0.06750662056068824   -0.001027557289051478
-0.04446636063821804   -0.03389766688408401   -0.00043397093779010826
-0.02512775625740379   -0.06712440679997915   -0.00032834058344709943
-0.04328609410688683   -0.06722668988407302   -0.0008822092546754558
-0.04446636063821804   -0.03389766688408401   -0.00043397093779010826
-0.0430658940450919   -0.06750662056068824   -0.001027557289051478
-0.02512775625740379   -0.06712440679997915   -0.00032834058344709943
-0.04446636063821804   -0.03389766688408401   -0.00043397093779010826
-0.02679763659227308   -0.03348775873383325   0.00019561990707558471
-0.026553659434206907   -0.033821087295488335   3.576726930049644e-05
-0.02512775625740379   -0.06712440679997915   -0.00032834058344709943
-0.04446636063821804   -0.03389766688408401   -0.00043397093779010826
-0.026553659434206907   -0.033821087295488335   3.576726930049644e-05
-0.0430658940450919   -0.06750662056068824   -0.001027557289051478
-0.042609891908510306   -0.06804803273437908   -0.0012861405823786838
-0.04384047632107389   -0.03478318812822956   -0.000760102383172093
-0.06123850385314506   -0.06794309974448866   -0.0017291171648299282
-0.042843437259640134   -0.0677798970434488   -0.0011624205424056724
-0.04384047632107389   -0.03478318812822956   -0.000760102383172093
-0.062255771035274875   -0.03494186024328578   -0.0012344730915977418
-0.06123850385314506   -0.06794309974448866   -0.0017291171648299282
-0.06245458185100595   -0.03469223517839052   -0.0011575169832891159
-0.042843437259640134   -0.0677798970434488   -0.0011624205424056724
-0.06146115985806586   -0.06772341160228565   -0.0016126822997757713
-0.06245458185100595   -0.03469223517839052   -0.0011575169832891159
-0.06123850385314506   -0.06794309974448866   -0.0017291171648299282
-0.042843437259640134   -0.0677798970434488   -0.0011624205424056724
-0.06245458185100595   -0.03469223517839052   -0.0011575169832891159
-0.044061293299983054   -0.03450607379622984   -0.0006540168617323354
-0.04384047632107389   -0.03478318812822956   -0.000760102383172093
-0.042843437259640134   -0.0677798970434488   -0.0011624205424056724
-0.06245458185100595   -0.03469223517839052   -0.0011575169832891159
-0.04384047632107389   -0.03478318812822956   -0.000760102383172093
-0.06123850385314506   -0.06794309974448866   -0.0017291171648299282
-0.042843437259640134   -0.0677798970434488   -0.0011624205424056724
-0.044061293299983054   -0.03450607379622984   -0.0006540168617323354
-0.06146115985806586   -0.06772341160228565   -0.0016126822997757713
-0.0430658940450919   -0.06750662056068824   -0.001027557289051478
-0.044061293299983054   -0.03450607379622984   -0.0006540168617323354
-0.06245458185100595   -0.03469223517839052   -0.0011575169832891159
-0.06146115985806586   -0.06772341160228565   -0.0016126822997757713
-0.06263171807811041   -0.034420910247283144   -0.0010829944251059182
-0.0430658940450919   -0.06750662056068824   -0.001027557289051478
-0.06165019367387773   -0.06749157036857067   -0.0014884180903813429
-0.06263171807811041   -0.034420910247283144   -0.0010829944251059182
-0.06146115985806586   -0.06772341160228565   -0.0016126822997757713
-0.0430658940450919   -0.06750662056068824   -0.001027557289051478
-0.06263171807811041   -0.034420910247283144   -0.0010829944251059182
-0.04427224779492244   -0.034213797906364043   -0.0005485348736372719
-0.044061293299983054   -0.03450607379622984   -0.0006540168617323354
-0.0430658940450919   -0.06750662056068824   -0.001027557289051478
-0.06263171807811041   -0.034420910247283144   -0.0010829944251059182
-0.044061293299983054   -0.03450607379622984   -0.0006540168617323354
-0.06146115985806586   -0.06772341160228565   -0.0016126822997757713
-0.0430658940450919   -0.06750662056068824   -0.001027557289051478
-0.04427224779492244   -0.034213797906364043   -0.0005485348736372719
-0.06165019367387773   -0.06749157036857067   -0.0014884180903813429
-0.04328609410688683   -0.06722668988407302   -0.0008822092546754558
-0.04427224779492244   -0.034213797906364043   -0.0005485348736372719
-0.06263171807811041   -0.034420910247283144   -0.0010829944251059182
-0.06165019367387773   -0.06749157036857067   -0.0014884180903813429
-0.06279201830579148   -0.03413236223451445   -0.0010065391934745505
-0.04328609410688683   -0.06722668988407302   -0.0008822092546754558
-0.061828879983173136   -0.06725337666572719   -0.0013528346779993958
-0.06279201830579148   -0.03413236223451445   -0.0010065391934745505
-0.06165019367387773   -0.06749157036857067   -0.0014884180903813429
-0.04328609410688683   -0.06722668988407302   -0.0008822092546754558
-0.06279201830579148   -0.03413236223451445   -0.0010065391934745505
-0.04446636063821804   -0.03389766688408401   -0.00043397093779010826
-0.04427224779492244   -0.034213797906364043   -0.0005485348736372719
-0.04328609410688683   -0.06722668988407302   -0.0008822092546754558
-0.06279201830579148   -0.03413236223451445   -0.0010065391934745505
-0.04427224779492244   -0.034213797906364043   -0.0005485348736372719
-0.06165019367387773   -0.06749157036857067   -0.0014884180903813429
-0.06123850385314506   -0.06794309974448866   -0.0017291171648299282
-0.062255771035274875   -0.03494186024328578   -0.0012344730915977418
-0.08074388460772507   -0.06777131173745844   -0.0020594618085775706
-0.06146115985806586   -0.06772341160228565   -0.0016126822997757713
-0.062255771035274875   -0.03494186024328578   -0.0012344730915977418
-0.08131870385850479   -0.03496034724897153   -0.0016301481527921005
-0.08074388460772507   -0.06777131173745844   -0.0020594618085775706
-0.0814901836403307   -0.034717704448024696   -0.0015978429902428824
-0.06146115985806586   -0.06772341160228565   -0.0016126822997757713
-0.08088428182856439   -0.06758576286101642   -0.0019733378397789234
-0.0814901836403307   -0.034717704448024696   -0.0015978429902428824
-0.08074388460772507   -0.06777131173745844   -0.0020594618085775706
-0.06146115985806586   -0.06772341160228565   -0.0016126822997757713
-0.0814901836403307   -0.034717704448024696   -0.0015978429902428824
-0.06245458185100595   -0.03469223517839052   -0.0011575169832891159
-0.062255771035274875   -0.03494186024328578   -0.0012344730915977418
-0.06146115985806586   -0.06772341160228565   -0.0016126822997757713
-0.0814901836403307   -0.034717704448024696   -0.0015978429902428824
-0.062255771035274875   -0.03494186024328578   -0.0012344730915977418
-0.08074388460772507   -0.06777131173745844   -0.0020594618085775706
-0.06146115985806586   -0.06772341160228565   -0.0016126822997757713
-0.06245458185100595   -0.03469223517839052   -0.0011575169832891159
-0.08088428182856439   -0.06758576286101642   -0.0019733378397789234
-0.06165019367387773   -0.06749157036857067   -0.0014884180903813429
-0.06245458185100595   -0.03469223517839052   -0.0011575169832891159
-0.0814901836403307   -0.034717704448024696   -0.0015978429902428824
-0.08088428182856439   -0.06758576286101642   -0.0019733378397789234
-0.08164381367602143   -0.03445593338082199   -0.0015601963725021667
-0.06165019367387773   -0.06749157036857067   -0.0014884180903813429
-0.08101265756719095   -0.06737628145903762   -0.0018678363165019387
-0.08164381367602143   -0.03445593338082199   -0.0015601963725021667
-0.08088428182856439   -0.06758576286101642   -0.0019733378397789234
-0.06165019367387773   -0.06749157036857067   -0.0014884180903813429
-0.08164381367602143   -0.03445593338082199   -0.0015601963725021667
-0.06263171807811041   -0.034420910247283144   -0.0010829944251059182
-0.06245458185100595   -0.03469223517839052   -0.0011575169832891159
-0.06165019367387773   -0.06749157036857067   -0.0014884180903813429
-0.08164381367602143   -0.03445593338082199   -0.0015601963725021667
-0.06245458185100595   -0.03469223517839052   -0.0011575169832891159
-0.08088428182856439   -0.06758576286101642   -0.0019733378397789234
-0.06165019367387773   -0.06749157036857067   -0.0014884180903813429
-0.06263171807811041   -0.034420910247283144   -0.0010829944251059182
-0.08101265756719095   -0.06737628145903762   -0.0018678363165019387
-0.061828879983173136   -0.06725337666572719   -0.0013528346779993958
-0.06263171807811041   -0.034420910247283144   -0.0010829944251059182
-0.08164381367602143   -0.03445593338082199   -0.0015601963725021667
-0.08101265756719095   -0.06737628145903762   -0.0018678363165019387
-0.08177385662547927   -0.03417863377399863   -0.0015256505344121683
-0.061828879983173136   -0.06725337666572719   -0.0013528346779993958
-0.08107713545208757   -0.06718263086840548   -0.0017478965770330594
-0.08177385662547927   -0.03417863377399863   -0.0015256505344121683
-0.08101265756719095   -0.06737628145903762   -0.0018678363165019387
-0.061828879983173136   -0.06725337666572719   -0.0013528346779993958
-0.08177385662547927   -0.03417863377399863   -0.0015256505344121683
-0.06279201830579148   -0.03413236223451445   -0.0010065391934745505
-0.06263171807811041   -0.034420910247283144   -0.0010829944251059182
-0.061828879983173136   -0.06725337666572719   -0.0013528346779993958
-0.08177385662547927   -0.03417863377399863   -0.0015256505344121683
-0.06263171807811041   -0.034420910247283144   -0.0010829944251059182
-0.08101265756719095   -0.06737628145903762   -0.0018678363165019387
0.009523798640405971   -0.03435046713206202   0.0004494070470692744
0.0   0.0   0.0
-0.00869300594311855   -0.03389883066749774   0.00021830028415368598
0.008685905487413902   -0.03390698528946401   0.0009329924885291952
0.0   0.0   0.0
-0.010942556818634938   -0.002724551965317392   -0.00010401786230243255
-0.00869300594311855   -0.03389883066749774   0.00021830028415368598
-0.011595279698793407   -0.002107423478107874   0.00026784904386905755
0.008685905487413902   -0.03390698528946401   0.0009329924885291952
-0.00896213870771168   -0.03371985020831431   0.00041314173286097677
-0.011595279698793407   -0.002107423478107874   0.00026784904386905755
-0.00869300594311855   -0.03389883066749774   0.00021830028415368598
0.008685905487413902   -0.03390698528946401   0.0009329924885291952
-0.011595279698793407   -0.002107423478107874   0.00026784904386905755
0.0   0.0   0.0
0.0   0.0   0.0
0.008685905487413902   -0.03390698528946401   0.0009329924885291952
-0.011595279698793407   -0.002107423478107874   0.00026784904386905755
0.0   0.0   0.0
-0.00869300594311855   -0.03389883066749774   0.00021830028415368598
0.008685905487413902   -0.03390698528946401   0.0009329924885291952
0.0   0.0   0.0
-0.00896213870771168   -0.03371985020831431   0.00041314173286097677
0.008194592649718191   -0.03354186999614775   0.0012946986955605184
0.0   0.0   0.0
-0.011595279698793407   -0.002107423478107874   0.00026784904386905755
-0.00896213870771168   -0.03371985020831431   0.00041314173286097677
-0.01200342216443749   -0.0018086918080106927   0.0004808426242996152
0.008194592649718191   -0.03354186999614775   0.0012946986955605184
-0.009314368201575527   -0.03340610391505681   0.0006493089824288161
-0.01200342216443749   -0.0018086918080106927   0.0004808426242996152
-0.00896213870771168   -0.03371985020831431   0.00041314173286097677
0.008194592649718191   -0.03354186999614775   0.0012946986955605184
-0.01200342216443749   -0.0018086918080106927   0.0004808426242996152
0.0   0.0   0.0
0.0   0.0   0.0
0.008194592649718191   -0.03354186999614775   0.0012946986955605184
-0.01200342216443749   -0.0018086918080106927   0.0004808426242996152
0.0   0.0   0.0
-0.00896213870771168   -0.03371985020831431   0.00041314173286097677
0.008194592649718191   -0.03354186999614775   0.0012946986955605184
0.0   0.0   0.0
-0.009314368201575527   -0.03340610391505681   0.0006493089824288161
0.007566022746200899   -0.032986046292833866   0.001708479598001834
0.0   0.0   0.0
-0.01200342216443749   -0.0018086918080106927   0.0004808426242996152
-0.009314368201575527   -0.03340610391505681   0.0006493089824288161
-0.012548007432643747   -0.001412853536265319   0.000725004095946893
0.007566022746200899   -0.032986046292833866   0.001708479598001834
-0.009609850312359617   -0.03306785761875906   0.0008572936086306022
-0.012548007432643747   -0.001412853536265319   0.000725004095946893
-0.009314368201575527   -0.03340610391505681   0.0006493089824288161
0.007566022746200899   -0.032986046292833866   0.001708479598001834
-0.012548007432643747   -0.001412853536265319   0.000725004095946893
0.0   0.0   0.0
0.0   0.0   0.0
0.007566022746200899   -0.032986046292833866   0.001708479598001834
-0.012548007432643747   -0.001412853536265319   0.000725004095946893
0.0   0.0   0.0
-0.009314368201575527   -0.03340610391505681   0.0006493089824288161
-0.00869300594311855   -0.03389883066749774   0.00021830028415368598
-0.010942556818634938   -0.002724551965317392   -0.00010401786230243255
-0.02604985131088492   -0.034395402915076874   -0.00024685155031535
-0.00896213870771168   -0.03371985020831431   0.00041314173286097677
-0.010942556818634938   -0.002724551965317392   -0.00010401786230243255
-0.026836565961831083   -0.003550442962069701   -0.00011541740555294894
-0.02604985131088492   -0.034395402915076874   -0.00024685155031535
-0.027170926591078504   -0.003210233746845898   -2.243111670857384e-05
-0.00896213870771168   -0.03371985020831431   0.00041314173286097677
-0.026296352186972172   -0.03412522915119202   -0.00010937173476934184
-0.027170926591078504   -0.003210233746845898   -2.243111670857384e-05
-0.02604985131088492   -0.034395402915076874   -0.00024685155031535
-0.00896213870771168   -0.03371985020831431   0.00041314173286097677
-0.027170926591078504   -0.003210233746845898   -2.243111670857384e-05
-0.011595279698793407   -0.002107423478107874   0.00026784904386905755
-0.010942556818634938   -0.002724551965317392   -0.00010401786230243255
-0.00896213870771168   -0.03371985020831431   0.00041314173286097677
-0.027170926591078504   -0.003210233746845898   -2.243111670857384e-05
-0.010942556818634938   -0.002724551965317392   -0.00010401786230243255
-0.02604985131088492   -0.034395402915076874   -0.00024685155031535
-0.00896213870771168   -0.03371985020831431   0.00041314173286097677
-0.011595279698793407   -0.002107423478107874   0.00026784904386905755
-0.026296352186972172   -0.03412522915119202   -0.00010937173476934184
-0.009314368201575527   -0.03340610391505681   0.0006493089824288161
-0.011595279698793407   -0.002107423478107874   0.00026784904386905755
-0.027170926591078504   -0.003210233746845898   -2.243111670857384e-05
-0.026296352186972172   -0.03412522915119202   -0.00010937173476934184
-0.027503180134974582   -0.0028129564300331507   0.00014590584221691916
-0.009314368201575527   -0.03340610391505681   0.0006493089824288161
-0.026553659434206907   -0.033821087295488335   3.576726930049644e-05
-0.027503180134974582   -0.0028129564300331507   0.00014590584221691916
-0.026296352186972172   -0.03412522915119202   -0.00010937173476934184
-0.009314368201575527   -0.03340610391505681   0.0006493089824288161
-0.027503180134974582   -0.0028129564300331507   0.00014590584221691916
-0.01200342216443749   -0.0018086918080106927   0.0004808426242996152
-0.011595279698793407   -0.002107423478107874   0.00026784904386905755
-0.009314368201575527   -0.03340610391505681   0.0006493089824288161
-0.027503180134974582   -0.0028129564300331507   0.00014590584221691916
-0.011595279698793407   -0.002107423478107874   0.00026784904386905755
-0.026296352186972172   -0.03412522915119202   -0.00010937173476934184
-0.009314368201575527   -0.03340610391505681   0.0006493089824288161
-0.01200342216443749   -0.0018086918080106927   0.0004808426242996152
-0.026553659434206907   -0.033821087295488335   3.576726930049644e-05
-0.009609850312359617   -0.03306785761875906   0.0008572936086306022
-0.01200342216443749   -0.0018086918080106927   0.0004808426242996152
-0.027503180134974582   -0.0028129564300331507   0.00014590584221691916
-0.026553659434206907   -0.033821087295488335   3.576726930049644e-05
-0.027868356544607533   -0.0023554223256078343   0.0003059796730557534
-0.009609850312359617   -0.03306785761875906   0.0008572936086306022
-0.02679763659227308   -0.03348775873383325   0.00019561990707558471
-0.027868356544607533   -0.0023554223256078343   0.0003059796730557534
-0.026553659434206907   -0.033821087295488335   3.576726930049644e-05
-0.009609850312359617   -0.03306785761875906   0.0008572936086306022
-0.027868356544607533   -0.0023554223256078343   0.0003059796730557534
-0.012548007432643747   -0.001412853536265319   0.000725004095946893
-0.01200342216443749   -0.0018086918080106927   0.0004808426242996152
-0.009609850312359617   -0.03306785761875906   0.0008572936086306022
-0.027868356544607533   -0.0023554223256078343   0.0003059796730557534
-0.01200342216443749   -0.0018086918080106927   0.0004808426242996152
-0.026553659434206907   -0.033821087295488335   3.576726930049644e-05
-0.02604985131088492   -0.034395402915076874   -0.00024685155031535
-0.026836565961831083   -0.003550442962069701   -0.00011541740555294894
-0.04384047632107389   -0.03478318812822956   -0.000760102383172093
-0.026296352186972172   -0.03412522915119202   -0.00010937173476934184
-0.026836565961831083   -0.003550442962069701   -0.00011541740555294894
-0.04427748426959842   -0.00377059874322422   -0.00044677918929743494
-0.04384047632107389   -0.03478318812822956   -0.000760102383172093
-0.04447913632082034   -0.0035018841886880984   -0.0004222059173015434
-0.026296352186972172   -0.03412522915119202   -0.00010937173476934184
-0.044061293299983054   -0.03450607379622984   -0.0006540168617323354
-0.04447913632082034   -0.0035018841886880984   -0.0004222059173015434
-0.04384047632107389   -0.03478318812822956   -0.000760102383172093
-0.026296352186972172   -0.03412522915119202   -0.00010937173476934184
-0.04447913632082034   -0.0035018841886880984   -0.0004222059173015434
-0.027170926591078504   -0.003210233746845898   -2.243111670857384e-05
-0.026836565961831083   -0.003550442962069701   -0.00011541740555294894
-0.026296352186972172   -0.03412522915119202   -0.00010937173476934184
-0.04447913632082034   -0.0035018841886880984   -0.0004222059173015434
-0.026836565961831083   -0.003550442962069701   -0.00011541740555294894
-0.04384047632107389   -0.03478318812822956   -0.000760102383172093
-0.026296352186972172   -0.03412522915119202   -0.00010937173476934184
-0.027170926591078504   -0.003210233746845898   -2.243111670857384e-05
-0.044061293299983054   -0.03450607379622984   -0.0006540168617323354
-0.026553659434206907   -0.033821087295488335   3.576726930049644e-05
-0.027170926591078504   -0.003210233746845898   -2.243111670857384e-05
-0.04447913632082034   -0.0035018841886880984   -0.0004222059173015434
-0.044061293299983054   -0.03450607379622984   -0.0006540168617323354
-0.04468859731725189   -0.003191705874303104   -0.0003784018824357324
-0.026553659434206907   -0.033821087295488335   3.576726930049644e-05
-0.04427224779492244   -0.034213797906364043   -0.0005485348736372719
-0.04468859731725189   -0.003191705874303104   -0.0003784018824357324
-0.044061293299983054   -0.03450607379622984   -0.0006540168617323354
-0.026553659434206907   -0.033821087295488335   3.576726930049644e-05
-0.04468859731725189   -0.003191705874303104   -0.0003784018824357324
-0.027503180134974582   -0.0028129564300331507   0.00014590584221691916
-0.027170926591078504   -0.003210233746845898   -2.243111670857384e-05
-0.026553659434206907   -0.033821087295488335   3.576726930049644e-05
-0.04468859731725189   -0.003191705874303104   -0.0003784018824357324
-0.027170926591078504   -0.003210233746845898   -2.243111670857384e-05
-0.044061293299983054   -0.03450607379622984   -0.0006540168617323354
-0.026553659434206907   -0.033821087295488335   3.576726930049644e-05
-0.027503180134974582   -0.0028129564300331507   0.00014590584221691916
-0.04427224779492244   -0.034213797906364043   -0.0005485348736372719
-0.02679763659227308   -0.03348775873383325   0.00019561990707558471
-0.027503180134974582   -0.0028129564300331507   0.00014590584221691916
-0.04468859731725189   -0.003191705874303104   -0.0003784018824357324
-0.04427224779492244   -0.034213797906364043   -0.0005485348736372719
-0.04488507203600439   -0.002817146746891894   -0.00032045148819639355
-0.02679763659227308   -0.03348775873383325   0.00019561990707558471
-0.04446636063821804   -0.03389766688408401   -0.00043397093779010826
-0.04488507203600439   -0.002817146746891894   -0.00032045148819639355
-0.04427224779492244   -0.034213797906364043   -0.0005485348736372719
-0.02679763659227308   -0.03348775873383325   0.00019561990707558471
-0.04488507203600439   -0.002817146746891894   -0.00032045148819639355
-0.027868356544607533   -0.0023554223256078343   0.0003059796730557534
-0.027503180134974582   -0.0028129564300331507   0.00014590584221691916
-0.02679763659227308   -0.03348775873383325   0.00019561990707558471
-0.04488507203600439   -0.002817146746891894   -0.00032045148819639355
-0.027503180134974582   -0.0028129564300331507   0.00014590584221691916
-0.04427224779492244   -0.034213797906364043   -0.0005485348736372719
-0.04384047632107389   -0.03478318812822956   -0.000760102383172093
-0.04427748426959842   -0.00377059874322422   -0.00044677918929743494
-0.062255771035274875   -0.03494186024328578   -0.0012344730915977418
-0.044061293299983054   -0.03450607379622984   -0.0006540168617323354
-0.04427748426959842   -0.00377059874322422   -0.00044677918929743494
-0.0625761010635061   -0.0037206309795976725   -0.0009145793028178399
-0.062255771035274875   -0.03494186024328578   -0.0012344730915977418
-0.06271198436020295   -0.003476604862411541   -0.0009042374712033471
-0.044061293299983054   -0.03450607379622984   -0.0006540168617323354
-0.06245458185100595   -0.03469223517839052   -0.0011575169832891159
-0.06271198436020295   -0.003476604862411541   -0.0009042374712033471
-0.062255771035274875   -0.03494186024328578   -0.0012344730915977418
-0.044061293299983054   -0.03450607379622984   -0.0006540168617323354
-0.06271198436020295   -0.003476604862411541   -0.0009042374712033471
-0.04447913632082034   -0.0035018841886880984   -0.0004222059173015434
-0.04427748426959842   -0.00377059874322422   -0.00044677918929743494
-0.044061293299983054   -0.03450607379622984   -0.0006540168617323354
-0.06271198436020295   -0.003476604862411541   -0.0009042374712033471
-0.04427748426959842   -0.00377059874322422   -0.00044677918929743494
-0.062255771035274875   -0.03494186024328578   -0.0012344730915977418
-0.044061293299983054   -0.03450607379622984   -0.0006540168617323354
-0.04447913632082034   -0.0035018841886880984   -0.0004222059173015434
-0.06245458185100595   -0.03469223517839052   -0.0011575169832891159
-0.04427224779492244   -0.034213797906364043   -0.0005485348736372719
-0.04447913632082034   -0.0035018841886880984   -0.0004222059173015434
-0.06271198436020295   -0.003476604862411541   -0.0009042374712033471
-0.06245458185100595   -0.03469223517839052   -0.0011575169832891159
-0.06285382462706132   -0.003206634433005188   -0.0008980422101833309
-0.04427224779492244   -0.034213797906364043   -0.0005485348736372719
-0.06263171807811041   -0.034420910247283144   -0.0010829944251059182
-0.06285382462706132   -0.003206634433005188   -0.0008980422101833309
-0.06245458185100595   -0.03469223517839052   -0.0011575169832891159
-0.04427224779492244   -0.034213797906364043   -0.0005485348736372719
-0.06285382462706132   -0.003206634433005188   -0.0008980422101833309
-0.04468859731725189   -0.003191705874303104   -0.0003784018824357324
-0.04447913632082034   -0.0035018841886880984   -0.0004222059173015434
-0.04427224779492244   -0.034213797906364043   -0.0005485348736372719
-0.06285382462706132   -0.003206634433005188   -0.0008980422101833309
-0.04447913632082034   -0.0035018841886880984   -0.0004222059173015434
-0.06245458185100595   -0.03469223517839052   -0.0011575169832891159
-0.04427224779492244   -0.034213797906364043   -0.0005485348736372719
-0.04468859731725189   -0.003191705874303104   -0.0003784018824357324
-0.06263171807811041   -0.034420910247283144   -0.0010829944251059182
-0.04446636063821804   -0.03389766688408401   -0.00043397093779010826
-0.04468859731725189   -0.003191705874303104   -0.0003784018824357324
-0.06285382462706132   -0.003206634433005188   -0.0008980422101833309
-0.06263171807811041   -0.034420910247283144   -0.0010829944251059182
-0.06295987456973197   -0.002915997432390815   -0.0008966917552584988
-0.04446636063821804   -0.03389766688408401   -0.00043397093779010826
-0.06279201830579148   -0.03413236223451445   -0.0010065391934745505
-0.06295987456973197   -0.002915997432390815   -0.0008966917552584988
-0.06263171807811041   -0.034420910247283144   -0.0010829944251059182
-0.04446636063821804   -0.03389766688408401   -0.00043397093779010826
-0.06295987456973197   -0.002915997432390815   -0.0008966917552584988
-0.04488507203600439   -0.002817146746891894   -0.00032045148819639355
-0.04468859731725189   -0.003191705874303104   -0.0003784018824357324
-0.04446636063821804   -0.03389766688408401   -0.00043397093779010826
-0.06295987456973197   -0.002915997432390815   -0.0008966917552584988
-0.04468859731725189   -0.003191705874303104   -0.0003784018824357324
-0.06263171807811041   -0.034420910247283144   -0.0010829944251059182
-0.062255771035274875   -0.03494186024328578   -0.0012344730915977418
-0.0625761010635061   -0.0037206309795976725   -0.0009145793028178399
-0.08131870385850479   -0.03496034724897153   -0.0016301481527921005
-0.06245458185100595   -0.03469223517839052   -0.0011575169832891159
-0.0625761010635061   -0.0037206309795976725   -0.0009145793028178399
-0.08137385809077817   -0.0036920415966819314   -0.0013742895555980534
-0.08131870385850479   -0.03496034724897153   -0.0016301481527921005
-0.08148338138693421   -0.0034267218502575325   -0.0013746260123500254
-0.06245458185100595   -0.03469223517839052   -0.0011575169832891159
-0.0814901836403307   -0.034717704448024696   -0.0015978429902428824
-0.08148338138693421   -0.0034267218502575325   -0.0013746260123500254
-0.08131870385850479   -0.03496034724897153   -0.0016301481527921005
-0.06245458185100595   -0.03469223517839052   -0.0011575169832891159
-0.08148338138693421   -0.0034267218502575325   -0.0013746260123500254
-0.06271198436020295   -0.003476604862411541   -0.0009042374712033471
-0.0625761010635061   -0.0037206309795976725   -0.0009145793028178399
-0.06245458185100595   -0.03469223517839052   -0.0011575169832891159
-0.08148338138693421   -0.0034267218502575325   -0.0013746260123500254
-0.0625761010635061   -0.0037206309795976725   -0.0009145793028178399
-0.08131870385850479   -0.03496034724897153   -0.0016301481527921005
-0.06245458185100595   -0.03469223517839052   -0.0011575169832891159
-0.06271198436020295   -0.003476604862411541   -0.0009042374712033471
-0.0814901836403307   -0.034717704448024696   -0.0015978429902428824
-0.06263171807811041   -0.034420910247283144   -0.0010829944251059182
-0.06271198436020295   -0.003476604862411541   -0.0009042374712033471
-0.08148338138693421   -0.0034267218502575325   -0.0013746260123500254
-0.0814901836403307   -0.034717704448024696   -0.0015978429902428824
-0.08160375618144225   -0.003162775451523457   -0.0013956065204439292
-0.06263171807811041   -0.034420910247283144   -0.0010829944251059182
-0.08164381367602143   -0.03445593338082199   -0.0015601963725021667
-0.08160375618144225   -0.003162775451523457   -0.0013956065204439292
-0.0814901836403307   -0.034717704448024696   -0.0015978429902428824
-0.06263171807811041   -0.034420910247283144   -0.0010829944251059182
-0.08160375618144225   -0.003162775451523457   -0.0013956065204439292
-0.06285382462706132   -0.003206634433005188   -0.0008980422101833309
-0.06271198436020295   -0.003476604862411541   -0.0009042374712033471
-0.06263171807811041   -0.034420910247283144   -0.0010829944251059182
-0.08160375618144225   -0.003162775451523457   -0.0013956065204439292
-0.06271198436020295   -0.003476604862411541   -0.0009042374712033471
-0.0814901836403307   -0.034717704448024696   -0.0015978429902428824
-0.06263171807811041   -0.034420910247283144   -0.0010829944251059182
-0.06285382462706132   -0.003206634433005188   -0.0008980422101833309
-0.08164381367602143   -0.03445593338082199   -0.0015601963725021667
-0.06279201830579148   -0.03413236223451445   -0.0010065391934745505
-0.06285382462706132   -0.003206634433005188   -0.0008980422101833309
-0.08160375618144225   -0.003162775451523457   -0.0013956065204439292
-0.08164381367602143   -0.03445593338082199   -0.0015601963725021667
-0.08169188900480842   -0.0028761895777276343   -0.001418175554905982
-0.06279201830579148   -0.03413236223451445   -0.0010065391934745505
-0.08177385662547927   -0.03417863377399863   -0.0015256505344121683
-0.08169188900480842   -0.0028761895777276343   -0.001418175554905982
-0.08164381367602143   -0.03445593338082199   -0.0015601963725021667
-0.06279201830579148   -0.03413236223451445   -0.0010065391934745505
-0.08169188900480842   -0.0028761895777276343   -0.001418175554905982
-0.06295987456973197   -0.002915997432390815   -0.0008966917552584988
-0.06285382462706132   -0.003206634433005188   -0.0008980422101833309
-0.06279201830579148   -0.03413236223451445   -0.0010065391934745505
-0.08169188900480842   -0.0028761895777276343   -0.001418175554905982
-0.06285382462706132   -0.003206634433005188   -0.0008980422101833309
-0.08164381367602143   -0.03445593338082199   -0.0015601963725021667
              </DataArray>   
          </PointData>  
       </Piece>  
   </UnstructuredGrid> 
</VTKFile> 
