<?xml version="1.0"?> 
<VTKFile type="UnstructuredGrid"> 
   <UnstructuredGrid> 
      <Piece NumberOfPoints="6000"  NumberOfCells="1500">  
          <Points>  
             <DataArray type="Float64" NumberOfComponents="3" format="ascii">   
-500.0   0.0   0.0
-450.0   0.0   0.0
-500.0   30.0   0.0
-500.0   0.0   16.666666666666668
-450.0   0.0   0.0
-450.0   30.0   0.0
-500.0   30.0   0.0
-450.0   30.0   16.666666666666668
-500.0   0.0   16.666666666666668
-500.0   30.0   16.666666666666668
-450.0   30.0   16.666666666666668
-500.0   30.0   0.0
-500.0   0.0   16.666666666666668
-450.0   30.0   16.666666666666668
-450.0   0.0   16.666666666666668
-450.0   0.0   0.0
-500.0   0.0   16.666666666666668
-450.0   30.0   16.666666666666668
-450.0   0.0   0.0
-500.0   30.0   0.0
-500.0   0.0   16.666666666666668
-450.0   0.0   16.666666666666668
-500.0   30.0   16.666666666666668
-500.0   0.0   33.333333333333336
-450.0   0.0   16.666666666666668
-450.0   30.0   16.666666666666668
-500.0   30.0   16.666666666666668
-450.0   30.0   33.333333333333336
-500.0   0.0   33.333333333333336
-500.0   30.0   33.333333333333336
-450.0   30.0   33.333333333333336
-500.0   30.0   16.666666666666668
-500.0   0.0   33.333333333333336
-450.0   30.0   33.333333333333336
-450.0   0.0   33.333333333333336
-450.0   0.0   16.666666666666668
-500.0   0.0   33.333333333333336
-450.0   30.0   33.333333333333336
-450.0   0.0   16.666666666666668
-500.0   30.0   16.666666666666668
-500.0   0.0   33.333333333333336
-450.0   0.0   33.333333333333336
-500.0   30.0   33.333333333333336
-500.0   0.0   50.0
-450.0   0.0   33.333333333333336
-450.0   30.0   33.333333333333336
-500.0   30.0   33.333333333333336
-450.0   30.0   50.0
-500.0   0.0   50.0
-500.0   30.0   50.0
-450.0   30.0   50.0
-500.0   30.0   33.333333333333336
-500.0   0.0   50.0
-450.0   30.0   50.0
-450.0   0.0   50.0
-450.0   0.0   33.333333333333336
-500.0   0.0   50.0
-450.0   30.0   50.0
-450.0   0.0   33.333333333333336
-500.0   30.0   33.333333333333336
-500.0   30.0   0.0
-450.0   30.0   0.0
-500.0   60.0   0.0
-500.0   30.0   16.666666666666668
-450.0   30.0   0.0
-450.0   60.0   0.0
-500.0   60.0   0.0
-450.0   60.0   16.666666666666668
-500.0   30.0   16.666666666666668
-500.0   60.0   16.666666666666668
-450.0   60.0   16.666666666666668
-500.0   60.0   0.0
-500.0   30.0   16.666666666666668
-450.0   60.0   16.666666666666668
-450.0   30.0   16.666666666666668
-450.0   30.0   0.0
-500.0   30.0   16.666666666666668
-450.0   60.0   16.666666666666668
-450.0   30.0   0.0
-500.0   60.0   0.0
-500.0   30.0   16.666666666666668
-450.0   30.0   16.666666666666668
-500.0   60.0   16.666666666666668
-500.0   30.0   33.333333333333336
-450.0   30.0   16.666666666666668
-450.0   60.0   16.666666666666668
-500.0   60.0   16.666666666666668
-450.0   60.0   33.333333333333336
-500.0   30.0   33.333333333333336
-500.0   60.0   33.333333333333336
-450.0   60.0   33.333333333333336
-500.0   60.0   16.666666666666668
-500.0   30.0   33.333333333333336
-450.0   60.0   33.333333333333336
-450.0   30.0   33.333333333333336
-450.0   30.0   16.666666666666668
-500.0   30.0   33.333333333333336
-450.0   60.0   33.333333333333336
-450.0   30.0   16.666666666666668
-500.0   60.0   16.666666666666668
-500.0   30.0   33.333333333333336
-450.0   30.0   33.333333333333336
-500.0   60.0   33.333333333333336
-500.0   30.0   50.0
-450.0   30.0   33.333333333333336
-450.0   60.0   33.333333333333336
-500.0   60.0   33.333333333333336
-450.0   60.0   50.0
-500.0   30.0   50.0
-500.0   60.0   50.0
-450.0   60.0   50.0
-500.0   60.0   33.333333333333336
-500.0   30.0   50.0
-450.0   60.0   50.0
-450.0   30.0   50.0
-450.0   30.0   33.333333333333336
-500.0   30.0   50.0
-450.0   60.0   50.0
-450.0   30.0   33.333333333333336
-500.0   60.0   33.333333333333336
-500.0   60.0   0.0
-450.0   60.0   0.0
-500.0   90.0   0.0
-500.0   60.0   16.666666666666668
-450.0   60.0   0.0
-450.0   90.0   0.0
-500.0   90.0   0.0
-450.0   90.0   16.666666666666668
-500.0   60.0   16.666666666666668
-500.0   90.0   16.666666666666668
-450.0   90.0   16.666666666666668
-500.0   90.0   0.0
-500.0   60.0   16.666666666666668
-450.0   90.0   16.666666666666668
-450.0   60.0   16.666666666666668
-450.0   60.0   0.0
-500.0   60.0   16.666666666666668
-450.0   90.0   16.666666666666668
-450.0   60.0   0.0
-500.0   90.0   0.0
-500.0   60.0   16.666666666666668
-450.0   60.0   16.666666666666668
-500.0   90.0   16.666666666666668
-500.0   60.0   33.333333333333336
-450.0   60.0   16.666666666666668
-450.0   90.0   16.666666666666668
-500.0   90.0   16.666666666666668
-450.0   90.0   33.333333333333336
-500.0   60.0   33.333333333333336
-500.0   90.0   33.333333333333336
-450.0   90.0   33.333333333333336
-500.0   90.0   16.666666666666668
-500.0   60.0   33.333333333333336
-450.0   90.0   33.333333333333336
-450.0   60.0   33.333333333333336
-450.0   60.0   16.666666666666668
-500.0   60.0   33.333333333333336
-450.0   90.0   33.333333333333336
-450.0   60.0   16.666666666666668
-500.0   90.0   16.666666666666668
-500.0   60.0   33.333333333333336
-450.0   60.0   33.333333333333336
-500.0   90.0   33.333333333333336
-500.0   60.0   50.0
-450.0   60.0   33.333333333333336
-450.0   90.0   33.333333333333336
-500.0   90.0   33.333333333333336
-450.0   90.0   50.0
-500.0   60.0   50.0
-500.0   90.0   50.0
-450.0   90.0   50.0
-500.0   90.0   33.333333333333336
-500.0   60.0   50.0
-450.0   90.0   50.0
-450.0   60.0   50.0
-450.0   60.0   33.333333333333336
-500.0   60.0   50.0
-450.0   90.0   50.0
-450.0   60.0   33.333333333333336
-500.0   90.0   33.333333333333336
-500.0   90.0   0.0
-450.0   90.0   0.0
-500.0   120.0   0.0
-500.0   90.0   16.666666666666668
-450.0   90.0   0.0
-450.0   120.0   0.0
-500.0   120.0   0.0
-450.0   120.0   16.666666666666668
-500.0   90.0   16.666666666666668
-500.0   120.0   16.666666666666668
-450.0   120.0   16.666666666666668
-500.0   120.0   0.0
-500.0   90.0   16.666666666666668
-450.0   120.0   16.666666666666668
-450.0   90.0   16.666666666666668
-450.0   90.0   0.0
-500.0   90.0   16.666666666666668
-450.0   120.0   16.666666666666668
-450.0   90.0   0.0
-500.0   120.0   0.0
-500.0   90.0   16.666666666666668
-450.0   90.0   16.666666666666668
-500.0   120.0   16.666666666666668
-500.0   90.0   33.333333333333336
-450.0   90.0   16.666666666666668
-450.0   120.0   16.666666666666668
-500.0   120.0   16.666666666666668
-450.0   120.0   33.333333333333336
-500.0   90.0   33.333333333333336
-500.0   120.0   33.333333333333336
-450.0   120.0   33.333333333333336
-500.0   120.0   16.666666666666668
-500.0   90.0   33.333333333333336
-450.0   120.0   33.333333333333336
-450.0   90.0   33.333333333333336
-450.0   90.0   16.666666666666668
-500.0   90.0   33.333333333333336
-450.0   120.0   33.333333333333336
-450.0   90.0   16.666666666666668
-500.0   120.0   16.666666666666668
-500.0   90.0   33.333333333333336
-450.0   90.0   33.333333333333336
-500.0   120.0   33.333333333333336
-500.0   90.0   50.0
-450.0   90.0   33.333333333333336
-450.0   120.0   33.333333333333336
-500.0   120.0   33.333333333333336
-450.0   120.0   50.0
-500.0   90.0   50.0
-500.0   120.0   50.0
-450.0   120.0   50.0
-500.0   120.0   33.333333333333336
-500.0   90.0   50.0
-450.0   120.0   50.0
-450.0   90.0   50.0
-450.0   90.0   33.333333333333336
-500.0   90.0   50.0
-450.0   120.0   50.0
-450.0   90.0   33.333333333333336
-500.0   120.0   33.333333333333336
-500.0   120.0   0.0
-450.0   120.0   0.0
-500.0   150.0   0.0
-500.0   120.0   16.666666666666668
-450.0   120.0   0.0
-450.0   150.0   0.0
-500.0   150.0   0.0
-450.0   150.0   16.666666666666668
-500.0   120.0   16.666666666666668
-500.0   150.0   16.666666666666668
-450.0   150.0   16.666666666666668
-500.0   150.0   0.0
-500.0   120.0   16.666666666666668
-450.0   150.0   16.666666666666668
-450.0   120.0   16.666666666666668
-450.0   120.0   0.0
-500.0   120.0   16.666666666666668
-450.0   150.0   16.666666666666668
-450.0   120.0   0.0
-500.0   150.0   0.0
-500.0   120.0   16.666666666666668
-450.0   120.0   16.666666666666668
-500.0   150.0   16.666666666666668
-500.0   120.0   33.333333333333336
-450.0   120.0   16.666666666666668
-450.0   150.0   16.666666666666668
-500.0   150.0   16.666666666666668
-450.0   150.0   33.333333333333336
-500.0   120.0   33.333333333333336
-500.0   150.0   33.333333333333336
-450.0   150.0   33.333333333333336
-500.0   150.0   16.666666666666668
-500.0   120.0   33.333333333333336
-450.0   150.0   33.333333333333336
-450.0   120.0   33.333333333333336
-450.0   120.0   16.666666666666668
-500.0   120.0   33.333333333333336
-450.0   150.0   33.333333333333336
-450.0   120.0   16.666666666666668
-500.0   150.0   16.666666666666668
-500.0   120.0   33.333333333333336
-450.0   120.0   33.333333333333336
-500.0   150.0   33.333333333333336
-500.0   120.0   50.0
-450.0   120.0   33.333333333333336
-450.0   150.0   33.333333333333336
-500.0   150.0   33.333333333333336
-450.0   150.0   50.0
-500.0   120.0   50.0
-500.0   150.0   50.0
-450.0   150.0   50.0
-500.0   150.0   33.333333333333336
-500.0   120.0   50.0
-450.0   150.0   50.0
-450.0   120.0   50.0
-450.0   120.0   33.333333333333336
-500.0   120.0   50.0
-450.0   150.0   50.0
-450.0   120.0   33.333333333333336
-500.0   150.0   33.333333333333336
-450.0   0.0   0.0
-400.0   0.0   0.0
-450.0   30.0   0.0
-450.0   0.0   16.666666666666668
-400.0   0.0   0.0
-400.0   30.0   0.0
-450.0   30.0   0.0
-400.0   30.0   16.666666666666668
-450.0   0.0   16.666666666666668
-450.0   30.0   16.666666666666668
-400.0   30.0   16.666666666666668
-450.0   30.0   0.0
-450.0   0.0   16.666666666666668
-400.0   30.0   16.666666666666668
-400.0   0.0   16.666666666666668
-400.0   0.0   0.0
-450.0   0.0   16.666666666666668
-400.0   30.0   16.666666666666668
-400.0   0.0   0.0
-450.0   30.0   0.0
-450.0   0.0   16.666666666666668
-400.0   0.0   16.666666666666668
-450.0   30.0   16.666666666666668
-450.0   0.0   33.333333333333336
-400.0   0.0   16.666666666666668
-400.0   30.0   16.666666666666668
-450.0   30.0   16.666666666666668
-400.0   30.0   33.333333333333336
-450.0   0.0   33.333333333333336
-450.0   30.0   33.333333333333336
-400.0   30.0   33.333333333333336
-450.0   30.0   16.666666666666668
-450.0   0.0   33.333333333333336
-400.0   30.0   33.333333333333336
-400.0   0.0   33.333333333333336
-400.0   0.0   16.666666666666668
-450.0   0.0   33.333333333333336
-400.0   30.0   33.333333333333336
-400.0   0.0   16.666666666666668
-450.0   30.0   16.666666666666668
-450.0   0.0   33.333333333333336
-400.0   0.0   33.333333333333336
-450.0   30.0   33.333333333333336
-450.0   0.0   50.0
-400.0   0.0   33.333333333333336
-400.0   30.0   33.333333333333336
-450.0   30.0   33.333333333333336
-400.0   30.0   50.0
-450.0   0.0   50.0
-450.0   30.0   50.0
-400.0   30.0   50.0
-450.0   30.0   33.333333333333336
-450.0   0.0   50.0
-400.0   30.0   50.0
-400.0   0.0   50.0
-400.0   0.0   33.333333333333336
-450.0   0.0   50.0
-400.0   30.0   50.0
-400.0   0.0   33.333333333333336
-450.0   30.0   33.333333333333336
-450.0   30.0   0.0
-400.0   30.0   0.0
-450.0   60.0   0.0
-450.0   30.0   16.666666666666668
-400.0   30.0   0.0
-400.0   60.0   0.0
-450.0   60.0   0.0
-400.0   60.0   16.666666666666668
-450.0   30.0   16.666666666666668
-450.0   60.0   16.666666666666668
-400.0   60.0   16.666666666666668
-450.0   60.0   0.0
-450.0   30.0   16.666666666666668
-400.0   60.0   16.666666666666668
-400.0   30.0   16.666666666666668
-400.0   30.0   0.0
-450.0   30.0   16.666666666666668
-400.0   60.0   16.666666666666668
-400.0   30.0   0.0
-450.0   60.0   0.0
-450.0   30.0   16.666666666666668
-400.0   30.0   16.666666666666668
-450.0   60.0   16.666666666666668
-450.0   30.0   33.333333333333336
-400.0   30.0   16.666666666666668
-400.0   60.0   16.666666666666668
-450.0   60.0   16.666666666666668
-400.0   60.0   33.333333333333336
-450.0   30.0   33.333333333333336
-450.0   60.0   33.333333333333336
-400.0   60.0   33.333333333333336
-450.0   60.0   16.666666666666668
-450.0   30.0   33.333333333333336
-400.0   60.0   33.333333333333336
-400.0   30.0   33.333333333333336
-400.0   30.0   16.666666666666668
-450.0   30.0   33.333333333333336
-400.0   60.0   33.333333333333336
-400.0   30.0   16.666666666666668
-450.0   60.0   16.666666666666668
-450.0   30.0   33.333333333333336
-400.0   30.0   33.333333333333336
-450.0   60.0   33.333333333333336
-450.0   30.0   50.0
-400.0   30.0   33.333333333333336
-400.0   60.0   33.333333333333336
-450.0   60.0   33.333333333333336
-400.0   60.0   50.0
-450.0   30.0   50.0
-450.0   60.0   50.0
-400.0   60.0   50.0
-450.0   60.0   33.333333333333336
-450.0   30.0   50.0
-400.0   60.0   50.0
-400.0   30.0   50.0
-400.0   30.0   33.333333333333336
-450.0   30.0   50.0
-400.0   60.0   50.0
-400.0   30.0   33.333333333333336
-450.0   60.0   33.333333333333336
-450.0   60.0   0.0
-400.0   60.0   0.0
-450.0   90.0   0.0
-450.0   60.0   16.666666666666668
-400.0   60.0   0.0
-400.0   90.0   0.0
-450.0   90.0   0.0
-400.0   90.0   16.666666666666668
-450.0   60.0   16.666666666666668
-450.0   90.0   16.666666666666668
-400.0   90.0   16.666666666666668
-450.0   90.0   0.0
-450.0   60.0   16.666666666666668
-400.0   90.0   16.666666666666668
-400.0   60.0   16.666666666666668
-400.0   60.0   0.0
-450.0   60.0   16.666666666666668
-400.0   90.0   16.666666666666668
-400.0   60.0   0.0
-450.0   90.0   0.0
-450.0   60.0   16.666666666666668
-400.0   60.0   16.666666666666668
-450.0   90.0   16.666666666666668
-450.0   60.0   33.333333333333336
-400.0   60.0   16.666666666666668
-400.0   90.0   16.666666666666668
-450.0   90.0   16.666666666666668
-400.0   90.0   33.333333333333336
-450.0   60.0   33.333333333333336
-450.0   90.0   33.333333333333336
-400.0   90.0   33.333333333333336
-450.0   90.0   16.666666666666668
-450.0   60.0   33.333333333333336
-400.0   90.0   33.333333333333336
-400.0   60.0   33.333333333333336
-400.0   60.0   16.666666666666668
-450.0   60.0   33.333333333333336
-400.0   90.0   33.333333333333336
-400.0   60.0   16.666666666666668
-450.0   90.0   16.666666666666668
-450.0   60.0   33.333333333333336
-400.0   60.0   33.333333333333336
-450.0   90.0   33.333333333333336
-450.0   60.0   50.0
-400.0   60.0   33.333333333333336
-400.0   90.0   33.333333333333336
-450.0   90.0   33.333333333333336
-400.0   90.0   50.0
-450.0   60.0   50.0
-450.0   90.0   50.0
-400.0   90.0   50.0
-450.0   90.0   33.333333333333336
-450.0   60.0   50.0
-400.0   90.0   50.0
-400.0   60.0   50.0
-400.0   60.0   33.333333333333336
-450.0   60.0   50.0
-400.0   90.0   50.0
-400.0   60.0   33.333333333333336
-450.0   90.0   33.333333333333336
-450.0   90.0   0.0
-400.0   90.0   0.0
-450.0   120.0   0.0
-450.0   90.0   16.666666666666668
-400.0   90.0   0.0
-400.0   120.0   0.0
-450.0   120.0   0.0
-400.0   120.0   16.666666666666668
-450.0   90.0   16.666666666666668
-450.0   120.0   16.666666666666668
-400.0   120.0   16.666666666666668
-450.0   120.0   0.0
-450.0   90.0   16.666666666666668
-400.0   120.0   16.666666666666668
-400.0   90.0   16.666666666666668
-400.0   90.0   0.0
-450.0   90.0   16.666666666666668
-400.0   120.0   16.666666666666668
-400.0   90.0   0.0
-450.0   120.0   0.0
-450.0   90.0   16.666666666666668
-400.0   90.0   16.666666666666668
-450.0   120.0   16.666666666666668
-450.0   90.0   33.333333333333336
-400.0   90.0   16.666666666666668
-400.0   120.0   16.666666666666668
-450.0   120.0   16.666666666666668
-400.0   120.0   33.333333333333336
-450.0   90.0   33.333333333333336
-450.0   120.0   33.333333333333336
-400.0   120.0   33.333333333333336
-450.0   120.0   16.666666666666668
-450.0   90.0   33.333333333333336
-400.0   120.0   33.333333333333336
-400.0   90.0   33.333333333333336
-400.0   90.0   16.666666666666668
-450.0   90.0   33.333333333333336
-400.0   120.0   33.333333333333336
-400.0   90.0   16.666666666666668
-450.0   120.0   16.666666666666668
-450.0   90.0   33.333333333333336
-400.0   90.0   33.333333333333336
-450.0   120.0   33.333333333333336
-450.0   90.0   50.0
-400.0   90.0   33.333333333333336
-400.0   120.0   33.333333333333336
-450.0   120.0   33.333333333333336
-400.0   120.0   50.0
-450.0   90.0   50.0
-450.0   120.0   50.0
-400.0   120.0   50.0
-450.0   120.0   33.333333333333336
-450.0   90.0   50.0
-400.0   120.0   50.0
-400.0   90.0   50.0
-400.0   90.0   33.333333333333336
-450.0   90.0   50.0
-400.0   120.0   50.0
-400.0   90.0   33.333333333333336
-450.0   120.0   33.333333333333336
-450.0   120.0   0.0
-400.0   120.0   0.0
-450.0   150.0   0.0
-450.0   120.0   16.666666666666668
-400.0   120.0   0.0
-400.0   150.0   0.0
-450.0   150.0   0.0
-400.0   150.0   16.666666666666668
-450.0   120.0   16.666666666666668
-450.0   150.0   16.666666666666668
-400.0   150.0   16.666666666666668
-450.0   150.0   0.0
-450.0   120.0   16.666666666666668
-400.0   150.0   16.666666666666668
-400.0   120.0   16.666666666666668
-400.0   120.0   0.0
-450.0   120.0   16.666666666666668
-400.0   150.0   16.666666666666668
-400.0   120.0   0.0
-450.0   150.0   0.0
-450.0   120.0   16.666666666666668
-400.0   120.0   16.666666666666668
-450.0   150.0   16.666666666666668
-450.0   120.0   33.333333333333336
-400.0   120.0   16.666666666666668
-400.0   150.0   16.666666666666668
-450.0   150.0   16.666666666666668
-400.0   150.0   33.333333333333336
-450.0   120.0   33.333333333333336
-450.0   150.0   33.333333333333336
-400.0   150.0   33.333333333333336
-450.0   150.0   16.666666666666668
-450.0   120.0   33.333333333333336
-400.0   150.0   33.333333333333336
-400.0   120.0   33.333333333333336
-400.0   120.0   16.666666666666668
-450.0   120.0   33.333333333333336
-400.0   150.0   33.333333333333336
-400.0   120.0   16.666666666666668
-450.0   150.0   16.666666666666668
-450.0   120.0   33.333333333333336
-400.0   120.0   33.333333333333336
-450.0   150.0   33.333333333333336
-450.0   120.0   50.0
-400.0   120.0   33.333333333333336
-400.0   150.0   33.333333333333336
-450.0   150.0   33.333333333333336
-400.0   150.0   50.0
-450.0   120.0   50.0
-450.0   150.0   50.0
-400.0   150.0   50.0
-450.0   150.0   33.333333333333336
-450.0   120.0   50.0
-400.0   150.0   50.0
-400.0   120.0   50.0
-400.0   120.0   33.333333333333336
-450.0   120.0   50.0
-400.0   150.0   50.0
-400.0   120.0   33.333333333333336
-450.0   150.0   33.333333333333336
-400.0   0.0   0.0
-350.0   0.0   0.0
-400.0   30.0   0.0
-400.0   0.0   16.666666666666668
-350.0   0.0   0.0
-350.0   30.0   0.0
-400.0   30.0   0.0
-350.0   30.0   16.666666666666668
-400.0   0.0   16.666666666666668
-400.0   30.0   16.666666666666668
-350.0   30.0   16.666666666666668
-400.0   30.0   0.0
-400.0   0.0   16.666666666666668
-350.0   30.0   16.666666666666668
-350.0   0.0   16.666666666666668
-350.0   0.0   0.0
-400.0   0.0   16.666666666666668
-350.0   30.0   16.666666666666668
-350.0   0.0   0.0
-400.0   30.0   0.0
-400.0   0.0   16.666666666666668
-350.0   0.0   16.666666666666668
-400.0   30.0   16.666666666666668
-400.0   0.0   33.333333333333336
-350.0   0.0   16.666666666666668
-350.0   30.0   16.666666666666668
-400.0   30.0   16.666666666666668
-350.0   30.0   33.333333333333336
-400.0   0.0   33.333333333333336
-400.0   30.0   33.333333333333336
-350.0   30.0   33.333333333333336
-400.0   30.0   16.666666666666668
-400.0   0.0   33.333333333333336
-350.0   30.0   33.333333333333336
-350.0   0.0   33.333333333333336
-350.0   0.0   16.666666666666668
-400.0   0.0   33.333333333333336
-350.0   30.0   33.333333333333336
-350.0   0.0   16.666666666666668
-400.0   30.0   16.666666666666668
-400.0   0.0   33.333333333333336
-350.0   0.0   33.333333333333336
-400.0   30.0   33.333333333333336
-400.0   0.0   50.0
-350.0   0.0   33.333333333333336
-350.0   30.0   33.333333333333336
-400.0   30.0   33.333333333333336
-350.0   30.0   50.0
-400.0   0.0   50.0
-400.0   30.0   50.0
-350.0   30.0   50.0
-400.0   30.0   33.333333333333336
-400.0   0.0   50.0
-350.0   30.0   50.0
-350.0   0.0   50.0
-350.0   0.0   33.333333333333336
-400.0   0.0   50.0
-350.0   30.0   50.0
-350.0   0.0   33.333333333333336
-400.0   30.0   33.333333333333336
-400.0   30.0   0.0
-350.0   30.0   0.0
-400.0   60.0   0.0
-400.0   30.0   16.666666666666668
-350.0   30.0   0.0
-350.0   60.0   0.0
-400.0   60.0   0.0
-350.0   60.0   16.666666666666668
-400.0   30.0   16.666666666666668
-400.0   60.0   16.666666666666668
-350.0   60.0   16.666666666666668
-400.0   60.0   0.0
-400.0   30.0   16.666666666666668
-350.0   60.0   16.666666666666668
-350.0   30.0   16.666666666666668
-350.0   30.0   0.0
-400.0   30.0   16.666666666666668
-350.0   60.0   16.666666666666668
-350.0   30.0   0.0
-400.0   60.0   0.0
-400.0   30.0   16.666666666666668
-350.0   30.0   16.666666666666668
-400.0   60.0   16.666666666666668
-400.0   30.0   33.333333333333336
-350.0   30.0   16.666666666666668
-350.0   60.0   16.666666666666668
-400.0   60.0   16.666666666666668
-350.0   60.0   33.333333333333336
-400.0   30.0   33.333333333333336
-400.0   60.0   33.333333333333336
-350.0   60.0   33.333333333333336
-400.0   60.0   16.666666666666668
-400.0   30.0   33.333333333333336
-350.0   60.0   33.333333333333336
-350.0   30.0   33.333333333333336
-350.0   30.0   16.666666666666668
-400.0   30.0   33.333333333333336
-350.0   60.0   33.333333333333336
-350.0   30.0   16.666666666666668
-400.0   60.0   16.666666666666668
-400.0   30.0   33.333333333333336
-350.0   30.0   33.333333333333336
-400.0   60.0   33.333333333333336
-400.0   30.0   50.0
-350.0   30.0   33.333333333333336
-350.0   60.0   33.333333333333336
-400.0   60.0   33.333333333333336
-350.0   60.0   50.0
-400.0   30.0   50.0
-400.0   60.0   50.0
-350.0   60.0   50.0
-400.0   60.0   33.333333333333336
-400.0   30.0   50.0
-350.0   60.0   50.0
-350.0   30.0   50.0
-350.0   30.0   33.333333333333336
-400.0   30.0   50.0
-350.0   60.0   50.0
-350.0   30.0   33.333333333333336
-400.0   60.0   33.333333333333336
-400.0   60.0   0.0
-350.0   60.0   0.0
-400.0   90.0   0.0
-400.0   60.0   16.666666666666668
-350.0   60.0   0.0
-350.0   90.0   0.0
-400.0   90.0   0.0
-350.0   90.0   16.666666666666668
-400.0   60.0   16.666666666666668
-400.0   90.0   16.666666666666668
-350.0   90.0   16.666666666666668
-400.0   90.0   0.0
-400.0   60.0   16.666666666666668
-350.0   90.0   16.666666666666668
-350.0   60.0   16.666666666666668
-350.0   60.0   0.0
-400.0   60.0   16.666666666666668
-350.0   90.0   16.666666666666668
-350.0   60.0   0.0
-400.0   90.0   0.0
-400.0   60.0   16.666666666666668
-350.0   60.0   16.666666666666668
-400.0   90.0   16.666666666666668
-400.0   60.0   33.333333333333336
-350.0   60.0   16.666666666666668
-350.0   90.0   16.666666666666668
-400.0   90.0   16.666666666666668
-350.0   90.0   33.333333333333336
-400.0   60.0   33.333333333333336
-400.0   90.0   33.333333333333336
-350.0   90.0   33.333333333333336
-400.0   90.0   16.666666666666668
-400.0   60.0   33.333333333333336
-350.0   90.0   33.333333333333336
-350.0   60.0   33.333333333333336
-350.0   60.0   16.666666666666668
-400.0   60.0   33.333333333333336
-350.0   90.0   33.333333333333336
-350.0   60.0   16.666666666666668
-400.0   90.0   16.666666666666668
-400.0   60.0   33.333333333333336
-350.0   60.0   33.333333333333336
-400.0   90.0   33.333333333333336
-400.0   60.0   50.0
-350.0   60.0   33.333333333333336
-350.0   90.0   33.333333333333336
-400.0   90.0   33.333333333333336
-350.0   90.0   50.0
-400.0   60.0   50.0
-400.0   90.0   50.0
-350.0   90.0   50.0
-400.0   90.0   33.333333333333336
-400.0   60.0   50.0
-350.0   90.0   50.0
-350.0   60.0   50.0
-350.0   60.0   33.333333333333336
-400.0   60.0   50.0
-350.0   90.0   50.0
-350.0   60.0   33.333333333333336
-400.0   90.0   33.333333333333336
-400.0   90.0   0.0
-350.0   90.0   0.0
-400.0   120.0   0.0
-400.0   90.0   16.666666666666668
-350.0   90.0   0.0
-350.0   120.0   0.0
-400.0   120.0   0.0
-350.0   120.0   16.666666666666668
-400.0   90.0   16.666666666666668
-400.0   120.0   16.666666666666668
-350.0   120.0   16.666666666666668
-400.0   120.0   0.0
-400.0   90.0   16.666666666666668
-350.0   120.0   16.666666666666668
-350.0   90.0   16.666666666666668
-350.0   90.0   0.0
-400.0   90.0   16.666666666666668
-350.0   120.0   16.666666666666668
-350.0   90.0   0.0
-400.0   120.0   0.0
-400.0   90.0   16.666666666666668
-350.0   90.0   16.666666666666668
-400.0   120.0   16.666666666666668
-400.0   90.0   33.333333333333336
-350.0   90.0   16.666666666666668
-350.0   120.0   16.666666666666668
-400.0   120.0   16.666666666666668
-350.0   120.0   33.333333333333336
-400.0   90.0   33.333333333333336
-400.0   120.0   33.333333333333336
-350.0   120.0   33.333333333333336
-400.0   120.0   16.666666666666668
-400.0   90.0   33.333333333333336
-350.0   120.0   33.333333333333336
-350.0   90.0   33.333333333333336
-350.0   90.0   16.666666666666668
-400.0   90.0   33.333333333333336
-350.0   120.0   33.333333333333336
-350.0   90.0   16.666666666666668
-400.0   120.0   16.666666666666668
-400.0   90.0   33.333333333333336
-350.0   90.0   33.333333333333336
-400.0   120.0   33.333333333333336
-400.0   90.0   50.0
-350.0   90.0   33.333333333333336
-350.0   120.0   33.333333333333336
-400.0   120.0   33.333333333333336
-350.0   120.0   50.0
-400.0   90.0   50.0
-400.0   120.0   50.0
-350.0   120.0   50.0
-400.0   120.0   33.333333333333336
-400.0   90.0   50.0
-350.0   120.0   50.0
-350.0   90.0   50.0
-350.0   90.0   33.333333333333336
-400.0   90.0   50.0
-350.0   120.0   50.0
-350.0   90.0   33.333333333333336
-400.0   120.0   33.333333333333336
-400.0   120.0   0.0
-350.0   120.0   0.0
-400.0   150.0   0.0
-400.0   120.0   16.666666666666668
-350.0   120.0   0.0
-350.0   150.0   0.0
-400.0   150.0   0.0
-350.0   150.0   16.666666666666668
-400.0   120.0   16.666666666666668
-400.0   150.0   16.666666666666668
-350.0   150.0   16.666666666666668
-400.0   150.0   0.0
-400.0   120.0   16.666666666666668
-350.0   150.0   16.666666666666668
-350.0   120.0   16.666666666666668
-350.0   120.0   0.0
-400.0   120.0   16.666666666666668
-350.0   150.0   16.666666666666668
-350.0   120.0   0.0
-400.0   150.0   0.0
-400.0   120.0   16.666666666666668
-350.0   120.0   16.666666666666668
-400.0   150.0   16.666666666666668
-400.0   120.0   33.333333333333336
-350.0   120.0   16.666666666666668
-350.0   150.0   16.666666666666668
-400.0   150.0   16.666666666666668
-350.0   150.0   33.333333333333336
-400.0   120.0   33.333333333333336
-400.0   150.0   33.333333333333336
-350.0   150.0   33.333333333333336
-400.0   150.0   16.666666666666668
-400.0   120.0   33.333333333333336
-350.0   150.0   33.333333333333336
-350.0   120.0   33.333333333333336
-350.0   120.0   16.666666666666668
-400.0   120.0   33.333333333333336
-350.0   150.0   33.333333333333336
-350.0   120.0   16.666666666666668
-400.0   150.0   16.666666666666668
-400.0   120.0   33.333333333333336
-350.0   120.0   33.333333333333336
-400.0   150.0   33.333333333333336
-400.0   120.0   50.0
-350.0   120.0   33.333333333333336
-350.0   150.0   33.333333333333336
-400.0   150.0   33.333333333333336
-350.0   150.0   50.0
-400.0   120.0   50.0
-400.0   150.0   50.0
-350.0   150.0   50.0
-400.0   150.0   33.333333333333336
-400.0   120.0   50.0
-350.0   150.0   50.0
-350.0   120.0   50.0
-350.0   120.0   33.333333333333336
-400.0   120.0   50.0
-350.0   150.0   50.0
-350.0   120.0   33.333333333333336
-400.0   150.0   33.333333333333336
-350.0   0.0   0.0
-300.0   0.0   0.0
-350.0   30.0   0.0
-350.0   0.0   16.666666666666668
-300.0   0.0   0.0
-300.0   30.0   0.0
-350.0   30.0   0.0
-300.0   30.0   16.666666666666668
-350.0   0.0   16.666666666666668
-350.0   30.0   16.666666666666668
-300.0   30.0   16.666666666666668
-350.0   30.0   0.0
-350.0   0.0   16.666666666666668
-300.0   30.0   16.666666666666668
-300.0   0.0   16.666666666666668
-300.0   0.0   0.0
-350.0   0.0   16.666666666666668
-300.0   30.0   16.666666666666668
-300.0   0.0   0.0
-350.0   30.0   0.0
-350.0   0.0   16.666666666666668
-300.0   0.0   16.666666666666668
-350.0   30.0   16.666666666666668
-350.0   0.0   33.333333333333336
-300.0   0.0   16.666666666666668
-300.0   30.0   16.666666666666668
-350.0   30.0   16.666666666666668
-300.0   30.0   33.333333333333336
-350.0   0.0   33.333333333333336
-350.0   30.0   33.333333333333336
-300.0   30.0   33.333333333333336
-350.0   30.0   16.666666666666668
-350.0   0.0   33.333333333333336
-300.0   30.0   33.333333333333336
-300.0   0.0   33.333333333333336
-300.0   0.0   16.666666666666668
-350.0   0.0   33.333333333333336
-300.0   30.0   33.333333333333336
-300.0   0.0   16.666666666666668
-350.0   30.0   16.666666666666668
-350.0   0.0   33.333333333333336
-300.0   0.0   33.333333333333336
-350.0   30.0   33.333333333333336
-350.0   0.0   50.0
-300.0   0.0   33.333333333333336
-300.0   30.0   33.333333333333336
-350.0   30.0   33.333333333333336
-300.0   30.0   50.0
-350.0   0.0   50.0
-350.0   30.0   50.0
-300.0   30.0   50.0
-350.0   30.0   33.333333333333336
-350.0   0.0   50.0
-300.0   30.0   50.0
-300.0   0.0   50.0
-300.0   0.0   33.333333333333336
-350.0   0.0   50.0
-300.0   30.0   50.0
-300.0   0.0   33.333333333333336
-350.0   30.0   33.333333333333336
-350.0   30.0   0.0
-300.0   30.0   0.0
-350.0   60.0   0.0
-350.0   30.0   16.666666666666668
-300.0   30.0   0.0
-300.0   60.0   0.0
-350.0   60.0   0.0
-300.0   60.0   16.666666666666668
-350.0   30.0   16.666666666666668
-350.0   60.0   16.666666666666668
-300.0   60.0   16.666666666666668
-350.0   60.0   0.0
-350.0   30.0   16.666666666666668
-300.0   60.0   16.666666666666668
-300.0   30.0   16.666666666666668
-300.0   30.0   0.0
-350.0   30.0   16.666666666666668
-300.0   60.0   16.666666666666668
-300.0   30.0   0.0
-350.0   60.0   0.0
-350.0   30.0   16.666666666666668
-300.0   30.0   16.666666666666668
-350.0   60.0   16.666666666666668
-350.0   30.0   33.333333333333336
-300.0   30.0   16.666666666666668
-300.0   60.0   16.666666666666668
-350.0   60.0   16.666666666666668
-300.0   60.0   33.333333333333336
-350.0   30.0   33.333333333333336
-350.0   60.0   33.333333333333336
-300.0   60.0   33.333333333333336
-350.0   60.0   16.666666666666668
-350.0   30.0   33.333333333333336
-300.0   60.0   33.333333333333336
-300.0   30.0   33.333333333333336
-300.0   30.0   16.666666666666668
-350.0   30.0   33.333333333333336
-300.0   60.0   33.333333333333336
-300.0   30.0   16.666666666666668
-350.0   60.0   16.666666666666668
-350.0   30.0   33.333333333333336
-300.0   30.0   33.333333333333336
-350.0   60.0   33.333333333333336
-350.0   30.0   50.0
-300.0   30.0   33.333333333333336
-300.0   60.0   33.333333333333336
-350.0   60.0   33.333333333333336
-300.0   60.0   50.0
-350.0   30.0   50.0
-350.0   60.0   50.0
-300.0   60.0   50.0
-350.0   60.0   33.333333333333336
-350.0   30.0   50.0
-300.0   60.0   50.0
-300.0   30.0   50.0
-300.0   30.0   33.333333333333336
-350.0   30.0   50.0
-300.0   60.0   50.0
-300.0   30.0   33.333333333333336
-350.0   60.0   33.333333333333336
-350.0   60.0   0.0
-300.0   60.0   0.0
-350.0   90.0   0.0
-350.0   60.0   16.666666666666668
-300.0   60.0   0.0
-300.0   90.0   0.0
-350.0   90.0   0.0
-300.0   90.0   16.666666666666668
-350.0   60.0   16.666666666666668
-350.0   90.0   16.666666666666668
-300.0   90.0   16.666666666666668
-350.0   90.0   0.0
-350.0   60.0   16.666666666666668
-300.0   90.0   16.666666666666668
-300.0   60.0   16.666666666666668
-300.0   60.0   0.0
-350.0   60.0   16.666666666666668
-300.0   90.0   16.666666666666668
-300.0   60.0   0.0
-350.0   90.0   0.0
-350.0   60.0   16.666666666666668
-300.0   60.0   16.666666666666668
-350.0   90.0   16.666666666666668
-350.0   60.0   33.333333333333336
-300.0   60.0   16.666666666666668
-300.0   90.0   16.666666666666668
-350.0   90.0   16.666666666666668
-300.0   90.0   33.333333333333336
-350.0   60.0   33.333333333333336
-350.0   90.0   33.333333333333336
-300.0   90.0   33.333333333333336
-350.0   90.0   16.666666666666668
-350.0   60.0   33.333333333333336
-300.0   90.0   33.333333333333336
-300.0   60.0   33.333333333333336
-300.0   60.0   16.666666666666668
-350.0   60.0   33.333333333333336
-300.0   90.0   33.333333333333336
-300.0   60.0   16.666666666666668
-350.0   90.0   16.666666666666668
-350.0   60.0   33.333333333333336
-300.0   60.0   33.333333333333336
-350.0   90.0   33.333333333333336
-350.0   60.0   50.0
-300.0   60.0   33.333333333333336
-300.0   90.0   33.333333333333336
-350.0   90.0   33.333333333333336
-300.0   90.0   50.0
-350.0   60.0   50.0
-350.0   90.0   50.0
-300.0   90.0   50.0
-350.0   90.0   33.333333333333336
-350.0   60.0   50.0
-300.0   90.0   50.0
-300.0   60.0   50.0
-300.0   60.0   33.333333333333336
-350.0   60.0   50.0
-300.0   90.0   50.0
-300.0   60.0   33.333333333333336
-350.0   90.0   33.333333333333336
-350.0   90.0   0.0
-300.0   90.0   0.0
-350.0   120.0   0.0
-350.0   90.0   16.666666666666668
-300.0   90.0   0.0
-300.0   120.0   0.0
-350.0   120.0   0.0
-300.0   120.0   16.666666666666668
-350.0   90.0   16.666666666666668
-350.0   120.0   16.666666666666668
-300.0   120.0   16.666666666666668
-350.0   120.0   0.0
-350.0   90.0   16.666666666666668
-300.0   120.0   16.666666666666668
-300.0   90.0   16.666666666666668
-300.0   90.0   0.0
-350.0   90.0   16.666666666666668
-300.0   120.0   16.666666666666668
-300.0   90.0   0.0
-350.0   120.0   0.0
-350.0   90.0   16.666666666666668
-300.0   90.0   16.666666666666668
-350.0   120.0   16.666666666666668
-350.0   90.0   33.333333333333336
-300.0   90.0   16.666666666666668
-300.0   120.0   16.666666666666668
-350.0   120.0   16.666666666666668
-300.0   120.0   33.333333333333336
-350.0   90.0   33.333333333333336
-350.0   120.0   33.333333333333336
-300.0   120.0   33.333333333333336
-350.0   120.0   16.666666666666668
-350.0   90.0   33.333333333333336
-300.0   120.0   33.333333333333336
-300.0   90.0   33.333333333333336
-300.0   90.0   16.666666666666668
-350.0   90.0   33.333333333333336
-300.0   120.0   33.333333333333336
-300.0   90.0   16.666666666666668
-350.0   120.0   16.666666666666668
-350.0   90.0   33.333333333333336
-300.0   90.0   33.333333333333336
-350.0   120.0   33.333333333333336
-350.0   90.0   50.0
-300.0   90.0   33.333333333333336
-300.0   120.0   33.333333333333336
-350.0   120.0   33.333333333333336
-300.0   120.0   50.0
-350.0   90.0   50.0
-350.0   120.0   50.0
-300.0   120.0   50.0
-350.0   120.0   33.333333333333336
-350.0   90.0   50.0
-300.0   120.0   50.0
-300.0   90.0   50.0
-300.0   90.0   33.333333333333336
-350.0   90.0   50.0
-300.0   120.0   50.0
-300.0   90.0   33.333333333333336
-350.0   120.0   33.333333333333336
-350.0   120.0   0.0
-300.0   120.0   0.0
-350.0   150.0   0.0
-350.0   120.0   16.666666666666668
-300.0   120.0   0.0
-300.0   150.0   0.0
-350.0   150.0   0.0
-300.0   150.0   16.666666666666668
-350.0   120.0   16.666666666666668
-350.0   150.0   16.666666666666668
-300.0   150.0   16.666666666666668
-350.0   150.0   0.0
-350.0   120.0   16.666666666666668
-300.0   150.0   16.666666666666668
-300.0   120.0   16.666666666666668
-300.0   120.0   0.0
-350.0   120.0   16.666666666666668
-300.0   150.0   16.666666666666668
-300.0   120.0   0.0
-350.0   150.0   0.0
-350.0   120.0   16.666666666666668
-300.0   120.0   16.666666666666668
-350.0   150.0   16.666666666666668
-350.0   120.0   33.333333333333336
-300.0   120.0   16.666666666666668
-300.0   150.0   16.666666666666668
-350.0   150.0   16.666666666666668
-300.0   150.0   33.333333333333336
-350.0   120.0   33.333333333333336
-350.0   150.0   33.333333333333336
-300.0   150.0   33.333333333333336
-350.0   150.0   16.666666666666668
-350.0   120.0   33.333333333333336
-300.0   150.0   33.333333333333336
-300.0   120.0   33.333333333333336
-300.0   120.0   16.666666666666668
-350.0   120.0   33.333333333333336
-300.0   150.0   33.333333333333336
-300.0   120.0   16.666666666666668
-350.0   150.0   16.666666666666668
-350.0   120.0   33.333333333333336
-300.0   120.0   33.333333333333336
-350.0   150.0   33.333333333333336
-350.0   120.0   50.0
-300.0   120.0   33.333333333333336
-300.0   150.0   33.333333333333336
-350.0   150.0   33.333333333333336
-300.0   150.0   50.0
-350.0   120.0   50.0
-350.0   150.0   50.0
-300.0   150.0   50.0
-350.0   150.0   33.333333333333336
-350.0   120.0   50.0
-300.0   150.0   50.0
-300.0   120.0   50.0
-300.0   120.0   33.333333333333336
-350.0   120.0   50.0
-300.0   150.0   50.0
-300.0   120.0   33.333333333333336
-350.0   150.0   33.333333333333336
-300.0   0.0   0.0
-250.0   0.0   0.0
-300.0   30.0   0.0
-300.0   0.0   16.666666666666668
-250.0   0.0   0.0
-250.0   30.0   0.0
-300.0   30.0   0.0
-250.0   30.0   16.666666666666668
-300.0   0.0   16.666666666666668
-300.0   30.0   16.666666666666668
-250.0   30.0   16.666666666666668
-300.0   30.0   0.0
-300.0   0.0   16.666666666666668
-250.0   30.0   16.666666666666668
-250.0   0.0   16.666666666666668
-250.0   0.0   0.0
-300.0   0.0   16.666666666666668
-250.0   30.0   16.666666666666668
-250.0   0.0   0.0
-300.0   30.0   0.0
-300.0   0.0   16.666666666666668
-250.0   0.0   16.666666666666668
-300.0   30.0   16.666666666666668
-300.0   0.0   33.333333333333336
-250.0   0.0   16.666666666666668
-250.0   30.0   16.666666666666668
-300.0   30.0   16.666666666666668
-250.0   30.0   33.333333333333336
-300.0   0.0   33.333333333333336
-300.0   30.0   33.333333333333336
-250.0   30.0   33.333333333333336
-300.0   30.0   16.666666666666668
-300.0   0.0   33.333333333333336
-250.0   30.0   33.333333333333336
-250.0   0.0   33.333333333333336
-250.0   0.0   16.666666666666668
-300.0   0.0   33.333333333333336
-250.0   30.0   33.333333333333336
-250.0   0.0   16.666666666666668
-300.0   30.0   16.666666666666668
-300.0   0.0   33.333333333333336
-250.0   0.0   33.333333333333336
-300.0   30.0   33.333333333333336
-300.0   0.0   50.0
-250.0   0.0   33.333333333333336
-250.0   30.0   33.333333333333336
-300.0   30.0   33.333333333333336
-250.0   30.0   50.0
-300.0   0.0   50.0
-300.0   30.0   50.0
-250.0   30.0   50.0
-300.0   30.0   33.333333333333336
-300.0   0.0   50.0
-250.0   30.0   50.0
-250.0   0.0   50.0
-250.0   0.0   33.333333333333336
-300.0   0.0   50.0
-250.0   30.0   50.0
-250.0   0.0   33.333333333333336
-300.0   30.0   33.333333333333336
-300.0   30.0   0.0
-250.0   30.0   0.0
-300.0   60.0   0.0
-300.0   30.0   16.666666666666668
-250.0   30.0   0.0
-250.0   60.0   0.0
-300.0   60.0   0.0
-250.0   60.0   16.666666666666668
-300.0   30.0   16.666666666666668
-300.0   60.0   16.666666666666668
-250.0   60.0   16.666666666666668
-300.0   60.0   0.0
-300.0   30.0   16.666666666666668
-250.0   60.0   16.666666666666668
-250.0   30.0   16.666666666666668
-250.0   30.0   0.0
-300.0   30.0   16.666666666666668
-250.0   60.0   16.666666666666668
-250.0   30.0   0.0
-300.0   60.0   0.0
-300.0   30.0   16.666666666666668
-250.0   30.0   16.666666666666668
-300.0   60.0   16.666666666666668
-300.0   30.0   33.333333333333336
-250.0   30.0   16.666666666666668
-250.0   60.0   16.666666666666668
-300.0   60.0   16.666666666666668
-250.0   60.0   33.333333333333336
-300.0   30.0   33.333333333333336
-300.0   60.0   33.333333333333336
-250.0   60.0   33.333333333333336
-300.0   60.0   16.666666666666668
-300.0   30.0   33.333333333333336
-250.0   60.0   33.333333333333336
-250.0   30.0   33.333333333333336
-250.0   30.0   16.666666666666668
-300.0   30.0   33.333333333333336
-250.0   60.0   33.333333333333336
-250.0   30.0   16.666666666666668
-300.0   60.0   16.666666666666668
-300.0   30.0   33.333333333333336
-250.0   30.0   33.333333333333336
-300.0   60.0   33.333333333333336
-300.0   30.0   50.0
-250.0   30.0   33.333333333333336
-250.0   60.0   33.333333333333336
-300.0   60.0   33.333333333333336
-250.0   60.0   50.0
-300.0   30.0   50.0
-300.0   60.0   50.0
-250.0   60.0   50.0
-300.0   60.0   33.333333333333336
-300.0   30.0   50.0
-250.0   60.0   50.0
-250.0   30.0   50.0
-250.0   30.0   33.333333333333336
-300.0   30.0   50.0
-250.0   60.0   50.0
-250.0   30.0   33.333333333333336
-300.0   60.0   33.333333333333336
-300.0   60.0   0.0
-250.0   60.0   0.0
-300.0   90.0   0.0
-300.0   60.0   16.666666666666668
-250.0   60.0   0.0
-250.0   90.0   0.0
-300.0   90.0   0.0
-250.0   90.0   16.666666666666668
-300.0   60.0   16.666666666666668
-300.0   90.0   16.666666666666668
-250.0   90.0   16.666666666666668
-300.0   90.0   0.0
-300.0   60.0   16.666666666666668
-250.0   90.0   16.666666666666668
-250.0   60.0   16.666666666666668
-250.0   60.0   0.0
-300.0   60.0   16.666666666666668
-250.0   90.0   16.666666666666668
-250.0   60.0   0.0
-300.0   90.0   0.0
-300.0   60.0   16.666666666666668
-250.0   60.0   16.666666666666668
-300.0   90.0   16.666666666666668
-300.0   60.0   33.333333333333336
-250.0   60.0   16.666666666666668
-250.0   90.0   16.666666666666668
-300.0   90.0   16.666666666666668
-250.0   90.0   33.333333333333336
-300.0   60.0   33.333333333333336
-300.0   90.0   33.333333333333336
-250.0   90.0   33.333333333333336
-300.0   90.0   16.666666666666668
-300.0   60.0   33.333333333333336
-250.0   90.0   33.333333333333336
-250.0   60.0   33.333333333333336
-250.0   60.0   16.666666666666668
-300.0   60.0   33.333333333333336
-250.0   90.0   33.333333333333336
-250.0   60.0   16.666666666666668
-300.0   90.0   16.666666666666668
-300.0   60.0   33.333333333333336
-250.0   60.0   33.333333333333336
-300.0   90.0   33.333333333333336
-300.0   60.0   50.0
-250.0   60.0   33.333333333333336
-250.0   90.0   33.333333333333336
-300.0   90.0   33.333333333333336
-250.0   90.0   50.0
-300.0   60.0   50.0
-300.0   90.0   50.0
-250.0   90.0   50.0
-300.0   90.0   33.333333333333336
-300.0   60.0   50.0
-250.0   90.0   50.0
-250.0   60.0   50.0
-250.0   60.0   33.333333333333336
-300.0   60.0   50.0
-250.0   90.0   50.0
-250.0   60.0   33.333333333333336
-300.0   90.0   33.333333333333336
-300.0   90.0   0.0
-250.0   90.0   0.0
-300.0   120.0   0.0
-300.0   90.0   16.666666666666668
-250.0   90.0   0.0
-250.0   120.0   0.0
-300.0   120.0   0.0
-250.0   120.0   16.666666666666668
-300.0   90.0   16.666666666666668
-300.0   120.0   16.666666666666668
-250.0   120.0   16.666666666666668
-300.0   120.0   0.0
-300.0   90.0   16.666666666666668
-250.0   120.0   16.666666666666668
-250.0   90.0   16.666666666666668
-250.0   90.0   0.0
-300.0   90.0   16.666666666666668
-250.0   120.0   16.666666666666668
-250.0   90.0   0.0
-300.0   120.0   0.0
-300.0   90.0   16.666666666666668
-250.0   90.0   16.666666666666668
-300.0   120.0   16.666666666666668
-300.0   90.0   33.333333333333336
-250.0   90.0   16.666666666666668
-250.0   120.0   16.666666666666668
-300.0   120.0   16.666666666666668
-250.0   120.0   33.333333333333336
-300.0   90.0   33.333333333333336
-300.0   120.0   33.333333333333336
-250.0   120.0   33.333333333333336
-300.0   120.0   16.666666666666668
-300.0   90.0   33.333333333333336
-250.0   120.0   33.333333333333336
-250.0   90.0   33.333333333333336
-250.0   90.0   16.666666666666668
-300.0   90.0   33.333333333333336
-250.0   120.0   33.333333333333336
-250.0   90.0   16.666666666666668
-300.0   120.0   16.666666666666668
-300.0   90.0   33.333333333333336
-250.0   90.0   33.333333333333336
-300.0   120.0   33.333333333333336
-300.0   90.0   50.0
-250.0   90.0   33.333333333333336
-250.0   120.0   33.333333333333336
-300.0   120.0   33.333333333333336
-250.0   120.0   50.0
-300.0   90.0   50.0
-300.0   120.0   50.0
-250.0   120.0   50.0
-300.0   120.0   33.333333333333336
-300.0   90.0   50.0
-250.0   120.0   50.0
-250.0   90.0   50.0
-250.0   90.0   33.333333333333336
-300.0   90.0   50.0
-250.0   120.0   50.0
-250.0   90.0   33.333333333333336
-300.0   120.0   33.333333333333336
-300.0   120.0   0.0
-250.0   120.0   0.0
-300.0   150.0   0.0
-300.0   120.0   16.666666666666668
-250.0   120.0   0.0
-250.0   150.0   0.0
-300.0   150.0   0.0
-250.0   150.0   16.666666666666668
-300.0   120.0   16.666666666666668
-300.0   150.0   16.666666666666668
-250.0   150.0   16.666666666666668
-300.0   150.0   0.0
-300.0   120.0   16.666666666666668
-250.0   150.0   16.666666666666668
-250.0   120.0   16.666666666666668
-250.0   120.0   0.0
-300.0   120.0   16.666666666666668
-250.0   150.0   16.666666666666668
-250.0   120.0   0.0
-300.0   150.0   0.0
-300.0   120.0   16.666666666666668
-250.0   120.0   16.666666666666668
-300.0   150.0   16.666666666666668
-300.0   120.0   33.333333333333336
-250.0   120.0   16.666666666666668
-250.0   150.0   16.666666666666668
-300.0   150.0   16.666666666666668
-250.0   150.0   33.333333333333336
-300.0   120.0   33.333333333333336
-300.0   150.0   33.333333333333336
-250.0   150.0   33.333333333333336
-300.0   150.0   16.666666666666668
-300.0   120.0   33.333333333333336
-250.0   150.0   33.333333333333336
-250.0   120.0   33.333333333333336
-250.0   120.0   16.666666666666668
-300.0   120.0   33.333333333333336
-250.0   150.0   33.333333333333336
-250.0   120.0   16.666666666666668
-300.0   150.0   16.666666666666668
-300.0   120.0   33.333333333333336
-250.0   120.0   33.333333333333336
-300.0   150.0   33.333333333333336
-300.0   120.0   50.0
-250.0   120.0   33.333333333333336
-250.0   150.0   33.333333333333336
-300.0   150.0   33.333333333333336
-250.0   150.0   50.0
-300.0   120.0   50.0
-300.0   150.0   50.0
-250.0   150.0   50.0
-300.0   150.0   33.333333333333336
-300.0   120.0   50.0
-250.0   150.0   50.0
-250.0   120.0   50.0
-250.0   120.0   33.333333333333336
-300.0   120.0   50.0
-250.0   150.0   50.0
-250.0   120.0   33.333333333333336
-300.0   150.0   33.333333333333336
-250.0   0.0   0.0
-200.0   0.0   0.0
-250.0   30.0   0.0
-250.0   0.0   16.666666666666668
-200.0   0.0   0.0
-200.0   30.0   0.0
-250.0   30.0   0.0
-200.0   30.0   16.666666666666668
-250.0   0.0   16.666666666666668
-250.0   30.0   16.666666666666668
-200.0   30.0   16.666666666666668
-250.0   30.0   0.0
-250.0   0.0   16.666666666666668
-200.0   30.0   16.666666666666668
-200.0   0.0   16.666666666666668
-200.0   0.0   0.0
-250.0   0.0   16.666666666666668
-200.0   30.0   16.666666666666668
-200.0   0.0   0.0
-250.0   30.0   0.0
-250.0   0.0   16.666666666666668
-200.0   0.0   16.666666666666668
-250.0   30.0   16.666666666666668
-250.0   0.0   33.333333333333336
-200.0   0.0   16.666666666666668
-200.0   30.0   16.666666666666668
-250.0   30.0   16.666666666666668
-200.0   30.0   33.333333333333336
-250.0   0.0   33.333333333333336
-250.0   30.0   33.333333333333336
-200.0   30.0   33.333333333333336
-250.0   30.0   16.666666666666668
-250.0   0.0   33.333333333333336
-200.0   30.0   33.333333333333336
-200.0   0.0   33.333333333333336
-200.0   0.0   16.666666666666668
-250.0   0.0   33.333333333333336
-200.0   30.0   33.333333333333336
-200.0   0.0   16.666666666666668
-250.0   30.0   16.666666666666668
-250.0   0.0   33.333333333333336
-200.0   0.0   33.333333333333336
-250.0   30.0   33.333333333333336
-250.0   0.0   50.0
-200.0   0.0   33.333333333333336
-200.0   30.0   33.333333333333336
-250.0   30.0   33.333333333333336
-200.0   30.0   50.0
-250.0   0.0   50.0
-250.0   30.0   50.0
-200.0   30.0   50.0
-250.0   30.0   33.333333333333336
-250.0   0.0   50.0
-200.0   30.0   50.0
-200.0   0.0   50.0
-200.0   0.0   33.333333333333336
-250.0   0.0   50.0
-200.0   30.0   50.0
-200.0   0.0   33.333333333333336
-250.0   30.0   33.333333333333336
-250.0   30.0   0.0
-200.0   30.0   0.0
-250.0   60.0   0.0
-250.0   30.0   16.666666666666668
-200.0   30.0   0.0
-200.0   60.0   0.0
-250.0   60.0   0.0
-200.0   60.0   16.666666666666668
-250.0   30.0   16.666666666666668
-250.0   60.0   16.666666666666668
-200.0   60.0   16.666666666666668
-250.0   60.0   0.0
-250.0   30.0   16.666666666666668
-200.0   60.0   16.666666666666668
-200.0   30.0   16.666666666666668
-200.0   30.0   0.0
-250.0   30.0   16.666666666666668
-200.0   60.0   16.666666666666668
-200.0   30.0   0.0
-250.0   60.0   0.0
-250.0   30.0   16.666666666666668
-200.0   30.0   16.666666666666668
-250.0   60.0   16.666666666666668
-250.0   30.0   33.333333333333336
-200.0   30.0   16.666666666666668
-200.0   60.0   16.666666666666668
-250.0   60.0   16.666666666666668
-200.0   60.0   33.333333333333336
-250.0   30.0   33.333333333333336
-250.0   60.0   33.333333333333336
-200.0   60.0   33.333333333333336
-250.0   60.0   16.666666666666668
-250.0   30.0   33.333333333333336
-200.0   60.0   33.333333333333336
-200.0   30.0   33.333333333333336
-200.0   30.0   16.666666666666668
-250.0   30.0   33.333333333333336
-200.0   60.0   33.333333333333336
-200.0   30.0   16.666666666666668
-250.0   60.0   16.666666666666668
-250.0   30.0   33.333333333333336
-200.0   30.0   33.333333333333336
-250.0   60.0   33.333333333333336
-250.0   30.0   50.0
-200.0   30.0   33.333333333333336
-200.0   60.0   33.333333333333336
-250.0   60.0   33.333333333333336
-200.0   60.0   50.0
-250.0   30.0   50.0
-250.0   60.0   50.0
-200.0   60.0   50.0
-250.0   60.0   33.333333333333336
-250.0   30.0   50.0
-200.0   60.0   50.0
-200.0   30.0   50.0
-200.0   30.0   33.333333333333336
-250.0   30.0   50.0
-200.0   60.0   50.0
-200.0   30.0   33.333333333333336
-250.0   60.0   33.333333333333336
-250.0   60.0   0.0
-200.0   60.0   0.0
-250.0   90.0   0.0
-250.0   60.0   16.666666666666668
-200.0   60.0   0.0
-200.0   90.0   0.0
-250.0   90.0   0.0
-200.0   90.0   16.666666666666668
-250.0   60.0   16.666666666666668
-250.0   90.0   16.666666666666668
-200.0   90.0   16.666666666666668
-250.0   90.0   0.0
-250.0   60.0   16.666666666666668
-200.0   90.0   16.666666666666668
-200.0   60.0   16.666666666666668
-200.0   60.0   0.0
-250.0   60.0   16.666666666666668
-200.0   90.0   16.666666666666668
-200.0   60.0   0.0
-250.0   90.0   0.0
-250.0   60.0   16.666666666666668
-200.0   60.0   16.666666666666668
-250.0   90.0   16.666666666666668
-250.0   60.0   33.333333333333336
-200.0   60.0   16.666666666666668
-200.0   90.0   16.666666666666668
-250.0   90.0   16.666666666666668
-200.0   90.0   33.333333333333336
-250.0   60.0   33.333333333333336
-250.0   90.0   33.333333333333336
-200.0   90.0   33.333333333333336
-250.0   90.0   16.666666666666668
-250.0   60.0   33.333333333333336
-200.0   90.0   33.333333333333336
-200.0   60.0   33.333333333333336
-200.0   60.0   16.666666666666668
-250.0   60.0   33.333333333333336
-200.0   90.0   33.333333333333336
-200.0   60.0   16.666666666666668
-250.0   90.0   16.666666666666668
-250.0   60.0   33.333333333333336
-200.0   60.0   33.333333333333336
-250.0   90.0   33.333333333333336
-250.0   60.0   50.0
-200.0   60.0   33.333333333333336
-200.0   90.0   33.333333333333336
-250.0   90.0   33.333333333333336
-200.0   90.0   50.0
-250.0   60.0   50.0
-250.0   90.0   50.0
-200.0   90.0   50.0
-250.0   90.0   33.333333333333336
-250.0   60.0   50.0
-200.0   90.0   50.0
-200.0   60.0   50.0
-200.0   60.0   33.333333333333336
-250.0   60.0   50.0
-200.0   90.0   50.0
-200.0   60.0   33.333333333333336
-250.0   90.0   33.333333333333336
-250.0   90.0   0.0
-200.0   90.0   0.0
-250.0   120.0   0.0
-250.0   90.0   16.666666666666668
-200.0   90.0   0.0
-200.0   120.0   0.0
-250.0   120.0   0.0
-200.0   120.0   16.666666666666668
-250.0   90.0   16.666666666666668
-250.0   120.0   16.666666666666668
-200.0   120.0   16.666666666666668
-250.0   120.0   0.0
-250.0   90.0   16.666666666666668
-200.0   120.0   16.666666666666668
-200.0   90.0   16.666666666666668
-200.0   90.0   0.0
-250.0   90.0   16.666666666666668
-200.0   120.0   16.666666666666668
-200.0   90.0   0.0
-250.0   120.0   0.0
-250.0   90.0   16.666666666666668
-200.0   90.0   16.666666666666668
-250.0   120.0   16.666666666666668
-250.0   90.0   33.333333333333336
-200.0   90.0   16.666666666666668
-200.0   120.0   16.666666666666668
-250.0   120.0   16.666666666666668
-200.0   120.0   33.333333333333336
-250.0   90.0   33.333333333333336
-250.0   120.0   33.333333333333336
-200.0   120.0   33.333333333333336
-250.0   120.0   16.666666666666668
-250.0   90.0   33.333333333333336
-200.0   120.0   33.333333333333336
-200.0   90.0   33.333333333333336
-200.0   90.0   16.666666666666668
-250.0   90.0   33.333333333333336
-200.0   120.0   33.333333333333336
-200.0   90.0   16.666666666666668
-250.0   120.0   16.666666666666668
-250.0   90.0   33.333333333333336
-200.0   90.0   33.333333333333336
-250.0   120.0   33.333333333333336
-250.0   90.0   50.0
-200.0   90.0   33.333333333333336
-200.0   120.0   33.333333333333336
-250.0   120.0   33.333333333333336
-200.0   120.0   50.0
-250.0   90.0   50.0
-250.0   120.0   50.0
-200.0   120.0   50.0
-250.0   120.0   33.333333333333336
-250.0   90.0   50.0
-200.0   120.0   50.0
-200.0   90.0   50.0
-200.0   90.0   33.333333333333336
-250.0   90.0   50.0
-200.0   120.0   50.0
-200.0   90.0   33.333333333333336
-250.0   120.0   33.333333333333336
-250.0   120.0   0.0
-200.0   120.0   0.0
-250.0   150.0   0.0
-250.0   120.0   16.666666666666668
-200.0   120.0   0.0
-200.0   150.0   0.0
-250.0   150.0   0.0
-200.0   150.0   16.666666666666668
-250.0   120.0   16.666666666666668
-250.0   150.0   16.666666666666668
-200.0   150.0   16.666666666666668
-250.0   150.0   0.0
-250.0   120.0   16.666666666666668
-200.0   150.0   16.666666666666668
-200.0   120.0   16.666666666666668
-200.0   120.0   0.0
-250.0   120.0   16.666666666666668
-200.0   150.0   16.666666666666668
-200.0   120.0   0.0
-250.0   150.0   0.0
-250.0   120.0   16.666666666666668
-200.0   120.0   16.666666666666668
-250.0   150.0   16.666666666666668
-250.0   120.0   33.333333333333336
-200.0   120.0   16.666666666666668
-200.0   150.0   16.666666666666668
-250.0   150.0   16.666666666666668
-200.0   150.0   33.333333333333336
-250.0   120.0   33.333333333333336
-250.0   150.0   33.333333333333336
-200.0   150.0   33.333333333333336
-250.0   150.0   16.666666666666668
-250.0   120.0   33.333333333333336
-200.0   150.0   33.333333333333336
-200.0   120.0   33.333333333333336
-200.0   120.0   16.666666666666668
-250.0   120.0   33.333333333333336
-200.0   150.0   33.333333333333336
-200.0   120.0   16.666666666666668
-250.0   150.0   16.666666666666668
-250.0   120.0   33.333333333333336
-200.0   120.0   33.333333333333336
-250.0   150.0   33.333333333333336
-250.0   120.0   50.0
-200.0   120.0   33.333333333333336
-200.0   150.0   33.333333333333336
-250.0   150.0   33.333333333333336
-200.0   150.0   50.0
-250.0   120.0   50.0
-250.0   150.0   50.0
-200.0   150.0   50.0
-250.0   150.0   33.333333333333336
-250.0   120.0   50.0
-200.0   150.0   50.0
-200.0   120.0   50.0
-200.0   120.0   33.333333333333336
-250.0   120.0   50.0
-200.0   150.0   50.0
-200.0   120.0   33.333333333333336
-250.0   150.0   33.333333333333336
-200.0   0.0   0.0
-150.0   0.0   0.0
-200.0   30.0   0.0
-200.0   0.0   16.666666666666668
-150.0   0.0   0.0
-150.0   30.0   0.0
-200.0   30.0   0.0
-150.0   30.0   16.666666666666668
-200.0   0.0   16.666666666666668
-200.0   30.0   16.666666666666668
-150.0   30.0   16.666666666666668
-200.0   30.0   0.0
-200.0   0.0   16.666666666666668
-150.0   30.0   16.666666666666668
-150.0   0.0   16.666666666666668
-150.0   0.0   0.0
-200.0   0.0   16.666666666666668
-150.0   30.0   16.666666666666668
-150.0   0.0   0.0
-200.0   30.0   0.0
-200.0   0.0   16.666666666666668
-150.0   0.0   16.666666666666668
-200.0   30.0   16.666666666666668
-200.0   0.0   33.333333333333336
-150.0   0.0   16.666666666666668
-150.0   30.0   16.666666666666668
-200.0   30.0   16.666666666666668
-150.0   30.0   33.333333333333336
-200.0   0.0   33.333333333333336
-200.0   30.0   33.333333333333336
-150.0   30.0   33.333333333333336
-200.0   30.0   16.666666666666668
-200.0   0.0   33.333333333333336
-150.0   30.0   33.333333333333336
-150.0   0.0   33.333333333333336
-150.0   0.0   16.666666666666668
-200.0   0.0   33.333333333333336
-150.0   30.0   33.333333333333336
-150.0   0.0   16.666666666666668
-200.0   30.0   16.666666666666668
-200.0   0.0   33.333333333333336
-150.0   0.0   33.333333333333336
-200.0   30.0   33.333333333333336
-200.0   0.0   50.0
-150.0   0.0   33.333333333333336
-150.0   30.0   33.333333333333336
-200.0   30.0   33.333333333333336
-150.0   30.0   50.0
-200.0   0.0   50.0
-200.0   30.0   50.0
-150.0   30.0   50.0
-200.0   30.0   33.333333333333336
-200.0   0.0   50.0
-150.0   30.0   50.0
-150.0   0.0   50.0
-150.0   0.0   33.333333333333336
-200.0   0.0   50.0
-150.0   30.0   50.0
-150.0   0.0   33.333333333333336
-200.0   30.0   33.333333333333336
-200.0   30.0   0.0
-150.0   30.0   0.0
-200.0   60.0   0.0
-200.0   30.0   16.666666666666668
-150.0   30.0   0.0
-150.0   60.0   0.0
-200.0   60.0   0.0
-150.0   60.0   16.666666666666668
-200.0   30.0   16.666666666666668
-200.0   60.0   16.666666666666668
-150.0   60.0   16.666666666666668
-200.0   60.0   0.0
-200.0   30.0   16.666666666666668
-150.0   60.0   16.666666666666668
-150.0   30.0   16.666666666666668
-150.0   30.0   0.0
-200.0   30.0   16.666666666666668
-150.0   60.0   16.666666666666668
-150.0   30.0   0.0
-200.0   60.0   0.0
-200.0   30.0   16.666666666666668
-150.0   30.0   16.666666666666668
-200.0   60.0   16.666666666666668
-200.0   30.0   33.333333333333336
-150.0   30.0   16.666666666666668
-150.0   60.0   16.666666666666668
-200.0   60.0   16.666666666666668
-150.0   60.0   33.333333333333336
-200.0   30.0   33.333333333333336
-200.0   60.0   33.333333333333336
-150.0   60.0   33.333333333333336
-200.0   60.0   16.666666666666668
-200.0   30.0   33.333333333333336
-150.0   60.0   33.333333333333336
-150.0   30.0   33.333333333333336
-150.0   30.0   16.666666666666668
-200.0   30.0   33.333333333333336
-150.0   60.0   33.333333333333336
-150.0   30.0   16.666666666666668
-200.0   60.0   16.666666666666668
-200.0   30.0   33.333333333333336
-150.0   30.0   33.333333333333336
-200.0   60.0   33.333333333333336
-200.0   30.0   50.0
-150.0   30.0   33.333333333333336
-150.0   60.0   33.333333333333336
-200.0   60.0   33.333333333333336
-150.0   60.0   50.0
-200.0   30.0   50.0
-200.0   60.0   50.0
-150.0   60.0   50.0
-200.0   60.0   33.333333333333336
-200.0   30.0   50.0
-150.0   60.0   50.0
-150.0   30.0   50.0
-150.0   30.0   33.333333333333336
-200.0   30.0   50.0
-150.0   60.0   50.0
-150.0   30.0   33.333333333333336
-200.0   60.0   33.333333333333336
-200.0   60.0   0.0
-150.0   60.0   0.0
-200.0   90.0   0.0
-200.0   60.0   16.666666666666668
-150.0   60.0   0.0
-150.0   90.0   0.0
-200.0   90.0   0.0
-150.0   90.0   16.666666666666668
-200.0   60.0   16.666666666666668
-200.0   90.0   16.666666666666668
-150.0   90.0   16.666666666666668
-200.0   90.0   0.0
-200.0   60.0   16.666666666666668
-150.0   90.0   16.666666666666668
-150.0   60.0   16.666666666666668
-150.0   60.0   0.0
-200.0   60.0   16.666666666666668
-150.0   90.0   16.666666666666668
-150.0   60.0   0.0
-200.0   90.0   0.0
-200.0   60.0   16.666666666666668
-150.0   60.0   16.666666666666668
-200.0   90.0   16.666666666666668
-200.0   60.0   33.333333333333336
-150.0   60.0   16.666666666666668
-150.0   90.0   16.666666666666668
-200.0   90.0   16.666666666666668
-150.0   90.0   33.333333333333336
-200.0   60.0   33.333333333333336
-200.0   90.0   33.333333333333336
-150.0   90.0   33.333333333333336
-200.0   90.0   16.666666666666668
-200.0   60.0   33.333333333333336
-150.0   90.0   33.333333333333336
-150.0   60.0   33.333333333333336
-150.0   60.0   16.666666666666668
-200.0   60.0   33.333333333333336
-150.0   90.0   33.333333333333336
-150.0   60.0   16.666666666666668
-200.0   90.0   16.666666666666668
-200.0   60.0   33.333333333333336
-150.0   60.0   33.333333333333336
-200.0   90.0   33.333333333333336
-200.0   60.0   50.0
-150.0   60.0   33.333333333333336
-150.0   90.0   33.333333333333336
-200.0   90.0   33.333333333333336
-150.0   90.0   50.0
-200.0   60.0   50.0
-200.0   90.0   50.0
-150.0   90.0   50.0
-200.0   90.0   33.333333333333336
-200.0   60.0   50.0
-150.0   90.0   50.0
-150.0   60.0   50.0
-150.0   60.0   33.333333333333336
-200.0   60.0   50.0
-150.0   90.0   50.0
-150.0   60.0   33.333333333333336
-200.0   90.0   33.333333333333336
-200.0   90.0   0.0
-150.0   90.0   0.0
-200.0   120.0   0.0
-200.0   90.0   16.666666666666668
-150.0   90.0   0.0
-150.0   120.0   0.0
-200.0   120.0   0.0
-150.0   120.0   16.666666666666668
-200.0   90.0   16.666666666666668
-200.0   120.0   16.666666666666668
-150.0   120.0   16.666666666666668
-200.0   120.0   0.0
-200.0   90.0   16.666666666666668
-150.0   120.0   16.666666666666668
-150.0   90.0   16.666666666666668
-150.0   90.0   0.0
-200.0   90.0   16.666666666666668
-150.0   120.0   16.666666666666668
-150.0   90.0   0.0
-200.0   120.0   0.0
-200.0   90.0   16.666666666666668
-150.0   90.0   16.666666666666668
-200.0   120.0   16.666666666666668
-200.0   90.0   33.333333333333336
-150.0   90.0   16.666666666666668
-150.0   120.0   16.666666666666668
-200.0   120.0   16.666666666666668
-150.0   120.0   33.333333333333336
-200.0   90.0   33.333333333333336
-200.0   120.0   33.333333333333336
-150.0   120.0   33.333333333333336
-200.0   120.0   16.666666666666668
-200.0   90.0   33.333333333333336
-150.0   120.0   33.333333333333336
-150.0   90.0   33.333333333333336
-150.0   90.0   16.666666666666668
-200.0   90.0   33.333333333333336
-150.0   120.0   33.333333333333336
-150.0   90.0   16.666666666666668
-200.0   120.0   16.666666666666668
-200.0   90.0   33.333333333333336
-150.0   90.0   33.333333333333336
-200.0   120.0   33.333333333333336
-200.0   90.0   50.0
-150.0   90.0   33.333333333333336
-150.0   120.0   33.333333333333336
-200.0   120.0   33.333333333333336
-150.0   120.0   50.0
-200.0   90.0   50.0
-200.0   120.0   50.0
-150.0   120.0   50.0
-200.0   120.0   33.333333333333336
-200.0   90.0   50.0
-150.0   120.0   50.0
-150.0   90.0   50.0
-150.0   90.0   33.333333333333336
-200.0   90.0   50.0
-150.0   120.0   50.0
-150.0   90.0   33.333333333333336
-200.0   120.0   33.333333333333336
-200.0   120.0   0.0
-150.0   120.0   0.0
-200.0   150.0   0.0
-200.0   120.0   16.666666666666668
-150.0   120.0   0.0
-150.0   150.0   0.0
-200.0   150.0   0.0
-150.0   150.0   16.666666666666668
-200.0   120.0   16.666666666666668
-200.0   150.0   16.666666666666668
-150.0   150.0   16.666666666666668
-200.0   150.0   0.0
-200.0   120.0   16.666666666666668
-150.0   150.0   16.666666666666668
-150.0   120.0   16.666666666666668
-150.0   120.0   0.0
-200.0   120.0   16.666666666666668
-150.0   150.0   16.666666666666668
-150.0   120.0   0.0
-200.0   150.0   0.0
-200.0   120.0   16.666666666666668
-150.0   120.0   16.666666666666668
-200.0   150.0   16.666666666666668
-200.0   120.0   33.333333333333336
-150.0   120.0   16.666666666666668
-150.0   150.0   16.666666666666668
-200.0   150.0   16.666666666666668
-150.0   150.0   33.333333333333336
-200.0   120.0   33.333333333333336
-200.0   150.0   33.333333333333336
-150.0   150.0   33.333333333333336
-200.0   150.0   16.666666666666668
-200.0   120.0   33.333333333333336
-150.0   150.0   33.333333333333336
-150.0   120.0   33.333333333333336
-150.0   120.0   16.666666666666668
-200.0   120.0   33.333333333333336
-150.0   150.0   33.333333333333336
-150.0   120.0   16.666666666666668
-200.0   150.0   16.666666666666668
-200.0   120.0   33.333333333333336
-150.0   120.0   33.333333333333336
-200.0   150.0   33.333333333333336
-200.0   120.0   50.0
-150.0   120.0   33.333333333333336
-150.0   150.0   33.333333333333336
-200.0   150.0   33.333333333333336
-150.0   150.0   50.0
-200.0   120.0   50.0
-200.0   150.0   50.0
-150.0   150.0   50.0
-200.0   150.0   33.333333333333336
-200.0   120.0   50.0
-150.0   150.0   50.0
-150.0   120.0   50.0
-150.0   120.0   33.333333333333336
-200.0   120.0   50.0
-150.0   150.0   50.0
-150.0   120.0   33.333333333333336
-200.0   150.0   33.333333333333336
-150.0   0.0   0.0
-100.0   0.0   0.0
-150.0   30.0   0.0
-150.0   0.0   16.666666666666668
-100.0   0.0   0.0
-100.0   30.0   0.0
-150.0   30.0   0.0
-100.0   30.0   16.666666666666668
-150.0   0.0   16.666666666666668
-150.0   30.0   16.666666666666668
-100.0   30.0   16.666666666666668
-150.0   30.0   0.0
-150.0   0.0   16.666666666666668
-100.0   30.0   16.666666666666668
-100.0   0.0   16.666666666666668
-100.0   0.0   0.0
-150.0   0.0   16.666666666666668
-100.0   30.0   16.666666666666668
-100.0   0.0   0.0
-150.0   30.0   0.0
-150.0   0.0   16.666666666666668
-100.0   0.0   16.666666666666668
-150.0   30.0   16.666666666666668
-150.0   0.0   33.333333333333336
-100.0   0.0   16.666666666666668
-100.0   30.0   16.666666666666668
-150.0   30.0   16.666666666666668
-100.0   30.0   33.333333333333336
-150.0   0.0   33.333333333333336
-150.0   30.0   33.333333333333336
-100.0   30.0   33.333333333333336
-150.0   30.0   16.666666666666668
-150.0   0.0   33.333333333333336
-100.0   30.0   33.333333333333336
-100.0   0.0   33.333333333333336
-100.0   0.0   16.666666666666668
-150.0   0.0   33.333333333333336
-100.0   30.0   33.333333333333336
-100.0   0.0   16.666666666666668
-150.0   30.0   16.666666666666668
-150.0   0.0   33.333333333333336
-100.0   0.0   33.333333333333336
-150.0   30.0   33.333333333333336
-150.0   0.0   50.0
-100.0   0.0   33.333333333333336
-100.0   30.0   33.333333333333336
-150.0   30.0   33.333333333333336
-100.0   30.0   50.0
-150.0   0.0   50.0
-150.0   30.0   50.0
-100.0   30.0   50.0
-150.0   30.0   33.333333333333336
-150.0   0.0   50.0
-100.0   30.0   50.0
-100.0   0.0   50.0
-100.0   0.0   33.333333333333336
-150.0   0.0   50.0
-100.0   30.0   50.0
-100.0   0.0   33.333333333333336
-150.0   30.0   33.333333333333336
-150.0   30.0   0.0
-100.0   30.0   0.0
-150.0   60.0   0.0
-150.0   30.0   16.666666666666668
-100.0   30.0   0.0
-100.0   60.0   0.0
-150.0   60.0   0.0
-100.0   60.0   16.666666666666668
-150.0   30.0   16.666666666666668
-150.0   60.0   16.666666666666668
-100.0   60.0   16.666666666666668
-150.0   60.0   0.0
-150.0   30.0   16.666666666666668
-100.0   60.0   16.666666666666668
-100.0   30.0   16.666666666666668
-100.0   30.0   0.0
-150.0   30.0   16.666666666666668
-100.0   60.0   16.666666666666668
-100.0   30.0   0.0
-150.0   60.0   0.0
-150.0   30.0   16.666666666666668
-100.0   30.0   16.666666666666668
-150.0   60.0   16.666666666666668
-150.0   30.0   33.333333333333336
-100.0   30.0   16.666666666666668
-100.0   60.0   16.666666666666668
-150.0   60.0   16.666666666666668
-100.0   60.0   33.333333333333336
-150.0   30.0   33.333333333333336
-150.0   60.0   33.333333333333336
-100.0   60.0   33.333333333333336
-150.0   60.0   16.666666666666668
-150.0   30.0   33.333333333333336
-100.0   60.0   33.333333333333336
-100.0   30.0   33.333333333333336
-100.0   30.0   16.666666666666668
-150.0   30.0   33.333333333333336
-100.0   60.0   33.333333333333336
-100.0   30.0   16.666666666666668
-150.0   60.0   16.666666666666668
-150.0   30.0   33.333333333333336
-100.0   30.0   33.333333333333336
-150.0   60.0   33.333333333333336
-150.0   30.0   50.0
-100.0   30.0   33.333333333333336
-100.0   60.0   33.333333333333336
-150.0   60.0   33.333333333333336
-100.0   60.0   50.0
-150.0   30.0   50.0
-150.0   60.0   50.0
-100.0   60.0   50.0
-150.0   60.0   33.333333333333336
-150.0   30.0   50.0
-100.0   60.0   50.0
-100.0   30.0   50.0
-100.0   30.0   33.333333333333336
-150.0   30.0   50.0
-100.0   60.0   50.0
-100.0   30.0   33.333333333333336
-150.0   60.0   33.333333333333336
-150.0   60.0   0.0
-100.0   60.0   0.0
-150.0   90.0   0.0
-150.0   60.0   16.666666666666668
-100.0   60.0   0.0
-100.0   90.0   0.0
-150.0   90.0   0.0
-100.0   90.0   16.666666666666668
-150.0   60.0   16.666666666666668
-150.0   90.0   16.666666666666668
-100.0   90.0   16.666666666666668
-150.0   90.0   0.0
-150.0   60.0   16.666666666666668
-100.0   90.0   16.666666666666668
-100.0   60.0   16.666666666666668
-100.0   60.0   0.0
-150.0   60.0   16.666666666666668
-100.0   90.0   16.666666666666668
-100.0   60.0   0.0
-150.0   90.0   0.0
-150.0   60.0   16.666666666666668
-100.0   60.0   16.666666666666668
-150.0   90.0   16.666666666666668
-150.0   60.0   33.333333333333336
-100.0   60.0   16.666666666666668
-100.0   90.0   16.666666666666668
-150.0   90.0   16.666666666666668
-100.0   90.0   33.333333333333336
-150.0   60.0   33.333333333333336
-150.0   90.0   33.333333333333336
-100.0   90.0   33.333333333333336
-150.0   90.0   16.666666666666668
-150.0   60.0   33.333333333333336
-100.0   90.0   33.333333333333336
-100.0   60.0   33.333333333333336
-100.0   60.0   16.666666666666668
-150.0   60.0   33.333333333333336
-100.0   90.0   33.333333333333336
-100.0   60.0   16.666666666666668
-150.0   90.0   16.666666666666668
-150.0   60.0   33.333333333333336
-100.0   60.0   33.333333333333336
-150.0   90.0   33.333333333333336
-150.0   60.0   50.0
-100.0   60.0   33.333333333333336
-100.0   90.0   33.333333333333336
-150.0   90.0   33.333333333333336
-100.0   90.0   50.0
-150.0   60.0   50.0
-150.0   90.0   50.0
-100.0   90.0   50.0
-150.0   90.0   33.333333333333336
-150.0   60.0   50.0
-100.0   90.0   50.0
-100.0   60.0   50.0
-100.0   60.0   33.333333333333336
-150.0   60.0   50.0
-100.0   90.0   50.0
-100.0   60.0   33.333333333333336
-150.0   90.0   33.333333333333336
-150.0   90.0   0.0
-100.0   90.0   0.0
-150.0   120.0   0.0
-150.0   90.0   16.666666666666668
-100.0   90.0   0.0
-100.0   120.0   0.0
-150.0   120.0   0.0
-100.0   120.0   16.666666666666668
-150.0   90.0   16.666666666666668
-150.0   120.0   16.666666666666668
-100.0   120.0   16.666666666666668
-150.0   120.0   0.0
-150.0   90.0   16.666666666666668
-100.0   120.0   16.666666666666668
-100.0   90.0   16.666666666666668
-100.0   90.0   0.0
-150.0   90.0   16.666666666666668
-100.0   120.0   16.666666666666668
-100.0   90.0   0.0
-150.0   120.0   0.0
-150.0   90.0   16.666666666666668
-100.0   90.0   16.666666666666668
-150.0   120.0   16.666666666666668
-150.0   90.0   33.333333333333336
-100.0   90.0   16.666666666666668
-100.0   120.0   16.666666666666668
-150.0   120.0   16.666666666666668
-100.0   120.0   33.333333333333336
-150.0   90.0   33.333333333333336
-150.0   120.0   33.333333333333336
-100.0   120.0   33.333333333333336
-150.0   120.0   16.666666666666668
-150.0   90.0   33.333333333333336
-100.0   120.0   33.333333333333336
-100.0   90.0   33.333333333333336
-100.0   90.0   16.666666666666668
-150.0   90.0   33.333333333333336
-100.0   120.0   33.333333333333336
-100.0   90.0   16.666666666666668
-150.0   120.0   16.666666666666668
-150.0   90.0   33.333333333333336
-100.0   90.0   33.333333333333336
-150.0   120.0   33.333333333333336
-150.0   90.0   50.0
-100.0   90.0   33.333333333333336
-100.0   120.0   33.333333333333336
-150.0   120.0   33.333333333333336
-100.0   120.0   50.0
-150.0   90.0   50.0
-150.0   120.0   50.0
-100.0   120.0   50.0
-150.0   120.0   33.333333333333336
-150.0   90.0   50.0
-100.0   120.0   50.0
-100.0   90.0   50.0
-100.0   90.0   33.333333333333336
-150.0   90.0   50.0
-100.0   120.0   50.0
-100.0   90.0   33.333333333333336
-150.0   120.0   33.333333333333336
-150.0   120.0   0.0
-100.0   120.0   0.0
-150.0   150.0   0.0
-150.0   120.0   16.666666666666668
-100.0   120.0   0.0
-100.0   150.0   0.0
-150.0   150.0   0.0
-100.0   150.0   16.666666666666668
-150.0   120.0   16.666666666666668
-150.0   150.0   16.666666666666668
-100.0   150.0   16.666666666666668
-150.0   150.0   0.0
-150.0   120.0   16.666666666666668
-100.0   150.0   16.666666666666668
-100.0   120.0   16.666666666666668
-100.0   120.0   0.0
-150.0   120.0   16.666666666666668
-100.0   150.0   16.666666666666668
-100.0   120.0   0.0
-150.0   150.0   0.0
-150.0   120.0   16.666666666666668
-100.0   120.0   16.666666666666668
-150.0   150.0   16.666666666666668
-150.0   120.0   33.333333333333336
-100.0   120.0   16.666666666666668
-100.0   150.0   16.666666666666668
-150.0   150.0   16.666666666666668
-100.0   150.0   33.333333333333336
-150.0   120.0   33.333333333333336
-150.0   150.0   33.333333333333336
-100.0   150.0   33.333333333333336
-150.0   150.0   16.666666666666668
-150.0   120.0   33.333333333333336
-100.0   150.0   33.333333333333336
-100.0   120.0   33.333333333333336
-100.0   120.0   16.666666666666668
-150.0   120.0   33.333333333333336
-100.0   150.0   33.333333333333336
-100.0   120.0   16.666666666666668
-150.0   150.0   16.666666666666668
-150.0   120.0   33.333333333333336
-100.0   120.0   33.333333333333336
-150.0   150.0   33.333333333333336
-150.0   120.0   50.0
-100.0   120.0   33.333333333333336
-100.0   150.0   33.333333333333336
-150.0   150.0   33.333333333333336
-100.0   150.0   50.0
-150.0   120.0   50.0
-150.0   150.0   50.0
-100.0   150.0   50.0
-150.0   150.0   33.333333333333336
-150.0   120.0   50.0
-100.0   150.0   50.0
-100.0   120.0   50.0
-100.0   120.0   33.333333333333336
-150.0   120.0   50.0
-100.0   150.0   50.0
-100.0   120.0   33.333333333333336
-150.0   150.0   33.333333333333336
-100.0   0.0   0.0
-50.0   0.0   0.0
-100.0   30.0   0.0
-100.0   0.0   16.666666666666668
-50.0   0.0   0.0
-50.0   30.0   0.0
-100.0   30.0   0.0
-50.0   30.0   16.666666666666668
-100.0   0.0   16.666666666666668
-100.0   30.0   16.666666666666668
-50.0   30.0   16.666666666666668
-100.0   30.0   0.0
-100.0   0.0   16.666666666666668
-50.0   30.0   16.666666666666668
-50.0   0.0   16.666666666666668
-50.0   0.0   0.0
-100.0   0.0   16.666666666666668
-50.0   30.0   16.666666666666668
-50.0   0.0   0.0
-100.0   30.0   0.0
-100.0   0.0   16.666666666666668
-50.0   0.0   16.666666666666668
-100.0   30.0   16.666666666666668
-100.0   0.0   33.333333333333336
-50.0   0.0   16.666666666666668
-50.0   30.0   16.666666666666668
-100.0   30.0   16.666666666666668
-50.0   30.0   33.333333333333336
-100.0   0.0   33.333333333333336
-100.0   30.0   33.333333333333336
-50.0   30.0   33.333333333333336
-100.0   30.0   16.666666666666668
-100.0   0.0   33.333333333333336
-50.0   30.0   33.333333333333336
-50.0   0.0   33.333333333333336
-50.0   0.0   16.666666666666668
-100.0   0.0   33.333333333333336
-50.0   30.0   33.333333333333336
-50.0   0.0   16.666666666666668
-100.0   30.0   16.666666666666668
-100.0   0.0   33.333333333333336
-50.0   0.0   33.333333333333336
-100.0   30.0   33.333333333333336
-100.0   0.0   50.0
-50.0   0.0   33.333333333333336
-50.0   30.0   33.333333333333336
-100.0   30.0   33.333333333333336
-50.0   30.0   50.0
-100.0   0.0   50.0
-100.0   30.0   50.0
-50.0   30.0   50.0
-100.0   30.0   33.333333333333336
-100.0   0.0   50.0
-50.0   30.0   50.0
-50.0   0.0   50.0
-50.0   0.0   33.333333333333336
-100.0   0.0   50.0
-50.0   30.0   50.0
-50.0   0.0   33.333333333333336
-100.0   30.0   33.333333333333336
-100.0   30.0   0.0
-50.0   30.0   0.0
-100.0   60.0   0.0
-100.0   30.0   16.666666666666668
-50.0   30.0   0.0
-50.0   60.0   0.0
-100.0   60.0   0.0
-50.0   60.0   16.666666666666668
-100.0   30.0   16.666666666666668
-100.0   60.0   16.666666666666668
-50.0   60.0   16.666666666666668
-100.0   60.0   0.0
-100.0   30.0   16.666666666666668
-50.0   60.0   16.666666666666668
-50.0   30.0   16.666666666666668
-50.0   30.0   0.0
-100.0   30.0   16.666666666666668
-50.0   60.0   16.666666666666668
-50.0   30.0   0.0
-100.0   60.0   0.0
-100.0   30.0   16.666666666666668
-50.0   30.0   16.666666666666668
-100.0   60.0   16.666666666666668
-100.0   30.0   33.333333333333336
-50.0   30.0   16.666666666666668
-50.0   60.0   16.666666666666668
-100.0   60.0   16.666666666666668
-50.0   60.0   33.333333333333336
-100.0   30.0   33.333333333333336
-100.0   60.0   33.333333333333336
-50.0   60.0   33.333333333333336
-100.0   60.0   16.666666666666668
-100.0   30.0   33.333333333333336
-50.0   60.0   33.333333333333336
-50.0   30.0   33.333333333333336
-50.0   30.0   16.666666666666668
-100.0   30.0   33.333333333333336
-50.0   60.0   33.333333333333336
-50.0   30.0   16.666666666666668
-100.0   60.0   16.666666666666668
-100.0   30.0   33.333333333333336
-50.0   30.0   33.333333333333336
-100.0   60.0   33.333333333333336
-100.0   30.0   50.0
-50.0   30.0   33.333333333333336
-50.0   60.0   33.333333333333336
-100.0   60.0   33.333333333333336
-50.0   60.0   50.0
-100.0   30.0   50.0
-100.0   60.0   50.0
-50.0   60.0   50.0
-100.0   60.0   33.333333333333336
-100.0   30.0   50.0
-50.0   60.0   50.0
-50.0   30.0   50.0
-50.0   30.0   33.333333333333336
-100.0   30.0   50.0
-50.0   60.0   50.0
-50.0   30.0   33.333333333333336
-100.0   60.0   33.333333333333336
-100.0   60.0   0.0
-50.0   60.0   0.0
-100.0   90.0   0.0
-100.0   60.0   16.666666666666668
-50.0   60.0   0.0
-50.0   90.0   0.0
-100.0   90.0   0.0
-50.0   90.0   16.666666666666668
-100.0   60.0   16.666666666666668
-100.0   90.0   16.666666666666668
-50.0   90.0   16.666666666666668
-100.0   90.0   0.0
-100.0   60.0   16.666666666666668
-50.0   90.0   16.666666666666668
-50.0   60.0   16.666666666666668
-50.0   60.0   0.0
-100.0   60.0   16.666666666666668
-50.0   90.0   16.666666666666668
-50.0   60.0   0.0
-100.0   90.0   0.0
-100.0   60.0   16.666666666666668
-50.0   60.0   16.666666666666668
-100.0   90.0   16.666666666666668
-100.0   60.0   33.333333333333336
-50.0   60.0   16.666666666666668
-50.0   90.0   16.666666666666668
-100.0   90.0   16.666666666666668
-50.0   90.0   33.333333333333336
-100.0   60.0   33.333333333333336
-100.0   90.0   33.333333333333336
-50.0   90.0   33.333333333333336
-100.0   90.0   16.666666666666668
-100.0   60.0   33.333333333333336
-50.0   90.0   33.333333333333336
-50.0   60.0   33.333333333333336
-50.0   60.0   16.666666666666668
-100.0   60.0   33.333333333333336
-50.0   90.0   33.333333333333336
-50.0   60.0   16.666666666666668
-100.0   90.0   16.666666666666668
-100.0   60.0   33.333333333333336
-50.0   60.0   33.333333333333336
-100.0   90.0   33.333333333333336
-100.0   60.0   50.0
-50.0   60.0   33.333333333333336
-50.0   90.0   33.333333333333336
-100.0   90.0   33.333333333333336
-50.0   90.0   50.0
-100.0   60.0   50.0
-100.0   90.0   50.0
-50.0   90.0   50.0
-100.0   90.0   33.333333333333336
-100.0   60.0   50.0
-50.0   90.0   50.0
-50.0   60.0   50.0
-50.0   60.0   33.333333333333336
-100.0   60.0   50.0
-50.0   90.0   50.0
-50.0   60.0   33.333333333333336
-100.0   90.0   33.333333333333336
-100.0   90.0   0.0
-50.0   90.0   0.0
-100.0   120.0   0.0
-100.0   90.0   16.666666666666668
-50.0   90.0   0.0
-50.0   120.0   0.0
-100.0   120.0   0.0
-50.0   120.0   16.666666666666668
-100.0   90.0   16.666666666666668
-100.0   120.0   16.666666666666668
-50.0   120.0   16.666666666666668
-100.0   120.0   0.0
-100.0   90.0   16.666666666666668
-50.0   120.0   16.666666666666668
-50.0   90.0   16.666666666666668
-50.0   90.0   0.0
-100.0   90.0   16.666666666666668
-50.0   120.0   16.666666666666668
-50.0   90.0   0.0
-100.0   120.0   0.0
-100.0   90.0   16.666666666666668
-50.0   90.0   16.666666666666668
-100.0   120.0   16.666666666666668
-100.0   90.0   33.333333333333336
-50.0   90.0   16.666666666666668
-50.0   120.0   16.666666666666668
-100.0   120.0   16.666666666666668
-50.0   120.0   33.333333333333336
-100.0   90.0   33.333333333333336
-100.0   120.0   33.333333333333336
-50.0   120.0   33.333333333333336
-100.0   120.0   16.666666666666668
-100.0   90.0   33.333333333333336
-50.0   120.0   33.333333333333336
-50.0   90.0   33.333333333333336
-50.0   90.0   16.666666666666668
-100.0   90.0   33.333333333333336
-50.0   120.0   33.333333333333336
-50.0   90.0   16.666666666666668
-100.0   120.0   16.666666666666668
-100.0   90.0   33.333333333333336
-50.0   90.0   33.333333333333336
-100.0   120.0   33.333333333333336
-100.0   90.0   50.0
-50.0   90.0   33.333333333333336
-50.0   120.0   33.333333333333336
-100.0   120.0   33.333333333333336
-50.0   120.0   50.0
-100.0   90.0   50.0
-100.0   120.0   50.0
-50.0   120.0   50.0
-100.0   120.0   33.333333333333336
-100.0   90.0   50.0
-50.0   120.0   50.0
-50.0   90.0   50.0
-50.0   90.0   33.333333333333336
-100.0   90.0   50.0
-50.0   120.0   50.0
-50.0   90.0   33.333333333333336
-100.0   120.0   33.333333333333336
-100.0   120.0   0.0
-50.0   120.0   0.0
-100.0   150.0   0.0
-100.0   120.0   16.666666666666668
-50.0   120.0   0.0
-50.0   150.0   0.0
-100.0   150.0   0.0
-50.0   150.0   16.666666666666668
-100.0   120.0   16.666666666666668
-100.0   150.0   16.666666666666668
-50.0   150.0   16.666666666666668
-100.0   150.0   0.0
-100.0   120.0   16.666666666666668
-50.0   150.0   16.666666666666668
-50.0   120.0   16.666666666666668
-50.0   120.0   0.0
-100.0   120.0   16.666666666666668
-50.0   150.0   16.666666666666668
-50.0   120.0   0.0
-100.0   150.0   0.0
-100.0   120.0   16.666666666666668
-50.0   120.0   16.666666666666668
-100.0   150.0   16.666666666666668
-100.0   120.0   33.333333333333336
-50.0   120.0   16.666666666666668
-50.0   150.0   16.666666666666668
-100.0   150.0   16.666666666666668
-50.0   150.0   33.333333333333336
-100.0   120.0   33.333333333333336
-100.0   150.0   33.333333333333336
-50.0   150.0   33.333333333333336
-100.0   150.0   16.666666666666668
-100.0   120.0   33.333333333333336
-50.0   150.0   33.333333333333336
-50.0   120.0   33.333333333333336
-50.0   120.0   16.666666666666668
-100.0   120.0   33.333333333333336
-50.0   150.0   33.333333333333336
-50.0   120.0   16.666666666666668
-100.0   150.0   16.666666666666668
-100.0   120.0   33.333333333333336
-50.0   120.0   33.333333333333336
-100.0   150.0   33.333333333333336
-100.0   120.0   50.0
-50.0   120.0   33.333333333333336
-50.0   150.0   33.333333333333336
-100.0   150.0   33.333333333333336
-50.0   150.0   50.0
-100.0   120.0   50.0
-100.0   150.0   50.0
-50.0   150.0   50.0
-100.0   150.0   33.333333333333336
-100.0   120.0   50.0
-50.0   150.0   50.0
-50.0   120.0   50.0
-50.0   120.0   33.333333333333336
-100.0   120.0   50.0
-50.0   150.0   50.0
-50.0   120.0   33.333333333333336
-100.0   150.0   33.333333333333336
-50.0   0.0   0.0
0.0   0.0   0.0
-50.0   30.0   0.0
-50.0   0.0   16.666666666666668
0.0   0.0   0.0
0.0   30.0   0.0
-50.0   30.0   0.0
0.0   30.0   16.666666666666668
-50.0   0.0   16.666666666666668
-50.0   30.0   16.666666666666668
0.0   30.0   16.666666666666668
-50.0   30.0   0.0
-50.0   0.0   16.666666666666668
0.0   30.0   16.666666666666668
0.0   0.0   16.666666666666668
0.0   0.0   0.0
-50.0   0.0   16.666666666666668
0.0   30.0   16.666666666666668
0.0   0.0   0.0
-50.0   30.0   0.0
-50.0   0.0   16.666666666666668
0.0   0.0   16.666666666666668
-50.0   30.0   16.666666666666668
-50.0   0.0   33.333333333333336
0.0   0.0   16.666666666666668
0.0   30.0   16.666666666666668
-50.0   30.0   16.666666666666668
0.0   30.0   33.333333333333336
-50.0   0.0   33.333333333333336
-50.0   30.0   33.333333333333336
0.0   30.0   33.333333333333336
-50.0   30.0   16.666666666666668
-50.0   0.0   33.333333333333336
0.0   30.0   33.333333333333336
0.0   0.0   33.333333333333336
0.0   0.0   16.666666666666668
-50.0   0.0   33.333333333333336
0.0   30.0   33.333333333333336
0.0   0.0   16.666666666666668
-50.0   30.0   16.666666666666668
-50.0   0.0   33.333333333333336
0.0   0.0   33.333333333333336
-50.0   30.0   33.333333333333336
-50.0   0.0   50.0
0.0   0.0   33.333333333333336
0.0   30.0   33.333333333333336
-50.0   30.0   33.333333333333336
0.0   30.0   50.0
-50.0   0.0   50.0
-50.0   30.0   50.0
0.0   30.0   50.0
-50.0   30.0   33.333333333333336
-50.0   0.0   50.0
0.0   30.0   50.0
0.0   0.0   50.0
0.0   0.0   33.333333333333336
-50.0   0.0   50.0
0.0   30.0   50.0
0.0   0.0   33.333333333333336
-50.0   30.0   33.333333333333336
-50.0   30.0   0.0
0.0   30.0   0.0
-50.0   60.0   0.0
-50.0   30.0   16.666666666666668
0.0   30.0   0.0
0.0   60.0   0.0
-50.0   60.0   0.0
0.0   60.0   16.666666666666668
-50.0   30.0   16.666666666666668
-50.0   60.0   16.666666666666668
0.0   60.0   16.666666666666668
-50.0   60.0   0.0
-50.0   30.0   16.666666666666668
0.0   60.0   16.666666666666668
0.0   30.0   16.666666666666668
0.0   30.0   0.0
-50.0   30.0   16.666666666666668
0.0   60.0   16.666666666666668
0.0   30.0   0.0
-50.0   60.0   0.0
-50.0   30.0   16.666666666666668
0.0   30.0   16.666666666666668
-50.0   60.0   16.666666666666668
-50.0   30.0   33.333333333333336
0.0   30.0   16.666666666666668
0.0   60.0   16.666666666666668
-50.0   60.0   16.666666666666668
0.0   60.0   33.333333333333336
-50.0   30.0   33.333333333333336
-50.0   60.0   33.333333333333336
0.0   60.0   33.333333333333336
-50.0   60.0   16.666666666666668
-50.0   30.0   33.333333333333336
0.0   60.0   33.333333333333336
0.0   30.0   33.333333333333336
0.0   30.0   16.666666666666668
-50.0   30.0   33.333333333333336
0.0   60.0   33.333333333333336
0.0   30.0   16.666666666666668
-50.0   60.0   16.666666666666668
-50.0   30.0   33.333333333333336
0.0   30.0   33.333333333333336
-50.0   60.0   33.333333333333336
-50.0   30.0   50.0
0.0   30.0   33.333333333333336
0.0   60.0   33.333333333333336
-50.0   60.0   33.333333333333336
0.0   60.0   50.0
-50.0   30.0   50.0
-50.0   60.0   50.0
0.0   60.0   50.0
-50.0   60.0   33.333333333333336
-50.0   30.0   50.0
0.0   60.0   50.0
0.0   30.0   50.0
0.0   30.0   33.333333333333336
-50.0   30.0   50.0
0.0   60.0   50.0
0.0   30.0   33.333333333333336
-50.0   60.0   33.333333333333336
-50.0   60.0   0.0
0.0   60.0   0.0
-50.0   90.0   0.0
-50.0   60.0   16.666666666666668
0.0   60.0   0.0
0.0   90.0   0.0
-50.0   90.0   0.0
0.0   90.0   16.666666666666668
-50.0   60.0   16.666666666666668
-50.0   90.0   16.666666666666668
0.0   90.0   16.666666666666668
-50.0   90.0   0.0
-50.0   60.0   16.666666666666668
0.0   90.0   16.666666666666668
0.0   60.0   16.666666666666668
0.0   60.0   0.0
-50.0   60.0   16.666666666666668
0.0   90.0   16.666666666666668
0.0   60.0   0.0
-50.0   90.0   0.0
-50.0   60.0   16.666666666666668
0.0   60.0   16.666666666666668
-50.0   90.0   16.666666666666668
-50.0   60.0   33.333333333333336
0.0   60.0   16.666666666666668
0.0   90.0   16.666666666666668
-50.0   90.0   16.666666666666668
0.0   90.0   33.333333333333336
-50.0   60.0   33.333333333333336
-50.0   90.0   33.333333333333336
0.0   90.0   33.333333333333336
-50.0   90.0   16.666666666666668
-50.0   60.0   33.333333333333336
0.0   90.0   33.333333333333336
0.0   60.0   33.333333333333336
0.0   60.0   16.666666666666668
-50.0   60.0   33.333333333333336
0.0   90.0   33.333333333333336
0.0   60.0   16.666666666666668
-50.0   90.0   16.666666666666668
-50.0   60.0   33.333333333333336
0.0   60.0   33.333333333333336
-50.0   90.0   33.333333333333336
-50.0   60.0   50.0
0.0   60.0   33.333333333333336
0.0   90.0   33.333333333333336
-50.0   90.0   33.333333333333336
0.0   90.0   50.0
-50.0   60.0   50.0
-50.0   90.0   50.0
0.0   90.0   50.0
-50.0   90.0   33.333333333333336
-50.0   60.0   50.0
0.0   90.0   50.0
0.0   60.0   50.0
0.0   60.0   33.333333333333336
-50.0   60.0   50.0
0.0   90.0   50.0
0.0   60.0   33.333333333333336
-50.0   90.0   33.333333333333336
-50.0   90.0   0.0
0.0   90.0   0.0
-50.0   120.0   0.0
-50.0   90.0   16.666666666666668
0.0   90.0   0.0
0.0   120.0   0.0
-50.0   120.0   0.0
0.0   120.0   16.666666666666668
-50.0   90.0   16.666666666666668
-50.0   120.0   16.666666666666668
0.0   120.0   16.666666666666668
-50.0   120.0   0.0
-50.0   90.0   16.666666666666668
0.0   120.0   16.666666666666668
0.0   90.0   16.666666666666668
0.0   90.0   0.0
-50.0   90.0   16.666666666666668
0.0   120.0   16.666666666666668
0.0   90.0   0.0
-50.0   120.0   0.0
-50.0   90.0   16.666666666666668
0.0   90.0   16.666666666666668
-50.0   120.0   16.666666666666668
-50.0   90.0   33.333333333333336
0.0   90.0   16.666666666666668
0.0   120.0   16.666666666666668
-50.0   120.0   16.666666666666668
0.0   120.0   33.333333333333336
-50.0   90.0   33.333333333333336
-50.0   120.0   33.333333333333336
0.0   120.0   33.333333333333336
-50.0   120.0   16.666666666666668
-50.0   90.0   33.333333333333336
0.0   120.0   33.333333333333336
0.0   90.0   33.333333333333336
0.0   90.0   16.666666666666668
-50.0   90.0   33.333333333333336
0.0   120.0   33.333333333333336
0.0   90.0   16.666666666666668
-50.0   120.0   16.666666666666668
-50.0   90.0   33.333333333333336
0.0   90.0   33.333333333333336
-50.0   120.0   33.333333333333336
-50.0   90.0   50.0
0.0   90.0   33.333333333333336
0.0   120.0   33.333333333333336
-50.0   120.0   33.333333333333336
0.0   120.0   50.0
-50.0   90.0   50.0
-50.0   120.0   50.0
0.0   120.0   50.0
-50.0   120.0   33.333333333333336
-50.0   90.0   50.0
0.0   120.0   50.0
0.0   90.0   50.0
0.0   90.0   33.333333333333336
-50.0   90.0   50.0
0.0   120.0   50.0
0.0   90.0   33.333333333333336
-50.0   120.0   33.333333333333336
-50.0   120.0   0.0
0.0   120.0   0.0
-50.0   150.0   0.0
-50.0   120.0   16.666666666666668
0.0   120.0   0.0
0.0   150.0   0.0
-50.0   150.0   0.0
0.0   150.0   16.666666666666668
-50.0   120.0   16.666666666666668
-50.0   150.0   16.666666666666668
0.0   150.0   16.666666666666668
-50.0   150.0   0.0
-50.0   120.0   16.666666666666668
0.0   150.0   16.666666666666668
0.0   120.0   16.666666666666668
0.0   120.0   0.0
-50.0   120.0   16.666666666666668
0.0   150.0   16.666666666666668
0.0   120.0   0.0
-50.0   150.0   0.0
-50.0   120.0   16.666666666666668
0.0   120.0   16.666666666666668
-50.0   150.0   16.666666666666668
-50.0   120.0   33.333333333333336
0.0   120.0   16.666666666666668
0.0   150.0   16.666666666666668
-50.0   150.0   16.666666666666668
0.0   150.0   33.333333333333336
-50.0   120.0   33.333333333333336
-50.0   150.0   33.333333333333336
0.0   150.0   33.333333333333336
-50.0   150.0   16.666666666666668
-50.0   120.0   33.333333333333336
0.0   150.0   33.333333333333336
0.0   120.0   33.333333333333336
0.0   120.0   16.666666666666668
-50.0   120.0   33.333333333333336
0.0   150.0   33.333333333333336
0.0   120.0   16.666666666666668
-50.0   150.0   16.666666666666668
-50.0   120.0   33.333333333333336
0.0   120.0   33.333333333333336
-50.0   150.0   33.333333333333336
-50.0   120.0   50.0
0.0   120.0   33.333333333333336
0.0   150.0   33.333333333333336
-50.0   150.0   33.333333333333336
0.0   150.0   50.0
-50.0   120.0   50.0
-50.0   150.0   50.0
0.0   150.0   50.0
-50.0   150.0   33.333333333333336
-50.0   120.0   50.0
0.0   150.0   50.0
0.0   120.0   50.0
0.0   120.0   33.333333333333336
-50.0   120.0   50.0
0.0   150.0   50.0
0.0   120.0   33.333333333333336
-50.0   150.0   33.333333333333336
0.0   0.0   0.0
50.0   0.0   0.0
0.0   30.0   0.0
0.0   0.0   16.666666666666668
50.0   0.0   0.0
50.0   30.0   0.0
0.0   30.0   0.0
50.0   30.0   16.666666666666668
0.0   0.0   16.666666666666668
0.0   30.0   16.666666666666668
50.0   30.0   16.666666666666668
0.0   30.0   0.0
0.0   0.0   16.666666666666668
50.0   30.0   16.666666666666668
50.0   0.0   16.666666666666668
50.0   0.0   0.0
0.0   0.0   16.666666666666668
50.0   30.0   16.666666666666668
50.0   0.0   0.0
0.0   30.0   0.0
0.0   0.0   16.666666666666668
50.0   0.0   16.666666666666668
0.0   30.0   16.666666666666668
0.0   0.0   33.333333333333336
50.0   0.0   16.666666666666668
50.0   30.0   16.666666666666668
0.0   30.0   16.666666666666668
50.0   30.0   33.333333333333336
0.0   0.0   33.333333333333336
0.0   30.0   33.333333333333336
50.0   30.0   33.333333333333336
0.0   30.0   16.666666666666668
0.0   0.0   33.333333333333336
50.0   30.0   33.333333333333336
50.0   0.0   33.333333333333336
50.0   0.0   16.666666666666668
0.0   0.0   33.333333333333336
50.0   30.0   33.333333333333336
50.0   0.0   16.666666666666668
0.0   30.0   16.666666666666668
0.0   0.0   33.333333333333336
50.0   0.0   33.333333333333336
0.0   30.0   33.333333333333336
0.0   0.0   50.0
50.0   0.0   33.333333333333336
50.0   30.0   33.333333333333336
0.0   30.0   33.333333333333336
50.0   30.0   50.0
0.0   0.0   50.0
0.0   30.0   50.0
50.0   30.0   50.0
0.0   30.0   33.333333333333336
0.0   0.0   50.0
50.0   30.0   50.0
50.0   0.0   50.0
50.0   0.0   33.333333333333336
0.0   0.0   50.0
50.0   30.0   50.0
50.0   0.0   33.333333333333336
0.0   30.0   33.333333333333336
0.0   30.0   0.0
50.0   30.0   0.0
0.0   60.0   0.0
0.0   30.0   16.666666666666668
50.0   30.0   0.0
50.0   60.0   0.0
0.0   60.0   0.0
50.0   60.0   16.666666666666668
0.0   30.0   16.666666666666668
0.0   60.0   16.666666666666668
50.0   60.0   16.666666666666668
0.0   60.0   0.0
0.0   30.0   16.666666666666668
50.0   60.0   16.666666666666668
50.0   30.0   16.666666666666668
50.0   30.0   0.0
0.0   30.0   16.666666666666668
50.0   60.0   16.666666666666668
50.0   30.0   0.0
0.0   60.0   0.0
0.0   30.0   16.666666666666668
50.0   30.0   16.666666666666668
0.0   60.0   16.666666666666668
0.0   30.0   33.333333333333336
50.0   30.0   16.666666666666668
50.0   60.0   16.666666666666668
0.0   60.0   16.666666666666668
50.0   60.0   33.333333333333336
0.0   30.0   33.333333333333336
0.0   60.0   33.333333333333336
50.0   60.0   33.333333333333336
0.0   60.0   16.666666666666668
0.0   30.0   33.333333333333336
50.0   60.0   33.333333333333336
50.0   30.0   33.333333333333336
50.0   30.0   16.666666666666668
0.0   30.0   33.333333333333336
50.0   60.0   33.333333333333336
50.0   30.0   16.666666666666668
0.0   60.0   16.666666666666668
0.0   30.0   33.333333333333336
50.0   30.0   33.333333333333336
0.0   60.0   33.333333333333336
0.0   30.0   50.0
50.0   30.0   33.333333333333336
50.0   60.0   33.333333333333336
0.0   60.0   33.333333333333336
50.0   60.0   50.0
0.0   30.0   50.0
0.0   60.0   50.0
50.0   60.0   50.0
0.0   60.0   33.333333333333336
0.0   30.0   50.0
50.0   60.0   50.0
50.0   30.0   50.0
50.0   30.0   33.333333333333336
0.0   30.0   50.0
50.0   60.0   50.0
50.0   30.0   33.333333333333336
0.0   60.0   33.333333333333336
0.0   60.0   0.0
50.0   60.0   0.0
0.0   90.0   0.0
0.0   60.0   16.666666666666668
50.0   60.0   0.0
50.0   90.0   0.0
0.0   90.0   0.0
50.0   90.0   16.666666666666668
0.0   60.0   16.666666666666668
0.0   90.0   16.666666666666668
50.0   90.0   16.666666666666668
0.0   90.0   0.0
0.0   60.0   16.666666666666668
50.0   90.0   16.666666666666668
50.0   60.0   16.666666666666668
50.0   60.0   0.0
0.0   60.0   16.666666666666668
50.0   90.0   16.666666666666668
50.0   60.0   0.0
0.0   90.0   0.0
0.0   60.0   16.666666666666668
50.0   60.0   16.666666666666668
0.0   90.0   16.666666666666668
0.0   60.0   33.333333333333336
50.0   60.0   16.666666666666668
50.0   90.0   16.666666666666668
0.0   90.0   16.666666666666668
50.0   90.0   33.333333333333336
0.0   60.0   33.333333333333336
0.0   90.0   33.333333333333336
50.0   90.0   33.333333333333336
0.0   90.0   16.666666666666668
0.0   60.0   33.333333333333336
50.0   90.0   33.333333333333336
50.0   60.0   33.333333333333336
50.0   60.0   16.666666666666668
0.0   60.0   33.333333333333336
50.0   90.0   33.333333333333336
50.0   60.0   16.666666666666668
0.0   90.0   16.666666666666668
0.0   60.0   33.333333333333336
50.0   60.0   33.333333333333336
0.0   90.0   33.333333333333336
0.0   60.0   50.0
50.0   60.0   33.333333333333336
50.0   90.0   33.333333333333336
0.0   90.0   33.333333333333336
50.0   90.0   50.0
0.0   60.0   50.0
0.0   90.0   50.0
50.0   90.0   50.0
0.0   90.0   33.333333333333336
0.0   60.0   50.0
50.0   90.0   50.0
50.0   60.0   50.0
50.0   60.0   33.333333333333336
0.0   60.0   50.0
50.0   90.0   50.0
50.0   60.0   33.333333333333336
0.0   90.0   33.333333333333336
0.0   90.0   0.0
50.0   90.0   0.0
0.0   120.0   0.0
0.0   90.0   16.666666666666668
50.0   90.0   0.0
50.0   120.0   0.0
0.0   120.0   0.0
50.0   120.0   16.666666666666668
0.0   90.0   16.666666666666668
0.0   120.0   16.666666666666668
50.0   120.0   16.666666666666668
0.0   120.0   0.0
0.0   90.0   16.666666666666668
50.0   120.0   16.666666666666668
50.0   90.0   16.666666666666668
50.0   90.0   0.0
0.0   90.0   16.666666666666668
50.0   120.0   16.666666666666668
50.0   90.0   0.0
0.0   120.0   0.0
0.0   90.0   16.666666666666668
50.0   90.0   16.666666666666668
0.0   120.0   16.666666666666668
0.0   90.0   33.333333333333336
50.0   90.0   16.666666666666668
50.0   120.0   16.666666666666668
0.0   120.0   16.666666666666668
50.0   120.0   33.333333333333336
0.0   90.0   33.333333333333336
0.0   120.0   33.333333333333336
50.0   120.0   33.333333333333336
0.0   120.0   16.666666666666668
0.0   90.0   33.333333333333336
50.0   120.0   33.333333333333336
50.0   90.0   33.333333333333336
50.0   90.0   16.666666666666668
0.0   90.0   33.333333333333336
50.0   120.0   33.333333333333336
50.0   90.0   16.666666666666668
0.0   120.0   16.666666666666668
0.0   90.0   33.333333333333336
50.0   90.0   33.333333333333336
0.0   120.0   33.333333333333336
0.0   90.0   50.0
50.0   90.0   33.333333333333336
50.0   120.0   33.333333333333336
0.0   120.0   33.333333333333336
50.0   120.0   50.0
0.0   90.0   50.0
0.0   120.0   50.0
50.0   120.0   50.0
0.0   120.0   33.333333333333336
0.0   90.0   50.0
50.0   120.0   50.0
50.0   90.0   50.0
50.0   90.0   33.333333333333336
0.0   90.0   50.0
50.0   120.0   50.0
50.0   90.0   33.333333333333336
0.0   120.0   33.333333333333336
0.0   120.0   0.0
50.0   120.0   0.0
0.0   150.0   0.0
0.0   120.0   16.666666666666668
50.0   120.0   0.0
50.0   150.0   0.0
0.0   150.0   0.0
50.0   150.0   16.666666666666668
0.0   120.0   16.666666666666668
0.0   150.0   16.666666666666668
50.0   150.0   16.666666666666668
0.0   150.0   0.0
0.0   120.0   16.666666666666668
50.0   150.0   16.666666666666668
50.0   120.0   16.666666666666668
50.0   120.0   0.0
0.0   120.0   16.666666666666668
50.0   150.0   16.666666666666668
50.0   120.0   0.0
0.0   150.0   0.0
0.0   120.0   16.666666666666668
50.0   120.0   16.666666666666668
0.0   150.0   16.666666666666668
0.0   120.0   33.333333333333336
50.0   120.0   16.666666666666668
50.0   150.0   16.666666666666668
0.0   150.0   16.666666666666668
50.0   150.0   33.333333333333336
0.0   120.0   33.333333333333336
0.0   150.0   33.333333333333336
50.0   150.0   33.333333333333336
0.0   150.0   16.666666666666668
0.0   120.0   33.333333333333336
50.0   150.0   33.333333333333336
50.0   120.0   33.333333333333336
50.0   120.0   16.666666666666668
0.0   120.0   33.333333333333336
50.0   150.0   33.333333333333336
50.0   120.0   16.666666666666668
0.0   150.0   16.666666666666668
0.0   120.0   33.333333333333336
50.0   120.0   33.333333333333336
0.0   150.0   33.333333333333336
0.0   120.0   50.0
50.0   120.0   33.333333333333336
50.0   150.0   33.333333333333336
0.0   150.0   33.333333333333336
50.0   150.0   50.0
0.0   120.0   50.0
0.0   150.0   50.0
50.0   150.0   50.0
0.0   150.0   33.333333333333336
0.0   120.0   50.0
50.0   150.0   50.0
50.0   120.0   50.0
50.0   120.0   33.333333333333336
0.0   120.0   50.0
50.0   150.0   50.0
50.0   120.0   33.333333333333336
0.0   150.0   33.333333333333336
50.0   0.0   0.0
100.0   0.0   0.0
50.0   30.0   0.0
50.0   0.0   16.666666666666668
100.0   0.0   0.0
100.0   30.0   0.0
50.0   30.0   0.0
100.0   30.0   16.666666666666668
50.0   0.0   16.666666666666668
50.0   30.0   16.666666666666668
100.0   30.0   16.666666666666668
50.0   30.0   0.0
50.0   0.0   16.666666666666668
100.0   30.0   16.666666666666668
100.0   0.0   16.666666666666668
100.0   0.0   0.0
50.0   0.0   16.666666666666668
100.0   30.0   16.666666666666668
100.0   0.0   0.0
50.0   30.0   0.0
50.0   0.0   16.666666666666668
100.0   0.0   16.666666666666668
50.0   30.0   16.666666666666668
50.0   0.0   33.333333333333336
100.0   0.0   16.666666666666668
100.0   30.0   16.666666666666668
50.0   30.0   16.666666666666668
100.0   30.0   33.333333333333336
50.0   0.0   33.333333333333336
50.0   30.0   33.333333333333336
100.0   30.0   33.333333333333336
50.0   30.0   16.666666666666668
50.0   0.0   33.333333333333336
100.0   30.0   33.333333333333336
100.0   0.0   33.333333333333336
100.0   0.0   16.666666666666668
50.0   0.0   33.333333333333336
100.0   30.0   33.333333333333336
100.0   0.0   16.666666666666668
50.0   30.0   16.666666666666668
50.0   0.0   33.333333333333336
100.0   0.0   33.333333333333336
50.0   30.0   33.333333333333336
50.0   0.0   50.0
100.0   0.0   33.333333333333336
100.0   30.0   33.333333333333336
50.0   30.0   33.333333333333336
100.0   30.0   50.0
50.0   0.0   50.0
50.0   30.0   50.0
100.0   30.0   50.0
50.0   30.0   33.333333333333336
50.0   0.0   50.0
100.0   30.0   50.0
100.0   0.0   50.0
100.0   0.0   33.333333333333336
50.0   0.0   50.0
100.0   30.0   50.0
100.0   0.0   33.333333333333336
50.0   30.0   33.333333333333336
50.0   30.0   0.0
100.0   30.0   0.0
50.0   60.0   0.0
50.0   30.0   16.666666666666668
100.0   30.0   0.0
100.0   60.0   0.0
50.0   60.0   0.0
100.0   60.0   16.666666666666668
50.0   30.0   16.666666666666668
50.0   60.0   16.666666666666668
100.0   60.0   16.666666666666668
50.0   60.0   0.0
50.0   30.0   16.666666666666668
100.0   60.0   16.666666666666668
100.0   30.0   16.666666666666668
100.0   30.0   0.0
50.0   30.0   16.666666666666668
100.0   60.0   16.666666666666668
100.0   30.0   0.0
50.0   60.0   0.0
50.0   30.0   16.666666666666668
100.0   30.0   16.666666666666668
50.0   60.0   16.666666666666668
50.0   30.0   33.333333333333336
100.0   30.0   16.666666666666668
100.0   60.0   16.666666666666668
50.0   60.0   16.666666666666668
100.0   60.0   33.333333333333336
50.0   30.0   33.333333333333336
50.0   60.0   33.333333333333336
100.0   60.0   33.333333333333336
50.0   60.0   16.666666666666668
50.0   30.0   33.333333333333336
100.0   60.0   33.333333333333336
100.0   30.0   33.333333333333336
100.0   30.0   16.666666666666668
50.0   30.0   33.333333333333336
100.0   60.0   33.333333333333336
100.0   30.0   16.666666666666668
50.0   60.0   16.666666666666668
50.0   30.0   33.333333333333336
100.0   30.0   33.333333333333336
50.0   60.0   33.333333333333336
50.0   30.0   50.0
100.0   30.0   33.333333333333336
100.0   60.0   33.333333333333336
50.0   60.0   33.333333333333336
100.0   60.0   50.0
50.0   30.0   50.0
50.0   60.0   50.0
100.0   60.0   50.0
50.0   60.0   33.333333333333336
50.0   30.0   50.0
100.0   60.0   50.0
100.0   30.0   50.0
100.0   30.0   33.333333333333336
50.0   30.0   50.0
100.0   60.0   50.0
100.0   30.0   33.333333333333336
50.0   60.0   33.333333333333336
50.0   60.0   0.0
100.0   60.0   0.0
50.0   90.0   0.0
50.0   60.0   16.666666666666668
100.0   60.0   0.0
100.0   90.0   0.0
50.0   90.0   0.0
100.0   90.0   16.666666666666668
50.0   60.0   16.666666666666668
50.0   90.0   16.666666666666668
100.0   90.0   16.666666666666668
50.0   90.0   0.0
50.0   60.0   16.666666666666668
100.0   90.0   16.666666666666668
100.0   60.0   16.666666666666668
100.0   60.0   0.0
50.0   60.0   16.666666666666668
100.0   90.0   16.666666666666668
100.0   60.0   0.0
50.0   90.0   0.0
50.0   60.0   16.666666666666668
100.0   60.0   16.666666666666668
50.0   90.0   16.666666666666668
50.0   60.0   33.333333333333336
100.0   60.0   16.666666666666668
100.0   90.0   16.666666666666668
50.0   90.0   16.666666666666668
100.0   90.0   33.333333333333336
50.0   60.0   33.333333333333336
50.0   90.0   33.333333333333336
100.0   90.0   33.333333333333336
50.0   90.0   16.666666666666668
50.0   60.0   33.333333333333336
100.0   90.0   33.333333333333336
100.0   60.0   33.333333333333336
100.0   60.0   16.666666666666668
50.0   60.0   33.333333333333336
100.0   90.0   33.333333333333336
100.0   60.0   16.666666666666668
50.0   90.0   16.666666666666668
50.0   60.0   33.333333333333336
100.0   60.0   33.333333333333336
50.0   90.0   33.333333333333336
50.0   60.0   50.0
100.0   60.0   33.333333333333336
100.0   90.0   33.333333333333336
50.0   90.0   33.333333333333336
100.0   90.0   50.0
50.0   60.0   50.0
50.0   90.0   50.0
100.0   90.0   50.0
50.0   90.0   33.333333333333336
50.0   60.0   50.0
100.0   90.0   50.0
100.0   60.0   50.0
100.0   60.0   33.333333333333336
50.0   60.0   50.0
100.0   90.0   50.0
100.0   60.0   33.333333333333336
50.0   90.0   33.333333333333336
50.0   90.0   0.0
100.0   90.0   0.0
50.0   120.0   0.0
50.0   90.0   16.666666666666668
100.0   90.0   0.0
100.0   120.0   0.0
50.0   120.0   0.0
100.0   120.0   16.666666666666668
50.0   90.0   16.666666666666668
50.0   120.0   16.666666666666668
100.0   120.0   16.666666666666668
50.0   120.0   0.0
50.0   90.0   16.666666666666668
100.0   120.0   16.666666666666668
100.0   90.0   16.666666666666668
100.0   90.0   0.0
50.0   90.0   16.666666666666668
100.0   120.0   16.666666666666668
100.0   90.0   0.0
50.0   120.0   0.0
50.0   90.0   16.666666666666668
100.0   90.0   16.666666666666668
50.0   120.0   16.666666666666668
50.0   90.0   33.333333333333336
100.0   90.0   16.666666666666668
100.0   120.0   16.666666666666668
50.0   120.0   16.666666666666668
100.0   120.0   33.333333333333336
50.0   90.0   33.333333333333336
50.0   120.0   33.333333333333336
100.0   120.0   33.333333333333336
50.0   120.0   16.666666666666668
50.0   90.0   33.333333333333336
100.0   120.0   33.333333333333336
100.0   90.0   33.333333333333336
100.0   90.0   16.666666666666668
50.0   90.0   33.333333333333336
100.0   120.0   33.333333333333336
100.0   90.0   16.666666666666668
50.0   120.0   16.666666666666668
50.0   90.0   33.333333333333336
100.0   90.0   33.333333333333336
50.0   120.0   33.333333333333336
50.0   90.0   50.0
100.0   90.0   33.333333333333336
100.0   120.0   33.333333333333336
50.0   120.0   33.333333333333336
100.0   120.0   50.0
50.0   90.0   50.0
50.0   120.0   50.0
100.0   120.0   50.0
50.0   120.0   33.333333333333336
50.0   90.0   50.0
100.0   120.0   50.0
100.0   90.0   50.0
100.0   90.0   33.333333333333336
50.0   90.0   50.0
100.0   120.0   50.0
100.0   90.0   33.333333333333336
50.0   120.0   33.333333333333336
50.0   120.0   0.0
100.0   120.0   0.0
50.0   150.0   0.0
50.0   120.0   16.666666666666668
100.0   120.0   0.0
100.0   150.0   0.0
50.0   150.0   0.0
100.0   150.0   16.666666666666668
50.0   120.0   16.666666666666668
50.0   150.0   16.666666666666668
100.0   150.0   16.666666666666668
50.0   150.0   0.0
50.0   120.0   16.666666666666668
100.0   150.0   16.666666666666668
100.0   120.0   16.666666666666668
100.0   120.0   0.0
50.0   120.0   16.666666666666668
100.0   150.0   16.666666666666668
100.0   120.0   0.0
50.0   150.0   0.0
50.0   120.0   16.666666666666668
100.0   120.0   16.666666666666668
50.0   150.0   16.666666666666668
50.0   120.0   33.333333333333336
100.0   120.0   16.666666666666668
100.0   150.0   16.666666666666668
50.0   150.0   16.666666666666668
100.0   150.0   33.333333333333336
50.0   120.0   33.333333333333336
50.0   150.0   33.333333333333336
100.0   150.0   33.333333333333336
50.0   150.0   16.666666666666668
50.0   120.0   33.333333333333336
100.0   150.0   33.333333333333336
100.0   120.0   33.333333333333336
100.0   120.0   16.666666666666668
50.0   120.0   33.333333333333336
100.0   150.0   33.333333333333336
100.0   120.0   16.666666666666668
50.0   150.0   16.666666666666668
50.0   120.0   33.333333333333336
100.0   120.0   33.333333333333336
50.0   150.0   33.333333333333336
50.0   120.0   50.0
100.0   120.0   33.333333333333336
100.0   150.0   33.333333333333336
50.0   150.0   33.333333333333336
100.0   150.0   50.0
50.0   120.0   50.0
50.0   150.0   50.0
100.0   150.0   50.0
50.0   150.0   33.333333333333336
50.0   120.0   50.0
100.0   150.0   50.0
100.0   120.0   50.0
100.0   120.0   33.333333333333336
50.0   120.0   50.0
100.0   150.0   50.0
100.0   120.0   33.333333333333336
50.0   150.0   33.333333333333336
100.0   0.0   0.0
150.0   0.0   0.0
100.0   30.0   0.0
100.0   0.0   16.666666666666668
150.0   0.0   0.0
150.0   30.0   0.0
100.0   30.0   0.0
150.0   30.0   16.666666666666668
100.0   0.0   16.666666666666668
100.0   30.0   16.666666666666668
150.0   30.0   16.666666666666668
100.0   30.0   0.0
100.0   0.0   16.666666666666668
150.0   30.0   16.666666666666668
150.0   0.0   16.666666666666668
150.0   0.0   0.0
100.0   0.0   16.666666666666668
150.0   30.0   16.666666666666668
150.0   0.0   0.0
100.0   30.0   0.0
100.0   0.0   16.666666666666668
150.0   0.0   16.666666666666668
100.0   30.0   16.666666666666668
100.0   0.0   33.333333333333336
150.0   0.0   16.666666666666668
150.0   30.0   16.666666666666668
100.0   30.0   16.666666666666668
150.0   30.0   33.333333333333336
100.0   0.0   33.333333333333336
100.0   30.0   33.333333333333336
150.0   30.0   33.333333333333336
100.0   30.0   16.666666666666668
100.0   0.0   33.333333333333336
150.0   30.0   33.333333333333336
150.0   0.0   33.333333333333336
150.0   0.0   16.666666666666668
100.0   0.0   33.333333333333336
150.0   30.0   33.333333333333336
150.0   0.0   16.666666666666668
100.0   30.0   16.666666666666668
100.0   0.0   33.333333333333336
150.0   0.0   33.333333333333336
100.0   30.0   33.333333333333336
100.0   0.0   50.0
150.0   0.0   33.333333333333336
150.0   30.0   33.333333333333336
100.0   30.0   33.333333333333336
150.0   30.0   50.0
100.0   0.0   50.0
100.0   30.0   50.0
150.0   30.0   50.0
100.0   30.0   33.333333333333336
100.0   0.0   50.0
150.0   30.0   50.0
150.0   0.0   50.0
150.0   0.0   33.333333333333336
100.0   0.0   50.0
150.0   30.0   50.0
150.0   0.0   33.333333333333336
100.0   30.0   33.333333333333336
100.0   30.0   0.0
150.0   30.0   0.0
100.0   60.0   0.0
100.0   30.0   16.666666666666668
150.0   30.0   0.0
150.0   60.0   0.0
100.0   60.0   0.0
150.0   60.0   16.666666666666668
100.0   30.0   16.666666666666668
100.0   60.0   16.666666666666668
150.0   60.0   16.666666666666668
100.0   60.0   0.0
100.0   30.0   16.666666666666668
150.0   60.0   16.666666666666668
150.0   30.0   16.666666666666668
150.0   30.0   0.0
100.0   30.0   16.666666666666668
150.0   60.0   16.666666666666668
150.0   30.0   0.0
100.0   60.0   0.0
100.0   30.0   16.666666666666668
150.0   30.0   16.666666666666668
100.0   60.0   16.666666666666668
100.0   30.0   33.333333333333336
150.0   30.0   16.666666666666668
150.0   60.0   16.666666666666668
100.0   60.0   16.666666666666668
150.0   60.0   33.333333333333336
100.0   30.0   33.333333333333336
100.0   60.0   33.333333333333336
150.0   60.0   33.333333333333336
100.0   60.0   16.666666666666668
100.0   30.0   33.333333333333336
150.0   60.0   33.333333333333336
150.0   30.0   33.333333333333336
150.0   30.0   16.666666666666668
100.0   30.0   33.333333333333336
150.0   60.0   33.333333333333336
150.0   30.0   16.666666666666668
100.0   60.0   16.666666666666668
100.0   30.0   33.333333333333336
150.0   30.0   33.333333333333336
100.0   60.0   33.333333333333336
100.0   30.0   50.0
150.0   30.0   33.333333333333336
150.0   60.0   33.333333333333336
100.0   60.0   33.333333333333336
150.0   60.0   50.0
100.0   30.0   50.0
100.0   60.0   50.0
150.0   60.0   50.0
100.0   60.0   33.333333333333336
100.0   30.0   50.0
150.0   60.0   50.0
150.0   30.0   50.0
150.0   30.0   33.333333333333336
100.0   30.0   50.0
150.0   60.0   50.0
150.0   30.0   33.333333333333336
100.0   60.0   33.333333333333336
100.0   60.0   0.0
150.0   60.0   0.0
100.0   90.0   0.0
100.0   60.0   16.666666666666668
150.0   60.0   0.0
150.0   90.0   0.0
100.0   90.0   0.0
150.0   90.0   16.666666666666668
100.0   60.0   16.666666666666668
100.0   90.0   16.666666666666668
150.0   90.0   16.666666666666668
100.0   90.0   0.0
100.0   60.0   16.666666666666668
150.0   90.0   16.666666666666668
150.0   60.0   16.666666666666668
150.0   60.0   0.0
100.0   60.0   16.666666666666668
150.0   90.0   16.666666666666668
150.0   60.0   0.0
100.0   90.0   0.0
100.0   60.0   16.666666666666668
150.0   60.0   16.666666666666668
100.0   90.0   16.666666666666668
100.0   60.0   33.333333333333336
150.0   60.0   16.666666666666668
150.0   90.0   16.666666666666668
100.0   90.0   16.666666666666668
150.0   90.0   33.333333333333336
100.0   60.0   33.333333333333336
100.0   90.0   33.333333333333336
150.0   90.0   33.333333333333336
100.0   90.0   16.666666666666668
100.0   60.0   33.333333333333336
150.0   90.0   33.333333333333336
150.0   60.0   33.333333333333336
150.0   60.0   16.666666666666668
100.0   60.0   33.333333333333336
150.0   90.0   33.333333333333336
150.0   60.0   16.666666666666668
100.0   90.0   16.666666666666668
100.0   60.0   33.333333333333336
150.0   60.0   33.333333333333336
100.0   90.0   33.333333333333336
100.0   60.0   50.0
150.0   60.0   33.333333333333336
150.0   90.0   33.333333333333336
100.0   90.0   33.333333333333336
150.0   90.0   50.0
100.0   60.0   50.0
100.0   90.0   50.0
150.0   90.0   50.0
100.0   90.0   33.333333333333336
100.0   60.0   50.0
150.0   90.0   50.0
150.0   60.0   50.0
150.0   60.0   33.333333333333336
100.0   60.0   50.0
150.0   90.0   50.0
150.0   60.0   33.333333333333336
100.0   90.0   33.333333333333336
100.0   90.0   0.0
150.0   90.0   0.0
100.0   120.0   0.0
100.0   90.0   16.666666666666668
150.0   90.0   0.0
150.0   120.0   0.0
100.0   120.0   0.0
150.0   120.0   16.666666666666668
100.0   90.0   16.666666666666668
100.0   120.0   16.666666666666668
150.0   120.0   16.666666666666668
100.0   120.0   0.0
100.0   90.0   16.666666666666668
150.0   120.0   16.666666666666668
150.0   90.0   16.666666666666668
150.0   90.0   0.0
100.0   90.0   16.666666666666668
150.0   120.0   16.666666666666668
150.0   90.0   0.0
100.0   120.0   0.0
100.0   90.0   16.666666666666668
150.0   90.0   16.666666666666668
100.0   120.0   16.666666666666668
100.0   90.0   33.333333333333336
150.0   90.0   16.666666666666668
150.0   120.0   16.666666666666668
100.0   120.0   16.666666666666668
150.0   120.0   33.333333333333336
100.0   90.0   33.333333333333336
100.0   120.0   33.333333333333336
150.0   120.0   33.333333333333336
100.0   120.0   16.666666666666668
100.0   90.0   33.333333333333336
150.0   120.0   33.333333333333336
150.0   90.0   33.333333333333336
150.0   90.0   16.666666666666668
100.0   90.0   33.333333333333336
150.0   120.0   33.333333333333336
150.0   90.0   16.666666666666668
100.0   120.0   16.666666666666668
100.0   90.0   33.333333333333336
150.0   90.0   33.333333333333336
100.0   120.0   33.333333333333336
100.0   90.0   50.0
150.0   90.0   33.333333333333336
150.0   120.0   33.333333333333336
100.0   120.0   33.333333333333336
150.0   120.0   50.0
100.0   90.0   50.0
100.0   120.0   50.0
150.0   120.0   50.0
100.0   120.0   33.333333333333336
100.0   90.0   50.0
150.0   120.0   50.0
150.0   90.0   50.0
150.0   90.0   33.333333333333336
100.0   90.0   50.0
150.0   120.0   50.0
150.0   90.0   33.333333333333336
100.0   120.0   33.333333333333336
100.0   120.0   0.0
150.0   120.0   0.0
100.0   150.0   0.0
100.0   120.0   16.666666666666668
150.0   120.0   0.0
150.0   150.0   0.0
100.0   150.0   0.0
150.0   150.0   16.666666666666668
100.0   120.0   16.666666666666668
100.0   150.0   16.666666666666668
150.0   150.0   16.666666666666668
100.0   150.0   0.0
100.0   120.0   16.666666666666668
150.0   150.0   16.666666666666668
150.0   120.0   16.666666666666668
150.0   120.0   0.0
100.0   120.0   16.666666666666668
150.0   150.0   16.666666666666668
150.0   120.0   0.0
100.0   150.0   0.0
100.0   120.0   16.666666666666668
150.0   120.0   16.666666666666668
100.0   150.0   16.666666666666668
100.0   120.0   33.333333333333336
150.0   120.0   16.666666666666668
150.0   150.0   16.666666666666668
100.0   150.0   16.666666666666668
150.0   150.0   33.333333333333336
100.0   120.0   33.333333333333336
100.0   150.0   33.333333333333336
150.0   150.0   33.333333333333336
100.0   150.0   16.666666666666668
100.0   120.0   33.333333333333336
150.0   150.0   33.333333333333336
150.0   120.0   33.333333333333336
150.0   120.0   16.666666666666668
100.0   120.0   33.333333333333336
150.0   150.0   33.333333333333336
150.0   120.0   16.666666666666668
100.0   150.0   16.666666666666668
100.0   120.0   33.333333333333336
150.0   120.0   33.333333333333336
100.0   150.0   33.333333333333336
100.0   120.0   50.0
150.0   120.0   33.333333333333336
150.0   150.0   33.333333333333336
100.0   150.0   33.333333333333336
150.0   150.0   50.0
100.0   120.0   50.0
100.0   150.0   50.0
150.0   150.0   50.0
100.0   150.0   33.333333333333336
100.0   120.0   50.0
150.0   150.0   50.0
150.0   120.0   50.0
150.0   120.0   33.333333333333336
100.0   120.0   50.0
150.0   150.0   50.0
150.0   120.0   33.333333333333336
100.0   150.0   33.333333333333336
150.0   0.0   0.0
200.0   0.0   0.0
150.0   30.0   0.0
150.0   0.0   16.666666666666668
200.0   0.0   0.0
200.0   30.0   0.0
150.0   30.0   0.0
200.0   30.0   16.666666666666668
150.0   0.0   16.666666666666668
150.0   30.0   16.666666666666668
200.0   30.0   16.666666666666668
150.0   30.0   0.0
150.0   0.0   16.666666666666668
200.0   30.0   16.666666666666668
200.0   0.0   16.666666666666668
200.0   0.0   0.0
150.0   0.0   16.666666666666668
200.0   30.0   16.666666666666668
200.0   0.0   0.0
150.0   30.0   0.0
150.0   0.0   16.666666666666668
200.0   0.0   16.666666666666668
150.0   30.0   16.666666666666668
150.0   0.0   33.333333333333336
200.0   0.0   16.666666666666668
200.0   30.0   16.666666666666668
150.0   30.0   16.666666666666668
200.0   30.0   33.333333333333336
150.0   0.0   33.333333333333336
150.0   30.0   33.333333333333336
200.0   30.0   33.333333333333336
150.0   30.0   16.666666666666668
150.0   0.0   33.333333333333336
200.0   30.0   33.333333333333336
200.0   0.0   33.333333333333336
200.0   0.0   16.666666666666668
150.0   0.0   33.333333333333336
200.0   30.0   33.333333333333336
200.0   0.0   16.666666666666668
150.0   30.0   16.666666666666668
150.0   0.0   33.333333333333336
200.0   0.0   33.333333333333336
150.0   30.0   33.333333333333336
150.0   0.0   50.0
200.0   0.0   33.333333333333336
200.0   30.0   33.333333333333336
150.0   30.0   33.333333333333336
200.0   30.0   50.0
150.0   0.0   50.0
150.0   30.0   50.0
200.0   30.0   50.0
150.0   30.0   33.333333333333336
150.0   0.0   50.0
200.0   30.0   50.0
200.0   0.0   50.0
200.0   0.0   33.333333333333336
150.0   0.0   50.0
200.0   30.0   50.0
200.0   0.0   33.333333333333336
150.0   30.0   33.333333333333336
150.0   30.0   0.0
200.0   30.0   0.0
150.0   60.0   0.0
150.0   30.0   16.666666666666668
200.0   30.0   0.0
200.0   60.0   0.0
150.0   60.0   0.0
200.0   60.0   16.666666666666668
150.0   30.0   16.666666666666668
150.0   60.0   16.666666666666668
200.0   60.0   16.666666666666668
150.0   60.0   0.0
150.0   30.0   16.666666666666668
200.0   60.0   16.666666666666668
200.0   30.0   16.666666666666668
200.0   30.0   0.0
150.0   30.0   16.666666666666668
200.0   60.0   16.666666666666668
200.0   30.0   0.0
150.0   60.0   0.0
150.0   30.0   16.666666666666668
200.0   30.0   16.666666666666668
150.0   60.0   16.666666666666668
150.0   30.0   33.333333333333336
200.0   30.0   16.666666666666668
200.0   60.0   16.666666666666668
150.0   60.0   16.666666666666668
200.0   60.0   33.333333333333336
150.0   30.0   33.333333333333336
150.0   60.0   33.333333333333336
200.0   60.0   33.333333333333336
150.0   60.0   16.666666666666668
150.0   30.0   33.333333333333336
200.0   60.0   33.333333333333336
200.0   30.0   33.333333333333336
200.0   30.0   16.666666666666668
150.0   30.0   33.333333333333336
200.0   60.0   33.333333333333336
200.0   30.0   16.666666666666668
150.0   60.0   16.666666666666668
150.0   30.0   33.333333333333336
200.0   30.0   33.333333333333336
150.0   60.0   33.333333333333336
150.0   30.0   50.0
200.0   30.0   33.333333333333336
200.0   60.0   33.333333333333336
150.0   60.0   33.333333333333336
200.0   60.0   50.0
150.0   30.0   50.0
150.0   60.0   50.0
200.0   60.0   50.0
150.0   60.0   33.333333333333336
150.0   30.0   50.0
200.0   60.0   50.0
200.0   30.0   50.0
200.0   30.0   33.333333333333336
150.0   30.0   50.0
200.0   60.0   50.0
200.0   30.0   33.333333333333336
150.0   60.0   33.333333333333336
150.0   60.0   0.0
200.0   60.0   0.0
150.0   90.0   0.0
150.0   60.0   16.666666666666668
200.0   60.0   0.0
200.0   90.0   0.0
150.0   90.0   0.0
200.0   90.0   16.666666666666668
150.0   60.0   16.666666666666668
150.0   90.0   16.666666666666668
200.0   90.0   16.666666666666668
150.0   90.0   0.0
150.0   60.0   16.666666666666668
200.0   90.0   16.666666666666668
200.0   60.0   16.666666666666668
200.0   60.0   0.0
150.0   60.0   16.666666666666668
200.0   90.0   16.666666666666668
200.0   60.0   0.0
150.0   90.0   0.0
150.0   60.0   16.666666666666668
200.0   60.0   16.666666666666668
150.0   90.0   16.666666666666668
150.0   60.0   33.333333333333336
200.0   60.0   16.666666666666668
200.0   90.0   16.666666666666668
150.0   90.0   16.666666666666668
200.0   90.0   33.333333333333336
150.0   60.0   33.333333333333336
150.0   90.0   33.333333333333336
200.0   90.0   33.333333333333336
150.0   90.0   16.666666666666668
150.0   60.0   33.333333333333336
200.0   90.0   33.333333333333336
200.0   60.0   33.333333333333336
200.0   60.0   16.666666666666668
150.0   60.0   33.333333333333336
200.0   90.0   33.333333333333336
200.0   60.0   16.666666666666668
150.0   90.0   16.666666666666668
150.0   60.0   33.333333333333336
200.0   60.0   33.333333333333336
150.0   90.0   33.333333333333336
150.0   60.0   50.0
200.0   60.0   33.333333333333336
200.0   90.0   33.333333333333336
150.0   90.0   33.333333333333336
200.0   90.0   50.0
150.0   60.0   50.0
150.0   90.0   50.0
200.0   90.0   50.0
150.0   90.0   33.333333333333336
150.0   60.0   50.0
200.0   90.0   50.0
200.0   60.0   50.0
200.0   60.0   33.333333333333336
150.0   60.0   50.0
200.0   90.0   50.0
200.0   60.0   33.333333333333336
150.0   90.0   33.333333333333336
150.0   90.0   0.0
200.0   90.0   0.0
150.0   120.0   0.0
150.0   90.0   16.666666666666668
200.0   90.0   0.0
200.0   120.0   0.0
150.0   120.0   0.0
200.0   120.0   16.666666666666668
150.0   90.0   16.666666666666668
150.0   120.0   16.666666666666668
200.0   120.0   16.666666666666668
150.0   120.0   0.0
150.0   90.0   16.666666666666668
200.0   120.0   16.666666666666668
200.0   90.0   16.666666666666668
200.0   90.0   0.0
150.0   90.0   16.666666666666668
200.0   120.0   16.666666666666668
200.0   90.0   0.0
150.0   120.0   0.0
150.0   90.0   16.666666666666668
200.0   90.0   16.666666666666668
150.0   120.0   16.666666666666668
150.0   90.0   33.333333333333336
200.0   90.0   16.666666666666668
200.0   120.0   16.666666666666668
150.0   120.0   16.666666666666668
200.0   120.0   33.333333333333336
150.0   90.0   33.333333333333336
150.0   120.0   33.333333333333336
200.0   120.0   33.333333333333336
150.0   120.0   16.666666666666668
150.0   90.0   33.333333333333336
200.0   120.0   33.333333333333336
200.0   90.0   33.333333333333336
200.0   90.0   16.666666666666668
150.0   90.0   33.333333333333336
200.0   120.0   33.333333333333336
200.0   90.0   16.666666666666668
150.0   120.0   16.666666666666668
150.0   90.0   33.333333333333336
200.0   90.0   33.333333333333336
150.0   120.0   33.333333333333336
150.0   90.0   50.0
200.0   90.0   33.333333333333336
200.0   120.0   33.333333333333336
150.0   120.0   33.333333333333336
200.0   120.0   50.0
150.0   90.0   50.0
150.0   120.0   50.0
200.0   120.0   50.0
150.0   120.0   33.333333333333336
150.0   90.0   50.0
200.0   120.0   50.0
200.0   90.0   50.0
200.0   90.0   33.333333333333336
150.0   90.0   50.0
200.0   120.0   50.0
200.0   90.0   33.333333333333336
150.0   120.0   33.333333333333336
150.0   120.0   0.0
200.0   120.0   0.0
150.0   150.0   0.0
150.0   120.0   16.666666666666668
200.0   120.0   0.0
200.0   150.0   0.0
150.0   150.0   0.0
200.0   150.0   16.666666666666668
150.0   120.0   16.666666666666668
150.0   150.0   16.666666666666668
200.0   150.0   16.666666666666668
150.0   150.0   0.0
150.0   120.0   16.666666666666668
200.0   150.0   16.666666666666668
200.0   120.0   16.666666666666668
200.0   120.0   0.0
150.0   120.0   16.666666666666668
200.0   150.0   16.666666666666668
200.0   120.0   0.0
150.0   150.0   0.0
150.0   120.0   16.666666666666668
200.0   120.0   16.666666666666668
150.0   150.0   16.666666666666668
150.0   120.0   33.333333333333336
200.0   120.0   16.666666666666668
200.0   150.0   16.666666666666668
150.0   150.0   16.666666666666668
200.0   150.0   33.333333333333336
150.0   120.0   33.333333333333336
150.0   150.0   33.333333333333336
200.0   150.0   33.333333333333336
150.0   150.0   16.666666666666668
150.0   120.0   33.333333333333336
200.0   150.0   33.333333333333336
200.0   120.0   33.333333333333336
200.0   120.0   16.666666666666668
150.0   120.0   33.333333333333336
200.0   150.0   33.333333333333336
200.0   120.0   16.666666666666668
150.0   150.0   16.666666666666668
150.0   120.0   33.333333333333336
200.0   120.0   33.333333333333336
150.0   150.0   33.333333333333336
150.0   120.0   50.0
200.0   120.0   33.333333333333336
200.0   150.0   33.333333333333336
150.0   150.0   33.333333333333336
200.0   150.0   50.0
150.0   120.0   50.0
150.0   150.0   50.0
200.0   150.0   50.0
150.0   150.0   33.333333333333336
150.0   120.0   50.0
200.0   150.0   50.0
200.0   120.0   50.0
200.0   120.0   33.333333333333336
150.0   120.0   50.0
200.0   150.0   50.0
200.0   120.0   33.333333333333336
150.0   150.0   33.333333333333336
200.0   0.0   0.0
250.0   0.0   0.0
200.0   30.0   0.0
200.0   0.0   16.666666666666668
250.0   0.0   0.0
250.0   30.0   0.0
200.0   30.0   0.0
250.0   30.0   16.666666666666668
200.0   0.0   16.666666666666668
200.0   30.0   16.666666666666668
250.0   30.0   16.666666666666668
200.0   30.0   0.0
200.0   0.0   16.666666666666668
250.0   30.0   16.666666666666668
250.0   0.0   16.666666666666668
250.0   0.0   0.0
200.0   0.0   16.666666666666668
250.0   30.0   16.666666666666668
250.0   0.0   0.0
200.0   30.0   0.0
200.0   0.0   16.666666666666668
250.0   0.0   16.666666666666668
200.0   30.0   16.666666666666668
200.0   0.0   33.333333333333336
250.0   0.0   16.666666666666668
250.0   30.0   16.666666666666668
200.0   30.0   16.666666666666668
250.0   30.0   33.333333333333336
200.0   0.0   33.333333333333336
200.0   30.0   33.333333333333336
250.0   30.0   33.333333333333336
200.0   30.0   16.666666666666668
200.0   0.0   33.333333333333336
250.0   30.0   33.333333333333336
250.0   0.0   33.333333333333336
250.0   0.0   16.666666666666668
200.0   0.0   33.333333333333336
250.0   30.0   33.333333333333336
250.0   0.0   16.666666666666668
200.0   30.0   16.666666666666668
200.0   0.0   33.333333333333336
250.0   0.0   33.333333333333336
200.0   30.0   33.333333333333336
200.0   0.0   50.0
250.0   0.0   33.333333333333336
250.0   30.0   33.333333333333336
200.0   30.0   33.333333333333336
250.0   30.0   50.0
200.0   0.0   50.0
200.0   30.0   50.0
250.0   30.0   50.0
200.0   30.0   33.333333333333336
200.0   0.0   50.0
250.0   30.0   50.0
250.0   0.0   50.0
250.0   0.0   33.333333333333336
200.0   0.0   50.0
250.0   30.0   50.0
250.0   0.0   33.333333333333336
200.0   30.0   33.333333333333336
200.0   30.0   0.0
250.0   30.0   0.0
200.0   60.0   0.0
200.0   30.0   16.666666666666668
250.0   30.0   0.0
250.0   60.0   0.0
200.0   60.0   0.0
250.0   60.0   16.666666666666668
200.0   30.0   16.666666666666668
200.0   60.0   16.666666666666668
250.0   60.0   16.666666666666668
200.0   60.0   0.0
200.0   30.0   16.666666666666668
250.0   60.0   16.666666666666668
250.0   30.0   16.666666666666668
250.0   30.0   0.0
200.0   30.0   16.666666666666668
250.0   60.0   16.666666666666668
250.0   30.0   0.0
200.0   60.0   0.0
200.0   30.0   16.666666666666668
250.0   30.0   16.666666666666668
200.0   60.0   16.666666666666668
200.0   30.0   33.333333333333336
250.0   30.0   16.666666666666668
250.0   60.0   16.666666666666668
200.0   60.0   16.666666666666668
250.0   60.0   33.333333333333336
200.0   30.0   33.333333333333336
200.0   60.0   33.333333333333336
250.0   60.0   33.333333333333336
200.0   60.0   16.666666666666668
200.0   30.0   33.333333333333336
250.0   60.0   33.333333333333336
250.0   30.0   33.333333333333336
250.0   30.0   16.666666666666668
200.0   30.0   33.333333333333336
250.0   60.0   33.333333333333336
250.0   30.0   16.666666666666668
200.0   60.0   16.666666666666668
200.0   30.0   33.333333333333336
250.0   30.0   33.333333333333336
200.0   60.0   33.333333333333336
200.0   30.0   50.0
250.0   30.0   33.333333333333336
250.0   60.0   33.333333333333336
200.0   60.0   33.333333333333336
250.0   60.0   50.0
200.0   30.0   50.0
200.0   60.0   50.0
250.0   60.0   50.0
200.0   60.0   33.333333333333336
200.0   30.0   50.0
250.0   60.0   50.0
250.0   30.0   50.0
250.0   30.0   33.333333333333336
200.0   30.0   50.0
250.0   60.0   50.0
250.0   30.0   33.333333333333336
200.0   60.0   33.333333333333336
200.0   60.0   0.0
250.0   60.0   0.0
200.0   90.0   0.0
200.0   60.0   16.666666666666668
250.0   60.0   0.0
250.0   90.0   0.0
200.0   90.0   0.0
250.0   90.0   16.666666666666668
200.0   60.0   16.666666666666668
200.0   90.0   16.666666666666668
250.0   90.0   16.666666666666668
200.0   90.0   0.0
200.0   60.0   16.666666666666668
250.0   90.0   16.666666666666668
250.0   60.0   16.666666666666668
250.0   60.0   0.0
200.0   60.0   16.666666666666668
250.0   90.0   16.666666666666668
250.0   60.0   0.0
200.0   90.0   0.0
200.0   60.0   16.666666666666668
250.0   60.0   16.666666666666668
200.0   90.0   16.666666666666668
200.0   60.0   33.333333333333336
250.0   60.0   16.666666666666668
250.0   90.0   16.666666666666668
200.0   90.0   16.666666666666668
250.0   90.0   33.333333333333336
200.0   60.0   33.333333333333336
200.0   90.0   33.333333333333336
250.0   90.0   33.333333333333336
200.0   90.0   16.666666666666668
200.0   60.0   33.333333333333336
250.0   90.0   33.333333333333336
250.0   60.0   33.333333333333336
250.0   60.0   16.666666666666668
200.0   60.0   33.333333333333336
250.0   90.0   33.333333333333336
250.0   60.0   16.666666666666668
200.0   90.0   16.666666666666668
200.0   60.0   33.333333333333336
250.0   60.0   33.333333333333336
200.0   90.0   33.333333333333336
200.0   60.0   50.0
250.0   60.0   33.333333333333336
250.0   90.0   33.333333333333336
200.0   90.0   33.333333333333336
250.0   90.0   50.0
200.0   60.0   50.0
200.0   90.0   50.0
250.0   90.0   50.0
200.0   90.0   33.333333333333336
200.0   60.0   50.0
250.0   90.0   50.0
250.0   60.0   50.0
250.0   60.0   33.333333333333336
200.0   60.0   50.0
250.0   90.0   50.0
250.0   60.0   33.333333333333336
200.0   90.0   33.333333333333336
200.0   90.0   0.0
250.0   90.0   0.0
200.0   120.0   0.0
200.0   90.0   16.666666666666668
250.0   90.0   0.0
250.0   120.0   0.0
200.0   120.0   0.0
250.0   120.0   16.666666666666668
200.0   90.0   16.666666666666668
200.0   120.0   16.666666666666668
250.0   120.0   16.666666666666668
200.0   120.0   0.0
200.0   90.0   16.666666666666668
250.0   120.0   16.666666666666668
250.0   90.0   16.666666666666668
250.0   90.0   0.0
200.0   90.0   16.666666666666668
250.0   120.0   16.666666666666668
250.0   90.0   0.0
200.0   120.0   0.0
200.0   90.0   16.666666666666668
250.0   90.0   16.666666666666668
200.0   120.0   16.666666666666668
200.0   90.0   33.333333333333336
250.0   90.0   16.666666666666668
250.0   120.0   16.666666666666668
200.0   120.0   16.666666666666668
250.0   120.0   33.333333333333336
200.0   90.0   33.333333333333336
200.0   120.0   33.333333333333336
250.0   120.0   33.333333333333336
200.0   120.0   16.666666666666668
200.0   90.0   33.333333333333336
250.0   120.0   33.333333333333336
250.0   90.0   33.333333333333336
250.0   90.0   16.666666666666668
200.0   90.0   33.333333333333336
250.0   120.0   33.333333333333336
250.0   90.0   16.666666666666668
200.0   120.0   16.666666666666668
200.0   90.0   33.333333333333336
250.0   90.0   33.333333333333336
200.0   120.0   33.333333333333336
200.0   90.0   50.0
250.0   90.0   33.333333333333336
250.0   120.0   33.333333333333336
200.0   120.0   33.333333333333336
250.0   120.0   50.0
200.0   90.0   50.0
200.0   120.0   50.0
250.0   120.0   50.0
200.0   120.0   33.333333333333336
200.0   90.0   50.0
250.0   120.0   50.0
250.0   90.0   50.0
250.0   90.0   33.333333333333336
200.0   90.0   50.0
250.0   120.0   50.0
250.0   90.0   33.333333333333336
200.0   120.0   33.333333333333336
200.0   120.0   0.0
250.0   120.0   0.0
200.0   150.0   0.0
200.0   120.0   16.666666666666668
250.0   120.0   0.0
250.0   150.0   0.0
200.0   150.0   0.0
250.0   150.0   16.666666666666668
200.0   120.0   16.666666666666668
200.0   150.0   16.666666666666668
250.0   150.0   16.666666666666668
200.0   150.0   0.0
200.0   120.0   16.666666666666668
250.0   150.0   16.666666666666668
250.0   120.0   16.666666666666668
250.0   120.0   0.0
200.0   120.0   16.666666666666668
250.0   150.0   16.666666666666668
250.0   120.0   0.0
200.0   150.0   0.0
200.0   120.0   16.666666666666668
250.0   120.0   16.666666666666668
200.0   150.0   16.666666666666668
200.0   120.0   33.333333333333336
250.0   120.0   16.666666666666668
250.0   150.0   16.666666666666668
200.0   150.0   16.666666666666668
250.0   150.0   33.333333333333336
200.0   120.0   33.333333333333336
200.0   150.0   33.333333333333336
250.0   150.0   33.333333333333336
200.0   150.0   16.666666666666668
200.0   120.0   33.333333333333336
250.0   150.0   33.333333333333336
250.0   120.0   33.333333333333336
250.0   120.0   16.666666666666668
200.0   120.0   33.333333333333336
250.0   150.0   33.333333333333336
250.0   120.0   16.666666666666668
200.0   150.0   16.666666666666668
200.0   120.0   33.333333333333336
250.0   120.0   33.333333333333336
200.0   150.0   33.333333333333336
200.0   120.0   50.0
250.0   120.0   33.333333333333336
250.0   150.0   33.333333333333336
200.0   150.0   33.333333333333336
250.0   150.0   50.0
200.0   120.0   50.0
200.0   150.0   50.0
250.0   150.0   50.0
200.0   150.0   33.333333333333336
200.0   120.0   50.0
250.0   150.0   50.0
250.0   120.0   50.0
250.0   120.0   33.333333333333336
200.0   120.0   50.0
250.0   150.0   50.0
250.0   120.0   33.333333333333336
200.0   150.0   33.333333333333336
250.0   0.0   0.0
300.0   0.0   0.0
250.0   30.0   0.0
250.0   0.0   16.666666666666668
300.0   0.0   0.0
300.0   30.0   0.0
250.0   30.0   0.0
300.0   30.0   16.666666666666668
250.0   0.0   16.666666666666668
250.0   30.0   16.666666666666668
300.0   30.0   16.666666666666668
250.0   30.0   0.0
250.0   0.0   16.666666666666668
300.0   30.0   16.666666666666668
300.0   0.0   16.666666666666668
300.0   0.0   0.0
250.0   0.0   16.666666666666668
300.0   30.0   16.666666666666668
300.0   0.0   0.0
250.0   30.0   0.0
250.0   0.0   16.666666666666668
300.0   0.0   16.666666666666668
250.0   30.0   16.666666666666668
250.0   0.0   33.333333333333336
300.0   0.0   16.666666666666668
300.0   30.0   16.666666666666668
250.0   30.0   16.666666666666668
300.0   30.0   33.333333333333336
250.0   0.0   33.333333333333336
250.0   30.0   33.333333333333336
300.0   30.0   33.333333333333336
250.0   30.0   16.666666666666668
250.0   0.0   33.333333333333336
300.0   30.0   33.333333333333336
300.0   0.0   33.333333333333336
300.0   0.0   16.666666666666668
250.0   0.0   33.333333333333336
300.0   30.0   33.333333333333336
300.0   0.0   16.666666666666668
250.0   30.0   16.666666666666668
250.0   0.0   33.333333333333336
300.0   0.0   33.333333333333336
250.0   30.0   33.333333333333336
250.0   0.0   50.0
300.0   0.0   33.333333333333336
300.0   30.0   33.333333333333336
250.0   30.0   33.333333333333336
300.0   30.0   50.0
250.0   0.0   50.0
250.0   30.0   50.0
300.0   30.0   50.0
250.0   30.0   33.333333333333336
250.0   0.0   50.0
300.0   30.0   50.0
300.0   0.0   50.0
300.0   0.0   33.333333333333336
250.0   0.0   50.0
300.0   30.0   50.0
300.0   0.0   33.333333333333336
250.0   30.0   33.333333333333336
250.0   30.0   0.0
300.0   30.0   0.0
250.0   60.0   0.0
250.0   30.0   16.666666666666668
300.0   30.0   0.0
300.0   60.0   0.0
250.0   60.0   0.0
300.0   60.0   16.666666666666668
250.0   30.0   16.666666666666668
250.0   60.0   16.666666666666668
300.0   60.0   16.666666666666668
250.0   60.0   0.0
250.0   30.0   16.666666666666668
300.0   60.0   16.666666666666668
300.0   30.0   16.666666666666668
300.0   30.0   0.0
250.0   30.0   16.666666666666668
300.0   60.0   16.666666666666668
300.0   30.0   0.0
250.0   60.0   0.0
250.0   30.0   16.666666666666668
300.0   30.0   16.666666666666668
250.0   60.0   16.666666666666668
250.0   30.0   33.333333333333336
300.0   30.0   16.666666666666668
300.0   60.0   16.666666666666668
250.0   60.0   16.666666666666668
300.0   60.0   33.333333333333336
250.0   30.0   33.333333333333336
250.0   60.0   33.333333333333336
300.0   60.0   33.333333333333336
250.0   60.0   16.666666666666668
250.0   30.0   33.333333333333336
300.0   60.0   33.333333333333336
300.0   30.0   33.333333333333336
300.0   30.0   16.666666666666668
250.0   30.0   33.333333333333336
300.0   60.0   33.333333333333336
300.0   30.0   16.666666666666668
250.0   60.0   16.666666666666668
250.0   30.0   33.333333333333336
300.0   30.0   33.333333333333336
250.0   60.0   33.333333333333336
250.0   30.0   50.0
300.0   30.0   33.333333333333336
300.0   60.0   33.333333333333336
250.0   60.0   33.333333333333336
300.0   60.0   50.0
250.0   30.0   50.0
250.0   60.0   50.0
300.0   60.0   50.0
250.0   60.0   33.333333333333336
250.0   30.0   50.0
300.0   60.0   50.0
300.0   30.0   50.0
300.0   30.0   33.333333333333336
250.0   30.0   50.0
300.0   60.0   50.0
300.0   30.0   33.333333333333336
250.0   60.0   33.333333333333336
250.0   60.0   0.0
300.0   60.0   0.0
250.0   90.0   0.0
250.0   60.0   16.666666666666668
300.0   60.0   0.0
300.0   90.0   0.0
250.0   90.0   0.0
300.0   90.0   16.666666666666668
250.0   60.0   16.666666666666668
250.0   90.0   16.666666666666668
300.0   90.0   16.666666666666668
250.0   90.0   0.0
250.0   60.0   16.666666666666668
300.0   90.0   16.666666666666668
300.0   60.0   16.666666666666668
300.0   60.0   0.0
250.0   60.0   16.666666666666668
300.0   90.0   16.666666666666668
300.0   60.0   0.0
250.0   90.0   0.0
250.0   60.0   16.666666666666668
300.0   60.0   16.666666666666668
250.0   90.0   16.666666666666668
250.0   60.0   33.333333333333336
300.0   60.0   16.666666666666668
300.0   90.0   16.666666666666668
250.0   90.0   16.666666666666668
300.0   90.0   33.333333333333336
250.0   60.0   33.333333333333336
250.0   90.0   33.333333333333336
300.0   90.0   33.333333333333336
250.0   90.0   16.666666666666668
250.0   60.0   33.333333333333336
300.0   90.0   33.333333333333336
300.0   60.0   33.333333333333336
300.0   60.0   16.666666666666668
250.0   60.0   33.333333333333336
300.0   90.0   33.333333333333336
300.0   60.0   16.666666666666668
250.0   90.0   16.666666666666668
250.0   60.0   33.333333333333336
300.0   60.0   33.333333333333336
250.0   90.0   33.333333333333336
250.0   60.0   50.0
300.0   60.0   33.333333333333336
300.0   90.0   33.333333333333336
250.0   90.0   33.333333333333336
300.0   90.0   50.0
250.0   60.0   50.0
250.0   90.0   50.0
300.0   90.0   50.0
250.0   90.0   33.333333333333336
250.0   60.0   50.0
300.0   90.0   50.0
300.0   60.0   50.0
300.0   60.0   33.333333333333336
250.0   60.0   50.0
300.0   90.0   50.0
300.0   60.0   33.333333333333336
250.0   90.0   33.333333333333336
250.0   90.0   0.0
300.0   90.0   0.0
250.0   120.0   0.0
250.0   90.0   16.666666666666668
300.0   90.0   0.0
300.0   120.0   0.0
250.0   120.0   0.0
300.0   120.0   16.666666666666668
250.0   90.0   16.666666666666668
250.0   120.0   16.666666666666668
300.0   120.0   16.666666666666668
250.0   120.0   0.0
250.0   90.0   16.666666666666668
300.0   120.0   16.666666666666668
300.0   90.0   16.666666666666668
300.0   90.0   0.0
250.0   90.0   16.666666666666668
300.0   120.0   16.666666666666668
300.0   90.0   0.0
250.0   120.0   0.0
250.0   90.0   16.666666666666668
300.0   90.0   16.666666666666668
250.0   120.0   16.666666666666668
250.0   90.0   33.333333333333336
300.0   90.0   16.666666666666668
300.0   120.0   16.666666666666668
250.0   120.0   16.666666666666668
300.0   120.0   33.333333333333336
250.0   90.0   33.333333333333336
250.0   120.0   33.333333333333336
300.0   120.0   33.333333333333336
250.0   120.0   16.666666666666668
250.0   90.0   33.333333333333336
300.0   120.0   33.333333333333336
300.0   90.0   33.333333333333336
300.0   90.0   16.666666666666668
250.0   90.0   33.333333333333336
300.0   120.0   33.333333333333336
300.0   90.0   16.666666666666668
250.0   120.0   16.666666666666668
250.0   90.0   33.333333333333336
300.0   90.0   33.333333333333336
250.0   120.0   33.333333333333336
250.0   90.0   50.0
300.0   90.0   33.333333333333336
300.0   120.0   33.333333333333336
250.0   120.0   33.333333333333336
300.0   120.0   50.0
250.0   90.0   50.0
250.0   120.0   50.0
300.0   120.0   50.0
250.0   120.0   33.333333333333336
250.0   90.0   50.0
300.0   120.0   50.0
300.0   90.0   50.0
300.0   90.0   33.333333333333336
250.0   90.0   50.0
300.0   120.0   50.0
300.0   90.0   33.333333333333336
250.0   120.0   33.333333333333336
250.0   120.0   0.0
300.0   120.0   0.0
250.0   150.0   0.0
250.0   120.0   16.666666666666668
300.0   120.0   0.0
300.0   150.0   0.0
250.0   150.0   0.0
300.0   150.0   16.666666666666668
250.0   120.0   16.666666666666668
250.0   150.0   16.666666666666668
300.0   150.0   16.666666666666668
250.0   150.0   0.0
250.0   120.0   16.666666666666668
300.0   150.0   16.666666666666668
300.0   120.0   16.666666666666668
300.0   120.0   0.0
250.0   120.0   16.666666666666668
300.0   150.0   16.666666666666668
300.0   120.0   0.0
250.0   150.0   0.0
250.0   120.0   16.666666666666668
300.0   120.0   16.666666666666668
250.0   150.0   16.666666666666668
250.0   120.0   33.333333333333336
300.0   120.0   16.666666666666668
300.0   150.0   16.666666666666668
250.0   150.0   16.666666666666668
300.0   150.0   33.333333333333336
250.0   120.0   33.333333333333336
250.0   150.0   33.333333333333336
300.0   150.0   33.333333333333336
250.0   150.0   16.666666666666668
250.0   120.0   33.333333333333336
300.0   150.0   33.333333333333336
300.0   120.0   33.333333333333336
300.0   120.0   16.666666666666668
250.0   120.0   33.333333333333336
300.0   150.0   33.333333333333336
300.0   120.0   16.666666666666668
250.0   150.0   16.666666666666668
250.0   120.0   33.333333333333336
300.0   120.0   33.333333333333336
250.0   150.0   33.333333333333336
250.0   120.0   50.0
300.0   120.0   33.333333333333336
300.0   150.0   33.333333333333336
250.0   150.0   33.333333333333336
300.0   150.0   50.0
250.0   120.0   50.0
250.0   150.0   50.0
300.0   150.0   50.0
250.0   150.0   33.333333333333336
250.0   120.0   50.0
300.0   150.0   50.0
300.0   120.0   50.0
300.0   120.0   33.333333333333336
250.0   120.0   50.0
300.0   150.0   50.0
300.0   120.0   33.333333333333336
250.0   150.0   33.333333333333336
300.0   0.0   0.0
350.0   0.0   0.0
300.0   30.0   0.0
300.0   0.0   16.666666666666668
350.0   0.0   0.0
350.0   30.0   0.0
300.0   30.0   0.0
350.0   30.0   16.666666666666668
300.0   0.0   16.666666666666668
300.0   30.0   16.666666666666668
350.0   30.0   16.666666666666668
300.0   30.0   0.0
300.0   0.0   16.666666666666668
350.0   30.0   16.666666666666668
350.0   0.0   16.666666666666668
350.0   0.0   0.0
300.0   0.0   16.666666666666668
350.0   30.0   16.666666666666668
350.0   0.0   0.0
300.0   30.0   0.0
300.0   0.0   16.666666666666668
350.0   0.0   16.666666666666668
300.0   30.0   16.666666666666668
300.0   0.0   33.333333333333336
350.0   0.0   16.666666666666668
350.0   30.0   16.666666666666668
300.0   30.0   16.666666666666668
350.0   30.0   33.333333333333336
300.0   0.0   33.333333333333336
300.0   30.0   33.333333333333336
350.0   30.0   33.333333333333336
300.0   30.0   16.666666666666668
300.0   0.0   33.333333333333336
350.0   30.0   33.333333333333336
350.0   0.0   33.333333333333336
350.0   0.0   16.666666666666668
300.0   0.0   33.333333333333336
350.0   30.0   33.333333333333336
350.0   0.0   16.666666666666668
300.0   30.0   16.666666666666668
300.0   0.0   33.333333333333336
350.0   0.0   33.333333333333336
300.0   30.0   33.333333333333336
300.0   0.0   50.0
350.0   0.0   33.333333333333336
350.0   30.0   33.333333333333336
300.0   30.0   33.333333333333336
350.0   30.0   50.0
300.0   0.0   50.0
300.0   30.0   50.0
350.0   30.0   50.0
300.0   30.0   33.333333333333336
300.0   0.0   50.0
350.0   30.0   50.0
350.0   0.0   50.0
350.0   0.0   33.333333333333336
300.0   0.0   50.0
350.0   30.0   50.0
350.0   0.0   33.333333333333336
300.0   30.0   33.333333333333336
300.0   30.0   0.0
350.0   30.0   0.0
300.0   60.0   0.0
300.0   30.0   16.666666666666668
350.0   30.0   0.0
350.0   60.0   0.0
300.0   60.0   0.0
350.0   60.0   16.666666666666668
300.0   30.0   16.666666666666668
300.0   60.0   16.666666666666668
350.0   60.0   16.666666666666668
300.0   60.0   0.0
300.0   30.0   16.666666666666668
350.0   60.0   16.666666666666668
350.0   30.0   16.666666666666668
350.0   30.0   0.0
300.0   30.0   16.666666666666668
350.0   60.0   16.666666666666668
350.0   30.0   0.0
300.0   60.0   0.0
300.0   30.0   16.666666666666668
350.0   30.0   16.666666666666668
300.0   60.0   16.666666666666668
300.0   30.0   33.333333333333336
350.0   30.0   16.666666666666668
350.0   60.0   16.666666666666668
300.0   60.0   16.666666666666668
350.0   60.0   33.333333333333336
300.0   30.0   33.333333333333336
300.0   60.0   33.333333333333336
350.0   60.0   33.333333333333336
300.0   60.0   16.666666666666668
300.0   30.0   33.333333333333336
350.0   60.0   33.333333333333336
350.0   30.0   33.333333333333336
350.0   30.0   16.666666666666668
300.0   30.0   33.333333333333336
350.0   60.0   33.333333333333336
350.0   30.0   16.666666666666668
300.0   60.0   16.666666666666668
300.0   30.0   33.333333333333336
350.0   30.0   33.333333333333336
300.0   60.0   33.333333333333336
300.0   30.0   50.0
350.0   30.0   33.333333333333336
350.0   60.0   33.333333333333336
300.0   60.0   33.333333333333336
350.0   60.0   50.0
300.0   30.0   50.0
300.0   60.0   50.0
350.0   60.0   50.0
300.0   60.0   33.333333333333336
300.0   30.0   50.0
350.0   60.0   50.0
350.0   30.0   50.0
350.0   30.0   33.333333333333336
300.0   30.0   50.0
350.0   60.0   50.0
350.0   30.0   33.333333333333336
300.0   60.0   33.333333333333336
300.0   60.0   0.0
350.0   60.0   0.0
300.0   90.0   0.0
300.0   60.0   16.666666666666668
350.0   60.0   0.0
350.0   90.0   0.0
300.0   90.0   0.0
350.0   90.0   16.666666666666668
300.0   60.0   16.666666666666668
300.0   90.0   16.666666666666668
350.0   90.0   16.666666666666668
300.0   90.0   0.0
300.0   60.0   16.666666666666668
350.0   90.0   16.666666666666668
350.0   60.0   16.666666666666668
350.0   60.0   0.0
300.0   60.0   16.666666666666668
350.0   90.0   16.666666666666668
350.0   60.0   0.0
300.0   90.0   0.0
300.0   60.0   16.666666666666668
350.0   60.0   16.666666666666668
300.0   90.0   16.666666666666668
300.0   60.0   33.333333333333336
350.0   60.0   16.666666666666668
350.0   90.0   16.666666666666668
300.0   90.0   16.666666666666668
350.0   90.0   33.333333333333336
300.0   60.0   33.333333333333336
300.0   90.0   33.333333333333336
350.0   90.0   33.333333333333336
300.0   90.0   16.666666666666668
300.0   60.0   33.333333333333336
350.0   90.0   33.333333333333336
350.0   60.0   33.333333333333336
350.0   60.0   16.666666666666668
300.0   60.0   33.333333333333336
350.0   90.0   33.333333333333336
350.0   60.0   16.666666666666668
300.0   90.0   16.666666666666668
300.0   60.0   33.333333333333336
350.0   60.0   33.333333333333336
300.0   90.0   33.333333333333336
300.0   60.0   50.0
350.0   60.0   33.333333333333336
350.0   90.0   33.333333333333336
300.0   90.0   33.333333333333336
350.0   90.0   50.0
300.0   60.0   50.0
300.0   90.0   50.0
350.0   90.0   50.0
300.0   90.0   33.333333333333336
300.0   60.0   50.0
350.0   90.0   50.0
350.0   60.0   50.0
350.0   60.0   33.333333333333336
300.0   60.0   50.0
350.0   90.0   50.0
350.0   60.0   33.333333333333336
300.0   90.0   33.333333333333336
300.0   90.0   0.0
350.0   90.0   0.0
300.0   120.0   0.0
300.0   90.0   16.666666666666668
350.0   90.0   0.0
350.0   120.0   0.0
300.0   120.0   0.0
350.0   120.0   16.666666666666668
300.0   90.0   16.666666666666668
300.0   120.0   16.666666666666668
350.0   120.0   16.666666666666668
300.0   120.0   0.0
300.0   90.0   16.666666666666668
350.0   120.0   16.666666666666668
350.0   90.0   16.666666666666668
350.0   90.0   0.0
300.0   90.0   16.666666666666668
350.0   120.0   16.666666666666668
350.0   90.0   0.0
300.0   120.0   0.0
300.0   90.0   16.666666666666668
350.0   90.0   16.666666666666668
300.0   120.0   16.666666666666668
300.0   90.0   33.333333333333336
350.0   90.0   16.666666666666668
350.0   120.0   16.666666666666668
300.0   120.0   16.666666666666668
350.0   120.0   33.333333333333336
300.0   90.0   33.333333333333336
300.0   120.0   33.333333333333336
350.0   120.0   33.333333333333336
300.0   120.0   16.666666666666668
300.0   90.0   33.333333333333336
350.0   120.0   33.333333333333336
350.0   90.0   33.333333333333336
350.0   90.0   16.666666666666668
300.0   90.0   33.333333333333336
350.0   120.0   33.333333333333336
350.0   90.0   16.666666666666668
300.0   120.0   16.666666666666668
300.0   90.0   33.333333333333336
350.0   90.0   33.333333333333336
300.0   120.0   33.333333333333336
300.0   90.0   50.0
350.0   90.0   33.333333333333336
350.0   120.0   33.333333333333336
300.0   120.0   33.333333333333336
350.0   120.0   50.0
300.0   90.0   50.0
300.0   120.0   50.0
350.0   120.0   50.0
300.0   120.0   33.333333333333336
300.0   90.0   50.0
350.0   120.0   50.0
350.0   90.0   50.0
350.0   90.0   33.333333333333336
300.0   90.0   50.0
350.0   120.0   50.0
350.0   90.0   33.333333333333336
300.0   120.0   33.333333333333336
300.0   120.0   0.0
350.0   120.0   0.0
300.0   150.0   0.0
300.0   120.0   16.666666666666668
350.0   120.0   0.0
350.0   150.0   0.0
300.0   150.0   0.0
350.0   150.0   16.666666666666668
300.0   120.0   16.666666666666668
300.0   150.0   16.666666666666668
350.0   150.0   16.666666666666668
300.0   150.0   0.0
300.0   120.0   16.666666666666668
350.0   150.0   16.666666666666668
350.0   120.0   16.666666666666668
350.0   120.0   0.0
300.0   120.0   16.666666666666668
350.0   150.0   16.666666666666668
350.0   120.0   0.0
300.0   150.0   0.0
300.0   120.0   16.666666666666668
350.0   120.0   16.666666666666668
300.0   150.0   16.666666666666668
300.0   120.0   33.333333333333336
350.0   120.0   16.666666666666668
350.0   150.0   16.666666666666668
300.0   150.0   16.666666666666668
350.0   150.0   33.333333333333336
300.0   120.0   33.333333333333336
300.0   150.0   33.333333333333336
350.0   150.0   33.333333333333336
300.0   150.0   16.666666666666668
300.0   120.0   33.333333333333336
350.0   150.0   33.333333333333336
350.0   120.0   33.333333333333336
350.0   120.0   16.666666666666668
300.0   120.0   33.333333333333336
350.0   150.0   33.333333333333336
350.0   120.0   16.666666666666668
300.0   150.0   16.666666666666668
300.0   120.0   33.333333333333336
350.0   120.0   33.333333333333336
300.0   150.0   33.333333333333336
300.0   120.0   50.0
350.0   120.0   33.333333333333336
350.0   150.0   33.333333333333336
300.0   150.0   33.333333333333336
350.0   150.0   50.0
300.0   120.0   50.0
300.0   150.0   50.0
350.0   150.0   50.0
300.0   150.0   33.333333333333336
300.0   120.0   50.0
350.0   150.0   50.0
350.0   120.0   50.0
350.0   120.0   33.333333333333336
300.0   120.0   50.0
350.0   150.0   50.0
350.0   120.0   33.333333333333336
300.0   150.0   33.333333333333336
350.0   0.0   0.0
400.0   0.0   0.0
350.0   30.0   0.0
350.0   0.0   16.666666666666668
400.0   0.0   0.0
400.0   30.0   0.0
350.0   30.0   0.0
400.0   30.0   16.666666666666668
350.0   0.0   16.666666666666668
350.0   30.0   16.666666666666668
400.0   30.0   16.666666666666668
350.0   30.0   0.0
350.0   0.0   16.666666666666668
400.0   30.0   16.666666666666668
400.0   0.0   16.666666666666668
400.0   0.0   0.0
350.0   0.0   16.666666666666668
400.0   30.0   16.666666666666668
400.0   0.0   0.0
350.0   30.0   0.0
350.0   0.0   16.666666666666668
400.0   0.0   16.666666666666668
350.0   30.0   16.666666666666668
350.0   0.0   33.333333333333336
400.0   0.0   16.666666666666668
400.0   30.0   16.666666666666668
350.0   30.0   16.666666666666668
400.0   30.0   33.333333333333336
350.0   0.0   33.333333333333336
350.0   30.0   33.333333333333336
400.0   30.0   33.333333333333336
350.0   30.0   16.666666666666668
350.0   0.0   33.333333333333336
400.0   30.0   33.333333333333336
400.0   0.0   33.333333333333336
400.0   0.0   16.666666666666668
350.0   0.0   33.333333333333336
400.0   30.0   33.333333333333336
400.0   0.0   16.666666666666668
350.0   30.0   16.666666666666668
350.0   0.0   33.333333333333336
400.0   0.0   33.333333333333336
350.0   30.0   33.333333333333336
350.0   0.0   50.0
400.0   0.0   33.333333333333336
400.0   30.0   33.333333333333336
350.0   30.0   33.333333333333336
400.0   30.0   50.0
350.0   0.0   50.0
350.0   30.0   50.0
400.0   30.0   50.0
350.0   30.0   33.333333333333336
350.0   0.0   50.0
400.0   30.0   50.0
400.0   0.0   50.0
400.0   0.0   33.333333333333336
350.0   0.0   50.0
400.0   30.0   50.0
400.0   0.0   33.333333333333336
350.0   30.0   33.333333333333336
350.0   30.0   0.0
400.0   30.0   0.0
350.0   60.0   0.0
350.0   30.0   16.666666666666668
400.0   30.0   0.0
400.0   60.0   0.0
350.0   60.0   0.0
400.0   60.0   16.666666666666668
350.0   30.0   16.666666666666668
350.0   60.0   16.666666666666668
400.0   60.0   16.666666666666668
350.0   60.0   0.0
350.0   30.0   16.666666666666668
400.0   60.0   16.666666666666668
400.0   30.0   16.666666666666668
400.0   30.0   0.0
350.0   30.0   16.666666666666668
400.0   60.0   16.666666666666668
400.0   30.0   0.0
350.0   60.0   0.0
350.0   30.0   16.666666666666668
400.0   30.0   16.666666666666668
350.0   60.0   16.666666666666668
350.0   30.0   33.333333333333336
400.0   30.0   16.666666666666668
400.0   60.0   16.666666666666668
350.0   60.0   16.666666666666668
400.0   60.0   33.333333333333336
350.0   30.0   33.333333333333336
350.0   60.0   33.333333333333336
400.0   60.0   33.333333333333336
350.0   60.0   16.666666666666668
350.0   30.0   33.333333333333336
400.0   60.0   33.333333333333336
400.0   30.0   33.333333333333336
400.0   30.0   16.666666666666668
350.0   30.0   33.333333333333336
400.0   60.0   33.333333333333336
400.0   30.0   16.666666666666668
350.0   60.0   16.666666666666668
350.0   30.0   33.333333333333336
400.0   30.0   33.333333333333336
350.0   60.0   33.333333333333336
350.0   30.0   50.0
400.0   30.0   33.333333333333336
400.0   60.0   33.333333333333336
350.0   60.0   33.333333333333336
400.0   60.0   50.0
350.0   30.0   50.0
350.0   60.0   50.0
400.0   60.0   50.0
350.0   60.0   33.333333333333336
350.0   30.0   50.0
400.0   60.0   50.0
400.0   30.0   50.0
400.0   30.0   33.333333333333336
350.0   30.0   50.0
400.0   60.0   50.0
400.0   30.0   33.333333333333336
350.0   60.0   33.333333333333336
350.0   60.0   0.0
400.0   60.0   0.0
350.0   90.0   0.0
350.0   60.0   16.666666666666668
400.0   60.0   0.0
400.0   90.0   0.0
350.0   90.0   0.0
400.0   90.0   16.666666666666668
350.0   60.0   16.666666666666668
350.0   90.0   16.666666666666668
400.0   90.0   16.666666666666668
350.0   90.0   0.0
350.0   60.0   16.666666666666668
400.0   90.0   16.666666666666668
400.0   60.0   16.666666666666668
400.0   60.0   0.0
350.0   60.0   16.666666666666668
400.0   90.0   16.666666666666668
400.0   60.0   0.0
350.0   90.0   0.0
350.0   60.0   16.666666666666668
400.0   60.0   16.666666666666668
350.0   90.0   16.666666666666668
350.0   60.0   33.333333333333336
400.0   60.0   16.666666666666668
400.0   90.0   16.666666666666668
350.0   90.0   16.666666666666668
400.0   90.0   33.333333333333336
350.0   60.0   33.333333333333336
350.0   90.0   33.333333333333336
400.0   90.0   33.333333333333336
350.0   90.0   16.666666666666668
350.0   60.0   33.333333333333336
400.0   90.0   33.333333333333336
400.0   60.0   33.333333333333336
400.0   60.0   16.666666666666668
350.0   60.0   33.333333333333336
400.0   90.0   33.333333333333336
400.0   60.0   16.666666666666668
350.0   90.0   16.666666666666668
350.0   60.0   33.333333333333336
400.0   60.0   33.333333333333336
350.0   90.0   33.333333333333336
350.0   60.0   50.0
400.0   60.0   33.333333333333336
400.0   90.0   33.333333333333336
350.0   90.0   33.333333333333336
400.0   90.0   50.0
350.0   60.0   50.0
350.0   90.0   50.0
400.0   90.0   50.0
350.0   90.0   33.333333333333336
350.0   60.0   50.0
400.0   90.0   50.0
400.0   60.0   50.0
400.0   60.0   33.333333333333336
350.0   60.0   50.0
400.0   90.0   50.0
400.0   60.0   33.333333333333336
350.0   90.0   33.333333333333336
350.0   90.0   0.0
400.0   90.0   0.0
350.0   120.0   0.0
350.0   90.0   16.666666666666668
400.0   90.0   0.0
400.0   120.0   0.0
350.0   120.0   0.0
400.0   120.0   16.666666666666668
350.0   90.0   16.666666666666668
350.0   120.0   16.666666666666668
400.0   120.0   16.666666666666668
350.0   120.0   0.0
350.0   90.0   16.666666666666668
400.0   120.0   16.666666666666668
400.0   90.0   16.666666666666668
400.0   90.0   0.0
350.0   90.0   16.666666666666668
400.0   120.0   16.666666666666668
400.0   90.0   0.0
350.0   120.0   0.0
350.0   90.0   16.666666666666668
400.0   90.0   16.666666666666668
350.0   120.0   16.666666666666668
350.0   90.0   33.333333333333336
400.0   90.0   16.666666666666668
400.0   120.0   16.666666666666668
350.0   120.0   16.666666666666668
400.0   120.0   33.333333333333336
350.0   90.0   33.333333333333336
350.0   120.0   33.333333333333336
400.0   120.0   33.333333333333336
350.0   120.0   16.666666666666668
350.0   90.0   33.333333333333336
400.0   120.0   33.333333333333336
400.0   90.0   33.333333333333336
400.0   90.0   16.666666666666668
350.0   90.0   33.333333333333336
400.0   120.0   33.333333333333336
400.0   90.0   16.666666666666668
350.0   120.0   16.666666666666668
350.0   90.0   33.333333333333336
400.0   90.0   33.333333333333336
350.0   120.0   33.333333333333336
350.0   90.0   50.0
400.0   90.0   33.333333333333336
400.0   120.0   33.333333333333336
350.0   120.0   33.333333333333336
400.0   120.0   50.0
350.0   90.0   50.0
350.0   120.0   50.0
400.0   120.0   50.0
350.0   120.0   33.333333333333336
350.0   90.0   50.0
400.0   120.0   50.0
400.0   90.0   50.0
400.0   90.0   33.333333333333336
350.0   90.0   50.0
400.0   120.0   50.0
400.0   90.0   33.333333333333336
350.0   120.0   33.333333333333336
350.0   120.0   0.0
400.0   120.0   0.0
350.0   150.0   0.0
350.0   120.0   16.666666666666668
400.0   120.0   0.0
400.0   150.0   0.0
350.0   150.0   0.0
400.0   150.0   16.666666666666668
350.0   120.0   16.666666666666668
350.0   150.0   16.666666666666668
400.0   150.0   16.666666666666668
350.0   150.0   0.0
350.0   120.0   16.666666666666668
400.0   150.0   16.666666666666668
400.0   120.0   16.666666666666668
400.0   120.0   0.0
350.0   120.0   16.666666666666668
400.0   150.0   16.666666666666668
400.0   120.0   0.0
350.0   150.0   0.0
350.0   120.0   16.666666666666668
400.0   120.0   16.666666666666668
350.0   150.0   16.666666666666668
350.0   120.0   33.333333333333336
400.0   120.0   16.666666666666668
400.0   150.0   16.666666666666668
350.0   150.0   16.666666666666668
400.0   150.0   33.333333333333336
350.0   120.0   33.333333333333336
350.0   150.0   33.333333333333336
400.0   150.0   33.333333333333336
350.0   150.0   16.666666666666668
350.0   120.0   33.333333333333336
400.0   150.0   33.333333333333336
400.0   120.0   33.333333333333336
400.0   120.0   16.666666666666668
350.0   120.0   33.333333333333336
400.0   150.0   33.333333333333336
400.0   120.0   16.666666666666668
350.0   150.0   16.666666666666668
350.0   120.0   33.333333333333336
400.0   120.0   33.333333333333336
350.0   150.0   33.333333333333336
350.0   120.0   50.0
400.0   120.0   33.333333333333336
400.0   150.0   33.333333333333336
350.0   150.0   33.333333333333336
400.0   150.0   50.0
350.0   120.0   50.0
350.0   150.0   50.0
400.0   150.0   50.0
350.0   150.0   33.333333333333336
350.0   120.0   50.0
400.0   150.0   50.0
400.0   120.0   50.0
400.0   120.0   33.333333333333336
350.0   120.0   50.0
400.0   150.0   50.0
400.0   120.0   33.333333333333336
350.0   150.0   33.333333333333336
400.0   0.0   0.0
450.0   0.0   0.0
400.0   30.0   0.0
400.0   0.0   16.666666666666668
450.0   0.0   0.0
450.0   30.0   0.0
400.0   30.0   0.0
450.0   30.0   16.666666666666668
400.0   0.0   16.666666666666668
400.0   30.0   16.666666666666668
450.0   30.0   16.666666666666668
400.0   30.0   0.0
400.0   0.0   16.666666666666668
450.0   30.0   16.666666666666668
450.0   0.0   16.666666666666668
450.0   0.0   0.0
400.0   0.0   16.666666666666668
450.0   30.0   16.666666666666668
450.0   0.0   0.0
400.0   30.0   0.0
400.0   0.0   16.666666666666668
450.0   0.0   16.666666666666668
400.0   30.0   16.666666666666668
400.0   0.0   33.333333333333336
450.0   0.0   16.666666666666668
450.0   30.0   16.666666666666668
400.0   30.0   16.666666666666668
450.0   30.0   33.333333333333336
400.0   0.0   33.333333333333336
400.0   30.0   33.333333333333336
450.0   30.0   33.333333333333336
400.0   30.0   16.666666666666668
400.0   0.0   33.333333333333336
450.0   30.0   33.333333333333336
450.0   0.0   33.333333333333336
450.0   0.0   16.666666666666668
400.0   0.0   33.333333333333336
450.0   30.0   33.333333333333336
450.0   0.0   16.666666666666668
400.0   30.0   16.666666666666668
400.0   0.0   33.333333333333336
450.0   0.0   33.333333333333336
400.0   30.0   33.333333333333336
400.0   0.0   50.0
450.0   0.0   33.333333333333336
450.0   30.0   33.333333333333336
400.0   30.0   33.333333333333336
450.0   30.0   50.0
400.0   0.0   50.0
400.0   30.0   50.0
450.0   30.0   50.0
400.0   30.0   33.333333333333336
400.0   0.0   50.0
450.0   30.0   50.0
450.0   0.0   50.0
450.0   0.0   33.333333333333336
400.0   0.0   50.0
450.0   30.0   50.0
450.0   0.0   33.333333333333336
400.0   30.0   33.333333333333336
400.0   30.0   0.0
450.0   30.0   0.0
400.0   60.0   0.0
400.0   30.0   16.666666666666668
450.0   30.0   0.0
450.0   60.0   0.0
400.0   60.0   0.0
450.0   60.0   16.666666666666668
400.0   30.0   16.666666666666668
400.0   60.0   16.666666666666668
450.0   60.0   16.666666666666668
400.0   60.0   0.0
400.0   30.0   16.666666666666668
450.0   60.0   16.666666666666668
450.0   30.0   16.666666666666668
450.0   30.0   0.0
400.0   30.0   16.666666666666668
450.0   60.0   16.666666666666668
450.0   30.0   0.0
400.0   60.0   0.0
400.0   30.0   16.666666666666668
450.0   30.0   16.666666666666668
400.0   60.0   16.666666666666668
400.0   30.0   33.333333333333336
450.0   30.0   16.666666666666668
450.0   60.0   16.666666666666668
400.0   60.0   16.666666666666668
450.0   60.0   33.333333333333336
400.0   30.0   33.333333333333336
400.0   60.0   33.333333333333336
450.0   60.0   33.333333333333336
400.0   60.0   16.666666666666668
400.0   30.0   33.333333333333336
450.0   60.0   33.333333333333336
450.0   30.0   33.333333333333336
450.0   30.0   16.666666666666668
400.0   30.0   33.333333333333336
450.0   60.0   33.333333333333336
450.0   30.0   16.666666666666668
400.0   60.0   16.666666666666668
400.0   30.0   33.333333333333336
450.0   30.0   33.333333333333336
400.0   60.0   33.333333333333336
400.0   30.0   50.0
450.0   30.0   33.333333333333336
450.0   60.0   33.333333333333336
400.0   60.0   33.333333333333336
450.0   60.0   50.0
400.0   30.0   50.0
400.0   60.0   50.0
450.0   60.0   50.0
400.0   60.0   33.333333333333336
400.0   30.0   50.0
450.0   60.0   50.0
450.0   30.0   50.0
450.0   30.0   33.333333333333336
400.0   30.0   50.0
450.0   60.0   50.0
450.0   30.0   33.333333333333336
400.0   60.0   33.333333333333336
400.0   60.0   0.0
450.0   60.0   0.0
400.0   90.0   0.0
400.0   60.0   16.666666666666668
450.0   60.0   0.0
450.0   90.0   0.0
400.0   90.0   0.0
450.0   90.0   16.666666666666668
400.0   60.0   16.666666666666668
400.0   90.0   16.666666666666668
450.0   90.0   16.666666666666668
400.0   90.0   0.0
400.0   60.0   16.666666666666668
450.0   90.0   16.666666666666668
450.0   60.0   16.666666666666668
450.0   60.0   0.0
400.0   60.0   16.666666666666668
450.0   90.0   16.666666666666668
450.0   60.0   0.0
400.0   90.0   0.0
400.0   60.0   16.666666666666668
450.0   60.0   16.666666666666668
400.0   90.0   16.666666666666668
400.0   60.0   33.333333333333336
450.0   60.0   16.666666666666668
450.0   90.0   16.666666666666668
400.0   90.0   16.666666666666668
450.0   90.0   33.333333333333336
400.0   60.0   33.333333333333336
400.0   90.0   33.333333333333336
450.0   90.0   33.333333333333336
400.0   90.0   16.666666666666668
400.0   60.0   33.333333333333336
450.0   90.0   33.333333333333336
450.0   60.0   33.333333333333336
450.0   60.0   16.666666666666668
400.0   60.0   33.333333333333336
450.0   90.0   33.333333333333336
450.0   60.0   16.666666666666668
400.0   90.0   16.666666666666668
400.0   60.0   33.333333333333336
450.0   60.0   33.333333333333336
400.0   90.0   33.333333333333336
400.0   60.0   50.0
450.0   60.0   33.333333333333336
450.0   90.0   33.333333333333336
400.0   90.0   33.333333333333336
450.0   90.0   50.0
400.0   60.0   50.0
400.0   90.0   50.0
450.0   90.0   50.0
400.0   90.0   33.333333333333336
400.0   60.0   50.0
450.0   90.0   50.0
450.0   60.0   50.0
450.0   60.0   33.333333333333336
400.0   60.0   50.0
450.0   90.0   50.0
450.0   60.0   33.333333333333336
400.0   90.0   33.333333333333336
400.0   90.0   0.0
450.0   90.0   0.0
400.0   120.0   0.0
400.0   90.0   16.666666666666668
450.0   90.0   0.0
450.0   120.0   0.0
400.0   120.0   0.0
450.0   120.0   16.666666666666668
400.0   90.0   16.666666666666668
400.0   120.0   16.666666666666668
450.0   120.0   16.666666666666668
400.0   120.0   0.0
400.0   90.0   16.666666666666668
450.0   120.0   16.666666666666668
450.0   90.0   16.666666666666668
450.0   90.0   0.0
400.0   90.0   16.666666666666668
450.0   120.0   16.666666666666668
450.0   90.0   0.0
400.0   120.0   0.0
400.0   90.0   16.666666666666668
450.0   90.0   16.666666666666668
400.0   120.0   16.666666666666668
400.0   90.0   33.333333333333336
450.0   90.0   16.666666666666668
450.0   120.0   16.666666666666668
400.0   120.0   16.666666666666668
450.0   120.0   33.333333333333336
400.0   90.0   33.333333333333336
400.0   120.0   33.333333333333336
450.0   120.0   33.333333333333336
400.0   120.0   16.666666666666668
400.0   90.0   33.333333333333336
450.0   120.0   33.333333333333336
450.0   90.0   33.333333333333336
450.0   90.0   16.666666666666668
400.0   90.0   33.333333333333336
450.0   120.0   33.333333333333336
450.0   90.0   16.666666666666668
400.0   120.0   16.666666666666668
400.0   90.0   33.333333333333336
450.0   90.0   33.333333333333336
400.0   120.0   33.333333333333336
400.0   90.0   50.0
450.0   90.0   33.333333333333336
450.0   120.0   33.333333333333336
400.0   120.0   33.333333333333336
450.0   120.0   50.0
400.0   90.0   50.0
400.0   120.0   50.0
450.0   120.0   50.0
400.0   120.0   33.333333333333336
400.0   90.0   50.0
450.0   120.0   50.0
450.0   90.0   50.0
450.0   90.0   33.333333333333336
400.0   90.0   50.0
450.0   120.0   50.0
450.0   90.0   33.333333333333336
400.0   120.0   33.333333333333336
400.0   120.0   0.0
450.0   120.0   0.0
400.0   150.0   0.0
400.0   120.0   16.666666666666668
450.0   120.0   0.0
450.0   150.0   0.0
400.0   150.0   0.0
450.0   150.0   16.666666666666668
400.0   120.0   16.666666666666668
400.0   150.0   16.666666666666668
450.0   150.0   16.666666666666668
400.0   150.0   0.0
400.0   120.0   16.666666666666668
450.0   150.0   16.666666666666668
450.0   120.0   16.666666666666668
450.0   120.0   0.0
400.0   120.0   16.666666666666668
450.0   150.0   16.666666666666668
450.0   120.0   0.0
400.0   150.0   0.0
400.0   120.0   16.666666666666668
450.0   120.0   16.666666666666668
400.0   150.0   16.666666666666668
400.0   120.0   33.333333333333336
450.0   120.0   16.666666666666668
450.0   150.0   16.666666666666668
400.0   150.0   16.666666666666668
450.0   150.0   33.333333333333336
400.0   120.0   33.333333333333336
400.0   150.0   33.333333333333336
450.0   150.0   33.333333333333336
400.0   150.0   16.666666666666668
400.0   120.0   33.333333333333336
450.0   150.0   33.333333333333336
450.0   120.0   33.333333333333336
450.0   120.0   16.666666666666668
400.0   120.0   33.333333333333336
450.0   150.0   33.333333333333336
450.0   120.0   16.666666666666668
400.0   150.0   16.666666666666668
400.0   120.0   33.333333333333336
450.0   120.0   33.333333333333336
400.0   150.0   33.333333333333336
400.0   120.0   50.0
450.0   120.0   33.333333333333336
450.0   150.0   33.333333333333336
400.0   150.0   33.333333333333336
450.0   150.0   50.0
400.0   120.0   50.0
400.0   150.0   50.0
450.0   150.0   50.0
400.0   150.0   33.333333333333336
400.0   120.0   50.0
450.0   150.0   50.0
450.0   120.0   50.0
450.0   120.0   33.333333333333336
400.0   120.0   50.0
450.0   150.0   50.0
450.0   120.0   33.333333333333336
400.0   150.0   33.333333333333336
450.0   0.0   0.0
500.0   0.0   0.0
450.0   30.0   0.0
450.0   0.0   16.666666666666668
500.0   0.0   0.0
500.0   30.0   0.0
450.0   30.0   0.0
500.0   30.0   16.666666666666668
450.0   0.0   16.666666666666668
450.0   30.0   16.666666666666668
500.0   30.0   16.666666666666668
450.0   30.0   0.0
450.0   0.0   16.666666666666668
500.0   30.0   16.666666666666668
500.0   0.0   16.666666666666668
500.0   0.0   0.0
450.0   0.0   16.666666666666668
500.0   30.0   16.666666666666668
500.0   0.0   0.0
450.0   30.0   0.0
450.0   0.0   16.666666666666668
500.0   0.0   16.666666666666668
450.0   30.0   16.666666666666668
450.0   0.0   33.333333333333336
500.0   0.0   16.666666666666668
500.0   30.0   16.666666666666668
450.0   30.0   16.666666666666668
500.0   30.0   33.333333333333336
450.0   0.0   33.333333333333336
450.0   30.0   33.333333333333336
500.0   30.0   33.333333333333336
450.0   30.0   16.666666666666668
450.0   0.0   33.333333333333336
500.0   30.0   33.333333333333336
500.0   0.0   33.333333333333336
500.0   0.0   16.666666666666668
450.0   0.0   33.333333333333336
500.0   30.0   33.333333333333336
500.0   0.0   16.666666666666668
450.0   30.0   16.666666666666668
450.0   0.0   33.333333333333336
500.0   0.0   33.333333333333336
450.0   30.0   33.333333333333336
450.0   0.0   50.0
500.0   0.0   33.333333333333336
500.0   30.0   33.333333333333336
450.0   30.0   33.333333333333336
500.0   30.0   50.0
450.0   0.0   50.0
450.0   30.0   50.0
500.0   30.0   50.0
450.0   30.0   33.333333333333336
450.0   0.0   50.0
500.0   30.0   50.0
500.0   0.0   50.0
500.0   0.0   33.333333333333336
450.0   0.0   50.0
500.0   30.0   50.0
500.0   0.0   33.333333333333336
450.0   30.0   33.333333333333336
450.0   30.0   0.0
500.0   30.0   0.0
450.0   60.0   0.0
450.0   30.0   16.666666666666668
500.0   30.0   0.0
500.0   60.0   0.0
450.0   60.0   0.0
500.0   60.0   16.666666666666668
450.0   30.0   16.666666666666668
450.0   60.0   16.666666666666668
500.0   60.0   16.666666666666668
450.0   60.0   0.0
450.0   30.0   16.666666666666668
500.0   60.0   16.666666666666668
500.0   30.0   16.666666666666668
500.0   30.0   0.0
450.0   30.0   16.666666666666668
500.0   60.0   16.666666666666668
500.0   30.0   0.0
450.0   60.0   0.0
450.0   30.0   16.666666666666668
500.0   30.0   16.666666666666668
450.0   60.0   16.666666666666668
450.0   30.0   33.333333333333336
500.0   30.0   16.666666666666668
500.0   60.0   16.666666666666668
450.0   60.0   16.666666666666668
500.0   60.0   33.333333333333336
450.0   30.0   33.333333333333336
450.0   60.0   33.333333333333336
500.0   60.0   33.333333333333336
450.0   60.0   16.666666666666668
450.0   30.0   33.333333333333336
500.0   60.0   33.333333333333336
500.0   30.0   33.333333333333336
500.0   30.0   16.666666666666668
450.0   30.0   33.333333333333336
500.0   60.0   33.333333333333336
500.0   30.0   16.666666666666668
450.0   60.0   16.666666666666668
450.0   30.0   33.333333333333336
500.0   30.0   33.333333333333336
450.0   60.0   33.333333333333336
450.0   30.0   50.0
500.0   30.0   33.333333333333336
500.0   60.0   33.333333333333336
450.0   60.0   33.333333333333336
500.0   60.0   50.0
450.0   30.0   50.0
450.0   60.0   50.0
500.0   60.0   50.0
450.0   60.0   33.333333333333336
450.0   30.0   50.0
500.0   60.0   50.0
500.0   30.0   50.0
500.0   30.0   33.333333333333336
450.0   30.0   50.0
500.0   60.0   50.0
500.0   30.0   33.333333333333336
450.0   60.0   33.333333333333336
450.0   60.0   0.0
500.0   60.0   0.0
450.0   90.0   0.0
450.0   60.0   16.666666666666668
500.0   60.0   0.0
500.0   90.0   0.0
450.0   90.0   0.0
500.0   90.0   16.666666666666668
450.0   60.0   16.666666666666668
450.0   90.0   16.666666666666668
500.0   90.0   16.666666666666668
450.0   90.0   0.0
450.0   60.0   16.666666666666668
500.0   90.0   16.666666666666668
500.0   60.0   16.666666666666668
500.0   60.0   0.0
450.0   60.0   16.666666666666668
500.0   90.0   16.666666666666668
500.0   60.0   0.0
450.0   90.0   0.0
450.0   60.0   16.666666666666668
500.0   60.0   16.666666666666668
450.0   90.0   16.666666666666668
450.0   60.0   33.333333333333336
500.0   60.0   16.666666666666668
500.0   90.0   16.666666666666668
450.0   90.0   16.666666666666668
500.0   90.0   33.333333333333336
450.0   60.0   33.333333333333336
450.0   90.0   33.333333333333336
500.0   90.0   33.333333333333336
450.0   90.0   16.666666666666668
450.0   60.0   33.333333333333336
500.0   90.0   33.333333333333336
500.0   60.0   33.333333333333336
500.0   60.0   16.666666666666668
450.0   60.0   33.333333333333336
500.0   90.0   33.333333333333336
500.0   60.0   16.666666666666668
450.0   90.0   16.666666666666668
450.0   60.0   33.333333333333336
500.0   60.0   33.333333333333336
450.0   90.0   33.333333333333336
450.0   60.0   50.0
500.0   60.0   33.333333333333336
500.0   90.0   33.333333333333336
450.0   90.0   33.333333333333336
500.0   90.0   50.0
450.0   60.0   50.0
450.0   90.0   50.0
500.0   90.0   50.0
450.0   90.0   33.333333333333336
450.0   60.0   50.0
500.0   90.0   50.0
500.0   60.0   50.0
500.0   60.0   33.333333333333336
450.0   60.0   50.0
500.0   90.0   50.0
500.0   60.0   33.333333333333336
450.0   90.0   33.333333333333336
450.0   90.0   0.0
500.0   90.0   0.0
450.0   120.0   0.0
450.0   90.0   16.666666666666668
500.0   90.0   0.0
500.0   120.0   0.0
450.0   120.0   0.0
500.0   120.0   16.666666666666668
450.0   90.0   16.666666666666668
450.0   120.0   16.666666666666668
500.0   120.0   16.666666666666668
450.0   120.0   0.0
450.0   90.0   16.666666666666668
500.0   120.0   16.666666666666668
500.0   90.0   16.666666666666668
500.0   90.0   0.0
450.0   90.0   16.666666666666668
500.0   120.0   16.666666666666668
500.0   90.0   0.0
450.0   120.0   0.0
450.0   90.0   16.666666666666668
500.0   90.0   16.666666666666668
450.0   120.0   16.666666666666668
450.0   90.0   33.333333333333336
500.0   90.0   16.666666666666668
500.0   120.0   16.666666666666668
450.0   120.0   16.666666666666668
500.0   120.0   33.333333333333336
450.0   90.0   33.333333333333336
450.0   120.0   33.333333333333336
500.0   120.0   33.333333333333336
450.0   120.0   16.666666666666668
450.0   90.0   33.333333333333336
500.0   120.0   33.333333333333336
500.0   90.0   33.333333333333336
500.0   90.0   16.666666666666668
450.0   90.0   33.333333333333336
500.0   120.0   33.333333333333336
500.0   90.0   16.666666666666668
450.0   120.0   16.666666666666668
450.0   90.0   33.333333333333336
500.0   90.0   33.333333333333336
450.0   120.0   33.333333333333336
450.0   90.0   50.0
500.0   90.0   33.333333333333336
500.0   120.0   33.333333333333336
450.0   120.0   33.333333333333336
500.0   120.0   50.0
450.0   90.0   50.0
450.0   120.0   50.0
500.0   120.0   50.0
450.0   120.0   33.333333333333336
450.0   90.0   50.0
500.0   120.0   50.0
500.0   90.0   50.0
500.0   90.0   33.333333333333336
450.0   90.0   50.0
500.0   120.0   50.0
500.0   90.0   33.333333333333336
450.0   120.0   33.333333333333336
450.0   120.0   0.0
500.0   120.0   0.0
450.0   150.0   0.0
450.0   120.0   16.666666666666668
500.0   120.0   0.0
500.0   150.0   0.0
450.0   150.0   0.0
500.0   150.0   16.666666666666668
450.0   120.0   16.666666666666668
450.0   150.0   16.666666666666668
500.0   150.0   16.666666666666668
450.0   150.0   0.0
450.0   120.0   16.666666666666668
500.0   150.0   16.666666666666668
500.0   120.0   16.666666666666668
500.0   120.0   0.0
450.0   120.0   16.666666666666668
500.0   150.0   16.666666666666668
500.0   120.0   0.0
450.0   150.0   0.0
450.0   120.0   16.666666666666668
500.0   120.0   16.666666666666668
450.0   150.0   16.666666666666668
450.0   120.0   33.333333333333336
500.0   120.0   16.666666666666668
500.0   150.0   16.666666666666668
450.0   150.0   16.666666666666668
500.0   150.0   33.333333333333336
450.0   120.0   33.333333333333336
450.0   150.0   33.333333333333336
500.0   150.0   33.333333333333336
450.0   150.0   16.666666666666668
450.0   120.0   33.333333333333336
500.0   150.0   33.333333333333336
500.0   120.0   33.333333333333336
500.0   120.0   16.666666666666668
450.0   120.0   33.333333333333336
500.0   150.0   33.333333333333336
500.0   120.0   16.666666666666668
450.0   150.0   16.666666666666668
450.0   120.0   33.333333333333336
500.0   120.0   33.333333333333336
450.0   150.0   33.333333333333336
450.0   120.0   50.0
500.0   120.0   33.333333333333336
500.0   150.0   33.333333333333336
450.0   150.0   33.333333333333336
500.0   150.0   50.0
450.0   120.0   50.0
450.0   150.0   50.0
500.0   150.0   50.0
450.0   150.0   33.333333333333336
450.0   120.0   50.0
500.0   150.0   50.0
500.0   120.0   50.0
500.0   120.0   33.333333333333336
450.0   120.0   50.0
500.0   150.0   50.0
500.0   120.0   33.333333333333336
450.0   150.0   33.333333333333336
             </DataArray>   
          </Points>  
          <Cells>  
             <DataArray type="Int32" Name="connectivity" format="ascii">   
0   1   2   3
4   5   6   7
8   9   10   11
12   13   14   15
16   17   18   19
20   21   22   23
24   25   26   27
28   29   30   31
32   33   34   35
36   37   38   39
40   41   42   43
44   45   46   47
48   49   50   51
52   53   54   55
56   57   58   59
60   61   62   63
64   65   66   67
68   69   70   71
72   73   74   75
76   77   78   79
80   81   82   83
84   85   86   87
88   89   90   91
92   93   94   95
96   97   98   99
100   101   102   103
104   105   106   107
108   109   110   111
112   113   114   115
116   117   118   119
120   121   122   123
124   125   126   127
128   129   130   131
132   133   134   135
136   137   138   139
140   141   142   143
144   145   146   147
148   149   150   151
152   153   154   155
156   157   158   159
160   161   162   163
164   165   166   167
168   169   170   171
172   173   174   175
176   177   178   179
180   181   182   183
184   185   186   187
188   189   190   191
192   193   194   195
196   197   198   199
200   201   202   203
204   205   206   207
208   209   210   211
212   213   214   215
216   217   218   219
220   221   222   223
224   225   226   227
228   229   230   231
232   233   234   235
236   237   238   239
240   241   242   243
244   245   246   247
248   249   250   251
252   253   254   255
256   257   258   259
260   261   262   263
264   265   266   267
268   269   270   271
272   273   274   275
276   277   278   279
280   281   282   283
284   285   286   287
288   289   290   291
292   293   294   295
296   297   298   299
300   301   302   303
304   305   306   307
308   309   310   311
312   313   314   315
316   317   318   319
320   321   322   323
324   325   326   327
328   329   330   331
332   333   334   335
336   337   338   339
340   341   342   343
344   345   346   347
348   349   350   351
352   353   354   355
356   357   358   359
360   361   362   363
364   365   366   367
368   369   370   371
372   373   374   375
376   377   378   379
380   381   382   383
384   385   386   387
388   389   390   391
392   393   394   395
396   397   398   399
400   401   402   403
404   405   406   407
408   409   410   411
412   413   414   415
416   417   418   419
420   421   422   423
424   425   426   427
428   429   430   431
432   433   434   435
436   437   438   439
440   441   442   443
444   445   446   447
448   449   450   451
452   453   454   455
456   457   458   459
460   461   462   463
464   465   466   467
468   469   470   471
472   473   474   475
476   477   478   479
480   481   482   483
484   485   486   487
488   489   490   491
492   493   494   495
496   497   498   499
500   501   502   503
504   505   506   507
508   509   510   511
512   513   514   515
516   517   518   519
520   521   522   523
524   525   526   527
528   529   530   531
532   533   534   535
536   537   538   539
540   541   542   543
544   545   546   547
548   549   550   551
552   553   554   555
556   557   558   559
560   561   562   563
564   565   566   567
568   569   570   571
572   573   574   575
576   577   578   579
580   581   582   583
584   585   586   587
588   589   590   591
592   593   594   595
596   597   598   599
600   601   602   603
604   605   606   607
608   609   610   611
612   613   614   615
616   617   618   619
620   621   622   623
624   625   626   627
628   629   630   631
632   633   634   635
636   637   638   639
640   641   642   643
644   645   646   647
648   649   650   651
652   653   654   655
656   657   658   659
660   661   662   663
664   665   666   667
668   669   670   671
672   673   674   675
676   677   678   679
680   681   682   683
684   685   686   687
688   689   690   691
692   693   694   695
696   697   698   699
700   701   702   703
704   705   706   707
708   709   710   711
712   713   714   715
716   717   718   719
720   721   722   723
724   725   726   727
728   729   730   731
732   733   734   735
736   737   738   739
740   741   742   743
744   745   746   747
748   749   750   751
752   753   754   755
756   757   758   759
760   761   762   763
764   765   766   767
768   769   770   771
772   773   774   775
776   777   778   779
780   781   782   783
784   785   786   787
788   789   790   791
792   793   794   795
796   797   798   799
800   801   802   803
804   805   806   807
808   809   810   811
812   813   814   815
816   817   818   819
820   821   822   823
824   825   826   827
828   829   830   831
832   833   834   835
836   837   838   839
840   841   842   843
844   845   846   847
848   849   850   851
852   853   854   855
856   857   858   859
860   861   862   863
864   865   866   867
868   869   870   871
872   873   874   875
876   877   878   879
880   881   882   883
884   885   886   887
888   889   890   891
892   893   894   895
896   897   898   899
900   901   902   903
904   905   906   907
908   909   910   911
912   913   914   915
916   917   918   919
920   921   922   923
924   925   926   927
928   929   930   931
932   933   934   935
936   937   938   939
940   941   942   943
944   945   946   947
948   949   950   951
952   953   954   955
956   957   958   959
960   961   962   963
964   965   966   967
968   969   970   971
972   973   974   975
976   977   978   979
980   981   982   983
984   985   986   987
988   989   990   991
992   993   994   995
996   997   998   999
1000   1001   1002   1003
1004   1005   1006   1007
1008   1009   1010   1011
1012   1013   1014   1015
1016   1017   1018   1019
1020   1021   1022   1023
1024   1025   1026   1027
1028   1029   1030   1031
1032   1033   1034   1035
1036   1037   1038   1039
1040   1041   1042   1043
1044   1045   1046   1047
1048   1049   1050   1051
1052   1053   1054   1055
1056   1057   1058   1059
1060   1061   1062   1063
1064   1065   1066   1067
1068   1069   1070   1071
1072   1073   1074   1075
1076   1077   1078   1079
1080   1081   1082   1083
1084   1085   1086   1087
1088   1089   1090   1091
1092   1093   1094   1095
1096   1097   1098   1099
1100   1101   1102   1103
1104   1105   1106   1107
1108   1109   1110   1111
1112   1113   1114   1115
1116   1117   1118   1119
1120   1121   1122   1123
1124   1125   1126   1127
1128   1129   1130   1131
1132   1133   1134   1135
1136   1137   1138   1139
1140   1141   1142   1143
1144   1145   1146   1147
1148   1149   1150   1151
1152   1153   1154   1155
1156   1157   1158   1159
1160   1161   1162   1163
1164   1165   1166   1167
1168   1169   1170   1171
1172   1173   1174   1175
1176   1177   1178   1179
1180   1181   1182   1183
1184   1185   1186   1187
1188   1189   1190   1191
1192   1193   1194   1195
1196   1197   1198   1199
1200   1201   1202   1203
1204   1205   1206   1207
1208   1209   1210   1211
1212   1213   1214   1215
1216   1217   1218   1219
1220   1221   1222   1223
1224   1225   1226   1227
1228   1229   1230   1231
1232   1233   1234   1235
1236   1237   1238   1239
1240   1241   1242   1243
1244   1245   1246   1247
1248   1249   1250   1251
1252   1253   1254   1255
1256   1257   1258   1259
1260   1261   1262   1263
1264   1265   1266   1267
1268   1269   1270   1271
1272   1273   1274   1275
1276   1277   1278   1279
1280   1281   1282   1283
1284   1285   1286   1287
1288   1289   1290   1291
1292   1293   1294   1295
1296   1297   1298   1299
1300   1301   1302   1303
1304   1305   1306   1307
1308   1309   1310   1311
1312   1313   1314   1315
1316   1317   1318   1319
1320   1321   1322   1323
1324   1325   1326   1327
1328   1329   1330   1331
1332   1333   1334   1335
1336   1337   1338   1339
1340   1341   1342   1343
1344   1345   1346   1347
1348   1349   1350   1351
1352   1353   1354   1355
1356   1357   1358   1359
1360   1361   1362   1363
1364   1365   1366   1367
1368   1369   1370   1371
1372   1373   1374   1375
1376   1377   1378   1379
1380   1381   1382   1383
1384   1385   1386   1387
1388   1389   1390   1391
1392   1393   1394   1395
1396   1397   1398   1399
1400   1401   1402   1403
1404   1405   1406   1407
1408   1409   1410   1411
1412   1413   1414   1415
1416   1417   1418   1419
1420   1421   1422   1423
1424   1425   1426   1427
1428   1429   1430   1431
1432   1433   1434   1435
1436   1437   1438   1439
1440   1441   1442   1443
1444   1445   1446   1447
1448   1449   1450   1451
1452   1453   1454   1455
1456   1457   1458   1459
1460   1461   1462   1463
1464   1465   1466   1467
1468   1469   1470   1471
1472   1473   1474   1475
1476   1477   1478   1479
1480   1481   1482   1483
1484   1485   1486   1487
1488   1489   1490   1491
1492   1493   1494   1495
1496   1497   1498   1499
1500   1501   1502   1503
1504   1505   1506   1507
1508   1509   1510   1511
1512   1513   1514   1515
1516   1517   1518   1519
1520   1521   1522   1523
1524   1525   1526   1527
1528   1529   1530   1531
1532   1533   1534   1535
1536   1537   1538   1539
1540   1541   1542   1543
1544   1545   1546   1547
1548   1549   1550   1551
1552   1553   1554   1555
1556   1557   1558   1559
1560   1561   1562   1563
1564   1565   1566   1567
1568   1569   1570   1571
1572   1573   1574   1575
1576   1577   1578   1579
1580   1581   1582   1583
1584   1585   1586   1587
1588   1589   1590   1591
1592   1593   1594   1595
1596   1597   1598   1599
1600   1601   1602   1603
1604   1605   1606   1607
1608   1609   1610   1611
1612   1613   1614   1615
1616   1617   1618   1619
1620   1621   1622   1623
1624   1625   1626   1627
1628   1629   1630   1631
1632   1633   1634   1635
1636   1637   1638   1639
1640   1641   1642   1643
1644   1645   1646   1647
1648   1649   1650   1651
1652   1653   1654   1655
1656   1657   1658   1659
1660   1661   1662   1663
1664   1665   1666   1667
1668   1669   1670   1671
1672   1673   1674   1675
1676   1677   1678   1679
1680   1681   1682   1683
1684   1685   1686   1687
1688   1689   1690   1691
1692   1693   1694   1695
1696   1697   1698   1699
1700   1701   1702   1703
1704   1705   1706   1707
1708   1709   1710   1711
1712   1713   1714   1715
1716   1717   1718   1719
1720   1721   1722   1723
1724   1725   1726   1727
1728   1729   1730   1731
1732   1733   1734   1735
1736   1737   1738   1739
1740   1741   1742   1743
1744   1745   1746   1747
1748   1749   1750   1751
1752   1753   1754   1755
1756   1757   1758   1759
1760   1761   1762   1763
1764   1765   1766   1767
1768   1769   1770   1771
1772   1773   1774   1775
1776   1777   1778   1779
1780   1781   1782   1783
1784   1785   1786   1787
1788   1789   1790   1791
1792   1793   1794   1795
1796   1797   1798   1799
1800   1801   1802   1803
1804   1805   1806   1807
1808   1809   1810   1811
1812   1813   1814   1815
1816   1817   1818   1819
1820   1821   1822   1823
1824   1825   1826   1827
1828   1829   1830   1831
1832   1833   1834   1835
1836   1837   1838   1839
1840   1841   1842   1843
1844   1845   1846   1847
1848   1849   1850   1851
1852   1853   1854   1855
1856   1857   1858   1859
1860   1861   1862   1863
1864   1865   1866   1867
1868   1869   1870   1871
1872   1873   1874   1875
1876   1877   1878   1879
1880   1881   1882   1883
1884   1885   1886   1887
1888   1889   1890   1891
1892   1893   1894   1895
1896   1897   1898   1899
1900   1901   1902   1903
1904   1905   1906   1907
1908   1909   1910   1911
1912   1913   1914   1915
1916   1917   1918   1919
1920   1921   1922   1923
1924   1925   1926   1927
1928   1929   1930   1931
1932   1933   1934   1935
1936   1937   1938   1939
1940   1941   1942   1943
1944   1945   1946   1947
1948   1949   1950   1951
1952   1953   1954   1955
1956   1957   1958   1959
1960   1961   1962   1963
1964   1965   1966   1967
1968   1969   1970   1971
1972   1973   1974   1975
1976   1977   1978   1979
1980   1981   1982   1983
1984   1985   1986   1987
1988   1989   1990   1991
1992   1993   1994   1995
1996   1997   1998   1999
2000   2001   2002   2003
2004   2005   2006   2007
2008   2009   2010   2011
2012   2013   2014   2015
2016   2017   2018   2019
2020   2021   2022   2023
2024   2025   2026   2027
2028   2029   2030   2031
2032   2033   2034   2035
2036   2037   2038   2039
2040   2041   2042   2043
2044   2045   2046   2047
2048   2049   2050   2051
2052   2053   2054   2055
2056   2057   2058   2059
2060   2061   2062   2063
2064   2065   2066   2067
2068   2069   2070   2071
2072   2073   2074   2075
2076   2077   2078   2079
2080   2081   2082   2083
2084   2085   2086   2087
2088   2089   2090   2091
2092   2093   2094   2095
2096   2097   2098   2099
2100   2101   2102   2103
2104   2105   2106   2107
2108   2109   2110   2111
2112   2113   2114   2115
2116   2117   2118   2119
2120   2121   2122   2123
2124   2125   2126   2127
2128   2129   2130   2131
2132   2133   2134   2135
2136   2137   2138   2139
2140   2141   2142   2143
2144   2145   2146   2147
2148   2149   2150   2151
2152   2153   2154   2155
2156   2157   2158   2159
2160   2161   2162   2163
2164   2165   2166   2167
2168   2169   2170   2171
2172   2173   2174   2175
2176   2177   2178   2179
2180   2181   2182   2183
2184   2185   2186   2187
2188   2189   2190   2191
2192   2193   2194   2195
2196   2197   2198   2199
2200   2201   2202   2203
2204   2205   2206   2207
2208   2209   2210   2211
2212   2213   2214   2215
2216   2217   2218   2219
2220   2221   2222   2223
2224   2225   2226   2227
2228   2229   2230   2231
2232   2233   2234   2235
2236   2237   2238   2239
2240   2241   2242   2243
2244   2245   2246   2247
2248   2249   2250   2251
2252   2253   2254   2255
2256   2257   2258   2259
2260   2261   2262   2263
2264   2265   2266   2267
2268   2269   2270   2271
2272   2273   2274   2275
2276   2277   2278   2279
2280   2281   2282   2283
2284   2285   2286   2287
2288   2289   2290   2291
2292   2293   2294   2295
2296   2297   2298   2299
2300   2301   2302   2303
2304   2305   2306   2307
2308   2309   2310   2311
2312   2313   2314   2315
2316   2317   2318   2319
2320   2321   2322   2323
2324   2325   2326   2327
2328   2329   2330   2331
2332   2333   2334   2335
2336   2337   2338   2339
2340   2341   2342   2343
2344   2345   2346   2347
2348   2349   2350   2351
2352   2353   2354   2355
2356   2357   2358   2359
2360   2361   2362   2363
2364   2365   2366   2367
2368   2369   2370   2371
2372   2373   2374   2375
2376   2377   2378   2379
2380   2381   2382   2383
2384   2385   2386   2387
2388   2389   2390   2391
2392   2393   2394   2395
2396   2397   2398   2399
2400   2401   2402   2403
2404   2405   2406   2407
2408   2409   2410   2411
2412   2413   2414   2415
2416   2417   2418   2419
2420   2421   2422   2423
2424   2425   2426   2427
2428   2429   2430   2431
2432   2433   2434   2435
2436   2437   2438   2439
2440   2441   2442   2443
2444   2445   2446   2447
2448   2449   2450   2451
2452   2453   2454   2455
2456   2457   2458   2459
2460   2461   2462   2463
2464   2465   2466   2467
2468   2469   2470   2471
2472   2473   2474   2475
2476   2477   2478   2479
2480   2481   2482   2483
2484   2485   2486   2487
2488   2489   2490   2491
2492   2493   2494   2495
2496   2497   2498   2499
2500   2501   2502   2503
2504   2505   2506   2507
2508   2509   2510   2511
2512   2513   2514   2515
2516   2517   2518   2519
2520   2521   2522   2523
2524   2525   2526   2527
2528   2529   2530   2531
2532   2533   2534   2535
2536   2537   2538   2539
2540   2541   2542   2543
2544   2545   2546   2547
2548   2549   2550   2551
2552   2553   2554   2555
2556   2557   2558   2559
2560   2561   2562   2563
2564   2565   2566   2567
2568   2569   2570   2571
2572   2573   2574   2575
2576   2577   2578   2579
2580   2581   2582   2583
2584   2585   2586   2587
2588   2589   2590   2591
2592   2593   2594   2595
2596   2597   2598   2599
2600   2601   2602   2603
2604   2605   2606   2607
2608   2609   2610   2611
2612   2613   2614   2615
2616   2617   2618   2619
2620   2621   2622   2623
2624   2625   2626   2627
2628   2629   2630   2631
2632   2633   2634   2635
2636   2637   2638   2639
2640   2641   2642   2643
2644   2645   2646   2647
2648   2649   2650   2651
2652   2653   2654   2655
2656   2657   2658   2659
2660   2661   2662   2663
2664   2665   2666   2667
2668   2669   2670   2671
2672   2673   2674   2675
2676   2677   2678   2679
2680   2681   2682   2683
2684   2685   2686   2687
2688   2689   2690   2691
2692   2693   2694   2695
2696   2697   2698   2699
2700   2701   2702   2703
2704   2705   2706   2707
2708   2709   2710   2711
2712   2713   2714   2715
2716   2717   2718   2719
2720   2721   2722   2723
2724   2725   2726   2727
2728   2729   2730   2731
2732   2733   2734   2735
2736   2737   2738   2739
2740   2741   2742   2743
2744   2745   2746   2747
2748   2749   2750   2751
2752   2753   2754   2755
2756   2757   2758   2759
2760   2761   2762   2763
2764   2765   2766   2767
2768   2769   2770   2771
2772   2773   2774   2775
2776   2777   2778   2779
2780   2781   2782   2783
2784   2785   2786   2787
2788   2789   2790   2791
2792   2793   2794   2795
2796   2797   2798   2799
2800   2801   2802   2803
2804   2805   2806   2807
2808   2809   2810   2811
2812   2813   2814   2815
2816   2817   2818   2819
2820   2821   2822   2823
2824   2825   2826   2827
2828   2829   2830   2831
2832   2833   2834   2835
2836   2837   2838   2839
2840   2841   2842   2843
2844   2845   2846   2847
2848   2849   2850   2851
2852   2853   2854   2855
2856   2857   2858   2859
2860   2861   2862   2863
2864   2865   2866   2867
2868   2869   2870   2871
2872   2873   2874   2875
2876   2877   2878   2879
2880   2881   2882   2883
2884   2885   2886   2887
2888   2889   2890   2891
2892   2893   2894   2895
2896   2897   2898   2899
2900   2901   2902   2903
2904   2905   2906   2907
2908   2909   2910   2911
2912   2913   2914   2915
2916   2917   2918   2919
2920   2921   2922   2923
2924   2925   2926   2927
2928   2929   2930   2931
2932   2933   2934   2935
2936   2937   2938   2939
2940   2941   2942   2943
2944   2945   2946   2947
2948   2949   2950   2951
2952   2953   2954   2955
2956   2957   2958   2959
2960   2961   2962   2963
2964   2965   2966   2967
2968   2969   2970   2971
2972   2973   2974   2975
2976   2977   2978   2979
2980   2981   2982   2983
2984   2985   2986   2987
2988   2989   2990   2991
2992   2993   2994   2995
2996   2997   2998   2999
3000   3001   3002   3003
3004   3005   3006   3007
3008   3009   3010   3011
3012   3013   3014   3015
3016   3017   3018   3019
3020   3021   3022   3023
3024   3025   3026   3027
3028   3029   3030   3031
3032   3033   3034   3035
3036   3037   3038   3039
3040   3041   3042   3043
3044   3045   3046   3047
3048   3049   3050   3051
3052   3053   3054   3055
3056   3057   3058   3059
3060   3061   3062   3063
3064   3065   3066   3067
3068   3069   3070   3071
3072   3073   3074   3075
3076   3077   3078   3079
3080   3081   3082   3083
3084   3085   3086   3087
3088   3089   3090   3091
3092   3093   3094   3095
3096   3097   3098   3099
3100   3101   3102   3103
3104   3105   3106   3107
3108   3109   3110   3111
3112   3113   3114   3115
3116   3117   3118   3119
3120   3121   3122   3123
3124   3125   3126   3127
3128   3129   3130   3131
3132   3133   3134   3135
3136   3137   3138   3139
3140   3141   3142   3143
3144   3145   3146   3147
3148   3149   3150   3151
3152   3153   3154   3155
3156   3157   3158   3159
3160   3161   3162   3163
3164   3165   3166   3167
3168   3169   3170   3171
3172   3173   3174   3175
3176   3177   3178   3179
3180   3181   3182   3183
3184   3185   3186   3187
3188   3189   3190   3191
3192   3193   3194   3195
3196   3197   3198   3199
3200   3201   3202   3203
3204   3205   3206   3207
3208   3209   3210   3211
3212   3213   3214   3215
3216   3217   3218   3219
3220   3221   3222   3223
3224   3225   3226   3227
3228   3229   3230   3231
3232   3233   3234   3235
3236   3237   3238   3239
3240   3241   3242   3243
3244   3245   3246   3247
3248   3249   3250   3251
3252   3253   3254   3255
3256   3257   3258   3259
3260   3261   3262   3263
3264   3265   3266   3267
3268   3269   3270   3271
3272   3273   3274   3275
3276   3277   3278   3279
3280   3281   3282   3283
3284   3285   3286   3287
3288   3289   3290   3291
3292   3293   3294   3295
3296   3297   3298   3299
3300   3301   3302   3303
3304   3305   3306   3307
3308   3309   3310   3311
3312   3313   3314   3315
3316   3317   3318   3319
3320   3321   3322   3323
3324   3325   3326   3327
3328   3329   3330   3331
3332   3333   3334   3335
3336   3337   3338   3339
3340   3341   3342   3343
3344   3345   3346   3347
3348   3349   3350   3351
3352   3353   3354   3355
3356   3357   3358   3359
3360   3361   3362   3363
3364   3365   3366   3367
3368   3369   3370   3371
3372   3373   3374   3375
3376   3377   3378   3379
3380   3381   3382   3383
3384   3385   3386   3387
3388   3389   3390   3391
3392   3393   3394   3395
3396   3397   3398   3399
3400   3401   3402   3403
3404   3405   3406   3407
3408   3409   3410   3411
3412   3413   3414   3415
3416   3417   3418   3419
3420   3421   3422   3423
3424   3425   3426   3427
3428   3429   3430   3431
3432   3433   3434   3435
3436   3437   3438   3439
3440   3441   3442   3443
3444   3445   3446   3447
3448   3449   3450   3451
3452   3453   3454   3455
3456   3457   3458   3459
3460   3461   3462   3463
3464   3465   3466   3467
3468   3469   3470   3471
3472   3473   3474   3475
3476   3477   3478   3479
3480   3481   3482   3483
3484   3485   3486   3487
3488   3489   3490   3491
3492   3493   3494   3495
3496   3497   3498   3499
3500   3501   3502   3503
3504   3505   3506   3507
3508   3509   3510   3511
3512   3513   3514   3515
3516   3517   3518   3519
3520   3521   3522   3523
3524   3525   3526   3527
3528   3529   3530   3531
3532   3533   3534   3535
3536   3537   3538   3539
3540   3541   3542   3543
3544   3545   3546   3547
3548   3549   3550   3551
3552   3553   3554   3555
3556   3557   3558   3559
3560   3561   3562   3563
3564   3565   3566   3567
3568   3569   3570   3571
3572   3573   3574   3575
3576   3577   3578   3579
3580   3581   3582   3583
3584   3585   3586   3587
3588   3589   3590   3591
3592   3593   3594   3595
3596   3597   3598   3599
3600   3601   3602   3603
3604   3605   3606   3607
3608   3609   3610   3611
3612   3613   3614   3615
3616   3617   3618   3619
3620   3621   3622   3623
3624   3625   3626   3627
3628   3629   3630   3631
3632   3633   3634   3635
3636   3637   3638   3639
3640   3641   3642   3643
3644   3645   3646   3647
3648   3649   3650   3651
3652   3653   3654   3655
3656   3657   3658   3659
3660   3661   3662   3663
3664   3665   3666   3667
3668   3669   3670   3671
3672   3673   3674   3675
3676   3677   3678   3679
3680   3681   3682   3683
3684   3685   3686   3687
3688   3689   3690   3691
3692   3693   3694   3695
3696   3697   3698   3699
3700   3701   3702   3703
3704   3705   3706   3707
3708   3709   3710   3711
3712   3713   3714   3715
3716   3717   3718   3719
3720   3721   3722   3723
3724   3725   3726   3727
3728   3729   3730   3731
3732   3733   3734   3735
3736   3737   3738   3739
3740   3741   3742   3743
3744   3745   3746   3747
3748   3749   3750   3751
3752   3753   3754   3755
3756   3757   3758   3759
3760   3761   3762   3763
3764   3765   3766   3767
3768   3769   3770   3771
3772   3773   3774   3775
3776   3777   3778   3779
3780   3781   3782   3783
3784   3785   3786   3787
3788   3789   3790   3791
3792   3793   3794   3795
3796   3797   3798   3799
3800   3801   3802   3803
3804   3805   3806   3807
3808   3809   3810   3811
3812   3813   3814   3815
3816   3817   3818   3819
3820   3821   3822   3823
3824   3825   3826   3827
3828   3829   3830   3831
3832   3833   3834   3835
3836   3837   3838   3839
3840   3841   3842   3843
3844   3845   3846   3847
3848   3849   3850   3851
3852   3853   3854   3855
3856   3857   3858   3859
3860   3861   3862   3863
3864   3865   3866   3867
3868   3869   3870   3871
3872   3873   3874   3875
3876   3877   3878   3879
3880   3881   3882   3883
3884   3885   3886   3887
3888   3889   3890   3891
3892   3893   3894   3895
3896   3897   3898   3899
3900   3901   3902   3903
3904   3905   3906   3907
3908   3909   3910   3911
3912   3913   3914   3915
3916   3917   3918   3919
3920   3921   3922   3923
3924   3925   3926   3927
3928   3929   3930   3931
3932   3933   3934   3935
3936   3937   3938   3939
3940   3941   3942   3943
3944   3945   3946   3947
3948   3949   3950   3951
3952   3953   3954   3955
3956   3957   3958   3959
3960   3961   3962   3963
3964   3965   3966   3967
3968   3969   3970   3971
3972   3973   3974   3975
3976   3977   3978   3979
3980   3981   3982   3983
3984   3985   3986   3987
3988   3989   3990   3991
3992   3993   3994   3995
3996   3997   3998   3999
4000   4001   4002   4003
4004   4005   4006   4007
4008   4009   4010   4011
4012   4013   4014   4015
4016   4017   4018   4019
4020   4021   4022   4023
4024   4025   4026   4027
4028   4029   4030   4031
4032   4033   4034   4035
4036   4037   4038   4039
4040   4041   4042   4043
4044   4045   4046   4047
4048   4049   4050   4051
4052   4053   4054   4055
4056   4057   4058   4059
4060   4061   4062   4063
4064   4065   4066   4067
4068   4069   4070   4071
4072   4073   4074   4075
4076   4077   4078   4079
4080   4081   4082   4083
4084   4085   4086   4087
4088   4089   4090   4091
4092   4093   4094   4095
4096   4097   4098   4099
4100   4101   4102   4103
4104   4105   4106   4107
4108   4109   4110   4111
4112   4113   4114   4115
4116   4117   4118   4119
4120   4121   4122   4123
4124   4125   4126   4127
4128   4129   4130   4131
4132   4133   4134   4135
4136   4137   4138   4139
4140   4141   4142   4143
4144   4145   4146   4147
4148   4149   4150   4151
4152   4153   4154   4155
4156   4157   4158   4159
4160   4161   4162   4163
4164   4165   4166   4167
4168   4169   4170   4171
4172   4173   4174   4175
4176   4177   4178   4179
4180   4181   4182   4183
4184   4185   4186   4187
4188   4189   4190   4191
4192   4193   4194   4195
4196   4197   4198   4199
4200   4201   4202   4203
4204   4205   4206   4207
4208   4209   4210   4211
4212   4213   4214   4215
4216   4217   4218   4219
4220   4221   4222   4223
4224   4225   4226   4227
4228   4229   4230   4231
4232   4233   4234   4235
4236   4237   4238   4239
4240   4241   4242   4243
4244   4245   4246   4247
4248   4249   4250   4251
4252   4253   4254   4255
4256   4257   4258   4259
4260   4261   4262   4263
4264   4265   4266   4267
4268   4269   4270   4271
4272   4273   4274   4275
4276   4277   4278   4279
4280   4281   4282   4283
4284   4285   4286   4287
4288   4289   4290   4291
4292   4293   4294   4295
4296   4297   4298   4299
4300   4301   4302   4303
4304   4305   4306   4307
4308   4309   4310   4311
4312   4313   4314   4315
4316   4317   4318   4319
4320   4321   4322   4323
4324   4325   4326   4327
4328   4329   4330   4331
4332   4333   4334   4335
4336   4337   4338   4339
4340   4341   4342   4343
4344   4345   4346   4347
4348   4349   4350   4351
4352   4353   4354   4355
4356   4357   4358   4359
4360   4361   4362   4363
4364   4365   4366   4367
4368   4369   4370   4371
4372   4373   4374   4375
4376   4377   4378   4379
4380   4381   4382   4383
4384   4385   4386   4387
4388   4389   4390   4391
4392   4393   4394   4395
4396   4397   4398   4399
4400   4401   4402   4403
4404   4405   4406   4407
4408   4409   4410   4411
4412   4413   4414   4415
4416   4417   4418   4419
4420   4421   4422   4423
4424   4425   4426   4427
4428   4429   4430   4431
4432   4433   4434   4435
4436   4437   4438   4439
4440   4441   4442   4443
4444   4445   4446   4447
4448   4449   4450   4451
4452   4453   4454   4455
4456   4457   4458   4459
4460   4461   4462   4463
4464   4465   4466   4467
4468   4469   4470   4471
4472   4473   4474   4475
4476   4477   4478   4479
4480   4481   4482   4483
4484   4485   4486   4487
4488   4489   4490   4491
4492   4493   4494   4495
4496   4497   4498   4499
4500   4501   4502   4503
4504   4505   4506   4507
4508   4509   4510   4511
4512   4513   4514   4515
4516   4517   4518   4519
4520   4521   4522   4523
4524   4525   4526   4527
4528   4529   4530   4531
4532   4533   4534   4535
4536   4537   4538   4539
4540   4541   4542   4543
4544   4545   4546   4547
4548   4549   4550   4551
4552   4553   4554   4555
4556   4557   4558   4559
4560   4561   4562   4563
4564   4565   4566   4567
4568   4569   4570   4571
4572   4573   4574   4575
4576   4577   4578   4579
4580   4581   4582   4583
4584   4585   4586   4587
4588   4589   4590   4591
4592   4593   4594   4595
4596   4597   4598   4599
4600   4601   4602   4603
4604   4605   4606   4607
4608   4609   4610   4611
4612   4613   4614   4615
4616   4617   4618   4619
4620   4621   4622   4623
4624   4625   4626   4627
4628   4629   4630   4631
4632   4633   4634   4635
4636   4637   4638   4639
4640   4641   4642   4643
4644   4645   4646   4647
4648   4649   4650   4651
4652   4653   4654   4655
4656   4657   4658   4659
4660   4661   4662   4663
4664   4665   4666   4667
4668   4669   4670   4671
4672   4673   4674   4675
4676   4677   4678   4679
4680   4681   4682   4683
4684   4685   4686   4687
4688   4689   4690   4691
4692   4693   4694   4695
4696   4697   4698   4699
4700   4701   4702   4703
4704   4705   4706   4707
4708   4709   4710   4711
4712   4713   4714   4715
4716   4717   4718   4719
4720   4721   4722   4723
4724   4725   4726   4727
4728   4729   4730   4731
4732   4733   4734   4735
4736   4737   4738   4739
4740   4741   4742   4743
4744   4745   4746   4747
4748   4749   4750   4751
4752   4753   4754   4755
4756   4757   4758   4759
4760   4761   4762   4763
4764   4765   4766   4767
4768   4769   4770   4771
4772   4773   4774   4775
4776   4777   4778   4779
4780   4781   4782   4783
4784   4785   4786   4787
4788   4789   4790   4791
4792   4793   4794   4795
4796   4797   4798   4799
4800   4801   4802   4803
4804   4805   4806   4807
4808   4809   4810   4811
4812   4813   4814   4815
4816   4817   4818   4819
4820   4821   4822   4823
4824   4825   4826   4827
4828   4829   4830   4831
4832   4833   4834   4835
4836   4837   4838   4839
4840   4841   4842   4843
4844   4845   4846   4847
4848   4849   4850   4851
4852   4853   4854   4855
4856   4857   4858   4859
4860   4861   4862   4863
4864   4865   4866   4867
4868   4869   4870   4871
4872   4873   4874   4875
4876   4877   4878   4879
4880   4881   4882   4883
4884   4885   4886   4887
4888   4889   4890   4891
4892   4893   4894   4895
4896   4897   4898   4899
4900   4901   4902   4903
4904   4905   4906   4907
4908   4909   4910   4911
4912   4913   4914   4915
4916   4917   4918   4919
4920   4921   4922   4923
4924   4925   4926   4927
4928   4929   4930   4931
4932   4933   4934   4935
4936   4937   4938   4939
4940   4941   4942   4943
4944   4945   4946   4947
4948   4949   4950   4951
4952   4953   4954   4955
4956   4957   4958   4959
4960   4961   4962   4963
4964   4965   4966   4967
4968   4969   4970   4971
4972   4973   4974   4975
4976   4977   4978   4979
4980   4981   4982   4983
4984   4985   4986   4987
4988   4989   4990   4991
4992   4993   4994   4995
4996   4997   4998   4999
5000   5001   5002   5003
5004   5005   5006   5007
5008   5009   5010   5011
5012   5013   5014   5015
5016   5017   5018   5019
5020   5021   5022   5023
5024   5025   5026   5027
5028   5029   5030   5031
5032   5033   5034   5035
5036   5037   5038   5039
5040   5041   5042   5043
5044   5045   5046   5047
5048   5049   5050   5051
5052   5053   5054   5055
5056   5057   5058   5059
5060   5061   5062   5063
5064   5065   5066   5067
5068   5069   5070   5071
5072   5073   5074   5075
5076   5077   5078   5079
5080   5081   5082   5083
5084   5085   5086   5087
5088   5089   5090   5091
5092   5093   5094   5095
5096   5097   5098   5099
5100   5101   5102   5103
5104   5105   5106   5107
5108   5109   5110   5111
5112   5113   5114   5115
5116   5117   5118   5119
5120   5121   5122   5123
5124   5125   5126   5127
5128   5129   5130   5131
5132   5133   5134   5135
5136   5137   5138   5139
5140   5141   5142   5143
5144   5145   5146   5147
5148   5149   5150   5151
5152   5153   5154   5155
5156   5157   5158   5159
5160   5161   5162   5163
5164   5165   5166   5167
5168   5169   5170   5171
5172   5173   5174   5175
5176   5177   5178   5179
5180   5181   5182   5183
5184   5185   5186   5187
5188   5189   5190   5191
5192   5193   5194   5195
5196   5197   5198   5199
5200   5201   5202   5203
5204   5205   5206   5207
5208   5209   5210   5211
5212   5213   5214   5215
5216   5217   5218   5219
5220   5221   5222   5223
5224   5225   5226   5227
5228   5229   5230   5231
5232   5233   5234   5235
5236   5237   5238   5239
5240   5241   5242   5243
5244   5245   5246   5247
5248   5249   5250   5251
5252   5253   5254   5255
5256   5257   5258   5259
5260   5261   5262   5263
5264   5265   5266   5267
5268   5269   5270   5271
5272   5273   5274   5275
5276   5277   5278   5279
5280   5281   5282   5283
5284   5285   5286   5287
5288   5289   5290   5291
5292   5293   5294   5295
5296   5297   5298   5299
5300   5301   5302   5303
5304   5305   5306   5307
5308   5309   5310   5311
5312   5313   5314   5315
5316   5317   5318   5319
5320   5321   5322   5323
5324   5325   5326   5327
5328   5329   5330   5331
5332   5333   5334   5335
5336   5337   5338   5339
5340   5341   5342   5343
5344   5345   5346   5347
5348   5349   5350   5351
5352   5353   5354   5355
5356   5357   5358   5359
5360   5361   5362   5363
5364   5365   5366   5367
5368   5369   5370   5371
5372   5373   5374   5375
5376   5377   5378   5379
5380   5381   5382   5383
5384   5385   5386   5387
5388   5389   5390   5391
5392   5393   5394   5395
5396   5397   5398   5399
5400   5401   5402   5403
5404   5405   5406   5407
5408   5409   5410   5411
5412   5413   5414   5415
5416   5417   5418   5419
5420   5421   5422   5423
5424   5425   5426   5427
5428   5429   5430   5431
5432   5433   5434   5435
5436   5437   5438   5439
5440   5441   5442   5443
5444   5445   5446   5447
5448   5449   5450   5451
5452   5453   5454   5455
5456   5457   5458   5459
5460   5461   5462   5463
5464   5465   5466   5467
5468   5469   5470   5471
5472   5473   5474   5475
5476   5477   5478   5479
5480   5481   5482   5483
5484   5485   5486   5487
5488   5489   5490   5491
5492   5493   5494   5495
5496   5497   5498   5499
5500   5501   5502   5503
5504   5505   5506   5507
5508   5509   5510   5511
5512   5513   5514   5515
5516   5517   5518   5519
5520   5521   5522   5523
5524   5525   5526   5527
5528   5529   5530   5531
5532   5533   5534   5535
5536   5537   5538   5539
5540   5541   5542   5543
5544   5545   5546   5547
5548   5549   5550   5551
5552   5553   5554   5555
5556   5557   5558   5559
5560   5561   5562   5563
5564   5565   5566   5567
5568   5569   5570   5571
5572   5573   5574   5575
5576   5577   5578   5579
5580   5581   5582   5583
5584   5585   5586   5587
5588   5589   5590   5591
5592   5593   5594   5595
5596   5597   5598   5599
5600   5601   5602   5603
5604   5605   5606   5607
5608   5609   5610   5611
5612   5613   5614   5615
5616   5617   5618   5619
5620   5621   5622   5623
5624   5625   5626   5627
5628   5629   5630   5631
5632   5633   5634   5635
5636   5637   5638   5639
5640   5641   5642   5643
5644   5645   5646   5647
5648   5649   5650   5651
5652   5653   5654   5655
5656   5657   5658   5659
5660   5661   5662   5663
5664   5665   5666   5667
5668   5669   5670   5671
5672   5673   5674   5675
5676   5677   5678   5679
5680   5681   5682   5683
5684   5685   5686   5687
5688   5689   5690   5691
5692   5693   5694   5695
5696   5697   5698   5699
5700   5701   5702   5703
5704   5705   5706   5707
5708   5709   5710   5711
5712   5713   5714   5715
5716   5717   5718   5719
5720   5721   5722   5723
5724   5725   5726   5727
5728   5729   5730   5731
5732   5733   5734   5735
5736   5737   5738   5739
5740   5741   5742   5743
5744   5745   5746   5747
5748   5749   5750   5751
5752   5753   5754   5755
5756   5757   5758   5759
5760   5761   5762   5763
5764   5765   5766   5767
5768   5769   5770   5771
5772   5773   5774   5775
5776   5777   5778   5779
5780   5781   5782   5783
5784   5785   5786   5787
5788   5789   5790   5791
5792   5793   5794   5795
5796   5797   5798   5799
5800   5801   5802   5803
5804   5805   5806   5807
5808   5809   5810   5811
5812   5813   5814   5815
5816   5817   5818   5819
5820   5821   5822   5823
5824   5825   5826   5827
5828   5829   5830   5831
5832   5833   5834   5835
5836   5837   5838   5839
5840   5841   5842   5843
5844   5845   5846   5847
5848   5849   5850   5851
5852   5853   5854   5855
5856   5857   5858   5859
5860   5861   5862   5863
5864   5865   5866   5867
5868   5869   5870   5871
5872   5873   5874   5875
5876   5877   5878   5879
5880   5881   5882   5883
5884   5885   5886   5887
5888   5889   5890   5891
5892   5893   5894   5895
5896   5897   5898   5899
5900   5901   5902   5903
5904   5905   5906   5907
5908   5909   5910   5911
5912   5913   5914   5915
5916   5917   5918   5919
5920   5921   5922   5923
5924   5925   5926   5927
5928   5929   5930   5931
5932   5933   5934   5935
5936   5937   5938   5939
5940   5941   5942   5943
5944   5945   5946   5947
5948   5949   5950   5951
5952   5953   5954   5955
5956   5957   5958   5959
5960   5961   5962   5963
5964   5965   5966   5967
5968   5969   5970   5971
5972   5973   5974   5975
5976   5977   5978   5979
5980   5981   5982   5983
5984   5985   5986   5987
5988   5989   5990   5991
5992   5993   5994   5995
5996   5997   5998   5999
              </DataArray>   
              <DataArray type="Int32" Name="offsets" format="ascii">   
4
8
12
16
20
24
28
32
36
40
44
48
52
56
60
64
68
72
76
80
84
88
92
96
100
104
108
112
116
120
124
128
132
136
140
144
148
152
156
160
164
168
172
176
180
184
188
192
196
200
204
208
212
216
220
224
228
232
236
240
244
248
252
256
260
264
268
272
276
280
284
288
292
296
300
304
308
312
316
320
324
328
332
336
340
344
348
352
356
360
364
368
372
376
380
384
388
392
396
400
404
408
412
416
420
424
428
432
436
440
444
448
452
456
460
464
468
472
476
480
484
488
492
496
500
504
508
512
516
520
524
528
532
536
540
544
548
552
556
560
564
568
572
576
580
584
588
592
596
600
604
608
612
616
620
624
628
632
636
640
644
648
652
656
660
664
668
672
676
680
684
688
692
696
700
704
708
712
716
720
724
728
732
736
740
744
748
752
756
760
764
768
772
776
780
784
788
792
796
800
804
808
812
816
820
824
828
832
836
840
844
848
852
856
860
864
868
872
876
880
884
888
892
896
900
904
908
912
916
920
924
928
932
936
940
944
948
952
956
960
964
968
972
976
980
984
988
992
996
1000
1004
1008
1012
1016
1020
1024
1028
1032
1036
1040
1044
1048
1052
1056
1060
1064
1068
1072
1076
1080
1084
1088
1092
1096
1100
1104
1108
1112
1116
1120
1124
1128
1132
1136
1140
1144
1148
1152
1156
1160
1164
1168
1172
1176
1180
1184
1188
1192
1196
1200
1204
1208
1212
1216
1220
1224
1228
1232
1236
1240
1244
1248
1252
1256
1260
1264
1268
1272
1276
1280
1284
1288
1292
1296
1300
1304
1308
1312
1316
1320
1324
1328
1332
1336
1340
1344
1348
1352
1356
1360
1364
1368
1372
1376
1380
1384
1388
1392
1396
1400
1404
1408
1412
1416
1420
1424
1428
1432
1436
1440
1444
1448
1452
1456
1460
1464
1468
1472
1476
1480
1484
1488
1492
1496
1500
1504
1508
1512
1516
1520
1524
1528
1532
1536
1540
1544
1548
1552
1556
1560
1564
1568
1572
1576
1580
1584
1588
1592
1596
1600
1604
1608
1612
1616
1620
1624
1628
1632
1636
1640
1644
1648
1652
1656
1660
1664
1668
1672
1676
1680
1684
1688
1692
1696
1700
1704
1708
1712
1716
1720
1724
1728
1732
1736
1740
1744
1748
1752
1756
1760
1764
1768
1772
1776
1780
1784
1788
1792
1796
1800
1804
1808
1812
1816
1820
1824
1828
1832
1836
1840
1844
1848
1852
1856
1860
1864
1868
1872
1876
1880
1884
1888
1892
1896
1900
1904
1908
1912
1916
1920
1924
1928
1932
1936
1940
1944
1948
1952
1956
1960
1964
1968
1972
1976
1980
1984
1988
1992
1996
2000
2004
2008
2012
2016
2020
2024
2028
2032
2036
2040
2044
2048
2052
2056
2060
2064
2068
2072
2076
2080
2084
2088
2092
2096
2100
2104
2108
2112
2116
2120
2124
2128
2132
2136
2140
2144
2148
2152
2156
2160
2164
2168
2172
2176
2180
2184
2188
2192
2196
2200
2204
2208
2212
2216
2220
2224
2228
2232
2236
2240
2244
2248
2252
2256
2260
2264
2268
2272
2276
2280
2284
2288
2292
2296
2300
2304
2308
2312
2316
2320
2324
2328
2332
2336
2340
2344
2348
2352
2356
2360
2364
2368
2372
2376
2380
2384
2388
2392
2396
2400
2404
2408
2412
2416
2420
2424
2428
2432
2436
2440
2444
2448
2452
2456
2460
2464
2468
2472
2476
2480
2484
2488
2492
2496
2500
2504
2508
2512
2516
2520
2524
2528
2532
2536
2540
2544
2548
2552
2556
2560
2564
2568
2572
2576
2580
2584
2588
2592
2596
2600
2604
2608
2612
2616
2620
2624
2628
2632
2636
2640
2644
2648
2652
2656
2660
2664
2668
2672
2676
2680
2684
2688
2692
2696
2700
2704
2708
2712
2716
2720
2724
2728
2732
2736
2740
2744
2748
2752
2756
2760
2764
2768
2772
2776
2780
2784
2788
2792
2796
2800
2804
2808
2812
2816
2820
2824
2828
2832
2836
2840
2844
2848
2852
2856
2860
2864
2868
2872
2876
2880
2884
2888
2892
2896
2900
2904
2908
2912
2916
2920
2924
2928
2932
2936
2940
2944
2948
2952
2956
2960
2964
2968
2972
2976
2980
2984
2988
2992
2996
3000
3004
3008
3012
3016
3020
3024
3028
3032
3036
3040
3044
3048
3052
3056
3060
3064
3068
3072
3076
3080
3084
3088
3092
3096
3100
3104
3108
3112
3116
3120
3124
3128
3132
3136
3140
3144
3148
3152
3156
3160
3164
3168
3172
3176
3180
3184
3188
3192
3196
3200
3204
3208
3212
3216
3220
3224
3228
3232
3236
3240
3244
3248
3252
3256
3260
3264
3268
3272
3276
3280
3284
3288
3292
3296
3300
3304
3308
3312
3316
3320
3324
3328
3332
3336
3340
3344
3348
3352
3356
3360
3364
3368
3372
3376
3380
3384
3388
3392
3396
3400
3404
3408
3412
3416
3420
3424
3428
3432
3436
3440
3444
3448
3452
3456
3460
3464
3468
3472
3476
3480
3484
3488
3492
3496
3500
3504
3508
3512
3516
3520
3524
3528
3532
3536
3540
3544
3548
3552
3556
3560
3564
3568
3572
3576
3580
3584
3588
3592
3596
3600
3604
3608
3612
3616
3620
3624
3628
3632
3636
3640
3644
3648
3652
3656
3660
3664
3668
3672
3676
3680
3684
3688
3692
3696
3700
3704
3708
3712
3716
3720
3724
3728
3732
3736
3740
3744
3748
3752
3756
3760
3764
3768
3772
3776
3780
3784
3788
3792
3796
3800
3804
3808
3812
3816
3820
3824
3828
3832
3836
3840
3844
3848
3852
3856
3860
3864
3868
3872
3876
3880
3884
3888
3892
3896
3900
3904
3908
3912
3916
3920
3924
3928
3932
3936
3940
3944
3948
3952
3956
3960
3964
3968
3972
3976
3980
3984
3988
3992
3996
4000
4004
4008
4012
4016
4020
4024
4028
4032
4036
4040
4044
4048
4052
4056
4060
4064
4068
4072
4076
4080
4084
4088
4092
4096
4100
4104
4108
4112
4116
4120
4124
4128
4132
4136
4140
4144
4148
4152
4156
4160
4164
4168
4172
4176
4180
4184
4188
4192
4196
4200
4204
4208
4212
4216
4220
4224
4228
4232
4236
4240
4244
4248
4252
4256
4260
4264
4268
4272
4276
4280
4284
4288
4292
4296
4300
4304
4308
4312
4316
4320
4324
4328
4332
4336
4340
4344
4348
4352
4356
4360
4364
4368
4372
4376
4380
4384
4388
4392
4396
4400
4404
4408
4412
4416
4420
4424
4428
4432
4436
4440
4444
4448
4452
4456
4460
4464
4468
4472
4476
4480
4484
4488
4492
4496
4500
4504
4508
4512
4516
4520
4524
4528
4532
4536
4540
4544
4548
4552
4556
4560
4564
4568
4572
4576
4580
4584
4588
4592
4596
4600
4604
4608
4612
4616
4620
4624
4628
4632
4636
4640
4644
4648
4652
4656
4660
4664
4668
4672
4676
4680
4684
4688
4692
4696
4700
4704
4708
4712
4716
4720
4724
4728
4732
4736
4740
4744
4748
4752
4756
4760
4764
4768
4772
4776
4780
4784
4788
4792
4796
4800
4804
4808
4812
4816
4820
4824
4828
4832
4836
4840
4844
4848
4852
4856
4860
4864
4868
4872
4876
4880
4884
4888
4892
4896
4900
4904
4908
4912
4916
4920
4924
4928
4932
4936
4940
4944
4948
4952
4956
4960
4964
4968
4972
4976
4980
4984
4988
4992
4996
5000
5004
5008
5012
5016
5020
5024
5028
5032
5036
5040
5044
5048
5052
5056
5060
5064
5068
5072
5076
5080
5084
5088
5092
5096
5100
5104
5108
5112
5116
5120
5124
5128
5132
5136
5140
5144
5148
5152
5156
5160
5164
5168
5172
5176
5180
5184
5188
5192
5196
5200
5204
5208
5212
5216
5220
5224
5228
5232
5236
5240
5244
5248
5252
5256
5260
5264
5268
5272
5276
5280
5284
5288
5292
5296
5300
5304
5308
5312
5316
5320
5324
5328
5332
5336
5340
5344
5348
5352
5356
5360
5364
5368
5372
5376
5380
5384
5388
5392
5396
5400
5404
5408
5412
5416
5420
5424
5428
5432
5436
5440
5444
5448
5452
5456
5460
5464
5468
5472
5476
5480
5484
5488
5492
5496
5500
5504
5508
5512
5516
5520
5524
5528
5532
5536
5540
5544
5548
5552
5556
5560
5564
5568
5572
5576
5580
5584
5588
5592
5596
5600
5604
5608
5612
5616
5620
5624
5628
5632
5636
5640
5644
5648
5652
5656
5660
5664
5668
5672
5676
5680
5684
5688
5692
5696
5700
5704
5708
5712
5716
5720
5724
5728
5732
5736
5740
5744
5748
5752
5756
5760
5764
5768
5772
5776
5780
5784
5788
5792
5796
5800
5804
5808
5812
5816
5820
5824
5828
5832
5836
5840
5844
5848
5852
5856
5860
5864
5868
5872
5876
5880
5884
5888
5892
5896
5900
5904
5908
5912
5916
5920
5924
5928
5932
5936
5940
5944
5948
5952
5956
5960
5964
5968
5972
5976
5980
5984
5988
5992
5996
6000
              </DataArray>   
              <DataArray type="UInt8" Name="types" format="ascii">   
10
10
10
10
10
10
10
10
10
10
10
10
10
10
10
10
10
10
10
10
10
10
10
10
10
10
10
10
10
10
10
10
10
10
10
10
10
10
10
10
10
10
10
10
10
10
10
10
10
10
10
10
10
10
10
10
10
10
10
10
10
10
10
10
10
10
10
10
10
10
10
10
10
10
10
10
10
10
10
10
10
10
10
10
10
10
10
10
10
10
10
10
10
10
10
10
10
10
10
10
10
10
10
10
10
10
10
10
10
10
10
10
10
10
10
10
10
10
10
10
10
10
10
10
10
10
10
10
10
10
10
10
10
10
10
10
10
10
10
10
10
10
10
10
10
10
10
10
10
10
10
10
10
10
10
10
10
10
10
10
10
10
10
10
10
10
10
10
10
10
10
10
10
10
10
10
10
10
10
10
10
10
10
10
10
10
10
10
10
10
10
10
10
10
10
10
10
10
10
10
10
10
10
10
10
10
10
10
10
10
10
10
10
10
10
10
10
10
10
10
10
10
10
10
10
10
10
10
10
10
10
10
10
10
10
10
10
10
10
10
10
10
10
10
10
10
10
10
10
10
10
10
10
10
10
10
10
10
10
10
10
10
10
10
10
10
10
10
10
10
10
10
10
10
10
10
10
10
10
10
10
10
10
10
10
10
10
10
10
10
10
10
10
10
10
10
10
10
10
10
10
10
10
10
10
10
10
10
10
10
10
10
10
10
10
10
10
10
10
10
10
10
10
10
10
10
10
10
10
10
10
10
10
10
10
10
10
10
10
10
10
10
10
10
10
10
10
10
10
10
10
10
10
10
10
10
10
10
10
10
10
10
10
10
10
10
10
10
10
10
10
10
10
10
10
10
10
10
10
10
10
10
10
10
10
10
10
10
10
10
10
10
10
10
10
10
10
10
10
10
10
10
10
10
10
10
10
10
10
10
10
10
10
10
10
10
10
10
10
10
10
10
10
10
10
10
10
10
10
10
10
10
10
10
10
10
10
10
10
10
10
10
10
10
10
10
10
10
10
10
10
10
10
10
10
10
10
10
10
10
10
10
10
10
10
10
10
10
10
10
10
10
10
10
10
10
10
10
10
10
10
10
10
10
10
10
10
10
10
10
10
10
10
10
10
10
10
10
10
10
10
10
10
10
10
10
10
10
10
10
10
10
10
10
10
10
10
10
10
10
10
10
10
10
10
10
10
10
10
10
10
10
10
10
10
10
10
10
10
10
10
10
10
10
10
10
10
10
10
10
10
10
10
10
10
10
10
10
10
10
10
10
10
10
10
10
10
10
10
10
10
10
10
10
10
10
10
10
10
10
10
10
10
10
10
10
10
10
10
10
10
10
10
10
10
10
10
10
10
10
10
10
10
10
10
10
10
10
10
10
10
10
10
10
10
10
10
10
10
10
10
10
10
10
10
10
10
10
10
10
10
10
10
10
10
10
10
10
10
10
10
10
10
10
10
10
10
10
10
10
10
10
10
10
10
10
10
10
10
10
10
10
10
10
10
10
10
10
10
10
10
10
10
10
10
10
10
10
10
10
10
10
10
10
10
10
10
10
10
10
10
10
10
10
10
10
10
10
10
10
10
10
10
10
10
10
10
10
10
10
10
10
10
10
10
10
10
10
10
10
10
10
10
10
10
10
10
10
10
10
10
10
10
10
10
10
10
10
10
10
10
10
10
10
10
10
10
10
10
10
10
10
10
10
10
10
10
10
10
10
10
10
10
10
10
10
10
10
10
10
10
10
10
10
10
10
10
10
10
10
10
10
10
10
10
10
10
10
10
10
10
10
10
10
10
10
10
10
10
10
10
10
10
10
10
10
10
10
10
10
10
10
10
10
10
10
10
10
10
10
10
10
10
10
10
10
10
10
10
10
10
10
10
10
10
10
10
10
10
10
10
10
10
10
10
10
10
10
10
10
10
10
10
10
10
10
10
10
10
10
10
10
10
10
10
10
10
10
10
10
10
10
10
10
10
10
10
10
10
10
10
10
10
10
10
10
10
10
10
10
10
10
10
10
10
10
10
10
10
10
10
10
10
10
10
10
10
10
10
10
10
10
10
10
10
10
10
10
10
10
10
10
10
10
10
10
10
10
10
10
10
10
10
10
10
10
10
10
10
10
10
10
10
10
10
10
10
10
10
10
10
10
10
10
10
10
10
10
10
10
10
10
10
10
10
10
10
10
10
10
10
10
10
10
10
10
10
10
10
10
10
10
10
10
10
10
10
10
10
10
10
10
10
10
10
10
10
10
10
10
10
10
10
10
10
10
10
10
10
10
10
10
10
10
10
10
10
10
10
10
10
10
10
10
10
10
10
10
10
10
10
10
10
10
10
10
10
10
10
10
10
10
10
10
10
10
10
10
10
10
10
10
10
10
10
10
10
10
10
10
10
10
10
10
10
10
10
10
10
10
10
10
10
10
10
10
10
10
10
10
10
10
10
10
10
10
10
10
10
10
10
10
10
10
10
10
10
10
10
10
10
10
10
10
10
10
10
10
10
10
10
10
10
10
10
10
10
10
10
10
10
10
10
10
10
10
10
10
10
10
10
10
10
10
10
10
10
10
10
10
10
10
10
10
10
10
10
10
10
10
10
10
10
10
10
10
10
10
10
10
10
10
10
10
10
10
10
10
10
10
10
10
10
10
10
10
10
10
10
10
10
10
10
10
10
10
10
10
10
10
10
10
10
10
10
10
10
10
10
10
10
10
10
10
10
10
10
10
10
10
10
10
10
10
10
10
10
10
10
10
10
10
10
10
10
10
10
10
10
10
10
10
10
10
10
10
10
10
10
10
10
10
10
10
10
10
10
10
10
10
10
10
10
10
10
10
10
10
10
10
10
10
10
10
10
10
10
10
10
10
10
10
10
10
10
10
10
10
10
10
10
10
10
10
10
10
10
10
10
10
10
10
10
10
10
10
10
10
10
10
10
10
10
10
10
10
10
10
10
10
10
10
10
10
10
10
10
10
10
10
10
10
10
10
10
10
10
10
10
10
10
10
10
10
10
10
10
10
10
10
10
10
10
10
10
10
10
10
10
10
10
10
10
10
10
10
10
10
10
10
10
10
10
10
10
10
10
10
10
10
10
10
10
10
10
10
10
10
10
10
10
10
10
10
10
10
10
10
10
10
10
10
10
10
10
10
10
10
10
10
10
10
10
10
10
10
10
10
10
10
10
10
10
10
10
10
10
10
10
10
10
10
10
10
10
10
10
10
10
10
10
10
10
10
10
10
10
10
10
10
10
10
10
10
10
10
10
10
10
10
10
10
10
10
10
10
10
10
10
10
10
10
10
10
10
10
10
10
10
10
10
10
10
10
10
10
10
10
10
10
10
10
10
10
10
10
10
10
10
10
10
10
10
10
10
10
10
10
10
10
              </DataArray>   
          </Cells>  
          <PointData>  
             <DataArray type="Float64" NumberOfComponents="3" Name="Strains" format="ascii">   
-0.0005011819720589003   0.0   -0.0003277998272557126
-0.0005011819720589003   0.0   -0.0003277998272557126
-0.0005011819720589003   0.0   -0.0003277998272557126
-0.0005011819720589003   0.0   -0.0003277998272557126
-0.00031902326036757297   5.56708648758109e-05   9.200544488652197e-06
-0.00031902326036757297   5.56708648758109e-05   9.200544488652197e-06
-0.00031902326036757297   5.56708648758109e-05   9.200544488652197e-06
-0.00031902326036757297   5.56708648758109e-05   9.200544488652197e-06
-0.0003127920396555776   0.0   -0.00030922996681309275
-0.0003127920396555776   0.0   -0.00030922996681309275
-0.0003127920396555776   0.0   -0.00030922996681309275
-0.0003127920396555776   0.0   -0.00030922996681309275
-0.000524607141400173   6.673653817811445e-05   3.753279854365704e-06
-0.000524607141400173   6.673653817811445e-05   3.753279854365704e-06
-0.000524607141400173   6.673653817811445e-05   3.753279854365704e-06
-0.000524607141400173   6.673653817811445e-05   3.753279854365704e-06
-0.00040698700585723824   1.5474883702183174e-05   -0.00016152328669829993
-0.00040698700585723824   1.5474883702183174e-05   -0.00016152328669829993
-0.00040698700585723824   1.5474883702183174e-05   -0.00016152328669829993
-0.00040698700585723824   1.5474883702183174e-05   -0.00016152328669829993
-0.0005246071414001739   0.0   -0.0003492718897199615
-0.0005246071414001739   0.0   -0.0003492718897199615
-0.0005246071414001739   0.0   -0.0003492718897199615
-0.0005246071414001739   0.0   -0.0003492718897199615
-0.0003127920396555776   6.673653817811456e-05   4.3795202761234353e-05
-0.0003127920396555776   6.673653817811456e-05   4.3795202761234353e-05
-0.0003127920396555776   6.673653817811456e-05   4.3795202761234353e-05
-0.0003127920396555776   6.673653817811456e-05   4.3795202761234353e-05
-0.0003137585413186847   0.0   -0.0003168215397771156
-0.0003137585413186847   0.0   -0.0003168215397771156
-0.0003137585413186847   0.0   -0.0003168215397771156
-0.0003137585413186847   0.0   -0.0003168215397771156
-0.0005410971421604665   7.147870916803108e-05   1.9188902791703543e-05
-0.0005410971421604665   7.147870916803108e-05   1.9188902791703543e-05
-0.0005410971421604665   7.147870916803108e-05   1.9188902791703543e-05
-0.0005410971421604665   7.147870916803108e-05   1.9188902791703543e-05
-0.00041918284135942856   2.7041958285704858e-05   -0.0001573395480139638
-0.00041918284135942856   2.7041958285704858e-05   -0.0001573395480139638
-0.00041918284135942856   2.7041958285704858e-05   -0.0001573395480139638
-0.00041918284135942856   2.7041958285704858e-05   -0.0001573395480139638
-0.0005410971421604675   0.0   -0.00035970876527793437
-0.0005410971421604675   0.0   -0.00035970876527793437
-0.0005410971421604675   0.0   -0.00035970876527793437
-0.0005410971421604675   0.0   -0.00035970876527793437
-0.0003137585413186847   7.147870916803119e-05   6.207612829252232e-05
-0.0003137585413186847   7.147870916803119e-05   6.207612829252232e-05
-0.0003137585413186847   7.147870916803119e-05   6.207612829252232e-05
-0.0003137585413186847   7.147870916803119e-05   6.207612829252232e-05
-0.00031368873456634347   0.0   -0.00031875896655681043
-0.00031368873456634347   0.0   -0.00031875896655681043
-0.00031368873456634347   0.0   -0.00031875896655681043
-0.00031368873456634347   0.0   -0.00031875896655681043
-0.0005765374159250253   8.136821569207343e-05   7.050123962575006e-05
-0.0005765374159250253   8.136821569207343e-05   7.050123962575006e-05
-0.0005765374159250253   8.136821569207343e-05   7.050123962575006e-05
-0.0005765374159250253   8.136821569207343e-05   7.050123962575006e-05
-0.00042739293836340474   3.4124832267603265e-05   -0.0001497268595889354
-0.00042739293836340474   3.4124832267603265e-05   -0.0001497268595889354
-0.00042739293836340474   3.4124832267603265e-05   -0.0001497268595889354
-0.00042739293836340474   3.4124832267603265e-05   -0.0001497268595889354
-0.0003190232603675735   0.0   -0.00029439730833022605
-0.0003190232603675735   0.0   -0.00029439730833022605
-0.0003190232603675735   0.0   -0.00029439730833022605
-0.0003190232603675735   0.0   -0.00029439730833022605
-0.00014518734696939147   2.044673173706897e-05   7.5972530423186e-06
-0.00014518734696939147   2.044673173706897e-05   7.5972530423186e-06
-0.00014518734696939147   2.044673173706897e-05   7.5972530423186e-06
-0.00014518734696939147   2.044673173706897e-05   7.5972530423186e-06
-0.0001397213692415483   0.0   -0.00029179363161376784
-0.0001397213692415483   0.0   -0.00029179363161376784
-0.0001397213692415483   0.0   -0.00029179363161376784
-0.0001397213692415483   0.0   -0.00029179363161376784
-0.0003127920396555776   2.906055866554153e-05   -2.077884945637736e-05
-0.0003127920396555776   2.906055866554153e-05   -2.077884945637736e-05
-0.0003127920396555776   2.906055866554153e-05   -2.077884945637736e-05
-0.0003127920396555776   2.906055866554153e-05   -2.077884945637736e-05
-0.0002293723148045605   2.169730597048489e-06   -0.0001436772273669755
-0.0002293723148045605   2.169730597048489e-06   -0.0001436772273669755
-0.0002293723148045605   2.169730597048489e-06   -0.0001436772273669755
-0.0002293723148045605   2.169730597048489e-06   -0.0001436772273669755
-0.0003127920396555773   0.0   -0.0003092299668130925
-0.0003127920396555773   0.0   -0.0003092299668130925
-0.0003127920396555773   0.0   -0.0003092299668130925
-0.0003127920396555773   0.0   -0.0003092299668130925
-0.0001397213692415483   2.906055866554153e-05   -3.3425142570523705e-06
-0.0001397213692415483   2.906055866554153e-05   -3.3425142570523705e-06
-0.0001397213692415483   2.906055866554153e-05   -3.3425142570523705e-06
-0.0001397213692415483   2.906055866554153e-05   -3.3425142570523705e-06
-0.00013668599731683854   0.0   -0.0002954738773250979
-0.00013668599731683854   0.0   -0.0002954738773250979
-0.00013668599731683854   0.0   -0.0002954738773250979
-0.00013668599731683854   0.0   -0.0002954738773250979
-0.0003137585413186847   3.5579437420029444e-05   -2.1700633107372014e-05
-0.0003137585413186847   3.5579437420029444e-05   -2.1700633107372014e-05
-0.0003137585413186847   3.5579437420029444e-05   -2.1700633107372014e-05
-0.0003137585413186847   3.5579437420029444e-05   -2.1700633107372014e-05
-0.0002247390184862076   1.1463407906662354e-05   -0.00015559688678681228
-0.0002247390184862076   1.1463407906662354e-05   -0.00015559688678681228
-0.0002247390184862076   1.1463407906662354e-05   -0.00015559688678681228
-0.0002247390184862076   1.1463407906662354e-05   -0.00015559688678681228
-0.0003137585413186847   0.0   -0.0003168215397771156
-0.0003137585413186847   0.0   -0.0003168215397771156
-0.0003137585413186847   0.0   -0.0003168215397771156
-0.0003137585413186847   0.0   -0.0003168215397771156
-0.00013668599731683854   3.5579437420029444e-05   -3.529706553543916e-07
-0.00013668599731683854   3.5579437420029444e-05   -3.529706553543916e-07
-0.00013668599731683854   3.5579437420029444e-05   -3.529706553543916e-07
-0.00013668599731683854   3.5579437420029444e-05   -3.529706553543916e-07
-0.000133935991329835   0.0   -0.0002939304776691068
-0.000133935991329835   0.0   -0.0002939304776691068
-0.000133935991329835   0.0   -0.0002939304776691068
-0.000133935991329835   0.0   -0.0002939304776691068
-0.00031368873456634266   4.138081481283888e-05   -1.917106116262944e-05
-0.00031368873456634266   4.138081481283888e-05   -1.917106116262944e-05
-0.00031368873456634266   4.138081481283888e-05   -1.917106116262944e-05
-0.00031368873456634266   4.138081481283888e-05   -1.917106116262944e-05
-0.00022384726632425974   1.9075885090007107e-05   -0.00015552388373240317
-0.00022384726632425974   1.9075885090007107e-05   -0.00015552388373240317
-0.00022384726632425974   1.9075885090007107e-05   -0.00015552388373240317
-0.00022384726632425974   1.9075885090007107e-05   -0.00015552388373240317
-0.00014518734696939174   0.0   -0.00028212926928798465
-0.00014518734696939174   0.0   -0.00028212926928798465
-0.00014518734696939174   0.0   -0.00028212926928798465
-0.00014518734696939174   0.0   -0.00028212926928798465
1.9127042894878443e-05   -2.597814654195518e-06   -9.830641640051379e-06
1.9127042894878443e-05   -2.597814654195518e-06   -9.830641640051379e-06
1.9127042894878443e-05   -2.597814654195518e-06   -9.830641640051379e-06
1.9127042894878443e-05   -2.597814654195518e-06   -9.830641640051379e-06
2.257685597125902e-05   0.0   -0.00028870813625989474
2.257685597125902e-05   0.0   -0.00028870813625989474
2.257685597125902e-05   0.0   -0.00028870813625989474
2.257685597125902e-05   0.0   -0.00028870813625989474
-0.00013972136924154805   5.1424922564535075e-06   -2.129658959242216e-05
-0.00013972136924154805   5.1424922564535075e-06   -2.129658959242216e-05
-0.00013972136924154805   5.1424922564535075e-06   -2.129658959242216e-05
-0.00013972136924154805   5.1424922564535075e-06   -2.129658959242216e-05
-6.13052454990661e-05   -5.4823891432592415e-06   -0.00014561520032339723
-6.13052454990661e-05   -5.4823891432592415e-06   -0.00014561520032339723
-6.13052454990661e-05   -5.4823891432592415e-06   -0.00014561520032339723
-6.13052454990661e-05   -5.4823891432592415e-06   -0.00014561520032339723
-0.0001397213692415483   0.0   -0.00029179363161376784
-0.0001397213692415483   0.0   -0.00029179363161376784
-0.0001397213692415483   0.0   -0.00029179363161376784
-0.0001397213692415483   0.0   -0.00029179363161376784
2.2576855971259058e-05   5.1424922564535075e-06   -1.8211094238550068e-05
2.2576855971259058e-05   5.1424922564535075e-06   -1.8211094238550068e-05
2.2576855971259058e-05   5.1424922564535075e-06   -1.8211094238550068e-05
2.2576855971259058e-05   5.1424922564535075e-06   -1.8211094238550068e-05
2.528851521239306e-05   0.0   -0.0002883015749884747
2.528851521239306e-05   0.0   -0.0002883015749884747
2.528851521239306e-05   0.0   -0.0002883015749884747
2.528851521239306e-05   0.0   -0.0002883015749884747
-0.00013668599731683805   1.1953837227704359e-05   -2.551635644304514e-05
-0.00013668599731683805   1.1953837227704359e-05   -2.551635644304514e-05
-0.00013668599731683805   1.1953837227704359e-05   -2.551635644304514e-05
-0.00013668599731683805   1.1953837227704359e-05   -2.551635644304514e-05
-5.7216427014577495e-05   2.9100471877438222e-06   -0.00015253936625617002
-5.7216427014577495e-05   2.9100471877438222e-06   -0.00015253936625617002
-5.7216427014577495e-05   2.9100471877438222e-06   -0.00015253936625617002
-5.7216427014577495e-05   2.9100471877438222e-06   -0.00015253936625617002
-0.00013668599731683854   0.0   -0.0002954738773250979
-0.00013668599731683854   0.0   -0.0002954738773250979
-0.00013668599731683854   0.0   -0.0002954738773250979
-0.00013668599731683854   0.0   -0.0002954738773250979
2.5288515212393103e-05   1.1953837227704522e-05   -1.8344054106422575e-05
2.5288515212393103e-05   1.1953837227704522e-05   -1.8344054106422575e-05
2.5288515212393103e-05   1.1953837227704522e-05   -1.8344054106422575e-05
2.5288515212393103e-05   1.1953837227704522e-05   -1.8344054106422575e-05
2.8965073730173115e-05   0.0   -0.0002820216013778927
2.8965073730173115e-05   0.0   -0.0002820216013778927
2.8965073730173115e-05   0.0   -0.0002820216013778927
2.8965073730173115e-05   0.0   -0.0002820216013778927
-0.00013393599132983467   1.984812715202306e-05   -2.242870256909327e-05
-0.00013393599132983467   1.984812715202306e-05   -2.242870256909327e-05
-0.00013393599132983467   1.984812715202306e-05   -2.242870256909327e-05
-0.00013393599132983467   1.984812715202306e-05   -2.242870256909327e-05
-5.3860461793332594e-05   1.1210229956003915e-05   -0.00015070518014565214
-5.3860461793332594e-05   1.1210229956003915e-05   -0.00015070518014565214
-5.3860461793332594e-05   1.1210229956003915e-05   -0.00015070518014565214
-5.3860461793332594e-05   1.1210229956003915e-05   -0.00015070518014565214
1.9127042894878477e-05   0.0   -0.00028368795808050195
1.9127042894878477e-05   0.0   -0.00028368795808050195
1.9127042894878477e-05   0.0   -0.00028368795808050195
1.9127042894878477e-05   0.0   -0.00028368795808050195
0.0001974160446319632   -2.315444105218474e-05   -4.322864833380003e-07
0.0001974160446319632   -2.315444105218474e-05   -4.322864833380003e-07
0.0001974160446319632   -2.315444105218474e-05   -4.322864833380003e-07
0.0001974160446319632   -2.315444105218474e-05   -4.322864833380003e-07
0.00019765807827834905   0.0   -0.0002991956362844266
0.00019765807827834905   0.0   -0.0002991956362844266
0.00019765807827834905   0.0   -0.0002991956362844266
0.00019765807827834905   0.0   -0.0002991956362844266
2.25768559712591e-05   -1.747916670755145e-05   3.0939009185874727e-06
2.25768559712591e-05   -1.747916670755145e-05   3.0939009185874727e-06
2.25768559712591e-05   -1.747916670755145e-05   3.0939009185874727e-06
2.25768559712591e-05   -1.747916670755145e-05   3.0939009185874727e-06
0.00010839256058661377   -1.2923065169937234e-05   -0.00014266593436290537
0.00010839256058661377   -1.2923065169937234e-05   -0.00014266593436290537
0.00010839256058661377   -1.2923065169937234e-05   -0.00014266593436290537
0.00010839256058661377   -1.2923065169937234e-05   -0.00014266593436290537
2.25768559712591e-05   0.0   -0.0002887081362598957
2.25768559712591e-05   0.0   -0.0002887081362598957
2.25768559712591e-05   0.0   -0.0002887081362598957
2.25768559712591e-05   0.0   -0.0002887081362598957
0.00019765807827834905   -1.747916670755145e-05   -7.393599105943419e-06
0.00019765807827834905   -1.747916670755145e-05   -7.393599105943419e-06
0.00019765807827834905   -1.747916670755145e-05   -7.393599105943419e-06
0.00019765807827834905   -1.747916670755145e-05   -7.393599105943419e-06
0.00019671759870255073   0.0   -0.000294922454635641
0.00019671759870255073   0.0   -0.000294922454635641
0.00019671759870255073   0.0   -0.000294922454635641
0.00019671759870255073   0.0   -0.000294922454635641
2.5288515212393103e-05   -1.103479941194299e-05   -2.5864358382125715e-06
2.5288515212393103e-05   -1.103479941194299e-05   -2.5864358382125715e-06
2.5288515212393103e-05   -1.103479941194299e-05   -2.5864358382125715e-06
2.5288515212393103e-05   -1.103479941194299e-05   -2.5864358382125715e-06
0.00010964722733690492   -5.1785986464543995e-06   -0.00014669800983835857
0.00010964722733690492   -5.1785986464543995e-06   -0.00014669800983835857
0.00010964722733690492   -5.1785986464543995e-06   -0.00014669800983835857
0.00010964722733690492   -5.1785986464543995e-06   -0.00014669800983835857
2.5288515212393082e-05   0.0   -0.000288301574988475
2.5288515212393082e-05   0.0   -0.000288301574988475
2.5288515212393082e-05   0.0   -0.000288301574988475
2.5288515212393082e-05   0.0   -0.000288301574988475
0.00019671759870255073   -1.103479941194299e-05   -9.20731548537839e-06
0.00019671759870255073   -1.103479941194299e-05   -9.20731548537839e-06
0.00019671759870255073   -1.103479941194299e-05   -9.20731548537839e-06
0.00019671759870255073   -1.103479941194299e-05   -9.20731548537839e-06
0.00020043716404873782   0.0   -0.0002834431718964192
0.00020043716404873782   0.0   -0.0002834431718964192
0.00020043716404873782   0.0   -0.0002834431718964192
0.00020043716404873782   0.0   -0.0002834431718964192
2.8965073730173166e-05   -2.369284197543378e-06   3.7652158197144984e-06
2.8965073730173166e-05   -2.369284197543378e-06   3.7652158197144984e-06
2.8965073730173166e-05   -2.369284197543378e-06   3.7652158197144984e-06
2.8965073730173166e-05   -2.369284197543378e-06   3.7652158197144984e-06
0.00011286283963056537   4.048669243380019e-06   -0.00013991516607882642
0.00011286283963056537   4.048669243380019e-06   -0.00013991516607882642
0.00011286283963056537   4.048669243380019e-06   -0.00013991516607882642
0.00011286283963056537   4.048669243380019e-06   -0.00013991516607882642
0.0001974160446319632   0.0   -0.00029758062271181276
0.0001974160446319632   0.0   -0.00029758062271181276
0.0001974160446319632   0.0   -0.00029758062271181276
0.0001974160446319632   0.0   -0.00029758062271181276
0.0004451185579855896   -5.862306914421601e-05   8.008305805770393e-05
0.0004451185579855896   -5.862306914421601e-05   8.008305805770393e-05
0.0004451185579855896   -5.862306914421601e-05   8.008305805770393e-05
0.0004451185579855896   -5.862306914421601e-05   8.008305805770393e-05
0.0004178965685776647   0.0   -0.0003291575225407455
0.0004178965685776647   0.0   -0.0003291575225407455
0.0004178965685776647   0.0   -0.0003291575225407455
0.0004178965685776647   0.0   -0.0003291575225407455
0.00019765807827834905   -4.993647709386484e-05   6.786851421443276e-05
0.00019765807827834905   -4.993647709386484e-05   6.786851421443276e-05
0.00019765807827834905   -4.993647709386484e-05   6.786851421443276e-05
0.00019765807827834905   -4.993647709386484e-05   6.786851421443276e-05
0.000307656306604814   -2.6314083190777284e-05   -0.00012963530267152772
0.000307656306604814   -2.6314083190777284e-05   -0.00012963530267152772
0.000307656306604814   -2.6314083190777284e-05   -0.00012963530267152772
0.000307656306604814   -2.6314083190777284e-05   -0.00012963530267152772
0.0001976580782783489   0.0   -0.0002991956362844264
0.0001976580782783489   0.0   -0.0002991956362844264
0.0001976580782783489   0.0   -0.0002991956362844264
0.0001976580782783489   0.0   -0.0002991956362844264
0.00041789656857766326   -4.993647709386462e-05   3.790662795811377e-05
0.00041789656857766326   -4.993647709386462e-05   3.790662795811377e-05
0.00041789656857766326   -4.993647709386462e-05   3.790662795811377e-05
0.00041789656857766326   -4.993647709386462e-05   3.790662795811377e-05
0.0004053009896452297   0.0   -0.0003223131277559162
0.0004053009896452297   0.0   -0.0003223131277559162
0.0004053009896452297   0.0   -0.0003223131277559162
0.0004053009896452297   0.0   -0.0003223131277559162
0.00019671759870255073   -4.565112186712529e-05   5.2716530268823874e-05
0.00019671759870255073   -4.565112186712529e-05   5.2716530268823874e-05
0.00019671759870255073   -4.565112186712529e-05   5.2716530268823874e-05
0.00019671759870255073   -4.565112186712529e-05   5.2716530268823874e-05
0.0003014795339617892   -1.926457622624132e-05   -0.00013771862254777063
0.0003014795339617892   -1.926457622624132e-05   -0.00013771862254777063
0.0003014795339617892   -1.926457622624132e-05   -0.00013771862254777063
0.0003014795339617892   -1.926457622624132e-05   -0.00013771862254777063
0.00019671759870255073   0.0   -0.000294922454635641
0.00019671759870255073   0.0   -0.000294922454635641
0.00019671759870255073   0.0   -0.000294922454635641
0.00019671759870255073   0.0   -0.000294922454635641
0.0004053009896452283   -4.5651121867125184e-05   2.5325857148548515e-05
0.0004053009896452283   -4.5651121867125184e-05   2.5325857148548515e-05
0.0004053009896452283   -4.5651121867125184e-05   2.5325857148548515e-05
0.0004053009896452283   -4.5651121867125184e-05   2.5325857148548515e-05
0.00038661537334422396   0.0   -0.0003047724664316207
0.00038661537334422396   0.0   -0.0003047724664316207
0.00038661537334422396   0.0   -0.0003047724664316207
0.00038661537334422396   0.0   -0.0003047724664316207
0.00020043716404873782   -3.554882422533663e-05   2.6853843596058807e-05
0.00020043716404873782   -3.554882422533663e-05   2.6853843596058807e-05
0.00020043716404873782   -3.554882422533663e-05   2.6853843596058807e-05
0.00020043716404873782   -3.554882422533663e-05   2.6853843596058807e-05
0.0002916664860233877   -8.208343163316773e-06   -0.0001415993149989027
0.0002916664860233877   -8.208343163316773e-06   -0.0001415993149989027
0.0002916664860233877   -8.208343163316773e-06   -0.0001415993149989027
0.0002916664860233877   -8.208343163316773e-06   -0.0001415993149989027
-0.0004356807569076092   5.5670864875810794e-05   -0.0002851134954218041
-0.0004356807569076092   5.5670864875810794e-05   -0.0002851134954218041
-0.0004356807569076092   5.5670864875810794e-05   -0.0002851134954218041
-0.0004356807569076092   5.5670864875810794e-05   -0.0002851134954218041
-0.0002789749621349224   5.0114358102567105e-05   -2.7271074864605445e-05
-0.0002789749621349224   5.0114358102567105e-05   -2.7271074864605445e-05
-0.0002789749621349224   5.0114358102567105e-05   -2.7271074864605445e-05
-0.0002789749621349224   5.0114358102567105e-05   -2.7271074864605445e-05
-0.00028604070324191733   6.673653817811434e-05   -0.0002393784213193331
-0.00028604070324191733   6.673653817811434e-05   -0.0002393784213193331
-0.00028604070324191733   6.673653817811434e-05   -0.0002393784213193331
-0.00028604070324191733   6.673653817811434e-05   -0.0002393784213193331
-0.00044049466810973565   6.010266587485637e-05   2.2025176842320037e-05
-0.00044049466810973565   6.010266587485637e-05   2.2025176842320037e-05
-0.00044049466810973565   6.010266587485637e-05   2.2025176842320037e-05
-0.00044049466810973565   6.010266587485637e-05   2.2025176842320037e-05
-0.00034603253504812914   5.8126832649480755e-05   -0.00013422621165846797
-0.00034603253504812914   5.8126832649480755e-05   -0.00013422621165846797
-0.00034603253504812914   5.8126832649480755e-05   -0.00013422621165846797
-0.00034603253504812914   5.8126832649480755e-05   -0.00013422621165846797
-0.00044049466810973565   6.673653817811434e-05   -0.00023539809793737837
-0.00044049466810973565   6.673653817811434e-05   -0.00023539809793737837
-0.00044049466810973565   6.673653817811434e-05   -0.00023539809793737837
-0.00044049466810973565   6.673653817811434e-05   -0.00023539809793737837
-0.0002860407032419183   6.0102665874856584e-05   1.804485346036536e-05
-0.0002860407032419183   6.0102665874856584e-05   1.804485346036536e-05
-0.0002860407032419183   6.0102665874856584e-05   1.804485346036536e-05
-0.0002860407032419183   6.0102665874856584e-05   1.804485346036536e-05
-0.0002875702372594039   7.147870916803098e-05   -0.00021516320245736835
-0.0002875702372594039   7.147870916803098e-05   -0.00021516320245736835
-0.0002875702372594039   7.147870916803098e-05   -0.00021516320245736835
-0.0002875702372594039   7.147870916803098e-05   -0.00021516320245736835
-0.0004436789856106973   6.46088854664227e-05   4.9139939015751134e-05
-0.0004436789856106973   6.46088854664227e-05   4.9139939015751134e-05
-0.0004436789856106973   6.46088854664227e-05   4.9139939015751134e-05
-0.0004436789856106973   6.46088854664227e-05   4.9139939015751134e-05
-0.0003562707031359773   6.44096211603227e-05   -9.642097319178785e-05
-0.0003562707031359773   6.44096211603227e-05   -9.642097319178785e-05
-0.0003562707031359773   6.44096211603227e-05   -9.642097319178785e-05
-0.0003562707031359773   6.44096211603227e-05   -9.642097319178785e-05
-0.00044367898561069644   7.147870916803098e-05   -0.00021104130823640306
-0.00044367898561069644   7.147870916803098e-05   -0.00021104130823640306
-0.00044367898561069644   7.147870916803098e-05   -0.00021104130823640306
-0.00044367898561069644   7.147870916803098e-05   -0.00021104130823640306
-0.00028757023725940446   6.46088854664227e-05   4.5018044794785904e-05
-0.00028757023725940446   6.46088854664227e-05   4.5018044794785904e-05
-0.00028757023725940446   6.46088854664227e-05   4.5018044794785904e-05
-0.00028757023725940446   6.46088854664227e-05   4.5018044794785904e-05
-0.0002859912494457888   8.136821569207332e-05   -0.00015882240863113726
-0.0002859912494457888   8.136821569207332e-05   -0.00015882240863113726
-0.0002859912494457888   8.136821569207332e-05   -0.00015882240863113726
-0.0002859912494457888   8.136821569207332e-05   -0.00015882240863113726
-0.0004314988389263789   6.816743886854941e-05   9.161070659729304e-05
-0.0004314988389263789   6.816743886854941e-05   9.161070659729304e-05
-0.0004314988389263789   6.816743886854941e-05   9.161070659729304e-05
-0.0004314988389263789   6.816743886854941e-05   9.161070659729304e-05
-0.00034708007726979336   7.06196558276351e-05   -5.0558559672467685e-05
-0.00034708007726979336   7.06196558276351e-05   -5.0558559672467685e-05
-0.00034708007726979336   7.06196558276351e-05   -5.0558559672467685e-05
-0.00034708007726979336   7.06196558276351e-05   -5.0558559672467685e-05
-0.0002789749621349224   2.044673173706897e-05   -0.00030231872997432533
-0.0002789749621349224   2.044673173706897e-05   -0.00030231872997432533
-0.0002789749621349224   2.044673173706897e-05   -0.00030231872997432533
-0.0002789749621349224   2.044673173706897e-05   -0.00030231872997432533
-0.00013206029682172264   2.3317397781852725e-05   -5.5738554825455e-05
-0.00013206029682172264   2.3317397781852725e-05   -5.5738554825455e-05
-0.00013206029682172264   2.3317397781852725e-05   -5.5738554825455e-05
-0.00013206029682172264   2.3317397781852725e-05   -5.5738554825455e-05
-0.00013526512214376198   2.9060558665541477e-05   -0.0003018867828122355
-0.00013526512214376198   2.9060558665541477e-05   -0.0003018867828122355
-0.00013526512214376198   2.9060558665541477e-05   -0.0003018867828122355
-0.00013526512214376198   2.9060558665541477e-05   -0.0003018867828122355
-0.00028604070324191733   3.250337654005643e-05   -5.265983837335168e-05
-0.00028604070324191733   3.250337654005643e-05   -5.265983837335168e-05
-0.00028604070324191733   3.250337654005643e-05   -5.265983837335168e-05
-0.00028604070324191733   3.250337654005643e-05   -5.265983837335168e-05
-0.00020750266363141884   2.617643864770262e-05   -0.00017976040832210524
-0.00020750266363141884   2.617643864770262e-05   -0.00017976040832210524
-0.00020750266363141884   2.617643864770262e-05   -0.00017976040832210524
-0.00020750266363141884   2.617643864770262e-05   -0.00017976040832210524
-0.00028604070324191706   2.9060558665541477e-05   -0.000303952473536944
-0.00028604070324191706   2.9060558665541477e-05   -0.000303952473536944
-0.00028604070324191706   2.9060558665541477e-05   -0.000303952473536944
-0.00028604070324191706   2.9060558665541477e-05   -0.000303952473536944
-0.00013526512214376223   3.2503376540056646e-05   -5.0594147648642726e-05
-0.00013526512214376223   3.2503376540056646e-05   -5.0594147648642726e-05
-0.00013526512214376223   3.2503376540056646e-05   -5.0594147648642726e-05
-0.00013526512214376223   3.2503376540056646e-05   -5.0594147648642726e-05
-0.00013631147630861713   3.5579437420029444e-05   -0.0002962268821738572
-0.00013631147630861713   3.5579437420029444e-05   -0.0002962268821738572
-0.00013631147630861713   3.5579437420029444e-05   -0.0002962268821738572
-0.00013631147630861713   3.5579437420029444e-05   -0.0002962268821738572
-0.0002875702372594039   4.010124022570463e-05   -4.6842028939284627e-05
-0.0002875702372594039   4.010124022570463e-05   -4.6842028939284627e-05
-0.0002875702372594039   4.010124022570463e-05   -4.6842028939284627e-05
-0.0002875702372594039   4.010124022570463e-05   -4.6842028939284627e-05
-0.00020917515298135906   3.3199833084501806e-05   -0.0001733596584513039
-0.00020917515298135906   3.3199833084501806e-05   -0.0001733596584513039
-0.00020917515298135906   3.3199833084501806e-05   -0.0001733596584513039
-0.00020917515298135906   3.3199833084501806e-05   -0.0001733596584513039
-0.0002875702372594039   3.5579437420029444e-05   -0.00029893996385726236
-0.0002875702372594039   3.5579437420029444e-05   -0.00029893996385726236
-0.0002875702372594039   3.5579437420029444e-05   -0.00029893996385726236
-0.0002875702372594039   3.5579437420029444e-05   -0.00029893996385726236
-0.00013631147630861762   4.010124022570485e-05   -4.412894725587978e-05
-0.00013631147630861762   4.010124022570485e-05   -4.412894725587978e-05
-0.00013631147630861762   4.010124022570485e-05   -4.412894725587978e-05
-0.00013631147630861762   4.010124022570485e-05   -4.412894725587978e-05
-0.00013603227319827066   4.138081481283877e-05   -0.0002931812654944362
-0.00013603227319827066   4.138081481283877e-05   -0.0002931812654944362
-0.00013603227319827066   4.138081481283877e-05   -0.0002931812654944362
-0.00013603227319827066   4.138081481283877e-05   -0.0002931812654944362
-0.00028599124944578855   4.827143704671231e-05   -4.7384011755563895e-05
-0.00028599124944578855   4.827143704671231e-05   -4.7384011755563895e-05
-0.00028599124944578855   4.827143704671231e-05   -4.7384011755563895e-05
-0.00028599124944578855   4.827143704671231e-05   -4.7384011755563895e-05
-0.0002104611556115064   3.955654248175792e-05   -0.00016803856474039574
-0.0002104611556115064   3.955654248175792e-05   -0.00016803856474039574
-0.0002104611556115064   3.955654248175792e-05   -0.00016803856474039574
-0.0002104611556115064   3.955654248175792e-05   -0.00016803856474039574
-0.0001320602968217224   -2.597814654195518e-06   -0.0003164655362373078
-0.0001320602968217224   -2.597814654195518e-06   -0.0003164655362373078
-0.0001320602968217224   -2.597814654195518e-06   -0.0003164655362373078
-0.0001320602968217224   -2.597814654195518e-06   -0.0003164655362373078
1.300964982126288e-05   -6.811745389765766e-07   -7.353230776320079e-05
1.300964982126288e-05   -6.811745389765766e-07   -7.353230776320079e-05
1.300964982126288e-05   -6.811745389765766e-07   -7.353230776320079e-05
1.300964982126288e-05   -6.811745389765766e-07   -7.353230776320079e-05
1.236185052962088e-05   5.142492256453453e-06   -0.00031825847582321034
1.236185052962088e-05   5.142492256453453e-06   -0.00031825847582321034
1.236185052962088e-05   5.142492256453453e-06   -0.00031825847582321034
1.236185052962088e-05   5.142492256453453e-06   -0.00031825847582321034
-0.00013526512214376198   7.779796130445932e-06   -7.379590369196662e-05
-0.00013526512214376198   7.779796130445932e-06   -7.379590369196662e-05
-0.00013526512214376198   7.779796130445932e-06   -7.379590369196662e-05
-0.00013526512214376198   7.779796130445932e-06   -7.379590369196662e-05
-6.085730547178218e-05   2.578451162130917e-06   -0.00019468812449761132
-6.085730547178218e-05   2.578451162130917e-06   -0.00019468812449761132
-6.085730547178218e-05   2.578451162130917e-06   -0.00019468812449761132
-6.085730547178218e-05   2.578451162130917e-06   -0.00019468812449761132
-0.00013526512214376198   5.142492256453453e-06   -0.0003198408581476054
-0.00013526512214376198   5.142492256453453e-06   -0.0003198408581476054
-0.00013526512214376198   5.142492256453453e-06   -0.0003198408581476054
-0.00013526512214376198   5.142492256453453e-06   -0.0003198408581476054
1.236185052962088e-05   7.779796130445932e-06   -7.22135213675713e-05
1.236185052962088e-05   7.779796130445932e-06   -7.22135213675713e-05
1.236185052962088e-05   7.779796130445932e-06   -7.22135213675713e-05
1.236185052962088e-05   7.779796130445932e-06   -7.22135213675713e-05
1.1494018273277374e-05   1.1953837227704413e-05   -0.00031893552151392504
1.1494018273277374e-05   1.1953837227704413e-05   -0.00031893552151392504
1.1494018273277374e-05   1.1953837227704413e-05   -0.00031893552151392504
1.1494018273277374e-05   1.1953837227704413e-05   -0.00031893552151392504
-0.00013631147630861713   1.6045081307075994e-05   -7.504777699172412e-05
-0.00013631147630861713   1.6045081307075994e-05   -7.504777699172412e-05
-0.00013631147630861713   1.6045081307075994e-05   -7.504777699172412e-05
-0.00013631147630861713   1.6045081307075994e-05   -7.504777699172412e-05
-6.204740827703018e-05   9.752212886223648e-06   -0.00019504550265852364
-6.204740827703018e-05   9.752212886223648e-06   -0.00019504550265852364
-6.204740827703018e-05   9.752212886223648e-06   -0.00019504550265852364
-6.204740827703018e-05   9.752212886223648e-06   -0.00019504550265852364
-0.00013631147630861713   1.1953837227704413e-05   -0.000321390267961548
-0.00013631147630861713   1.1953837227704413e-05   -0.000321390267961548
-0.00013631147630861713   1.1953837227704413e-05   -0.000321390267961548
-0.00013631147630861713   1.1953837227704413e-05   -0.000321390267961548
1.1494018273277397e-05   1.6045081307075994e-05   -7.259303054410118e-05
1.1494018273277397e-05   1.6045081307075994e-05   -7.259303054410118e-05
1.1494018273277397e-05   1.6045081307075994e-05   -7.259303054410118e-05
1.1494018273277397e-05   1.6045081307075994e-05   -7.259303054410118e-05
9.805355503575473e-06   1.984812715202306e-05   -0.00031838103557503073
9.805355503575473e-06   1.984812715202306e-05   -0.00031838103557503073
9.805355503575473e-06   1.984812715202306e-05   -0.00031838103557503073
9.805355503575473e-06   1.984812715202306e-05   -0.00031838103557503073
-0.0001360322731982708   2.465872750797779e-05   -7.820468128552676e-05
-0.0001360322731982708   2.465872750797779e-05   -7.820468128552676e-05
-0.0001360322731982708   2.465872750797779e-05   -7.820468128552676e-05
-0.0001360322731982708   2.465872750797779e-05   -7.820468128552676e-05
-6.27897841371325e-05   1.7121797330327346e-05   -0.0001957533382808333
-6.27897841371325e-05   1.7121797330327346e-05   -0.0001957533382808333
-6.27897841371325e-05   1.7121797330327346e-05   -0.0001957533382808333
-6.27897841371325e-05   1.7121797330327346e-05   -0.0001957533382808333
1.300964982126288e-05   -2.3154441052184685e-05   -0.00029202453238015216
1.300964982126288e-05   -2.3154441052184685e-05   -0.00029202453238015216
1.300964982126288e-05   -2.3154441052184685e-05   -0.00029202453238015216
1.300964982126288e-05   -2.3154441052184685e-05   -0.00029202453238015216
0.00016250882603682803   -2.3809243704046596e-05   -4.325212027866054e-05
0.00016250882603682803   -2.3809243704046596e-05   -4.325212027866054e-05
0.00016250882603682803   -2.3809243704046596e-05   -4.325212027866054e-05
0.00016250882603682803   -2.3809243704046596e-05   -4.325212027866054e-05
0.00016377938099588183   -1.7479166707551395e-05   -0.00029614443034008727
0.00016377938099588183   -1.7479166707551395e-05   -0.00029614443034008727
0.00016377938099588183   -1.7479166707551395e-05   -0.00029614443034008727
0.00016377938099588183   -1.7479166707551395e-05   -0.00029614443034008727
1.236185052962088e-05   -1.6130749497577333e-05   -4.4590929888969595e-05
1.236185052962088e-05   -1.6130749497577333e-05   -4.4590929888969595e-05
1.236185052962088e-05   -1.6130749497577333e-05   -4.4590929888969595e-05
1.236185052962088e-05   -1.6130749497577333e-05   -4.4590929888969595e-05
8.67906256935751e-05   -1.9294802971488558e-05   -0.0001667404564112138
8.67906256935751e-05   -1.9294802971488558e-05   -0.0001667404564112138
8.67906256935751e-05   -1.9294802971488558e-05   -0.0001667404564112138
8.67906256935751e-05   -1.9294802971488558e-05   -0.0001667404564112138
1.2361850529620856e-05   -1.747916670755145e-05   -0.0002969534806660724
1.2361850529620856e-05   -1.747916670755145e-05   -0.0002969534806660724
1.2361850529620856e-05   -1.747916670755145e-05   -0.0002969534806660724
1.2361850529620856e-05   -1.747916670755145e-05   -0.0002969534806660724
0.00016377938099588208   -1.6130749497577333e-05   -4.378187956298506e-05
0.00016377938099588208   -1.6130749497577333e-05   -4.378187956298506e-05
0.00016377938099588208   -1.6130749497577333e-05   -4.378187956298506e-05
0.00016377938099588208   -1.6130749497577333e-05   -4.378187956298506e-05
0.0001629051613090874   -1.103479941194299e-05   -0.00030171916823371547
0.0001629051613090874   -1.103479941194299e-05   -0.00030171916823371547
0.0001629051613090874   -1.103479941194299e-05   -0.00030171916823371547
0.0001629051613090874   -1.103479941194299e-05   -0.00030171916823371547
1.1494018273277374e-05   -8.60357439194442e-06   -5.082599818603149e-05
1.1494018273277374e-05   -8.60357439194442e-06   -5.082599818603149e-05
1.1494018273277374e-05   -8.60357439194442e-06   -5.082599818603149e-05
1.1494018273277374e-05   -8.60357439194442e-06   -5.082599818603149e-05
8.580743651088812e-05   -1.3155974342599379e-05   -0.00017195025527832274
8.580743651088812e-05   -1.3155974342599379e-05   -0.00017195025527832274
8.580743651088812e-05   -1.3155974342599379e-05   -0.00017195025527832274
8.580743651088812e-05   -1.3155974342599379e-05   -0.00017195025527832274
1.1494018273277367e-05   -1.103479941194299e-05   -0.0003031779032457146
1.1494018273277367e-05   -1.103479941194299e-05   -0.0003031779032457146
1.1494018273277367e-05   -1.103479941194299e-05   -0.0003031779032457146
1.1494018273277367e-05   -1.103479941194299e-05   -0.0003031779032457146
0.00016290516130908797   -8.60357439194442e-06   -4.936726317403251e-05
0.00016290516130908797   -8.60357439194442e-06   -4.936726317403251e-05
0.00016290516130908797   -8.60357439194442e-06   -4.936726317403251e-05
0.00016290516130908797   -8.60357439194442e-06   -4.936726317403251e-05
0.0001580932473282152   -2.369284197543378e-06   -0.00030224617576530665
0.0001580932473282152   -2.369284197543378e-06   -0.00030224617576530665
0.0001580932473282152   -2.369284197543378e-06   -0.00030224617576530665
0.0001580932473282152   -2.369284197543378e-06   -0.00030224617576530665
9.805355503575473e-06   7.137453226725623e-07   -5.694950710303713e-05
9.805355503575473e-06   7.137453226725623e-07   -5.694950710303713e-05
9.805355503575473e-06   7.137453226725623e-07   -5.694950710303713e-05
9.805355503575473e-06   7.137453226725623e-07   -5.694950710303713e-05
8.481513621494992e-05   -5.985333943857611e-06   -0.0001779463607287428
8.481513621494992e-05   -5.985333943857611e-06   -0.0001779463607287428
8.481513621494992e-05   -5.985333943857611e-06   -0.0001779463607287428
8.481513621494992e-05   -5.985333943857611e-06   -0.0001779463607287428
0.00016250882603682803   -5.862306914421601e-05   -0.00017672822794369785
0.00016250882603682803   -5.862306914421601e-05   -0.00017672822794369785
0.00016250882603682803   -5.862306914421601e-05   -0.00017672822794369785
0.00016250882603682803   -5.862306914421601e-05   -0.00017672822794369785
0.0003101657768926351   -4.429804849041038e-05   7.79617025415966e-05
0.0003101657768926351   -4.429804849041038e-05   7.79617025415966e-05
0.0003101657768926351   -4.429804849041038e-05   7.79617025415966e-05
0.0003101657768926351   -4.429804849041038e-05   7.79617025415966e-05
0.0003218100512222939   -4.993647709386473e-05   -0.00021505942696226153
0.0003218100512222939   -4.993647709386473e-05   -0.00021505942696226153
0.0003218100512222939   -4.993647709386473e-05   -0.00021505942696226153
0.0003218100512222939   -4.993647709386473e-05   -0.00021505942696226153
0.0001637793809958824   -4.023166033144702e-05   4.250213335764094e-05
0.0001637793809958824   -4.023166033144702e-05   4.250213335764094e-05
0.0001637793809958824   -4.023166033144702e-05   4.250213335764094e-05
0.0001637793809958824   -4.023166033144702e-05   4.250213335764094e-05
0.00022842742710240505   -4.8077962503521e-05   -6.0536828849985964e-05
0.00022842742710240505   -4.8077962503521e-05   -6.0536828849985964e-05
0.00022842742710240505   -4.8077962503521e-05   -6.0536828849985964e-05
0.00022842742710240505   -4.8077962503521e-05   -6.0536828849985964e-05
0.000163779380995882   -4.993647709386462e-05   -0.00022088231701971136
0.000163779380995882   -4.993647709386462e-05   -0.00022088231701971136
0.000163779380995882   -4.993647709386462e-05   -0.00022088231701971136
0.000163779380995882   -4.993647709386462e-05   -0.00022088231701971136
0.0003218100512222939   -4.023166033144702e-05   4.8325023415091584e-05
0.0003218100512222939   -4.023166033144702e-05   4.8325023415091584e-05
0.0003218100512222939   -4.023166033144702e-05   4.8325023415091584e-05
0.0003218100512222939   -4.023166033144702e-05   4.8325023415091584e-05
0.0003205021660766591   -4.5651121867125184e-05   -0.00023394389476501473
0.0003205021660766591   -4.5651121867125184e-05   -0.00023394389476501473
0.0003205021660766591   -4.5651121867125184e-05   -0.00023394389476501473
0.0003205021660766591   -4.5651121867125184e-05   -0.00023394389476501473
0.00016290516130908797   -3.5898742342959375e-05   2.2866352133103784e-05
0.00016290516130908797   -3.5898742342959375e-05   2.2866352133103784e-05
0.00016290516130908797   -3.5898742342959375e-05   2.2866352133103784e-05
0.00016290516130908797   -3.5898742342959375e-05   2.2866352133103784e-05
0.00023631322385795207   -4.249080960625124e-05   -9.552517842369439e-05
0.00023631322385795207   -4.249080960625124e-05   -9.552517842369439e-05
0.00023631322385795207   -4.249080960625124e-05   -9.552517842369439e-05
0.00023631322385795207   -4.249080960625124e-05   -9.552517842369439e-05
0.0001629051613090877   -4.5651121867125184e-05   -0.00023979532247951407
0.0001629051613090877   -4.5651121867125184e-05   -0.00023979532247951407
0.0001629051613090877   -4.5651121867125184e-05   -0.00023979532247951407
0.0001629051613090877   -4.5651121867125184e-05   -0.00023979532247951407
0.0003205021660766591   -3.5898742342959375e-05   2.8717779847603313e-05
0.0003205021660766591   -3.5898742342959375e-05   2.8717779847603313e-05
0.0003205021660766591   -3.5898742342959375e-05   2.8717779847603313e-05
0.0003205021660766591   -3.5898742342959375e-05   2.8717779847603313e-05
0.0003184440085917091   -3.5548824225336575e-05   -0.0002723489314152572
0.0003184440085917091   -3.5548824225336575e-05   -0.0002723489314152572
0.0003184440085917091   -3.5548824225336575e-05   -0.0002723489314152572
0.0003184440085917091   -3.5548824225336575e-05   -0.0002723489314152572
0.00015809324732821573   -2.657041413336959e-05   -1.048470869794869e-05
0.00015809324732821573   -2.657041413336959e-05   -1.048470869794869e-05
0.00015809324732821573   -2.657041413336959e-05   -1.048470869794869e-05
0.00015809324732821573   -2.657041413336959e-05   -1.048470869794869e-05
0.00022947199412680247   -3.660967264936096e-05   -0.0001234257315859983
0.00022947199412680247   -3.660967264936096e-05   -0.0001234257315859983
0.00022947199412680247   -3.660967264936096e-05   -0.0001234257315859983
0.00022947199412680247   -3.660967264936096e-05   -0.0001234257315859983
-0.00034774536020785204   5.011435810256732e-05   -0.00023951277666356223
-0.00034774536020785204   5.011435810256732e-05   -0.00023951277666356223
-0.00034774536020785204   5.011435810256732e-05   -0.00023951277666356223
-0.00034774536020785204   5.011435810256732e-05   -0.00023951277666356223
-0.00022781314749219152   3.8351880593213636e-05   -4.668324197640652e-05
-0.00022781314749219152   3.8351880593213636e-05   -4.668324197640652e-05
-0.00022781314749219152   3.8351880593213636e-05   -4.668324197640652e-05
-0.00022781314749219152   3.8351880593213636e-05   -4.668324197640652e-05
-0.00022894350446188655   6.010266587485637e-05   -0.00019883731290702093
-0.00022894350446188655   6.010266587485637e-05   -0.00019883731290702093
-0.00022894350446188655   6.010266587485637e-05   -0.00019883731290702093
-0.00022894350446188655   6.010266587485637e-05   -0.00019883731290702093
-0.0003425610429616515   4.636258540243474e-05   -1.2307004572933641e-06
-0.0003425610429616515   4.636258540243474e-05   -1.2307004572933641e-06
-0.0003425610429616515   4.636258540243474e-05   -1.2307004572933641e-06
-0.0003425610429616515   4.636258540243474e-05   -1.2307004572933641e-06
-0.0002746421522606692   5.094284269082814e-05   -0.00011717700599863387
-0.0002746421522606692   5.094284269082814e-05   -0.00011717700599863387
-0.0002746421522606692   5.094284269082814e-05   -0.00011717700599863387
-0.0002746421522606692   5.094284269082814e-05   -0.00011717700599863387
-0.0003425610429616515   6.010266587485637e-05   -0.00019059326462356793
-0.0003425610429616515   6.010266587485637e-05   -0.00019059326462356793
-0.0003425610429616515   6.010266587485637e-05   -0.00019059326462356793
-0.0003425610429616515   6.010266587485637e-05   -0.00019059326462356793
-0.00022894350446188655   4.636258540243474e-05   -9.474748740745604e-06
-0.00022894350446188655   4.636258540243474e-05   -9.474748740745604e-06
-0.00022894350446188655   4.636258540243474e-05   -9.474748740745604e-06
-0.00022894350446188655   4.636258540243474e-05   -9.474748740745604e-06
-0.0002287424566376178   6.46088854664227e-05   -0.00017008508094265443
-0.0002287424566376178   6.46088854664227e-05   -0.00017008508094265443
-0.0002287424566376178   6.46088854664227e-05   -0.00017008508094265443
-0.0002287424566376178   6.46088854664227e-05   -0.00017008508094265443
-0.00033749149174320116   4.987656768552871e-05   2.000270156852016e-05
-0.00033749149174320116   4.987656768552871e-05   2.000270156852016e-05
-0.00033749149174320116   4.987656768552871e-05   2.000270156852016e-05
-0.00033749149174320116   4.987656768552871e-05   2.000270156852016e-05
-0.00027706260850930437   5.558720293159618e-05   -8.413848496894552e-05
-0.00027706260850930437   5.558720293159618e-05   -8.413848496894552e-05
-0.00027706260850930437   5.558720293159618e-05   -8.413848496894552e-05
-0.00027706260850930437   5.558720293159618e-05   -8.413848496894552e-05
-0.00033749149174320116   6.46088854664227e-05   -0.00016124569027411789
-0.00033749149174320116   6.46088854664227e-05   -0.00016124569027411789
-0.00033749149174320116   6.46088854664227e-05   -0.00016124569027411789
-0.00033749149174320116   6.46088854664227e-05   -0.00016124569027411789
-0.00022874245663761822   4.987656768552914e-05   1.116331089998508e-05
-0.00022874245663761822   4.987656768552914e-05   1.116331089998508e-05
-0.00022874245663761822   4.987656768552914e-05   1.116331089998508e-05
-0.00022874245663761822   4.987656768552914e-05   1.116331089998508e-05
-0.0002289983743958609   6.816743886854941e-05   -0.00012977674453249844
-0.0002289983743958609   6.816743886854941e-05   -0.00012977674453249844
-0.0002289983743958609   6.816743886854941e-05   -0.00012977674453249844
-0.0002289983743958609   6.816743886854941e-05   -0.00012977674453249844
-0.0003308487519405195   5.331704553529753e-05   4.88841207085481e-05
-0.0003308487519405195   5.331704553529753e-05   4.88841207085481e-05
-0.0003308487519405195   5.331704553529753e-05   4.88841207085481e-05
-0.0003308487519405195   5.331704553529753e-05   4.88841207085481e-05
-0.0002707904722464327   5.801655911023048e-05   -5.403272025988567e-05
-0.0002707904722464327   5.801655911023048e-05   -5.403272025988567e-05
-0.0002707904722464327   5.801655911023048e-05   -5.403272025988567e-05
-0.0002707904722464327   5.801655911023048e-05   -5.403272025988567e-05
-0.00022781314749219152   2.3317397781852508e-05   -0.0002767601427568939
-0.00022781314749219152   2.3317397781852508e-05   -0.0002767601427568939
-0.00022781314749219152   2.3317397781852508e-05   -0.0002767601427568939
-0.00022781314749219152   2.3317397781852508e-05   -0.0002767601427568939
-0.00011576861441650713   1.9100967212600135e-05   -9.254911263897097e-05
-0.00011576861441650713   1.9100967212600135e-05   -9.254911263897097e-05
-0.00011576861441650713   1.9100967212600135e-05   -9.254911263897097e-05
-0.00011576861441650713   1.9100967212600135e-05   -9.254911263897097e-05
-0.00011719895334817557   3.250337654005643e-05   -0.0002728592426776656
-0.00011719895334817557   3.250337654005643e-05   -0.0002728592426776656
-0.00011719895334817557   3.250337654005643e-05   -0.0002728592426776656
-0.00011719895334817557   3.250337654005643e-05   -0.0002728592426776656
-0.00022894350446188612   2.6974646645176997e-05   -8.33010862178866e-05
-0.00022894350446188612   2.6974646645176997e-05   -8.33010862178866e-05
-0.00022894350446188612   2.6974646645176997e-05   -8.33010862178866e-05
-0.00022894350446188612   2.6974646645176997e-05   -8.33010862178866e-05
-0.00017095821401978217   2.6861591670307786e-05   -0.00017987540396980533
-0.00017095821401978217   2.6861591670307786e-05   -0.00017987540396980533
-0.00017095821401978217   2.6861591670307786e-05   -0.00017987540396980533
-0.00017095821401978217   2.6861591670307786e-05   -0.00017987540396980533
-0.00022894350446188644   3.250337654005643e-05   -0.0002695420047407371
-0.00022894350446188644   3.250337654005643e-05   -0.0002695420047407371
-0.00022894350446188644   3.250337654005643e-05   -0.0002695420047407371
-0.00022894350446188644   3.250337654005643e-05   -0.0002695420047407371
-0.00011719895334817579   2.6974646645176997e-05   -8.66183241548134e-05
-0.00011719895334817579   2.6974646645176997e-05   -8.66183241548134e-05
-0.00011719895334817579   2.6974646645176997e-05   -8.66183241548134e-05
-0.00011719895334817579   2.6974646645176997e-05   -8.66183241548134e-05
-0.00011813486055521876   4.010124022570463e-05   -0.0002656282814210097
-0.00011813486055521876   4.010124022570463e-05   -0.0002656282814210097
-0.00011813486055521876   4.010124022570463e-05   -0.0002656282814210097
-0.00011813486055521876   4.010124022570463e-05   -0.0002656282814210097
-0.0002287424566376178   3.3962695651896125e-05   -7.75991612060609e-05
-0.0002287424566376178   3.3962695651896125e-05   -7.75991612060609e-05
-0.0002287424566376178   3.3962695651896125e-05   -7.75991612060609e-05
-0.0002287424566376178   3.3962695651896125e-05   -7.75991612060609e-05
-0.0001712966557883284   3.333450359314363e-05   -0.0001729652473862884
-0.0001712966557883284   3.333450359314363e-05   -0.0001729652473862884
-0.0001712966557883284   3.333450359314363e-05   -0.0001729652473862884
-0.0001712966557883284   3.333450359314363e-05   -0.0001729652473862884
-0.0002287424566376178   4.010124022570463e-05   -0.00026194515467672474
-0.0002287424566376178   4.010124022570463e-05   -0.00026194515467672474
-0.0002287424566376178   4.010124022570463e-05   -0.00026194515467672474
-0.0002287424566376178   4.010124022570463e-05   -0.00026194515467672474
-0.00011813486055521914   3.3962695651896125e-05   -8.128228795034476e-05
-0.00011813486055521914   3.3962695651896125e-05   -8.128228795034476e-05
-0.00011813486055521914   3.3962695651896125e-05   -8.128228795034476e-05
-0.00011813486055521914   3.3962695651896125e-05   -8.128228795034476e-05
-0.00011933691956873089   4.8271437046712527e-05   -0.00026498059886327294
-0.00011933691956873089   4.8271437046712527e-05   -0.00026498059886327294
-0.00011933691956873089   4.8271437046712527e-05   -0.00026498059886327294
-0.00011933691956873089   4.8271437046712527e-05   -0.00026498059886327294
-0.00022899837439586078   4.1388766926659173e-05   -7.808190541269125e-05
-0.00022899837439586078   4.1388766926659173e-05   -7.808190541269125e-05
-0.00022899837439586078   4.1388766926659173e-05   -7.808190541269125e-05
-0.00022899837439586078   4.1388766926659173e-05   -7.808190541269125e-05
-0.00017334948083747733   3.973955940937343e-05   -0.00016984053683295644
-0.00017334948083747733   3.973955940937343e-05   -0.00016984053683295644
-0.00017334948083747733   3.973955940937343e-05   -0.00016984053683295644
-0.00017334948083747733   3.973955940937343e-05   -0.00016984053683295644
-0.00011576861441650696   -6.811745389765766e-07   -0.0002982337381053224
-0.00011576861441650696   -6.811745389765766e-07   -0.0002982337381053224
-0.00011576861441650696   -6.811745389765766e-07   -0.0002982337381053224
-0.00011576861441650696   -6.811745389765766e-07   -0.0002982337381053224
-5.0034833281997246e-06   1.0125319882111836e-06   -0.0001126089623751643
-5.0034833281997246e-06   1.0125319882111836e-06   -0.0001126089623751643
-5.0034833281997246e-06   1.0125319882111836e-06   -0.0001126089623751643
-5.0034833281997246e-06   1.0125319882111836e-06   -0.0001126089623751643
-6.154203692452888e-06   7.779796130445932e-06   -0.0002954749368675386
-6.154203692452888e-06   7.779796130445932e-06   -0.0002954749368675386
-6.154203692452888e-06   7.779796130445932e-06   -0.0002954749368675386
-6.154203692452888e-06   7.779796130445932e-06   -0.0002954749368675386
-0.00011719895334817557   8.75656588619593e-06   -0.00011098641596145157
-0.00011719895334817557   8.75656588619593e-06   -0.00011098641596145157
-0.00011719895334817557   8.75656588619593e-06   -0.00011098641596145157
-0.00011719895334817557   8.75656588619593e-06   -0.00011098641596145157
-6.069097836501256e-05   5.097115467588963e-06   -0.00020297070401555908
-6.069097836501256e-05   5.097115467588963e-06   -0.00020297070401555908
-6.069097836501256e-05   5.097115467588963e-06   -0.00020297070401555908
-6.069097836501256e-05   5.097115467588963e-06   -0.00020297070401555908
-0.00011719895334817557   7.779796130445932e-06   -0.0002960609987209895
-0.00011719895334817557   7.779796130445932e-06   -0.0002960609987209895
-0.00011719895334817557   7.779796130445932e-06   -0.0002960609987209895
-0.00011719895334817557   7.779796130445932e-06   -0.0002960609987209895
-6.154203692452898e-06   8.756565886196364e-06   -0.00011040035410800071
-6.154203692452898e-06   8.756565886196364e-06   -0.00011040035410800071
-6.154203692452898e-06   8.756565886196364e-06   -0.00011040035410800071
-6.154203692452898e-06   8.756565886196364e-06   -0.00011040035410800071
-6.994133053603899e-06   1.6045081307075994e-05   -0.00029628804459836257
-6.994133053603899e-06   1.6045081307075994e-05   -0.00029628804459836257
-6.994133053603899e-06   1.6045081307075994e-05   -0.00029628804459836257
-6.994133053603899e-06   1.6045081307075994e-05   -0.00029628804459836257
-0.00011813486055521893   1.6476858904562134e-05   -0.00011131256532083021
-0.00011813486055521893   1.6476858904562134e-05   -0.00011131256532083021
-0.00011813486055521893   1.6476858904562134e-05   -0.00011131256532083021
-0.00011813486055521893   1.6476858904562134e-05   -0.00011131256532083021
-6.216913858842179e-05   1.192488767520674e-05   -0.00020185758586121046
-6.216913858842179e-05   1.192488767520674e-05   -0.00020185758586121046
-6.216913858842179e-05   1.192488767520674e-05   -0.00020185758586121046
-6.216913858842179e-05   1.192488767520674e-05   -0.00020185758586121046
-0.00011813486055521893   1.6045081307075994e-05   -0.0002965471111568544
-0.00011813486055521893   1.6045081307075994e-05   -0.0002965471111568544
-0.00011813486055521893   1.6045081307075994e-05   -0.0002965471111568544
-0.00011813486055521893   1.6045081307075994e-05   -0.0002965471111568544
-6.9941330536039125e-06   1.6476858904562134e-05   -0.00011105349876233738
-6.9941330536039125e-06   1.6476858904562134e-05   -0.00011105349876233738
-6.9941330536039125e-06   1.6476858904562134e-05   -0.00011105349876233738
-6.9941330536039125e-06   1.6476858904562134e-05   -0.00011105349876233738
-8.30001409497772e-06   2.465872750797779e-05   -0.00030010447536087267
-8.30001409497772e-06   2.465872750797779e-05   -0.00030010447536087267
-8.30001409497772e-06   2.465872750797779e-05   -0.00030010447536087267
-8.30001409497772e-06   2.465872750797779e-05   -0.00030010447536087267
-0.00011933691956873084   2.437733812912183e-05   -0.00011487413261063845
-0.00011933691956873084   2.437733812912183e-05   -0.00011487413261063845
-0.00011933691956873084   2.437733812912183e-05   -0.00011487413261063845
-0.00011933691956873084   2.437733812912183e-05   -0.00011487413261063845
-6.373809399973415e-05   1.883370277816791e-05   -0.00020421266068172548
-6.373809399973415e-05   1.883370277816791e-05   -0.00020421266068172548
-6.373809399973415e-05   1.883370277816791e-05   -0.00020421266068172548
-6.373809399973415e-05   1.883370277816791e-05   -0.00020421266068172548
-5.003483328199738e-06   -2.3809243704046596e-05   -0.0002665444451133523
-5.003483328199738e-06   -2.3809243704046596e-05   -0.0002665444451133523
-5.003483328199738e-06   -2.3809243704046596e-05   -0.0002665444451133523
-5.003483328199738e-06   -2.3809243704046596e-05   -0.0002665444451133523
0.00010524699165312932   -1.6002962829524212e-05   -7.810988495309088e-05
0.00010524699165312932   -1.6002962829524212e-05   -7.810988495309088e-05
0.00010524699165312932   -1.6002962829524212e-05   -7.810988495309088e-05
0.00010524699165312932   -1.6002962829524212e-05   -7.810988495309088e-05
0.0001051421242104746   -1.6130749497577333e-05   -0.0002635221007232572
0.0001051421242104746   -1.6130749497577333e-05   -0.0002635221007232572
0.0001051421242104746   -1.6130749497577333e-05   -0.0002635221007232572
0.0001051421242104746   -1.6130749497577333e-05   -0.0002635221007232572
-6.154203692452898e-06   -8.913675054775683e-06   -8.235846555072534e-05
-6.154203692452898e-06   -8.913675054775683e-06   -8.235846555072534e-05
-6.154203692452898e-06   -8.913675054775683e-06   -8.235846555072534e-05
-6.154203692452898e-06   -8.913675054775683e-06   -8.235846555072534e-05
4.942460785148801e-05   -1.5660507971150626e-05   -0.00017094171837413527
4.942460785148801e-05   -1.5660507971150626e-05   -0.00017094171837413527
4.942460785148801e-05   -1.5660507971150626e-05   -0.00017094171837413527
4.942460785148801e-05   -1.5660507971150626e-05   -0.00017094171837413527
-6.154203692452898e-06   -1.6130749497577333e-05   -0.0002678523453889377
-6.154203692452898e-06   -1.6130749497577333e-05   -0.0002678523453889377
-6.154203692452898e-06   -1.6130749497577333e-05   -0.0002678523453889377
-6.154203692452898e-06   -1.6130749497577333e-05   -0.0002678523453889377
0.0001051421242104746   -8.913675054775683e-06   -7.802822088504415e-05
0.0001051421242104746   -8.913675054775683e-06   -7.802822088504415e-05
0.0001051421242104746   -8.913675054775683e-06   -7.802822088504415e-05
0.0001051421242104746   -8.913675054775683e-06   -7.802822088504415e-05
0.00010560370738386954   -8.60357439194442e-06   -0.00027052273142808394
0.00010560370738386954   -8.60357439194442e-06   -0.00027052273142808394
0.00010560370738386954   -8.60357439194442e-06   -0.00027052273142808394
0.00010560370738386954   -8.60357439194442e-06   -0.00027052273142808394
-6.994133053603923e-06   -1.9397730382612888e-06   -8.685794484450542e-05
-6.994133053603923e-06   -1.9397730382612888e-06   -8.685794484450542e-05
-6.994133053603923e-06   -1.9397730382612888e-06   -8.685794484450542e-05
-6.994133053603923e-06   -1.9397730382612888e-06   -8.685794484450542e-05
4.78954887220166e-05   -9.511197189348859e-06   -0.0001737977933132191
4.78954887220166e-05   -9.511197189348859e-06   -0.0001737977933132191
4.78954887220166e-05   -9.511197189348859e-06   -0.0001737977933132191
4.78954887220166e-05   -9.511197189348859e-06   -0.0001737977933132191
-6.994133053603906e-06   -8.60357439194442e-06   -0.00027452101224029245
-6.994133053603906e-06   -8.60357439194442e-06   -0.00027452101224029245
-6.994133053603906e-06   -8.60357439194442e-06   -0.00027452101224029245
-6.994133053603906e-06   -8.60357439194442e-06   -0.00027452101224029245
0.00010560370738386954   -1.9397730382612888e-06   -8.285966403229423e-05
0.00010560370738386954   -1.9397730382612888e-06   -8.285966403229423e-05
0.00010560370738386954   -1.9397730382612888e-06   -8.285966403229423e-05
0.00010560370738386954   -1.9397730382612888e-06   -8.285966403229423e-05
0.000104765387082294   7.137453226727791e-07   -0.00027843044474066224
0.000104765387082294   7.137453226727791e-07   -0.00027843044474066224
0.000104765387082294   7.137453226727791e-07   -0.00027843044474066224
0.000104765387082294   7.137453226727791e-07   -0.00027843044474066224
-8.300014094977737e-06   6.22243974149686e-06   -9.329332609650455e-05
-8.300014094977737e-06   6.22243974149686e-06   -9.329332609650455e-05
-8.300014094977737e-06   6.22243974149686e-06   -9.329332609650455e-05
-8.300014094977737e-06   6.22243974149686e-06   -9.329332609650455e-05
4.7345504822963165e-05   -2.924657753325833e-06   -0.00018054759912951085
4.7345504822963165e-05   -2.924657753325833e-06   -0.00018054759912951085
4.7345504822963165e-05   -2.924657753325833e-06   -0.00018054759912951085
4.7345504822963165e-05   -2.924657753325833e-06   -0.00018054759912951085
0.00010524699165312911   -4.4298048490410595e-05   -0.00014924186616066494
0.00010524699165312911   -4.4298048490410595e-05   -0.00014924186616066494
0.00010524699165312911   -4.4298048490410595e-05   -0.00014924186616066494
0.00010524699165312911   -4.4298048490410595e-05   -0.00014924186616066494
0.00020865906994858852   -2.9081823765198227e-05   3.224133250022843e-05
0.00020865906994858852   -2.9081823765198227e-05   3.224133250022843e-05
0.00020865906994858852   -2.9081823765198227e-05   3.224133250022843e-05
0.00020865906994858852   -2.9081823765198227e-05   3.224133250022843e-05
0.000215604435126752   -4.0231660331446805e-05   -0.0001681055851100099
0.000215604435126752   -4.0231660331446805e-05   -0.0001681055851100099
0.000215604435126752   -4.0231660331446805e-05   -0.0001681055851100099
0.000215604435126752   -4.0231660331446805e-05   -0.0001681055851100099
0.00010514212421047444   -2.5010822510412867e-05   6.8657637244994366e-06
0.00010514212421047444   -2.5010822510412867e-05   6.8657637244994366e-06
0.00010514212421047444   -2.5010822510412867e-05   6.8657637244994366e-06
0.00010514212421047444   -2.5010822510412867e-05   6.8657637244994366e-06
0.0001518805615480868   -3.424808730801126e-05   -6.548927295962903e-05
0.0001518805615480868   -3.424808730801126e-05   -6.548927295962903e-05
0.0001518805615480868   -3.424808730801126e-05   -6.548927295962903e-05
0.0001518805615480868   -3.424808730801126e-05   -6.548927295962903e-05
0.00010514212421047439   -4.0231660331446805e-05   -0.00017723808780262989
0.00010514212421047439   -4.0231660331446805e-05   -0.00017723808780262989
0.00010514212421047439   -4.0231660331446805e-05   -0.00017723808780262989
0.00010514212421047439   -4.0231660331446805e-05   -0.00017723808780262989
0.000215604435126752   -2.5010822510412867e-05   1.5998266417120276e-05
0.000215604435126752   -2.5010822510412867e-05   1.5998266417120276e-05
0.000215604435126752   -2.5010822510412867e-05   1.5998266417120276e-05
0.000215604435126752   -2.5010822510412867e-05   1.5998266417120276e-05
0.00022092569628112126   -3.5898742342959375e-05   -0.0001896517006305372
0.00022092569628112126   -3.5898742342959375e-05   -0.0001896517006305372
0.00022092569628112126   -3.5898742342959375e-05   -0.0001896517006305372
0.00022092569628112126   -3.5898742342959375e-05   -0.0001896517006305372
0.00010560370738386921   -2.150304985894247e-05   -6.085801292194672e-06
0.00010560370738386921   -2.150304985894247e-05   -6.085801292194672e-06
0.00010560370738386921   -2.150304985894247e-05   -6.085801292194672e-06
0.00010560370738386921   -2.150304985894247e-05   -6.085801292194672e-06
0.00015698952783805894   -3.16199275611829e-05   -8.565870876116538e-05
0.00015698952783805894   -3.16199275611829e-05   -8.565870876116538e-05
0.00015698952783805894   -3.16199275611829e-05   -8.565870876116538e-05
0.00015698952783805894   -3.16199275611829e-05   -8.565870876116538e-05
0.00010560370738386937   -3.5898742342959375e-05   -0.0001982891161209472
0.00010560370738386937   -3.5898742342959375e-05   -0.0001982891161209472
0.00010560370738386937   -3.5898742342959375e-05   -0.0001982891161209472
0.00010560370738386937   -3.5898742342959375e-05   -0.0001982891161209472
0.00022092569628112094   -2.150304985894247e-05   2.551614198216534e-06
0.00022092569628112094   -2.150304985894247e-05   2.551614198216534e-06
0.00022092569628112094   -2.150304985894247e-05   2.551614198216534e-06
0.00022092569628112094   -2.150304985894247e-05   2.551614198216534e-06
0.00022658171579098335   -2.657041413336959e-05   -0.00022627128150648008
0.00022658171579098335   -2.657041413336959e-05   -0.00022627128150648008
0.00022658171579098335   -2.657041413336959e-05   -0.00022627128150648008
0.00022658171579098335   -2.657041413336959e-05   -0.00022627128150648008
0.00010476538708229367   -1.399677656466463e-05   -3.0788249533221035e-05
0.00010476538708229367   -1.399677656466463e-05   -3.0788249533221035e-05
0.00010476538708229367   -1.399677656466463e-05   -3.0788249533221035e-05
0.00010476538708229367   -1.399677656466463e-05   -3.0788249533221035e-05
0.0001562669990117914   -2.7259403349343472e-05   -0.00010866669334490926
0.0001562669990117914   -2.7259403349343472e-05   -0.00010866669334490926
0.0001562669990117914   -2.7259403349343472e-05   -0.00010866669334490926
0.0001562669990117914   -2.7259403349343472e-05   -0.00010866669334490926
-0.00025047138982998117   3.8351880593213636e-05   -0.00019018351198424712
-0.00025047138982998117   3.8351880593213636e-05   -0.00019018351198424712
-0.00025047138982998117   3.8351880593213636e-05   -0.00019018351198424712
-0.00025047138982998117   3.8351880593213636e-05   -0.00019018351198424712
-0.0001703225797553094   2.4452101599985697e-05   -6.494202925573063e-05
-0.0001703225797553094   2.4452101599985697e-05   -6.494202925573063e-05
-0.0001703225797553094   2.4452101599985697e-05   -6.494202925573063e-05
-0.0001703225797553094   2.4452101599985697e-05   -6.494202925573063e-05
-0.0001697069800321502   4.636258540243474e-05   -0.00016155796115312942
-0.0001697069800321502   4.636258540243474e-05   -0.00016155796115312942
-0.0001697069800321502   4.636258540243474e-05   -0.00016155796115312942
-0.0001697069800321502   4.636258540243474e-05   -0.00016155796115312942
-0.00024303298692197536   3.10953172372886e-05   -3.0187588770999932e-05
-0.00024303298692197536   3.10953172372886e-05   -3.0187588770999932e-05
-0.00024303298692197536   3.10953172372886e-05   -3.0187588770999932e-05
-0.00024303298692197536   3.10953172372886e-05   -3.0187588770999932e-05
-0.0001995442419648129   3.692035045083173e-05   -0.00010616385029439636
-0.0001995442419648129   3.692035045083173e-05   -0.00010616385029439636
-0.0001995442419648129   3.692035045083173e-05   -0.00010616385029439636
-0.0001995442419648129   3.692035045083173e-05   -0.00010616385029439636
-0.00024303298692197536   4.636258540243474e-05   -0.00015239760025404165
-0.00024303298692197536   4.636258540243474e-05   -0.00015239760025404165
-0.00024303298692197536   4.636258540243474e-05   -0.00015239760025404165
-0.00024303298692197536   4.636258540243474e-05   -0.00015239760025404165
-0.00016970698003215053   3.10953172372886e-05   -3.9347949670087253e-05
-0.00016970698003215053   3.10953172372886e-05   -3.9347949670087253e-05
-0.00016970698003215053   3.10953172372886e-05   -3.9347949670087253e-05
-0.00016970698003215053   3.10953172372886e-05   -3.9347949670087253e-05
-0.00016842292255135431   4.987656768552871e-05   -0.0001408739445407422
-0.00016842292255135431   4.987656768552871e-05   -0.0001408739445407422
-0.00016842292255135431   4.987656768552871e-05   -0.0001408739445407422
-0.00016842292255135431   4.987656768552871e-05   -0.0001408739445407422
-0.0002374632665935912   3.418305438158617e-05   -1.6390596487981645e-05
-0.0002374632665935912   3.418305438158617e-05   -1.6390596487981645e-05
-0.0002374632665935912   3.418305438158617e-05   -1.6390596487981645e-05
-0.0002374632665935912   3.418305438158617e-05   -1.6390596487981645e-05
-0.00019957306514342563   4.06257074349551e-05   -8.340652407027942e-05
-0.00019957306514342563   4.06257074349551e-05   -8.340652407027942e-05
-0.00019957306514342563   4.06257074349551e-05   -8.340652407027942e-05
-0.00019957306514342563   4.06257074349551e-05   -8.340652407027942e-05
-0.0002374632665935912   4.987656768552871e-05   -0.0001314578365583768
-0.0002374632665935912   4.987656768552871e-05   -0.0001314578365583768
-0.0002374632665935912   4.987656768552871e-05   -0.0001314578365583768
-0.0002374632665935912   4.987656768552871e-05   -0.0001314578365583768
-0.00016842292255135453   3.418305438158617e-05   -2.5806704470346353e-05
-0.00016842292255135453   3.418305438158617e-05   -2.5806704470346353e-05
-0.00016842292255135453   3.418305438158617e-05   -2.5806704470346353e-05
-0.00016842292255135453   3.418305438158617e-05   -2.5806704470346353e-05
-0.00016790282792337866   5.3317045535297095e-05   -0.00011221388762257777
-0.00016790282792337866   5.3317045535297095e-05   -0.00011221388762257777
-0.00016790282792337866   5.3317045535297095e-05   -0.00011221388762257777
-0.00016790282792337866   5.3317045535297095e-05   -0.00011221388762257777
-0.00023016492349694812   3.80542923152866e-05   7.139235987125431e-07
-0.00023016492349694812   3.80542923152866e-05   7.139235987125431e-07
-0.00023016492349694812   3.80542923152866e-05   7.139235987125431e-07
-0.00023016492349694812   3.80542923152866e-05   7.139235987125431e-07
-0.0001936779152158493   4.261917504959096e-05   -6.283668651036866e-05
-0.0001936779152158493   4.261917504959096e-05   -6.283668651036866e-05
-0.0001936779152158493   4.261917504959096e-05   -6.283668651036866e-05
-0.0001936779152158493   4.261917504959096e-05   -6.283668651036866e-05
-0.00017032257975530907   1.910096721260057e-05   -0.0002418593917011974
-0.00017032257975530907   1.910096721260057e-05   -0.0002418593917011974
-0.00017032257975530907   1.910096721260057e-05   -0.0002418593917011974
-0.00017032257975530907   1.910096721260057e-05   -0.0002418593917011974
-9.774431946012581e-05   1.2605418538267146e-05   -0.0001247929537471588
-9.774431946012581e-05   1.2605418538267146e-05   -0.0001247929537471588
-9.774431946012581e-05   1.2605418538267146e-05   -0.0001247929537471588
-9.774431946012581e-05   1.2605418538267146e-05   -0.0001247929537471588
-9.778965170644563e-05   2.697464664517743e-05   -0.0002398008705879408
-9.778965170644563e-05   2.697464664517743e-05   -0.0002398008705879408
-9.778965170644563e-05   2.697464664517743e-05   -0.0002398008705879408
-9.778965170644563e-05   2.697464664517743e-05   -0.0002398008705879408
-0.0001697069800321502   1.9613693382392224e-05   -0.00011552208475409465
-0.0001697069800321502   1.9613693382392224e-05   -0.00011552208475409465
-0.0001697069800321502   1.9613693382392224e-05   -0.00011552208475409465
-0.0001697069800321502   1.9613693382392224e-05   -0.00011552208475409465
-0.00013265827031146293   2.087033724711791e-05   -0.0001780239206074102
-0.00013265827031146293   2.087033724711791e-05   -0.0001780239206074102
-0.00013265827031146293   2.087033724711791e-05   -0.0001780239206074102
-0.00013265827031146293   2.087033724711791e-05   -0.0001780239206074102
-0.00016970698003215   2.697464664517743e-05   -0.00023538429863026824
-0.00016970698003215   2.697464664517743e-05   -0.00023538429863026824
-0.00016970698003215   2.697464664517743e-05   -0.00023538429863026824
-0.00016970698003215   2.697464664517743e-05   -0.00023538429863026824
-9.778965170644563e-05   1.9613693382392224e-05   -0.00011993865671176612
-9.778965170644563e-05   1.9613693382392224e-05   -0.00011993865671176612
-9.778965170644563e-05   1.9613693382392224e-05   -0.00011993865671176612
-9.778965170644563e-05   1.9613693382392224e-05   -0.00011993865671176612
-9.771406072059272e-05   3.3962695651896125e-05   -0.0002344240840373218
-9.771406072059272e-05   3.3962695651896125e-05   -0.0002344240840373218
-9.771406072059272e-05   3.3962695651896125e-05   -0.0002344240840373218
-9.771406072059272e-05   3.3962695651896125e-05   -0.0002344240840373218
-0.00016842292255135431   2.598325000100453e-05   -0.00011178831359551743
-0.00016842292255135431   2.598325000100453e-05   -0.00011178831359551743
-0.00016842292255135431   2.598325000100453e-05   -0.00011178831359551743
-0.00016842292255135431   2.598325000100453e-05   -0.00011178831359551743
-0.0001320364711718032   2.6618713296637855e-05   -0.0001728136772054809
-0.0001320364711718032   2.6618713296637855e-05   -0.0001728136772054809
-0.0001320364711718032   2.6618713296637855e-05   -0.0001728136772054809
-0.0001320364711718032   2.6618713296637855e-05   -0.0001728136772054809
-0.00016842292255135431   3.3962695651896125e-05   -0.00022963641664678638
-0.00016842292255135431   3.3962695651896125e-05   -0.00022963641664678638
-0.00016842292255135431   3.3962695651896125e-05   -0.00022963641664678638
-0.00016842292255135431   3.3962695651896125e-05   -0.00022963641664678638
-9.771406072059288e-05   2.598325000100453e-05   -0.0001165759809860521
-9.771406072059288e-05   2.598325000100453e-05   -0.0001165759809860521
-9.771406072059288e-05   2.598325000100453e-05   -0.0001165759809860521
-9.771406072059288e-05   2.598325000100453e-05   -0.0001165759809860521
-9.7787362798881e-05   4.1388766926659173e-05   -0.00023536636297486445
-9.7787362798881e-05   4.1388766926659173e-05   -0.00023536636297486445
-9.7787362798881e-05   4.1388766926659173e-05   -0.00023536636297486445
-9.7787362798881e-05   4.1388766926659173e-05   -0.00023536636297486445
-0.00016790282792337877   3.2894291541662665e-05   -0.00011341056920303582
-0.00016790282792337877   3.2894291541662665e-05   -0.00011341056920303582
-0.00016790282792337877   3.2894291541662665e-05   -0.00011341056920303582
-0.00016790282792337877   3.2894291541662665e-05   -0.00011341056920303582
-0.000132888006037055   3.229761868792829e-05   -0.0001714106019680018
-0.000132888006037055   3.229761868792829e-05   -0.0001714106019680018
-0.000132888006037055   3.229761868792829e-05   -0.0001714106019680018
-0.000132888006037055   3.229761868792829e-05   -0.0001714106019680018
-9.77443194601256e-05   1.0125319882111836e-06   -0.00026683279455830375
-9.77443194601256e-05   1.0125319882111836e-06   -0.00026683279455830375
-9.77443194601256e-05   1.0125319882111836e-06   -0.00026683279455830375
-9.77443194601256e-05   1.0125319882111836e-06   -0.00026683279455830375
-2.6208004991035604e-05   2.147530454830321e-06   -0.0001469246046965154
-2.6208004991035604e-05   2.147530454830321e-06   -0.0001469246046965154
-2.6208004991035604e-05   2.147530454830321e-06   -0.0001469246046965154
-2.6208004991035604e-05   2.147530454830321e-06   -0.0001469246046965154
-2.6254136172194573e-05   8.75656588619593e-06   -0.00026391130961037675
-2.6254136172194573e-05   8.75656588619593e-06   -0.00026391130961037675
-2.6254136172194573e-05   8.75656588619593e-06   -0.00026391130961037675
-2.6254136172194573e-05   8.75656588619593e-06   -0.00026391130961037675
-9.778965170644541e-05   9.18598719319881e-06   -0.0001449431031708265
-9.778965170644541e-05   9.18598719319881e-06   -0.0001449431031708265
-9.778965170644541e-05   9.18598719319881e-06   -0.0001449431031708265
-9.778965170644541e-05   9.18598719319881e-06   -0.0001449431031708265
-6.158898784298498e-05   6.179564246101051e-06   -0.00020347368917500203
-6.158898784298498e-05   6.179564246101051e-06   -0.00020347368917500203
-6.158898784298498e-05   6.179564246101051e-06   -0.00020347368917500203
-6.158898784298498e-05   6.179564246101051e-06   -0.00020347368917500203
-9.778965170644541e-05   8.75656588619593e-06   -0.0002641689623945785
-9.778965170644541e-05   8.75656588619593e-06   -0.0002641689623945785
-9.778965170644541e-05   8.75656588619593e-06   -0.0002641689623945785
-9.778965170644541e-05   8.75656588619593e-06   -0.0002641689623945785
-2.6254136172194573e-05   9.18598719319881e-06   -0.000144685450386625
-2.6254136172194573e-05   9.18598719319881e-06   -0.000144685450386625
-2.6254136172194573e-05   9.18598719319881e-06   -0.000144685450386625
-2.6254136172194573e-05   9.18598719319881e-06   -0.000144685450386625
-2.6157550139973602e-05   1.6476858904562568e-05   -0.0002645923839215891
-2.6157550139973602e-05   1.6476858904562568e-05   -0.0002645923839215891
-2.6157550139973602e-05   1.6476858904562568e-05   -0.0002645923839215891
-2.6157550139973602e-05   1.6476858904562568e-05   -0.0002645923839215891
-9.771406072059272e-05   1.6246821381589623e-05   -0.00014519351044010767
-9.771406072059272e-05   1.6246821381589623e-05   -0.00014519351044010767
-9.771406072059272e-05   1.6246821381589623e-05   -0.00014519351044010767
-9.771406072059272e-05   1.6246821381589623e-05   -0.00014519351044010767
-6.19982073877954e-05   1.2332212413385807e-05   -0.0002023711672805141
-6.19982073877954e-05   1.2332212413385807e-05   -0.0002023711672805141
-6.19982073877954e-05   1.2332212413385807e-05   -0.0002023711672805141
-6.19982073877954e-05   1.2332212413385807e-05   -0.0002023711672805141
-9.771406072059272e-05   1.6476858904562134e-05   -0.00026445436140780615
-9.771406072059272e-05   1.6476858904562134e-05   -0.00026445436140780615
-9.771406072059272e-05   1.6476858904562134e-05   -0.00026445436140780615
-9.771406072059272e-05   1.6476858904562134e-05   -0.00026445436140780615
-2.615755013997365e-05   1.624682138159049e-05   -0.0001453315329538905
-2.615755013997365e-05   1.624682138159049e-05   -0.0001453315329538905
-2.615755013997365e-05   1.624682138159049e-05   -0.0001453315329538905
-2.615755013997365e-05   1.624682138159049e-05   -0.0001453315329538905
-2.619732413994639e-05   2.437733812912183e-05   -0.0002685967239597978
-2.619732413994639e-05   2.437733812912183e-05   -0.0002685967239597978
-2.619732413994639e-05   2.437733812912183e-05   -0.0002685967239597978
-2.619732413994639e-05   2.437733812912183e-05   -0.0002685967239597978
-9.778736279888095e-05   2.3431111697426454e-05   -0.0001487122570025545
-9.778736279888095e-05   2.3431111697426454e-05   -0.0001487122570025545
-9.778736279888095e-05   2.3431111697426454e-05   -0.0001487122570025545
-9.778736279888095e-05   2.3431111697426454e-05   -0.0001487122570025545
-6.25282601188363e-05   1.856559552509008e-05   -0.00020455811843256137
-6.25282601188363e-05   1.856559552509008e-05   -0.00020455811843256137
-6.25282601188363e-05   1.856559552509008e-05   -0.00020455811843256137
-6.25282601188363e-05   1.856559552509008e-05   -0.00020455811843256137
-2.620800499103556e-05   -1.6002962829524212e-05   -0.0002363364865809721
-2.620800499103556e-05   -1.6002962829524212e-05   -0.0002363364865809721
-2.620800499103556e-05   -1.6002962829524212e-05   -0.0002363364865809721
-2.620800499103556e-05   -1.6002962829524212e-05   -0.0002363364865809721
4.4338664919043105e-05   -7.423041548663273e-06   -0.00011361075062899136
4.4338664919043105e-05   -7.423041548663273e-06   -0.00011361075062899136
4.4338664919043105e-05   -7.423041548663273e-06   -0.00011361075062899136
4.4338664919043105e-05   -7.423041548663273e-06   -0.00011361075062899136
4.491652108322864e-05   -8.913675054775683e-06   -0.00023100209219953653
4.491652108322864e-05   -8.913675054775683e-06   -0.00023100209219953653
4.491652108322864e-05   -8.913675054775683e-06   -0.00023100209219953653
4.491652108322864e-05   -8.913675054775683e-06   -0.00023100209219953653
-2.6254136172194573e-05   -8.014602988362998e-07   -0.00011725165896072844
-2.6254136172194573e-05   -8.014602988362998e-07   -0.00011725165896072844
-2.6254136172194573e-05   -8.014602988362998e-07   -0.00011725165896072844
-2.6254136172194573e-05   -8.014602988362998e-07   -0.00011725165896072844
9.232471917246469e-06   -7.674695488592113e-06   -0.00017227206466260958
9.232471917246469e-06   -7.674695488592113e-06   -0.00017227206466260958
9.232471917246469e-06   -7.674695488592113e-06   -0.00017227206466260958
9.232471917246469e-06   -7.674695488592113e-06   -0.00017227206466260958
-2.6254136172194573e-05   -8.913675054775683e-06   -0.00023586942105310068
-2.6254136172194573e-05   -8.913675054775683e-06   -0.00023586942105310068
-2.6254136172194573e-05   -8.913675054775683e-06   -0.00023586942105310068
-2.6254136172194573e-05   -8.913675054775683e-06   -0.00023586942105310068
4.4916521083228746e-05   -8.014602988362998e-07   -0.00011238433010716522
4.4916521083228746e-05   -8.014602988362998e-07   -0.00011238433010716522
4.4916521083228746e-05   -8.014602988362998e-07   -0.00011238433010716522
4.4916521083228746e-05   -8.014602988362998e-07   -0.00011238433010716522
4.62655471128756e-05   -1.9397730382617225e-06   -0.00023588731606734629
4.62655471128756e-05   -1.9397730382617225e-06   -0.00023588731606734629
4.62655471128756e-05   -1.9397730382617225e-06   -0.00023588731606734629
4.62655471128756e-05   -1.9397730382617225e-06   -0.00023588731606734629
-2.615755013997365e-05   5.576083522420942e-06   -0.00011969166791567405
-2.615755013997365e-05   5.576083522420942e-06   -0.00011969166791567405
-2.615755013997365e-05   5.576083522420942e-06   -0.00011969166791567405
-2.615755013997365e-05   5.576083522420942e-06   -0.00011969166791567405
8.827198613921903e-06   -2.1680064016716023e-06   -0.00017335312855104416
8.827198613921903e-06   -2.1680064016716023e-06   -0.00017335312855104416
8.827198613921903e-06   -2.1680064016716023e-06   -0.00017335312855104416
8.827198613921903e-06   -2.1680064016716023e-06   -0.00017335312855104416
-2.6157550139973626e-05   -1.9397730382612888e-06   -0.00024039683000375554
-2.6157550139973626e-05   -1.9397730382612888e-06   -0.00024039683000375554
-2.6157550139973626e-05   -1.9397730382612888e-06   -0.00024039683000375554
-2.6157550139973626e-05   -1.9397730382612888e-06   -0.00024039683000375554
4.626554711287576e-05   5.576083522420942e-06   -0.00011518215397926393
4.626554711287576e-05   5.576083522420942e-06   -0.00011518215397926393
4.626554711287576e-05   5.576083522420942e-06   -0.00011518215397926393
4.626554711287576e-05   5.576083522420942e-06   -0.00011518215397926393
4.692250633712313e-05   6.222439741497294e-06   -0.00024284422800642047
4.692250633712313e-05   6.222439741497294e-06   -0.00024284422800642047
4.692250633712313e-05   6.222439741497294e-06   -0.00024284422800642047
4.692250633712313e-05   6.222439741497294e-06   -0.00024284422800642047
-2.6197324139946343e-05   1.2893866094711506e-05   -0.00012498069968989965
-2.6197324139946343e-05   1.2893866094711506e-05   -0.00012498069968989965
-2.6197324139946343e-05   1.2893866094711506e-05   -0.00012498069968989965
-2.6197324139946343e-05   1.2893866094711506e-05   -0.00012498069968989965
9.076136277092044e-06   3.7305622979594624e-06   -0.0001782718181069122
9.076136277092044e-06   3.7305622979594624e-06   -0.0001782718181069122
9.076136277092044e-06   3.7305622979594624e-06   -0.0001782718181069122
9.076136277092044e-06   3.7305622979594624e-06   -0.0001782718181069122
4.433866491904305e-05   -2.9081823765198227e-05   -0.00012996705119426338
4.433866491904305e-05   -2.9081823765198227e-05   -0.00012996705119426338
4.433866491904305e-05   -2.9081823765198227e-05   -0.00012996705119426338
4.433866491904305e-05   -2.9081823765198227e-05   -0.00012996705119426338
0.00010718603964309458   -1.3685780235318454e-05   -1.59838005362495e-05
0.00010718603964309458   -1.3685780235318454e-05   -1.59838005362495e-05
0.00010718603964309458   -1.3685780235318454e-05   -1.59838005362495e-05
0.00010718603964309458   -1.3685780235318454e-05   -1.59838005362495e-05
0.00011458239976290746   -2.50108225104133e-05   -0.00013662828420785698
0.00011458239976290746   -2.50108225104133e-05   -0.00013662828420785698
0.00011458239976290746   -2.50108225104133e-05   -0.00013662828420785698
0.00011458239976290746   -2.50108225104133e-05   -0.00013662828420785698
4.491652108322869e-05   -9.211116873518964e-06   -2.9998309790528997e-05
4.491652108322869e-05   -9.211116873518964e-06   -2.9998309790528997e-05
4.491652108322869e-05   -9.211116873518964e-06   -2.9998309790528997e-05
4.491652108322869e-05   -9.211116873518964e-06   -2.9998309790528997e-05
7.44404968095305e-05   -1.8652807506231665e-05   -7.353992162140383e-05
7.44404968095305e-05   -1.8652807506231665e-05   -7.353992162140383e-05
7.44404968095305e-05   -1.8652807506231665e-05   -7.353992162140383e-05
7.44404968095305e-05   -1.8652807506231665e-05   -7.353992162140383e-05
4.491652108322864e-05   -2.5010822510412867e-05   -0.0001461081075899923
4.491652108322864e-05   -2.5010822510412867e-05   -0.0001461081075899923
4.491652108322864e-05   -2.5010822510412867e-05   -0.0001461081075899923
4.491652108322864e-05   -2.5010822510412867e-05   -0.0001461081075899923
0.00011458239976290714   -9.211116873518964e-06   -2.0518486408392482e-05
0.00011458239976290714   -9.211116873518964e-06   -2.0518486408392482e-05
0.00011458239976290714   -9.211116873518964e-06   -2.0518486408392482e-05
0.00011458239976290714   -9.211116873518964e-06   -2.0518486408392482e-05
0.00012026731674456847   -2.150304985894247e-05   -0.00014987929912284998
0.00012026731674456847   -2.150304985894247e-05   -0.00014987929912284998
0.00012026731674456847   -2.150304985894247e-05   -0.00014987929912284998
0.00012026731674456847   -2.150304985894247e-05   -0.00014987929912284998
4.626554711287576e-05   -6.1127928516159155e-06   -3.577717060775814e-05
4.626554711287576e-05   -6.1127928516159155e-06   -3.577717060775814e-05
4.626554711287576e-05   -6.1127928516159155e-06   -3.577717060775814e-05
4.626554711287576e-05   -6.1127928516159155e-06   -3.577717060775814e-05
7.897737549664651e-05   -1.6359197414137633e-05   -8.414904184319639e-05
7.897737549664651e-05   -1.6359197414137633e-05   -8.414904184319639e-05
7.897737549664651e-05   -1.6359197414137633e-05   -8.414904184319639e-05
7.897737549664651e-05   -1.6359197414137633e-05   -8.414904184319639e-05
4.626554711287571e-05   -2.150304985894247e-05   -0.00015911345332724597
4.626554711287571e-05   -2.150304985894247e-05   -0.00015911345332724597
4.626554711287571e-05   -2.150304985894247e-05   -0.00015911345332724597
4.626554711287571e-05   -2.150304985894247e-05   -0.00015911345332724597
0.00012026731674456804   -6.112792851615048e-06   -2.6543016403361274e-05
0.00012026731674456804   -6.112792851615048e-06   -2.6543016403361274e-05
0.00012026731674456804   -6.112792851615048e-06   -2.6543016403361274e-05
0.00012026731674456804   -6.112792851615048e-06   -2.6543016403361274e-05
0.00012781067829954458   -1.3996776564665064e-05   -0.0001752490587140429
0.00012781067829954458   -1.3996776564665064e-05   -0.0001752490587140429
0.00012781067829954458   -1.3996776564665064e-05   -0.0001752490587140429
0.00012781067829954458   -1.3996776564665064e-05   -0.0001752490587140429
4.692250633712324e-05   -4.594264015229943e-09   -4.883074815706303e-05
4.692250633712324e-05   -4.594264015229943e-09   -4.883074815706303e-05
4.692250633712324e-05   -4.594264015229943e-09   -4.883074815706303e-05
4.692250633712324e-05   -4.594264015229943e-09   -4.883074815706303e-05
8.045957003629406e-05   -1.2922521395478722e-05   -9.697509804347027e-05
8.045957003629406e-05   -1.2922521395478722e-05   -9.697509804347027e-05
8.045957003629406e-05   -1.2922521395478722e-05   -9.697509804347027e-05
8.045957003629406e-05   -1.2922521395478722e-05   -9.697509804347027e-05
-0.00015211698587884914   2.445210159998483e-05   -0.0001422258878886187
-0.00015211698587884914   2.445210159998483e-05   -0.0001422258878886187
-0.00015211698587884914   2.445210159998483e-05   -0.0001422258878886187
-0.00015211698587884914   2.445210159998483e-05   -0.0001422258878886187
-0.00011203498110660026   1.0010215784506116e-05   -8.408767809082508e-05
-0.00011203498110660026   1.0010215784506116e-05   -8.408767809082508e-05
-0.00011203498110660026   1.0010215784506116e-05   -8.408767809082508e-05
-0.00011203498110660026   1.0010215784506116e-05   -8.408767809082508e-05
-0.00011037136421802722   3.10953172372886e-05   -0.0001254671002823898
-0.00011037136421802722   3.10953172372886e-05   -0.0001254671002823898
-0.00011037136421802722   3.10953172372886e-05   -0.0001254671002823898
-0.00011037136421802722   3.10953172372886e-05   -0.0001254671002823898
-0.00014388654850233835   1.5548253872774143e-05   -6.028022178982762e-05
-0.00014388654850233835   1.5548253872774143e-05   -6.028022178982762e-05
-0.00014388654850233835   1.5548253872774143e-05   -6.028022178982762e-05
-0.00014388654850233835   1.5548253872774143e-05   -6.028022178982762e-05
-0.00012411063367460918   2.1923973052075628e-05   -9.706551134363054e-05
-0.00012411063367460918   2.1923973052075628e-05   -9.706551134363054e-05
-0.00012411063367460918   2.1923973052075628e-05   -9.706551134363054e-05
-0.00012411063367460918   2.1923973052075628e-05   -9.706551134363054e-05
-0.00014388654850233835   3.10953172372886e-05   -0.00011613886226368147
-0.00014388654850233835   3.10953172372886e-05   -0.00011613886226368147
-0.00014388654850233835   3.10953172372886e-05   -0.00011613886226368147
-0.00014388654850233835   3.10953172372886e-05   -0.00011613886226368147
-0.00011037136421802743   1.5548253872774143e-05   -6.960845980853692e-05
-0.00011037136421802743   1.5548253872774143e-05   -6.960845980853692e-05
-0.00011037136421802743   1.5548253872774143e-05   -6.960845980853692e-05
-0.00011037136421802743   1.5548253872774143e-05   -6.960845980853692e-05
-0.00010800184919304806   3.418305438158617e-05   -0.00011204198652022337
-0.00010800184919304806   3.418305438158617e-05   -0.00011204198652022337
-0.00010800184919304806   3.418305438158617e-05   -0.00011204198652022337
-0.00010800184919304806   3.418305438158617e-05   -0.00011204198652022337
-0.00013730726378640432   1.8337515050316847e-05   -5.369230526586742e-05
-0.00013730726378640432   1.8337515050316847e-05   -5.369230526586742e-05
-0.00013730726378640432   1.8337515050316847e-05   -5.369230526586742e-05
-0.00013730726378640432   1.8337515050316847e-05   -5.369230526586742e-05
-0.00012193214067824818   2.49086429027481e-05   -8.32601871575871e-05
-0.00012193214067824818   2.49086429027481e-05   -8.32601871575871e-05
-0.00012193214067824818   2.49086429027481e-05   -8.32601871575871e-05
-0.00012193214067824818   2.49086429027481e-05   -8.32601871575871e-05
-0.00013730726378640389   3.418305438158617e-05   -0.00010253466292146213
-0.00013730726378640389   3.418305438158617e-05   -0.00010253466292146213
-0.00013730726378640389   3.418305438158617e-05   -0.00010253466292146213
-0.00013730726378640389   3.418305438158617e-05   -0.00010253466292146213
-0.00010800184919304828   1.8337515050316847e-05   -6.319962886462964e-05
-0.00010800184919304828   1.8337515050316847e-05   -6.319962886462964e-05
-0.00010800184919304828   1.8337515050316847e-05   -6.319962886462964e-05
-0.00010800184919304828   1.8337515050316847e-05   -6.319962886462964e-05
-0.0001063748093137703   3.805429231528573e-05   -9.4800286718052e-05
-0.0001063748093137703   3.805429231528573e-05   -9.4800286718052e-05
-0.0001063748093137703   3.805429231528573e-05   -9.4800286718052e-05
-0.0001063748093137703   3.805429231528573e-05   -9.4800286718052e-05
-0.00012892603364062492   2.2751486979150255e-05   -4.803322963827829e-05
-0.00012892603364062492   2.2751486979150255e-05   -4.803322963827829e-05
-0.00012892603364062492   2.2751486979150255e-05   -4.803322963827829e-05
-0.00012892603364062492   2.2751486979150255e-05   -4.803322963827829e-05
-0.0001162250287417855   2.6963965161547546e-05   -7.17290580457856e-05
-0.0001162250287417855   2.6963965161547546e-05   -7.17290580457856e-05
-0.0001162250287417855   2.6963965161547546e-05   -7.17290580457856e-05
-0.0001162250287417855   2.6963965161547546e-05   -7.17290580457856e-05
-0.00011203498110660026   1.2605418538267146e-05   -0.00020684461466473347
-0.00011203498110660026   1.2605418538267146e-05   -0.00020684461466473347
-0.00011203498110660026   1.2605418538267146e-05   -0.00020684461466473347
-0.00011203498110660026   1.2605418538267146e-05   -0.00020684461466473347
-7.950260218772857e-05   5.699371651702971e-06   -0.00015676761126521893
-7.950260218772857e-05   5.699371651702971e-06   -0.00015676761126521893
-7.950260218772857e-05   5.699371651702971e-06   -0.00015676761126521893
-7.950260218772857e-05   5.699371651702971e-06   -0.00015676761126521893
-7.840246392851549e-05   1.9613693382391356e-05   -0.00020618259126265175
-7.840246392851549e-05   1.9613693382391356e-05   -0.00020618259126265175
-7.840246392851549e-05   1.9613693382391356e-05   -0.00020618259126265175
-7.840246392851549e-05   1.9613693382391356e-05   -0.00020618259126265175
-0.00011037136421802743   1.2044766888636045e-05   -0.00014835973488387623
-0.00011037136421802743   1.2044766888636045e-05   -0.00014835973488387623
-0.00011037136421802743   1.2044766888636045e-05   -0.00014835973488387623
-0.00011037136421802743   1.2044766888636045e-05   -0.00014835973488387623
-9.415134308288274e-05   1.3696299254628563e-05   -0.0001763840228620518
-9.415134308288274e-05   1.3696299254628563e-05   -0.0001763840228620518
-9.415134308288274e-05   1.3696299254628563e-05   -0.0001763840228620518
-9.415134308288274e-05   1.3696299254628563e-05   -0.0001763840228620518
-0.00011037136421802722   1.9613693382392224e-05   -0.00020164123536639674
-0.00011037136421802722   1.9613693382392224e-05   -0.00020164123536639674
-0.00011037136421802722   1.9613693382392224e-05   -0.00020164123536639674
-0.00011037136421802722   1.9613693382392224e-05   -0.00020164123536639674
-7.840246392851549e-05   1.2044766888636045e-05   -0.00015290109078013102
-7.840246392851549e-05   1.2044766888636045e-05   -0.00015290109078013102
-7.840246392851549e-05   1.2044766888636045e-05   -0.00015290109078013102
-7.840246392851549e-05   1.2044766888636045e-05   -0.00015290109078013102
-7.718894670691583e-05   2.5983250001003662e-05   -0.00020285100495580008
-7.718894670691583e-05   2.5983250001003662e-05   -0.00020285100495580008
-7.718894670691583e-05   2.5983250001003662e-05   -0.00020285100495580008
-7.718894670691583e-05   2.5983250001003662e-05   -0.00020285100495580008
-0.00010800184919304849   1.79375678169948e-05   -0.00014666875816850625
-0.00010800184919304849   1.79375678169948e-05   -0.00014666875816850625
-0.00010800184919304849   1.79375678169948e-05   -0.00014666875816850625
-0.00010800184919304849   1.79375678169948e-05   -0.00014666875816850625
-9.271033950537496e-05   1.8818619375262323e-05   -0.00017268323858292043
-9.271033950537496e-05   1.8818619375262323e-05   -0.00017268323858292043
-9.271033950537496e-05   1.8818619375262323e-05   -0.00017268323858292043
-9.271033950537496e-05   1.8818619375262323e-05   -0.00017268323858292043
-0.00010800184919304806   2.5983250001003662e-05   -0.00019802359564539355
-0.00010800184919304806   2.5983250001003662e-05   -0.00019802359564539355
-0.00010800184919304806   2.5983250001003662e-05   -0.00019802359564539355
-0.00010800184919304806   2.5983250001003662e-05   -0.00019802359564539355
-7.718894670691572e-05   1.79375678169948e-05   -0.00015149616747891104
-7.718894670691572e-05   1.79375678169948e-05   -0.00015149616747891104
-7.718894670691572e-05   1.79375678169948e-05   -0.00015149616747891104
-7.718894670691572e-05   1.79375678169948e-05   -0.00015149616747891104
-7.6105512877249e-05   3.28942915416618e-05   -0.0002048167707080625
-7.6105512877249e-05   3.28942915416618e-05   -0.0002048167707080625
-7.6105512877249e-05   3.28942915416618e-05   -0.0002048167707080625
-7.6105512877249e-05   3.28942915416618e-05   -0.0002048167707080625
-0.00010637480931377074   2.4478219674547302e-05   -0.00014931830019358923
-0.00010637480931377074   2.4478219674547302e-05   -0.00014931830019358923
-0.00010637480931377074   2.4478219674547302e-05   -0.00014931830019358923
-0.00010637480931377074   2.4478219674547302e-05   -0.00014931830019358923
-9.213324275021787e-05   2.3998796316522172e-05   -0.00017276659045136443
-9.213324275021787e-05   2.3998796316522172e-05   -0.00017276659045136443
-9.213324275021787e-05   2.3998796316522172e-05   -0.00017276659045136443
-9.213324275021787e-05   2.3998796316522172e-05   -0.00017276659045136443
-7.950260218772824e-05   2.147530454830321e-06   -0.00023380089282599992
-7.950260218772824e-05   2.147530454830321e-06   -0.00023380089282599992
-7.950260218772824e-05   2.147530454830321e-06   -0.00023380089282599992
-7.950260218772824e-05   2.147530454830321e-06   -0.00023380089282599992
-4.7830908590255104e-05   3.2348262550465495e-06   -0.000180362359350083
-4.7830908590255104e-05   3.2348262550465495e-06   -0.000180362359350083
-4.7830908590255104e-05   3.2348262550465495e-06   -0.000180362359350083
-4.7830908590255104e-05   3.2348262550465495e-06   -0.000180362359350083
-4.675614917822097e-05   9.18598719319881e-06   -0.00023088499092635984
-4.675614917822097e-05   9.18598719319881e-06   -0.00023088499092635984
-4.675614917822097e-05   9.18598719319881e-06   -0.00023088499092635984
-4.675614917822097e-05   9.18598719319881e-06   -0.00023088499092635984
-7.840246392851549e-05   9.689398518786772e-06   -0.000178443179804553
-7.840246392851549e-05   9.689398518786772e-06   -0.000178443179804553
-7.840246392851549e-05   9.689398518786772e-06   -0.000178443179804553
-7.840246392851549e-05   9.689398518786772e-06   -0.000178443179804553
-6.271953517721927e-05   6.958231224389946e-06   -0.0002029426940134138
-6.271953517721927e-05   6.958231224389946e-06   -0.0002029426940134138
-6.271953517721927e-05   6.958231224389946e-06   -0.0002029426940134138
-6.271953517721927e-05   6.958231224389946e-06   -0.0002029426940134138
-7.840246392851538e-05   9.18598719319881e-06   -0.00023118703772171236
-7.840246392851538e-05   9.18598719319881e-06   -0.00023118703772171236
-7.840246392851538e-05   9.18598719319881e-06   -0.00023118703772171236
-7.840246392851538e-05   9.18598719319881e-06   -0.00023118703772171236
-4.675614917822097e-05   9.689398518786772e-06   -0.00017814113300920103
-4.675614917822097e-05   9.689398518786772e-06   -0.00017814113300920103
-4.675614917822097e-05   9.689398518786772e-06   -0.00017814113300920103
-4.675614917822097e-05   9.689398518786772e-06   -0.00017814113300920103
-4.555163780765223e-05   1.6246821381589623e-05   -0.00023149608901360539
-4.555163780765223e-05   1.6246821381589623e-05   -0.00023149608901360539
-4.555163780765223e-05   1.6246821381589623e-05   -0.00023149608901360539
-4.555163780765223e-05   1.6246821381589623e-05   -0.00023149608901360539
-7.718894670691572e-05   1.620089704200585e-05   -0.00017873968624441483
-7.718894670691572e-05   1.620089704200585e-05   -0.00017873968624441483
-7.718894670691572e-05   1.620089704200585e-05   -0.00017873968624441483
-7.718894670691572e-05   1.620089704200585e-05   -0.00017873968624441483
-6.199115980948561e-05   1.24980530480448e-05   -0.0002018476246770885
-6.199115980948561e-05   1.24980530480448e-05   -0.0002018476246770885
-6.199115980948561e-05   1.24980530480448e-05   -0.0002018476246770885
-6.199115980948561e-05   1.24980530480448e-05   -0.0002018476246770885
-7.71889467069155e-05   1.624682138159049e-05   -0.00023146853440985478
-7.71889467069155e-05   1.624682138159049e-05   -0.00023146853440985478
-7.71889467069155e-05   1.624682138159049e-05   -0.00023146853440985478
-7.71889467069155e-05   1.624682138159049e-05   -0.00023146853440985478
-4.5551637807652306e-05   1.620089704200585e-05   -0.00017876724084816544
-4.5551637807652306e-05   1.620089704200585e-05   -0.00017876724084816544
-4.5551637807652306e-05   1.620089704200585e-05   -0.00017876724084816544
-4.5551637807652306e-05   1.620089704200585e-05   -0.00017876724084816544
-4.446812909342708e-05   2.3431111697426454e-05   -0.00023539430691208634
-4.446812909342708e-05   2.3431111697426454e-05   -0.00023539430691208634
-4.446812909342708e-05   2.3431111697426454e-05   -0.00023539430691208634
-4.446812909342708e-05   2.3431111697426454e-05   -0.00023539430691208634
-7.6105512877249e-05   2.281022230492171e-05   -0.00018229280030354524
-7.6105512877249e-05   2.281022230492171e-05   -0.00018229280030354524
-7.6105512877249e-05   2.281022230492171e-05   -0.00018229280030354524
-7.6105512877249e-05   2.281022230492171e-05   -0.00018229280030354524
-6.138434154958036e-05   1.811138848044954e-05   -0.00020400878555497837
-6.138434154958036e-05   1.811138848044954e-05   -0.00020400878555497837
-6.138434154958036e-05   1.811138848044954e-05   -0.00020400878555497837
-6.138434154958036e-05   1.811138848044954e-05   -0.00020400878555497837
-4.783090859025494e-05   -7.423041548663273e-06   -0.0002049826140468631
-4.783090859025494e-05   -7.423041548663273e-06   -0.0002049826140468631
-4.783090859025494e-05   -7.423041548663273e-06   -0.0002049826140468631
-4.783090859025494e-05   -7.423041548663273e-06   -0.0002049826140468631
-1.7058171266370686e-05   1.3259385326430326e-06   -0.0001484453304582728
-1.7058171266370686e-05   1.3259385326430326e-06   -0.0001484453304582728
-1.7058171266370686e-05   1.3259385326430326e-06   -0.0001484453304582728
-1.7058171266370686e-05   1.3259385326430326e-06   -0.0001484453304582728
-1.546352962631997e-05   -8.014602988371672e-07   -0.00019842723943844101
-1.546352962631997e-05   -8.014602988371672e-07   -0.00019842723943844101
-1.546352962631997e-05   -8.014602988371672e-07   -0.00019842723943844101
-1.546352962631997e-05   -8.014602988371672e-07   -0.00019842723943844101
-4.675614917822089e-05   7.571806471201072e-06   -0.00015129683358062633
-4.675614917822089e-05   7.571806471201072e-06   -0.00015129683358062633
-4.675614917822089e-05   7.571806471201072e-06   -0.00015129683358062633
-4.675614917822089e-05   7.571806471201072e-06   -0.00015129683358062633
-3.145701156446527e-05   8.222069615357319e-07   -0.0001727456365644242
-3.145701156446527e-05   8.222069615357319e-07   -0.0001727456365644242
-3.145701156446527e-05   8.222069615357319e-07   -0.0001727456365644242
-3.145701156446527e-05   8.222069615357319e-07   -0.0001727456365644242
-4.67561491782208e-05   -8.014602988362998e-07   -0.00020345119950046205
-4.67561491782208e-05   -8.014602988362998e-07   -0.00020345119950046205
-4.67561491782208e-05   -8.014602988362998e-07   -0.00020345119950046205
-4.67561491782208e-05   -8.014602988362998e-07   -0.00020345119950046205
-1.546352962631997e-05   7.571806471201072e-06   -0.00014627287351860535
-1.546352962631997e-05   7.571806471201072e-06   -0.00014627287351860535
-1.546352962631997e-05   7.571806471201072e-06   -0.00014627287351860535
-1.546352962631997e-05   7.571806471201072e-06   -0.00014627287351860535
-1.3114119456344498e-05   5.576083522420942e-06   -0.00020112347931137801
-1.3114119456344498e-05   5.576083522420942e-06   -0.00020112347931137801
-1.3114119456344498e-05   5.576083522420942e-06   -0.00020112347931137801
-1.3114119456344498e-05   5.576083522420942e-06   -0.00020112347931137801
-4.555163780765223e-05   1.3463991295770313e-05   -0.00015179369338987406
-4.555163780765223e-05   1.3463991295770313e-05   -0.00015179369338987406
-4.555163780765223e-05   1.3463991295770313e-05   -0.00015179369338987406
-4.555163780765223e-05   1.3463991295770313e-05   -0.00015179369338987406
-3.0487421174988313e-05   5.861208596322741e-06   -0.00017233905149131238
-3.0487421174988313e-05   5.861208596322741e-06   -0.00017233905149131238
-3.0487421174988313e-05   5.861208596322741e-06   -0.00017233905149131238
-3.0487421174988313e-05   5.861208596322741e-06   -0.00017233905149131238
-4.555163780765211e-05   5.576083522420942e-06   -0.00020585622397538634
-4.555163780765211e-05   5.576083522420942e-06   -0.00020585622397538634
-4.555163780765211e-05   5.576083522420942e-06   -0.00020585622397538634
-4.555163780765211e-05   5.576083522420942e-06   -0.00020585622397538634
-1.3114119456344498e-05   1.3463991295770313e-05   -0.00014706094872586487
-1.3114119456344498e-05   1.3463991295770313e-05   -0.00014706094872586487
-1.3114119456344498e-05   1.3463991295770313e-05   -0.00014706094872586487
-1.3114119456344498e-05   1.3463991295770313e-05   -0.00014706094872586487
-1.147067948701209e-05   1.2893866094711506e-05   -0.00020675055540973026
-1.147067948701209e-05   1.2893866094711506e-05   -0.00020675055540973026
-1.147067948701209e-05   1.2893866094711506e-05   -0.00020675055540973026
-1.147067948701209e-05   1.2893866094711506e-05   -0.00020675055540973026
-4.446812909342708e-05   2.0134629979182313e-05   -0.0001560992643963871
-4.446812909342708e-05   2.0134629979182313e-05   -0.0001560992643963871
-4.446812909342708e-05   2.0134629979182313e-05   -0.0001560992643963871
-4.446812909342708e-05   2.0134629979182313e-05   -0.0001560992643963871
-2.94691338567048e-05   1.1150740861535884e-05   -0.0001757072563203367
-2.94691338567048e-05   1.1150740861535884e-05   -0.0001757072563203367
-2.94691338567048e-05   1.1150740861535884e-05   -0.0001757072563203367
-2.94691338567048e-05   1.1150740861535884e-05   -0.0001757072563203367
-1.7058171266370577e-05   -1.3685780235318454e-05   -0.0001113439020232654
-1.7058171266370577e-05   -1.3685780235318454e-05   -0.0001113439020232654
-1.7058171266370577e-05   -1.3685780235318454e-05   -0.0001113439020232654
-1.7058171266370577e-05   -1.3685780235318454e-05   -0.0001113439020232654
5.936261954176455e-06   1.7752320041588068e-06   -6.374323931200056e-05
5.936261954176455e-06   1.7752320041588068e-06   -6.374323931200056e-05
5.936261954176455e-06   1.7752320041588068e-06   -6.374323931200056e-05
5.936261954176455e-06   1.7752320041588068e-06   -6.374323931200056e-05
1.4232507497576388e-05   -9.211116873518964e-06   -0.00010649224072418703
1.4232507497576388e-05   -9.211116873518964e-06   -0.00010649224072418703
1.4232507497576388e-05   -9.211116873518964e-06   -0.00010649224072418703
1.4232507497576388e-05   -9.211116873518964e-06   -0.00010649224072418703
-1.546352962631997e-05   6.703847122511292e-06   -6.654782391530927e-05
-1.546352962631997e-05   6.703847122511292e-06   -6.654782391530927e-05
-1.546352962631997e-05   6.703847122511292e-06   -6.654782391530927e-05
-1.546352962631997e-05   6.703847122511292e-06   -6.654782391530927e-05
-3.0236154380282863e-06   -2.930998711769481e-06   -8.150010672856216e-05
-3.0236154380282863e-06   -2.930998711769481e-06   -8.150010672856216e-05
-3.0236154380282863e-06   -2.930998711769481e-06   -8.150010672856216e-05
-3.0236154380282863e-06   -2.930998711769481e-06   -8.150010672856216e-05
-1.546352962631997e-05   -9.211116873518964e-06   -0.00011604121912180392
-1.546352962631997e-05   -9.211116873518964e-06   -0.00011604121912180392
-1.546352962631997e-05   -9.211116873518964e-06   -0.00011604121912180392
-1.546352962631997e-05   -9.211116873518964e-06   -0.00011604121912180392
1.4232507497576388e-05   6.703847122511292e-06   -5.6998845517692263e-05
1.4232507497576388e-05   6.703847122511292e-06   -5.6998845517692263e-05
1.4232507497576388e-05   6.703847122511292e-06   -5.6998845517692263e-05
1.4232507497576388e-05   6.703847122511292e-06   -5.6998845517692263e-05
2.07804672546399e-05   -6.1127928516159155e-06   -0.00011236288488324152
2.07804672546399e-05   -6.1127928516159155e-06   -0.00011236288488324152
2.07804672546399e-05   -6.1127928516159155e-06   -0.00011236288488324152
2.07804672546399e-05   -6.1127928516159155e-06   -0.00011236288488324152
-1.3114119456344498e-05   9.479892242769856e-06   -6.522751808823101e-05
-1.3114119456344498e-05   9.479892242769856e-06   -6.522751808823101e-05
-1.3114119456344498e-05   9.479892242769856e-06   -6.522751808823101e-05
-1.3114119456344498e-05   9.479892242769856e-06   -6.522751808823101e-05
1.2118708729148375e-06   -5.783487158628198e-07   -8.306922406181713e-05
1.2118708729148375e-06   -5.783487158628198e-07   -8.306922406181713e-05
1.2118708729148375e-06   -5.783487158628198e-07   -8.306922406181713e-05
1.2118708729148375e-06   -5.783487158628198e-07   -8.306922406181713e-05
-1.3114119456344498e-05   -6.1127928516159155e-06   -0.0001217184959398719
-1.3114119456344498e-05   -6.1127928516159155e-06   -0.0001217184959398719
-1.3114119456344498e-05   -6.1127928516159155e-06   -0.0001217184959398719
-1.3114119456344498e-05   -6.1127928516159155e-06   -0.0001217184959398719
2.0780467254639685e-05   9.479892242769856e-06   -5.5871907031599874e-05
2.0780467254639685e-05   9.479892242769856e-06   -5.5871907031599874e-05
2.0780467254639685e-05   9.479892242769856e-06   -5.5871907031599874e-05
2.0780467254639685e-05   9.479892242769856e-06   -5.5871907031599874e-05
2.902598442852916e-05   -4.594264015229943e-09   -0.00012594721895037124
2.902598442852916e-05   -4.594264015229943e-09   -0.00012594721895037124
2.902598442852916e-05   -4.594264015229943e-09   -0.00012594721895037124
2.902598442852916e-05   -4.594264015229943e-09   -0.00012594721895037124
-1.147067948701209e-05   1.4422473633404244e-05   -6.710901982958577e-05
-1.147067948701209e-05   1.4422473633404244e-05   -6.710901982958577e-05
-1.147067948701209e-05   1.4422473633404244e-05   -6.710901982958577e-05
-1.147067948701209e-05   1.4422473633404244e-05   -6.710901982958577e-05
4.820590981540504e-06   2.1266525571887046e-06   -8.688364463144593e-05
4.820590981540504e-06   2.1266525571887046e-06   -8.688364463144593e-05
4.820590981540504e-06   2.1266525571887046e-06   -8.688364463144593e-05
4.820590981540504e-06   2.1266525571887046e-06   -8.688364463144593e-05
-5.351639887271847e-05   1.0010215784506116e-05   -9.520074757579525e-05
-5.351639887271847e-05   1.0010215784506116e-05   -9.520074757579525e-05
-5.351639887271847e-05   1.0010215784506116e-05   -9.520074757579525e-05
-5.351639887271847e-05   1.0010215784506116e-05   -9.520074757579525e-05
-5.3733037822482595e-05   -4.57918227582399e-06   -0.00010431545132826708
-5.3733037822482595e-05   -4.57918227582399e-06   -0.00010431545132826708
-5.3733037822482595e-05   -4.57918227582399e-06   -0.00010431545132826708
-5.3733037822482595e-05   -4.57918227582399e-06   -0.00010431545132826708
-5.101237713649306e-05   1.5548253872774143e-05   -8.943567940194758e-05
-5.101237713649306e-05   1.5548253872774143e-05   -8.943567940194758e-05
-5.101237713649306e-05   1.5548253872774143e-05   -8.943567940194758e-05
-5.101237713649306e-05   1.5548253872774143e-05   -8.943567940194758e-05
-4.425575565101007e-05   -8.924278534563901e-08   -9.131421721621366e-05
-4.425575565101007e-05   -8.924278534563901e-08   -9.131421721621366e-05
-4.425575565101007e-05   -8.924278534563901e-08   -9.131421721621366e-05
-4.425575565101007e-05   -8.924278534563901e-08   -9.131421721621366e-05
-4.841425687474531e-05   6.8886496127872066e-06   -8.85701172822044e-05
-4.841425687474531e-05   6.8886496127872066e-06   -8.85701172822044e-05
-4.841425687474531e-05   6.8886496127872066e-06   -8.85701172822044e-05
-4.841425687474531e-05   6.8886496127872066e-06   -8.85701172822044e-05
-4.425575565101007e-05   1.5548253872774143e-05   -8.005318140707563e-05
-4.425575565101007e-05   1.5548253872774143e-05   -8.005318140707563e-05
-4.425575565101007e-05   1.5548253872774143e-05   -8.005318140707563e-05
-4.425575565101007e-05   1.5548253872774143e-05   -8.005318140707563e-05
-5.101237713649306e-05   -8.924278534563901e-08   -0.00010069671521108626
-5.101237713649306e-05   -8.924278534563901e-08   -0.00010069671521108626
-5.101237713649306e-05   -8.924278534563901e-08   -0.00010069671521108626
-5.101237713649306e-05   -8.924278534563901e-08   -0.00010069671521108626
-4.758649086686567e-05   1.8337515050316847e-05   -8.30015732202101e-05
-4.758649086686567e-05   1.8337515050316847e-05   -8.30015732202101e-05
-4.758649086686567e-05   1.8337515050316847e-05   -8.30015732202101e-05
-4.758649086686567e-05   1.8337515050316847e-05   -8.30015732202101e-05
-3.65806788210298e-05   2.440471038435074e-06   -9.180636688947436e-05
-3.65806788210298e-05   2.440471038435074e-06   -9.180636688947436e-05
-3.65806788210298e-05   2.440471038435074e-06   -9.180636688947436e-05
-3.65806788210298e-05   2.440471038435074e-06   -9.180636688947436e-05
-4.4013949934970284e-05   9.188187606241557e-06   -8.346621164026123e-05
-4.4013949934970284e-05   9.188187606241557e-06   -8.346621164026123e-05
-4.4013949934970284e-05   9.188187606241557e-06   -8.346621164026123e-05
-4.4013949934970284e-05   9.188187606241557e-06   -8.346621164026123e-05
-3.6580678821029585e-05   1.8337515050316847e-05   -7.346334681308147e-05
-3.6580678821029585e-05   1.8337515050316847e-05   -7.346334681308147e-05
-3.6580678821029585e-05   1.8337515050316847e-05   -7.346334681308147e-05
-3.6580678821029585e-05   1.8337515050316847e-05   -7.346334681308147e-05
-4.758649086686589e-05   2.440471038435074e-06   -0.00010134459329660278
-4.758649086686589e-05   2.440471038435074e-06   -0.00010134459329660278
-4.758649086686589e-05   2.440471038435074e-06   -0.00010134459329660278
-4.758649086686589e-05   2.440471038435074e-06   -0.00010134459329660278
-4.4900335024916724e-05   2.2751486979150255e-05   -7.699886910728874e-05
-4.4900335024916724e-05   2.2751486979150255e-05   -7.699886910728874e-05
-4.4900335024916724e-05   2.2751486979150255e-05   -7.699886910728874e-05
-4.4900335024916724e-05   2.2751486979150255e-05   -7.699886910728874e-05
-2.710444683893718e-05   7.489351289526394e-06   -9.750140133681431e-05
-2.710444683893718e-05   7.489351289526394e-06   -9.750140133681431e-05
-2.710444683893718e-05   7.489351289526394e-06   -9.750140133681431e-05
-2.710444683893718e-05   7.489351289526394e-06   -9.750140133681431e-05
-3.850159424792206e-05   1.1379030561083775e-05   -8.083996321810736e-05
-3.850159424792206e-05   1.1379030561083775e-05   -8.083996321810736e-05
-3.850159424792206e-05   1.1379030561083775e-05   -8.083996321810736e-05
-3.850159424792206e-05   1.1379030561083775e-05   -8.083996321810736e-05
-5.373303782248238e-05   5.699371651703838e-06   -0.0001724906914544488
-5.373303782248238e-05   5.699371651703838e-06   -0.0001724906914544488
-5.373303782248238e-05   5.699371651703838e-06   -0.0001724906914544488
-5.373303782248238e-05   5.699371651703838e-06   -0.0001724906914544488
-6.15220555558073e-05   -1.025227233757836e-06   -0.0001895071470079347
-6.15220555558073e-05   -1.025227233757836e-06   -0.0001895071470079347
-6.15220555558073e-05   -1.025227233757836e-06   -0.0001895071470079347
-6.15220555558073e-05   -1.025227233757836e-06   -0.0001895071470079347
-5.93126707951003e-05   1.2044766888635178e-05   -0.00017263383076831888
-5.93126707951003e-05   1.2044766888635178e-05   -0.00017263383076831888
-5.93126707951003e-05   1.2044766888635178e-05   -0.00017263383076831888
-5.93126707951003e-05   1.2044766888635178e-05   -0.00017263383076831888
-5.101237713649306e-05   4.633306403583476e-06   -0.00018202077724163192
-5.101237713649306e-05   4.633306403583476e-06   -0.00018202077724163192
-5.101237713649306e-05   4.633306403583476e-06   -0.00018202077724163192
-5.101237713649306e-05   4.633306403583476e-06   -0.00018202077724163192
-5.573721418879624e-05   6.5704528419540525e-06   -0.0001753083366841531
-5.573721418879624e-05   6.5704528419540525e-06   -0.0001753083366841531
-5.573721418879624e-05   6.5704528419540525e-06   -0.0001753083366841531
-5.573721418879624e-05   6.5704528419540525e-06   -0.0001753083366841531
-5.1012377136492844e-05   1.2044766888636045e-05   -0.000168186954477287
-5.1012377136492844e-05   1.2044766888636045e-05   -0.000168186954477287
-5.1012377136492844e-05   1.2044766888636045e-05   -0.000168186954477287
-5.1012377136492844e-05   1.2044766888636045e-05   -0.000168186954477287
-5.931267079510019e-05   4.633306403583476e-06   -0.0001864676535326638
-5.931267079510019e-05   4.633306403583476e-06   -0.0001864676535326638
-5.931267079510019e-05   4.633306403583476e-06   -0.0001864676535326638
-5.931267079510019e-05   4.633306403583476e-06   -0.0001864676535326638
-5.7015794142774e-05   1.79375678169948e-05   -0.00017118854728656423
-5.7015794142774e-05   1.79375678169948e-05   -0.00017118854728656423
-5.7015794142774e-05   1.79375678169948e-05   -0.00017118854728656423
-5.7015794142774e-05   1.79375678169948e-05   -0.00017118854728656423
-4.758649086686589e-05   1.0074493212865188e-05   -0.000182186207983933
-4.758649086686589e-05   1.0074493212865188e-05   -0.000182186207983933
-4.758649086686589e-05   1.0074493212865188e-05   -0.000182186207983933
-4.758649086686589e-05   1.0074493212865188e-05   -0.000182186207983933
-5.352226858422644e-05   1.1123681524507871e-05   -0.00017292275810865078
-5.352226858422644e-05   1.1123681524507871e-05   -0.00017292275810865078
-5.352226858422644e-05   1.1123681524507871e-05   -0.00017292275810865078
-5.352226858422644e-05   1.1123681524507871e-05   -0.00017292275810865078
-4.758649086686567e-05   1.7937567816993932e-05   -0.00016647070252408594
-4.758649086686567e-05   1.7937567816993932e-05   -0.00016647070252408594
-4.758649086686567e-05   1.7937567816993932e-05   -0.00016647070252408594
-4.758649086686567e-05   1.7937567816993932e-05   -0.00016647070252408594
-5.701579414277378e-05   1.0074493212866922e-05   -0.00018690405274640956
-5.701579414277378e-05   1.0074493212866922e-05   -0.00018690405274640956
-5.701579414277378e-05   1.0074493212866922e-05   -0.00018690405274640956
-5.701579414277378e-05   1.0074493212866922e-05   -0.00018690405274640956
-5.484865729666233e-05   2.4478219674547302e-05   -0.00017402068602673584
-5.484865729666233e-05   2.4478219674547302e-05   -0.00017402068602673584
-5.484865729666233e-05   2.4478219674547302e-05   -0.00017402068602673584
-5.484865729666233e-05   2.4478219674547302e-05   -0.00017402068602673584
-4.490033502491651e-05   1.6280837064851922e-05   -0.00018568279358049358
-4.490033502491651e-05   1.6280837064851922e-05   -0.00018568279358049358
-4.490033502491651e-05   1.6280837064851922e-05   -0.00018568279358049358
-4.490033502491651e-05   1.6280837064851922e-05   -0.00018568279358049358
-5.156893882163891e-05   1.589225399321447e-05   -0.0001743353040763089
-5.156893882163891e-05   1.589225399321447e-05   -0.0001743353040763089
-5.156893882163891e-05   1.589225399321447e-05   -0.0001743353040763089
-5.156893882163891e-05   1.589225399321447e-05   -0.0001743353040763089
-6.152205555580719e-05   3.234826255045682e-06   -0.000200772576350719
-6.152205555580719e-05   3.234826255045682e-06   -0.000200772576350719
-6.152205555580719e-05   3.234826255045682e-06   -0.000200772576350719
-6.152205555580719e-05   3.234826255045682e-06   -0.000200772576350719
-6.977698010025458e-05   4.646319293177478e-06   -0.0002136838881019185
-6.977698010025458e-05   4.646319293177478e-06   -0.0002136838881019185
-6.977698010025458e-05   4.646319293177478e-06   -0.0002136838881019185
-6.977698010025458e-05   4.646319293177478e-06   -0.0002136838881019185
-6.760305156228143e-05   9.68939851878764e-06   -0.00019769783185063887
-6.760305156228143e-05   9.68939851878764e-06   -0.00019769783185063887
-6.760305156228143e-05   9.68939851878764e-06   -0.00019769783185063887
-6.760305156228143e-05   9.68939851878764e-06   -0.00019769783185063887
-5.931267079510019e-05   1.0486211755623975e-05   -0.00021199322107137643
-5.931267079510019e-05   1.0486211755623975e-05   -0.00021199322107137643
-5.931267079510019e-05   1.0486211755623975e-05   -0.00021199322107137643
-5.931267079510019e-05   1.0486211755623975e-05   -0.00021199322107137643
-6.416540247687822e-05   7.921202019852379e-06   -0.00020236632909361872
-6.416540247687822e-05   7.921202019852379e-06   -0.00020236632909361872
-6.416540247687822e-05   7.921202019852379e-06   -0.00020236632909361872
-6.416540247687822e-05   7.921202019852379e-06   -0.00020236632909361872
-5.931267079510008e-05   9.68939851878764e-06   -0.0001981759197927412
-5.931267079510008e-05   9.68939851878764e-06   -0.0001981759197927412
-5.931267079510008e-05   9.68939851878764e-06   -0.0001981759197927412
-5.931267079510008e-05   9.68939851878764e-06   -0.0001981759197927412
-6.760305156228155e-05   1.0486211755623975e-05   -0.0002115151331292752
-6.760305156228155e-05   1.0486211755623975e-05   -0.0002115151331292752
-6.760305156228155e-05   1.0486211755623975e-05   -0.0002115151331292752
-6.760305156228155e-05   1.0486211755623975e-05   -0.0002115151331292752
-6.532052853817046e-05   1.620089704200585e-05   -0.0001982790893574884
-6.532052853817046e-05   1.620089704200585e-05   -0.0001982790893574884
-6.532052853817046e-05   1.620089704200585e-05   -0.0001982790893574884
-6.532052853817046e-05   1.620089704200585e-05   -0.0001982790893574884
-5.7015794142774e-05   1.645585819963838e-05   -0.00021227329004439434
-5.7015794142774e-05   1.645585819963838e-05   -0.00021227329004439434
-5.7015794142774e-05   1.645585819963838e-05   -0.00021227329004439434
-5.7015794142774e-05   1.645585819963838e-05   -0.00021227329004439434
-6.23352115335527e-05   1.2910872773431309e-05   -0.00020128060313737476
-6.23352115335527e-05   1.2910872773431309e-05   -0.00020128060313737476
-6.23352115335527e-05   1.2910872773431309e-05   -0.00020128060313737476
-6.23352115335527e-05   1.2910872773431309e-05   -0.00020128060313737476
-5.701579414277378e-05   1.620089704200585e-05   -0.00019843206605206672
-5.701579414277378e-05   1.620089704200585e-05   -0.00019843206605206672
-5.701579414277378e-05   1.620089704200585e-05   -0.00019843206605206672
-5.701579414277378e-05   1.620089704200585e-05   -0.00019843206605206672
-6.532052853817046e-05   1.645585819963838e-05   -0.00021212031334981495
-6.532052853817046e-05   1.645585819963838e-05   -0.00021212031334981495
-6.532052853817046e-05   1.645585819963838e-05   -0.00021212031334981495
-6.532052853817046e-05   1.645585819963838e-05   -0.00021212031334981495
-6.316676646514523e-05   2.2810222304920844e-05   -0.00020212720347212356
-6.316676646514523e-05   2.2810222304920844e-05   -0.00020212720347212356
-6.316676646514523e-05   2.2810222304920844e-05   -0.00020212720347212356
-6.316676646514523e-05   2.2810222304920844e-05   -0.00020212720347212356
-5.484865729666244e-05   2.250745487875419e-05   -0.0002158090582972277
-5.484865729666244e-05   2.250745487875419e-05   -0.0002158090582972277
-5.484865729666244e-05   2.250745487875419e-05   -0.0002158090582972277
-5.484865729666244e-05   2.250745487875419e-05   -0.0002158090582972277
-6.064704651108943e-05   1.7970073509889113e-05   -0.00020342264745186315
-6.064704651108943e-05   1.7970073509889113e-05   -0.00020342264745186315
-6.064704651108943e-05   1.7970073509889113e-05   -0.00020342264745186315
-6.064704651108943e-05   1.7970073509889113e-05   -0.00020342264745186315
-6.977698010025434e-05   1.3259385326439e-06   -0.00017325803968481351
-6.977698010025434e-05   1.3259385326439e-06   -0.00017325803968481351
-6.977698010025434e-05   1.3259385326439e-06   -0.00017325803968481351
-6.977698010025434e-05   1.3259385326439e-06   -0.00017325803968481351
-7.845638795138626e-05   1.0345547037857866e-05   -0.00018231195433357234
-7.845638795138626e-05   1.0345547037857866e-05   -0.00018231195433357234
-7.845638795138626e-05   1.0345547037857866e-05   -0.00018231195433357234
-7.845638795138626e-05   1.0345547037857866e-05   -0.00018231195433357234
-7.583372205365355e-05   7.571806471200204e-06   -0.00016567627491281389
-7.583372205365355e-05   7.571806471200204e-06   -0.00016567627491281389
-7.583372205365355e-05   7.571806471200204e-06   -0.00016567627491281389
-7.583372205365355e-05   7.571806471200204e-06   -0.00016567627491281389
-6.760305156228143e-05   1.620056898662091e-05   -0.00018457131657435169
-6.760305156228143e-05   1.620056898662091e-05   -0.00018457131657435169
-6.760305156228143e-05   1.620056898662091e-05   -0.00018457131657435169
-6.760305156228143e-05   1.620056898662091e-05   -0.00018457131657435169
-7.235520241912354e-05   9.516596873501357e-06   -0.0001726406818784124
-7.235520241912354e-05   9.516596873501357e-06   -0.0001726406818784124
-7.235520241912354e-05   9.516596873501357e-06   -0.0001726406818784124
-7.235520241912354e-05   9.516596873501357e-06   -0.0001726406818784124
-6.760305156228131e-05   7.571806471200204e-06   -0.0001708535324220651
-6.760305156228131e-05   7.571806471200204e-06   -0.0001708535324220651
-6.760305156228131e-05   7.571806471200204e-06   -0.0001708535324220651
-6.760305156228131e-05   7.571806471200204e-06   -0.0001708535324220651
-7.583372205365355e-05   1.620056898662091e-05   -0.00017939405906510116
-7.583372205365355e-05   1.620056898662091e-05   -0.00017939405906510116
-7.583372205365355e-05   1.620056898662091e-05   -0.00017939405906510116
-7.583372205365355e-05   1.620056898662091e-05   -0.00017939405906510116
-7.246219410523831e-05   1.3463991295769445e-05   -0.00016641944605331983
-7.246219410523831e-05   1.3463991295769445e-05   -0.00016641944605331983
-7.246219410523831e-05   1.3463991295769445e-05   -0.00016641944605331983
-7.246219410523831e-05   1.3463991295769445e-05   -0.00016641944605331983
-6.532052853817035e-05   2.1607484372231436e-05   -0.00018320831784430925
-6.532052853817035e-05   2.1607484372231436e-05   -0.00018320831784430925
-6.532052853817035e-05   2.1607484372231436e-05   -0.00018320831784430925
-6.532052853817035e-05   2.1607484372231436e-05   -0.00018320831784430925
-7.001246029176208e-05   1.415696379633135e-05   -0.00017091811924278594
-7.001246029176208e-05   1.415696379633135e-05   -0.00017091811924278594
-7.001246029176208e-05   1.415696379633135e-05   -0.00017091811924278594
-7.001246029176208e-05   1.415696379633135e-05   -0.00017091811924278594
-6.532052853817018e-05   1.3463991295770313e-05   -0.00017130554189919616
-6.532052853817018e-05   1.3463991295770313e-05   -0.00017130554189919616
-6.532052853817018e-05   1.3463991295770313e-05   -0.00017130554189919616
-6.532052853817018e-05   1.3463991295770313e-05   -0.00017130554189919616
-7.246219410523842e-05   2.1607484372231436e-05   -0.0001783222219984325
-7.246219410523842e-05   2.1607484372231436e-05   -0.0001783222219984325
-7.246219410523842e-05   2.1607484372231436e-05   -0.0001783222219984325
-7.246219410523842e-05   2.1607484372231436e-05   -0.0001783222219984325
-6.98090431254811e-05   2.0134629979182313e-05   -0.00017103647398874393
-6.98090431254811e-05   2.0134629979182313e-05   -0.00017103647398874393
-6.98090431254811e-05   2.0134629979182313e-05   -0.00017103647398874393
-6.98090431254811e-05   2.0134629979182313e-05   -0.00017103647398874393
-6.316676646514523e-05   2.7675729880381403e-05   -0.0001866315950300218
-6.316676646514523e-05   2.7675729880381403e-05   -0.0001866315950300218
-6.316676646514523e-05   2.7675729880381403e-05   -0.0001866315950300218
-6.316676646514523e-05   2.7675729880381403e-05   -0.0001866315950300218
-6.824279541364466e-05   1.890689384568406e-05   -0.00017291024516170287
-6.824279541364466e-05   1.890689384568406e-05   -0.00017291024516170287
-6.824279541364466e-05   1.890689384568406e-05   -0.00017291024516170287
-6.824279541364466e-05   1.890689384568406e-05   -0.00017291024516170287
-7.845638795138605e-05   1.7752320041588068e-06   -9.242079077909993e-05
-7.845638795138605e-05   1.7752320041588068e-06   -9.242079077909993e-05
-7.845638795138605e-05   1.7752320041588068e-06   -9.242079077909993e-05
-7.845638795138605e-05   1.7752320041588068e-06   -9.242079077909993e-05
-9.46876601413038e-05   1.7350676739190038e-05   -0.00011012764425461126
-9.46876601413038e-05   1.7350676739190038e-05   -0.00011012764425461126
-9.46876601413038e-05   1.7350676739190038e-05   -0.00011012764425461126
-9.46876601413038e-05   1.7350676739190038e-05   -0.00011012764425461126
-8.54867258779173e-05   6.703847122512159e-06   -7.638286855192033e-05
-8.54867258779173e-05   6.703847122512159e-06   -7.638286855192033e-05
-8.54867258779173e-05   6.703847122512159e-06   -7.638286855192033e-05
-8.54867258779173e-05   6.703847122512159e-06   -7.638286855192033e-05
-7.583372205365344e-05   2.2651108385176102e-05   -0.00010203956501662426
-7.583372205365344e-05   2.2651108385176102e-05   -0.00010203956501662426
-7.583372205365344e-05   2.2651108385176102e-05   -0.00010203956501662426
-7.583372205365344e-05   2.2651108385176102e-05   -0.00010203956501662426
-8.023153851660823e-05   1.2771090313638475e-05   -8.878186006877945e-05
-8.023153851660823e-05   1.2771090313638475e-05   -8.878186006877945e-05
-8.023153851660823e-05   1.2771090313638475e-05   -8.878186006877945e-05
-8.023153851660823e-05   1.2771090313638475e-05   -8.878186006877945e-05
-7.583372205365323e-05   6.703847122511292e-06   -8.595122530951748e-05
-7.583372205365323e-05   6.703847122511292e-06   -8.595122530951748e-05
-7.583372205365323e-05   6.703847122511292e-06   -8.595122530951748e-05
-7.583372205365323e-05   6.703847122511292e-06   -8.595122530951748e-05
-8.54867258779173e-05   2.2651108385176102e-05   -9.247120825902656e-05
-8.54867258779173e-05   2.2651108385176102e-05   -9.247120825902656e-05
-8.54867258779173e-05   2.2651108385176102e-05   -9.247120825902656e-05
-8.54867258779173e-05   2.2651108385176102e-05   -9.247120825902656e-05
-7.800304064613977e-05   9.479892242769856e-06   -7.522671581811861e-05
-7.800304064613977e-05   9.479892242769856e-06   -7.522671581811861e-05
-7.800304064613977e-05   9.479892242769856e-06   -7.522671581811861e-05
-7.800304064613977e-05   9.479892242769856e-06   -7.522671581811861e-05
-7.246219410523831e-05   2.5078724905383543e-05   -9.38207596505213e-05
-7.246219410523831e-05   2.5078724905383543e-05   -9.38207596505213e-05
-7.246219410523831e-05   2.5078724905383543e-05   -9.38207596505213e-05
-7.246219410523831e-05   2.5078724905383543e-05   -9.38207596505213e-05
-7.626570449759771e-05   1.521596966908359e-05   -8.156392252147739e-05
-7.626570449759771e-05   1.521596966908359e-05   -8.156392252147739e-05
-7.626570449759771e-05   1.521596966908359e-05   -8.156392252147739e-05
-7.626570449759771e-05   1.521596966908359e-05   -8.156392252147739e-05
-7.246219410523815e-05   9.479892242769856e-06   -8.458601541568586e-05
-7.246219410523815e-05   9.479892242769856e-06   -8.458601541568586e-05
-7.246219410523815e-05   9.479892242769856e-06   -8.458601541568586e-05
-7.246219410523815e-05   9.479892242769856e-06   -8.458601541568586e-05
-7.800304064613977e-05   2.5078724905381808e-05   -8.446146005295328e-05
-7.800304064613977e-05   2.5078724905381808e-05   -8.446146005295328e-05
-7.800304064613977e-05   2.5078724905381808e-05   -8.446146005295328e-05
-7.800304064613977e-05   2.5078724905381808e-05   -8.446146005295328e-05
-6.886930930088725e-05   1.4422473633405111e-05   -7.772712408283785e-05
-6.886930930088725e-05   1.4422473633405111e-05   -7.772712408283785e-05
-6.886930930088725e-05   1.4422473633405111e-05   -7.772712408283785e-05
-6.886930930088725e-05   1.4422473633405111e-05   -7.772712408283785e-05
-6.980904312548094e-05   2.886174641638338e-05   -8.482446471163435e-05
-6.980904312548094e-05   2.886174641638338e-05   -8.482446471163435e-05
-6.980904312548094e-05   2.886174641638338e-05   -8.482446471163435e-05
-6.980904312548094e-05   2.886174641638338e-05   -8.482446471163435e-05
-7.050005460533607e-05   1.7206655999553802e-05   -7.667972466177814e-05
-7.050005460533607e-05   1.7206655999553802e-05   -7.667972466177814e-05
-7.050005460533607e-05   1.7206655999553802e-05   -7.667972466177814e-05
-7.050005460533607e-05   1.7206655999553802e-05   -7.667972466177814e-05
4.618191006480754e-05   -4.57918227582399e-06   -4.867021448304223e-05
4.618191006480754e-05   -4.57918227582399e-06   -4.867021448304223e-05
4.618191006480754e-05   -4.57918227582399e-06   -4.867021448304223e-05
4.618191006480754e-05   -4.57918227582399e-06   -4.867021448304223e-05
4.645783199565051e-06   -1.947500877255183e-05   -0.0001268345884898165
4.645783199565051e-06   -1.947500877255183e-05   -0.0001268345884898165
4.645783199565051e-06   -1.947500877255183e-05   -0.0001268345884898165
4.645783199565051e-06   -1.947500877255183e-05   -0.0001268345884898165
8.382702244192622e-06   -8.924278534563901e-08   -5.36601955377046e-05
8.382702244192622e-06   -8.924278534563901e-08   -5.36601955377046e-05
8.382702244192622e-06   -8.924278534563901e-08   -5.36601955377046e-05
8.382702244192622e-06   -8.924278534563901e-08   -5.36601955377046e-05
5.6525673147988934e-05   -1.5991876926468862e-05   -0.00012435689989269156
5.6525673147988934e-05   -1.5991876926468862e-05   -0.00012435689989269156
5.6525673147988934e-05   -1.5991876926468862e-05   -0.00012435689989269156
5.6525673147988934e-05   -1.5991876926468862e-05   -0.00012435689989269156
2.78624460165011e-05   -8.104029692805603e-06   -8.131756301374329e-05
2.78624460165011e-05   -8.104029692805603e-06   -8.131756301374329e-05
2.78624460165011e-05   -8.104029692805603e-06   -8.131756301374329e-05
2.78624460165011e-05   -8.104029692805603e-06   -8.131756301374329e-05
5.652567314798915e-05   -8.924278534563901e-08   -4.4118615053030316e-05
5.652567314798915e-05   -8.924278534563901e-08   -4.4118615053030316e-05
5.652567314798915e-05   -8.924278534563901e-08   -4.4118615053030316e-05
5.652567314798915e-05   -8.924278534563901e-08   -4.4118615053030316e-05
8.382702244192838e-06   -1.5991876926468862e-05   -0.00013389848037736584
8.382702244192838e-06   -1.5991876926468862e-05   -0.00013389848037736584
8.382702244192838e-06   -1.5991876926468862e-05   -0.00013389848037736584
8.382702244192838e-06   -1.5991876926468862e-05   -0.00013389848037736584
1.2782553750469118e-05   2.440471038435074e-06   -5.4034691955577585e-05
1.2782553750469118e-05   2.440471038435074e-06   -5.4034691955577585e-05
1.2782553750469118e-05   2.440471038435074e-06   -5.4034691955577585e-05
1.2782553750469118e-05   2.440471038435074e-06   -5.4034691955577585e-05
6.528668213056916e-05   -1.3681612699453435e-05   -0.0001318683223463452
6.528668213056916e-05   -1.3681612699453435e-05   -0.0001318683223463452
6.528668213056916e-05   -1.3681612699453435e-05   -0.0001318683223463452
6.528668213056916e-05   -1.3681612699453435e-05   -0.0001318683223463452
3.4436691493020064e-05   -6.483833413891554e-06   -8.477033885510464e-05
3.4436691493020064e-05   -6.483833413891554e-06   -8.477033885510464e-05
3.4436691493020064e-05   -6.483833413891554e-06   -8.477033885510464e-05
3.4436691493020064e-05   -6.483833413891554e-06   -8.477033885510464e-05
6.528668213056938e-05   2.440471038435074e-06   -4.436144171284396e-05
6.528668213056938e-05   2.440471038435074e-06   -4.436144171284396e-05
6.528668213056938e-05   2.440471038435074e-06   -4.436144171284396e-05
6.528668213056938e-05   2.440471038435074e-06   -4.436144171284396e-05
1.2782553750468901e-05   -1.3681612699453435e-05   -0.00014154157258907795
1.2782553750468901e-05   -1.3681612699453435e-05   -0.00014154157258907795
1.2782553750468901e-05   -1.3681612699453435e-05   -0.00014154157258907795
1.2782553750468901e-05   -1.3681612699453435e-05   -0.00014154157258907795
1.6418230785551075e-05   7.489351289526394e-06   -5.911109702135854e-05
1.6418230785551075e-05   7.489351289526394e-06   -5.911109702135854e-05
1.6418230785551075e-05   7.489351289526394e-06   -5.911109702135854e-05
1.6418230785551075e-05   7.489351289526394e-06   -5.911109702135854e-05
7.580931374921891e-05   -7.848729553058126e-06   -0.00014889338678858704
7.580931374921891e-05   -7.848729553058126e-06   -0.00014889338678858704
7.580931374921891e-05   -7.848729553058126e-06   -0.00014889338678858704
7.580931374921891e-05   -7.848729553058126e-06   -0.00014889338678858704
3.969633106303959e-05   -4.115008829172484e-06   -9.094531474595699e-05
3.969633106303959e-05   -4.115008829172484e-06   -9.094531474595699e-05
3.969633106303959e-05   -4.115008829172484e-06   -9.094531474595699e-05
3.969633106303959e-05   -4.115008829172484e-06   -9.094531474595699e-05
4.645783199565268e-06   -1.025227233757836e-06   -0.00013876464672946988
4.645783199565268e-06   -1.025227233757836e-06   -0.00013876464672946988
4.645783199565268e-06   -1.025227233757836e-06   -0.00013876464672946988
4.645783199565268e-06   -1.025227233757836e-06   -0.00013876464672946988
-4.4047008290255926e-05   -7.752181642430023e-06   -0.00022395547185770836
-4.4047008290255926e-05   -7.752181642430023e-06   -0.00022395547185770836
-4.4047008290255926e-05   -7.752181642430023e-06   -0.00022395547185770836
-4.4047008290255926e-05   -7.752181642430023e-06   -0.00022395547185770836
-4.0758785319891045e-05   4.633306403585211e-06   -0.00013955805061006965
-4.0758785319891045e-05   4.633306403585211e-06   -0.00013955805061006965
-4.0758785319891045e-05   4.633306403585211e-06   -0.00013955805061006965
-4.0758785319891045e-05   4.633306403585211e-06   -0.00013955805061006965
8.382702244192838e-06   -2.9896819994483514e-06   -0.00021688673684172426
8.382702244192838e-06   -2.9896819994483514e-06   -0.00021688673684172426
8.382702244192838e-06   -2.9896819994483514e-06   -0.00021688673684172426
8.382702244192838e-06   -2.9896819994483514e-06   -0.00021688673684172426
-1.7526498902808952e-05   -3.2935853045909513e-07   -0.0001753009290114476
-1.7526498902808952e-05   -3.2935853045909513e-07   -0.0001753009290114476
-1.7526498902808952e-05   -3.2935853045909513e-07   -0.0001753009290114476
-1.7526498902808952e-05   -3.2935853045909513e-07   -0.0001753009290114476
8.382702244192838e-06   4.633306403583476e-06   -0.00013498425756825003
8.382702244192838e-06   4.633306403583476e-06   -0.00013498425756825003
8.382702244192838e-06   4.633306403583476e-06   -0.00013498425756825003
8.382702244192838e-06   4.633306403583476e-06   -0.00013498425756825003
-4.0758785319891045e-05   -2.9896819994483514e-06   -0.00022146052988354387
-4.0758785319891045e-05   -2.9896819994483514e-06   -0.00022146052988354387
-4.0758785319891045e-05   -2.9896819994483514e-06   -0.00022146052988354387
-4.0758785319891045e-05   -2.9896819994483514e-06   -0.00022146052988354387
-3.745224058206045e-05   1.0074493212865188e-05   -0.00013976259822513423
-3.745224058206045e-05   1.0074493212865188e-05   -0.00013976259822513423
-3.745224058206045e-05   1.0074493212865188e-05   -0.00013976259822513423
-3.745224058206045e-05   1.0074493212865188e-05   -0.00013976259822513423
1.2782553750469118e-05   1.9306739091531216e-06   -0.00021860096386378956
1.2782553750469118e-05   1.9306739091531216e-06   -0.00021860096386378956
1.2782553750469118e-05   1.9306739091531216e-06   -0.00021860096386378956
1.2782553750469118e-05   1.9306739091531216e-06   -0.00021860096386378956
-1.4607456922177155e-05   3.573859686495373e-06   -0.00017393685754245151
-1.4607456922177155e-05   3.573859686495373e-06   -0.00017393685754245151
-1.4607456922177155e-05   3.573859686495373e-06   -0.00017393685754245151
-1.4607456922177155e-05   3.573859686495373e-06   -0.00017393685754245151
1.2782553750469118e-05   1.0074493212865188e-05   -0.00013487630664290717
1.2782553750469118e-05   1.0074493212865188e-05   -0.00013487630664290717
1.2782553750469118e-05   1.0074493212865188e-05   -0.00013487630664290717
1.2782553750469118e-05   1.0074493212865188e-05   -0.00013487630664290717
-3.745224058206045e-05   1.9306739091531216e-06   -0.00022348725544601772
-3.745224058206045e-05   1.9306739091531216e-06   -0.00022348725544601772
-3.745224058206045e-05   1.9306739091531216e-06   -0.00022348725544601772
-3.745224058206045e-05   1.9306739091531216e-06   -0.00022348725544601772
-3.428930316942886e-05   1.6280837064850187e-05   -0.00014325298477915228
-3.428930316942886e-05   1.6280837064850187e-05   -0.00014325298477915228
-3.428930316942886e-05   1.6280837064850187e-05   -0.00014325298477915228
-3.428930316942886e-05   1.6280837064850187e-05   -0.00014325298477915228
1.6418230785550858e-05   7.751208851705313e-06   -0.00022264776444289795
1.6418230785550858e-05   7.751208851705313e-06   -0.00022264776444289795
1.6418230785550858e-05   7.751208851705313e-06   -0.00022264776444289795
1.6418230785550858e-05   7.751208851705313e-06   -0.00022264776444289795
-1.1364248947273422e-05   7.893972908077154e-06   -0.00017642928998868332
-1.1364248947273422e-05   7.893972908077154e-06   -0.00017642928998868332
-1.1364248947273422e-05   7.893972908077154e-06   -0.00017642928998868332
-1.1364248947273422e-05   7.893972908077154e-06   -0.00017642928998868332
-4.4047008290256035e-05   4.646319293177478e-06   -0.00016782445629153712
-4.4047008290256035e-05   4.646319293177478e-06   -0.00016782445629153712
-4.4047008290256035e-05   4.646319293177478e-06   -0.00016782445629153712
-4.4047008290256035e-05   4.646319293177478e-06   -0.00016782445629153712
-9.233594483753737e-05   5.860029511160769e-06   -0.00024757779107288224
-9.233594483753737e-05   5.860029511160769e-06   -0.00024757779107288224
-9.233594483753737e-05   5.860029511160769e-06   -0.00024757779107288224
-9.233594483753737e-05   5.860029511160769e-06   -0.00024757779107288224
-8.902205597016626e-05   1.0486211755623975e-05   -0.00016484103956780714
-8.902205597016626e-05   1.0486211755623975e-05   -0.00016484103956780714
-8.902205597016626e-05   1.0486211755623975e-05   -0.00016484103956780714
-8.902205597016626e-05   1.0486211755623975e-05   -0.00016484103956780714
-4.075878531989115e-05   1.0890509390586514e-05   -0.0002455224025659092
-4.075878531989115e-05   1.0890509390586514e-05   -0.0002455224025659092
-4.075878531989115e-05   1.0890509390586514e-05   -0.0002455224025659092
-4.075878531989115e-05   1.0890509390586514e-05   -0.0002455224025659092
-6.615510915941212e-05   8.99849343084444e-06   -0.00020205998659086335
-6.615510915941212e-05   8.99849343084444e-06   -0.00020205998659086335
-6.615510915941212e-05   8.99849343084444e-06   -0.00020205998659086335
-6.615510915941212e-05   8.99849343084444e-06   -0.00020205998659086335
-4.075878531989115e-05   1.0486211755623975e-05   -0.0001650836181487838
-4.075878531989115e-05   1.0486211755623975e-05   -0.0001650836181487838
-4.075878531989115e-05   1.0486211755623975e-05   -0.0001650836181487838
-4.075878531989115e-05   1.0486211755623975e-05   -0.0001650836181487838
-8.902205597016626e-05   1.0890509390586514e-05   -0.0002452798239849334
-8.902205597016626e-05   1.0890509390586514e-05   -0.0002452798239849334
-8.902205597016626e-05   1.0890509390586514e-05   -0.0002452798239849334
-8.902205597016626e-05   1.0890509390586514e-05   -0.0002452798239849334
-8.565818856401058e-05   1.645585819963838e-05   -0.00016527322922576734
-8.565818856401058e-05   1.645585819963838e-05   -0.00016527322922576734
-8.565818856401058e-05   1.645585819963838e-05   -0.00016527322922576734
-8.565818856401058e-05   1.645585819963838e-05   -0.00016527322922576734
-3.745224058206056e-05   1.622020202855616e-05   -0.0002454750821597024
-3.745224058206056e-05   1.622020202855616e-05   -0.0002454750821597024
-3.745224058206056e-05   1.622020202855616e-05   -0.0002454750821597024
-3.745224058206056e-05   1.622020202855616e-05   -0.0002454750821597024
-6.323427562297579e-05   1.3384660971876156e-05   -0.00020080369912417158
-6.323427562297579e-05   1.3384660971876156e-05   -0.00020080369912417158
-6.323427562297579e-05   1.3384660971876156e-05   -0.00020080369912417158
-6.323427562297579e-05   1.3384660971876156e-05   -0.00020080369912417158
-3.745224058206056e-05   1.645585819963838e-05   -0.00016513183552311836
-3.745224058206056e-05   1.645585819963838e-05   -0.00016513183552311836
-3.745224058206056e-05   1.645585819963838e-05   -0.00016513183552311836
-3.745224058206056e-05   1.645585819963838e-05   -0.00016513183552311836
-8.565818856401045e-05   1.622020202855616e-05   -0.00024561647586235184
-8.565818856401045e-05   1.622020202855616e-05   -0.00024561647586235184
-8.565818856401045e-05   1.622020202855616e-05   -0.00024561647586235184
-8.565818856401045e-05   1.622020202855616e-05   -0.00024561647586235184
-8.244991824913635e-05   2.250745487875419e-05   -0.00016898033903157712
-8.244991824913635e-05   2.250745487875419e-05   -0.00016898033903157712
-8.244991824913635e-05   2.250745487875419e-05   -0.00016898033903157712
-8.244991824913635e-05   2.250745487875419e-05   -0.00016898033903157712
-3.428930316942897e-05   2.1641589709573902e-05   -0.00024872851172958073
-3.428930316942897e-05   2.1641589709573902e-05   -0.00024872851172958073
-3.428930316942897e-05   2.1641589709573902e-05   -0.00024872851172958073
-3.428930316942897e-05   2.1641589709573902e-05   -0.00024872851172958073
-6.051353300927144e-05   1.7836941375680773e-05   -0.0002027386729961762
-6.051353300927144e-05   1.7836941375680773e-05   -0.0002027386729961762
-6.051353300927144e-05   1.7836941375680773e-05   -0.0002027386729961762
-6.051353300927144e-05   1.7836941375680773e-05   -0.0002027386729961762
-9.233594483753752e-05   1.0345547037857866e-05   -0.00014113606149552833
-9.233594483753752e-05   1.0345547037857866e-05   -0.00014113606149552833
-9.233594483753752e-05   1.0345547037857866e-05   -0.00014113606149552833
-9.233594483753752e-05   1.0345547037857866e-05   -0.00014113606149552833
-0.00013997710094101402   1.9050725712578195e-05   -0.0002153148811298248
-0.00013997710094101402   1.9050725712578195e-05   -0.0002153148811298248
-0.00013997710094101402   1.9050725712578195e-05   -0.0002153148811298248
-0.00013997710094101402   1.9050725712578195e-05   -0.0002153148811298248
-0.00013619638679532786   1.620056898662091e-05   -0.00013296579932585081
-0.00013619638679532786   1.620056898662091e-05   -0.00013296579932585081
-0.00013619638679532786   1.620056898662091e-05   -0.00013296579932585081
-0.00013619638679532786   1.620056898662091e-05   -0.00013296579932585081
-8.902205597016626e-05   2.4419608465008763e-05   -0.00021652110772148685
-8.902205597016626e-05   2.4419608465008763e-05   -0.00021652110772148685
-8.902205597016626e-05   2.4419608465008763e-05   -0.00021652110772148685
-8.902205597016626e-05   2.4419608465008763e-05   -0.00021652110772148685
-0.00011359164847872228   1.8207950548887117e-05   -0.00017184479212421907
-0.00011359164847872228   1.8207950548887117e-05   -0.00017184479212421907
-0.00011359164847872228   1.8207950548887117e-05   -0.00017184479212421907
-0.00011359164847872228   1.8207950548887117e-05   -0.00017184479212421907
-8.902205597016642e-05   1.620056898662091e-05   -0.00013789722301288474
-8.902205597016642e-05   1.620056898662091e-05   -0.00013789722301288474
-8.902205597016642e-05   1.620056898662091e-05   -0.00013789722301288474
-8.902205597016642e-05   1.620056898662091e-05   -0.00013789722301288474
-0.00013619638679532813   2.4419608465008763e-05   -0.00021158968403445482
-0.00013619638679532813   2.4419608465008763e-05   -0.00021158968403445482
-0.00013619638679532813   2.4419608465008763e-05   -0.00021158968403445482
-0.00013619638679532813   2.4419608465008763e-05   -0.00021158968403445482
-0.00013168576679464122   2.1607484372231436e-05   -0.00013176963794479194
-0.00013168576679464122   2.1607484372231436e-05   -0.00013176963794479194
-0.00013168576679464122   2.1607484372231436e-05   -0.00013176963794479194
-0.00013168576679464122   2.1607484372231436e-05   -0.00013176963794479194
-8.565818856401058e-05   2.926014399801634e-05   -0.00021307386410464703
-8.565818856401058e-05   2.926014399801634e-05   -0.00021307386410464703
-8.565818856401058e-05   2.926014399801634e-05   -0.00021307386410464703
-8.565818856401058e-05   2.926014399801634e-05   -0.00021307386410464703
-0.00010978924637825401   2.2441833669081465e-05   -0.00016876444821688295
-0.00010978924637825401   2.2441833669081465e-05   -0.00016876444821688295
-0.00010978924637825401   2.2441833669081465e-05   -0.00016876444821688295
-0.00010978924637825401   2.2441833669081465e-05   -0.00016876444821688295
-8.565818856401051e-05   2.1607484372231436e-05   -0.0001363612337202608
-8.565818856401051e-05   2.1607484372231436e-05   -0.0001363612337202608
-8.565818856401051e-05   2.1607484372231436e-05   -0.0001363612337202608
-8.565818856401051e-05   2.1607484372231436e-05   -0.0001363612337202608
-0.00013168576679464122   2.926014399801634e-05   -0.00020848226832917687
-0.00013168576679464122   2.926014399801634e-05   -0.00020848226832917687
-0.00013168576679464122   2.926014399801634e-05   -0.00020848226832917687
-0.00013168576679464122   2.926014399801634e-05   -0.00020848226832917687
-0.00012792371784640325   2.7675729880381403e-05   -0.00013541521729001742
-0.00012792371784640325   2.7675729880381403e-05   -0.00013541521729001742
-0.00012792371784640325   2.7675729880381403e-05   -0.00013541521729001742
-0.00012792371784640325   2.7675729880381403e-05   -0.00013541521729001742
-8.244991824913635e-05   3.468572657813751e-05   -0.00021541088130411625
-8.244991824913635e-05   3.468572657813751e-05   -0.00021541088130411625
-8.244991824913635e-05   3.468572657813751e-05   -0.00021541088130411625
-8.244991824913635e-05   3.468572657813751e-05   -0.00021541088130411625
-0.00010721926833365985   2.6619718397208336e-05   -0.00016928902625468634
-0.00010721926833365985   2.6619718397208336e-05   -0.00016928902625468634
-0.00010721926833365985   2.6619718397208336e-05   -0.00016928902625468634
-0.00010721926833365985   2.6619718397208336e-05   -0.00016928902625468634
-0.00013997710094101402   1.7350676739190038e-05   -7.307391105275483e-05
-0.00013997710094101402   1.7350676739190038e-05   -7.307391105275483e-05
-0.00013997710094101402   1.7350676739190038e-05   -7.307391105275483e-05
-0.00013997710094101402   1.7350676739190038e-05   -7.307391105275483e-05
-0.0001941939352657359   3.273892464251797e-05   -0.00015420235285196204
-0.0001941939352657359   3.273892464251797e-05   -0.00015420235285196204
-0.0001941939352657359   3.273892464251797e-05   -0.00015420235285196204
-0.0001941939352657359   3.273892464251797e-05   -0.00015420235285196204
-0.0001839041899176435   2.2651108385176102e-05   -4.6218962283419394e-05
-0.0001839041899176435   2.2651108385176102e-05   -4.6218962283419394e-05
-0.0001839041899176435   2.2651108385176102e-05   -4.6218962283419394e-05
-0.0001839041899176435   2.2651108385176102e-05   -4.6218962283419394e-05
-0.00013619638679532786   3.830501337510374e-05   -0.00013512431048123429
-0.00013619638679532786   3.830501337510374e-05   -0.00013512431048123429
-0.00013619638679532786   3.830501337510374e-05   -0.00013512431048123429
-0.00013619638679532786   3.830501337510374e-05   -0.00013512431048123429
-0.0001569114928484584   2.841014825643272e-05   -9.466221465481576e-05
-0.0001569114928484584   2.841014825643272e-05   -9.466221465481576e-05
-0.0001569114928484584   2.841014825643272e-05   -9.466221465481576e-05
-0.0001569114928484584   2.841014825643272e-05   -9.466221465481576e-05
-0.00013619638679532797   2.2651108385176102e-05   -5.561130527737424e-05
-0.00013619638679532797   2.2651108385176102e-05   -5.561130527737424e-05
-0.00013619638679532797   2.2651108385176102e-05   -5.561130527737424e-05
-0.00013619638679532797   2.2651108385176102e-05   -5.561130527737424e-05
-0.00018390418991764284   3.830501337510374e-05   -0.0001257319674872791
-0.00018390418991764284   3.830501337510374e-05   -0.0001257319674872791
-0.00018390418991764284   3.830501337510374e-05   -0.0001257319674872791
-0.00018390418991764284   3.830501337510374e-05   -0.0001257319674872791
-0.00017539896329679227   2.5078724905383543e-05   -3.813733522845322e-05
-0.00017539896329679227   2.5078724905383543e-05   -3.813733522845322e-05
-0.00017539896329679227   2.5078724905383543e-05   -3.813733522845322e-05
-0.00017539896329679227   2.5078724905383543e-05   -3.813733522845322e-05
-0.00013168576679464095   4.029679218609493e-05   -0.00012012350310046578
-0.00013168576679464095   4.029679218609493e-05   -0.00012012350310046578
-0.00013168576679464095   4.029679218609493e-05   -0.00012012350310046578
-0.00013168576679464095   4.029679218609493e-05   -0.00012012350310046578
-0.00015308891955207992   3.090223753609775e-05   -7.881484904806967e-05
-0.00015308891955207992   3.090223753609775e-05   -7.881484904806967e-05
-0.00015308891955207992   3.090223753609775e-05   -7.881484904806967e-05
-0.00015308891955207992   3.090223753609775e-05   -7.881484904806967e-05
-0.00013168576679464122   2.5078724905383543e-05   -4.726817559688127e-05
-0.00013168576679464122   2.5078724905383543e-05   -4.726817559688127e-05
-0.00013168576679464122   2.5078724905383543e-05   -4.726817559688127e-05
-0.00013168576679464122   2.5078724905383543e-05   -4.726817559688127e-05
-0.00017539896329679195   4.029679218609493e-05   -0.00011099266273203925
-0.00017539896329679195   4.029679218609493e-05   -0.00011099266273203925
-0.00017539896329679195   4.029679218609493e-05   -0.00011099266273203925
-0.00017539896329679195   4.029679218609493e-05   -0.00011099266273203925
-0.00016536152296674753   2.886174641638338e-05   -2.9742256091092913e-05
-0.00016536152296674753   2.886174641638338e-05   -2.9742256091092913e-05
-0.00016536152296674753   2.886174641638338e-05   -2.9742256091092913e-05
-0.00016536152296674753   2.886174641638338e-05   -2.9742256091092913e-05
-0.00012792371784640325   4.284589778514279e-05   -0.00010052908877958907
-0.00012792371784640325   4.284589778514279e-05   -0.00010052908877958907
-0.00012792371784640325   4.284589778514279e-05   -0.00010052908877958907
-0.00012792371784640325   4.284589778514279e-05   -0.00010052908877958907
-0.00014511765760021975   3.21140928032735e-05   -6.543343953410805e-05
-0.00014511765760021975   3.21140928032735e-05   -6.543343953410805e-05
-0.00014511765760021975   3.21140928032735e-05   -6.543343953410805e-05
-0.00014511765760021975   3.21140928032735e-05   -6.543343953410805e-05
0.00014821041923768945   -1.9475008772550095e-05   -1.932642752083824e-06
0.00014821041923768945   -1.9475008772550095e-05   -1.932642752083824e-06
0.00014821041923768945   -1.9475008772550095e-05   -1.932642752083824e-06
0.00014821041923768945   -1.9475008772550095e-05   -1.932642752083824e-06
6.330660094428409e-05   -3.5238438333438926e-05   -0.00015289706431095753
6.330660094428409e-05   -3.5238438333438926e-05   -0.00015289706431095753
6.330660094428409e-05   -3.5238438333438926e-05   -0.00015289706431095753
6.330660094428409e-05   -3.5238438333438926e-05   -0.00015289706431095753
6.786965115789141e-05   -1.5991876926468862e-05   -1.755797570322272e-05
6.786965115789141e-05   -1.5991876926468862e-05   -1.755797570322272e-05
6.786965115789141e-05   -1.5991876926468862e-05   -1.755797570322272e-05
6.786965115789141e-05   -1.5991876926468862e-05   -1.755797570322272e-05
0.000159553839487398   -3.2759477123443445e-05   -0.0001603043961342144
0.000159553839487398   -3.2759477123443445e-05   -0.0001603043961342144
0.000159553839487398   -3.2759477123443445e-05   -0.0001603043961342144
0.000159553839487398   -3.2759477123443445e-05   -0.0001603043961342144
0.00010531675304051432   -2.3189880983025962e-05   -7.56510097403261e-05
0.00010531675304051432   -2.3189880983025962e-05   -7.56510097403261e-05
0.00010531675304051432   -2.3189880983025962e-05   -7.56510097403261e-05
0.00010531675304051432   -2.3189880983025962e-05   -7.56510097403261e-05
0.0001595538394873982   -1.5991876926468862e-05   -7.497415585037276e-06
0.0001595538394873982   -1.5991876926468862e-05   -7.497415585037276e-06
0.0001595538394873982   -1.5991876926468862e-05   -7.497415585037276e-06
0.0001595538394873982   -1.5991876926468862e-05   -7.497415585037276e-06
6.78696511578912e-05   -3.2759477123443445e-05   -0.00017036495625239942
6.78696511578912e-05   -3.2759477123443445e-05   -0.00017036495625239942
6.78696511578912e-05   -3.2759477123443445e-05   -0.00017036495625239942
6.78696511578912e-05   -3.2759477123443445e-05   -0.00017036495625239942
7.292035141908087e-05   -1.3681612699453435e-05   -2.4386182928414976e-05
7.292035141908087e-05   -1.3681612699453435e-05   -2.4386182928414976e-05
7.292035141908087e-05   -1.3681612699453435e-05   -2.4386182928414976e-05
7.292035141908087e-05   -1.3681612699453435e-05   -2.4386182928414976e-05
0.00016909985231107938   -3.064475463742354e-05   -0.00017450746591896483
0.00016909985231107938   -3.064475463742354e-05   -0.00017450746591896483
0.00016909985231107938   -3.064475463742354e-05   -0.00017450746591896483
0.00016909985231107938   -3.064475463742354e-05   -0.00017450746591896483
0.0001138390947588785   -2.2249604559218886e-05   -8.744329337888627e-05
0.0001138390947588785   -2.2249604559218886e-05   -8.744329337888627e-05
0.0001138390947588785   -2.2249604559218886e-05   -8.744329337888627e-05
0.0001138390947588785   -2.2249604559218886e-05   -8.744329337888627e-05
0.0001690998523110796   -1.3681612699453435e-05   -1.420829776563326e-05
0.0001690998523110796   -1.3681612699453435e-05   -1.420829776563326e-05
0.0001690998523110796   -1.3681612699453435e-05   -1.420829776563326e-05
0.0001690998523110796   -1.3681612699453435e-05   -1.420829776563326e-05
7.292035141908087e-05   -3.064475463742354e-05   -0.00018468535108174654
7.292035141908087e-05   -3.064475463742354e-05   -0.00018468535108174654
7.292035141908087e-05   -3.064475463742354e-05   -0.00018468535108174654
7.292035141908087e-05   -3.064475463742354e-05   -0.00018468535108174654
7.71085664584743e-05   -7.848729553058126e-06   -4.0197116401572905e-05
7.71085664584743e-05   -7.848729553058126e-06   -4.0197116401572905e-05
7.71085664584743e-05   -7.848729553058126e-06   -4.0197116401572905e-05
7.71085664584743e-05   -7.848729553058126e-06   -4.0197116401572905e-05
0.00018018143779963353   -2.393946520388296e-05   -0.00020233079391301185
0.00018018143779963353   -2.393946520388296e-05   -0.00020233079391301185
0.00018018143779963353   -2.393946520388296e-05   -0.00020233079391301185
0.00018018143779963353   -2.393946520388296e-05   -0.00020233079391301185
0.00011850460669797253   -1.964584585953215e-05   -0.00010211224701685718
0.00011850460669797253   -1.964584585953215e-05   -0.00010211224701685718
0.00011850460669797253   -1.964584585953215e-05   -0.00010211224701685718
0.00011850460669797253   -1.964584585953215e-05   -0.00010211224701685718
6.330660094428409e-05   -7.752181642431757e-06   -0.0001044754112113043
6.330660094428409e-05   -7.752181642431757e-06   -0.0001044754112113043
6.330660094428409e-05   -7.752181642431757e-06   -0.0001044754112113043
6.330660094428409e-05   -7.752181642431757e-06   -0.0001044754112113043
-2.6720319861657385e-05   -1.65841553663032e-05   -0.0002598194634555297
-2.6720319861657385e-05   -1.65841553663032e-05   -0.0002598194634555297
-2.6720319861657385e-05   -1.65841553663032e-05   -0.0002598194634555297
-2.6720319861657385e-05   -1.65841553663032e-05   -0.0002598194634555297
-2.246529139285846e-05   -2.9896819994483514e-06   -0.00010665208652893467
-2.246529139285846e-05   -2.9896819994483514e-06   -0.00010665208652893467
-2.246529139285846e-05   -2.9896819994483514e-06   -0.00010665208652893467
-2.246529139285846e-05   -2.9896819994483514e-06   -0.00010665208652893467
6.78696511578912e-05   -1.3166105935037004e-05   -0.0002511044697521643
6.78696511578912e-05   -1.3166105935037004e-05   -0.0002511044697521643
6.78696511578912e-05   -1.3166105935037004e-05   -0.0002511044697521643
6.78696511578912e-05   -1.3166105935037004e-05   -0.0002511044697521643
2.0726308895935405e-05   -8.033867141805581e-06   -0.00017561157592484384
2.0726308895935405e-05   -8.033867141805581e-06   -0.00017561157592484384
2.0726308895935405e-05   -8.033867141805581e-06   -0.00017561157592484384
2.0726308895935405e-05   -8.033867141805581e-06   -0.00017561157592484384
6.786965115789141e-05   -2.9896819994483514e-06   -0.00010054623216758114
6.786965115789141e-05   -2.9896819994483514e-06   -0.00010054623216758114
6.786965115789141e-05   -2.9896819994483514e-06   -0.00010054623216758114
6.786965115789141e-05   -2.9896819994483514e-06   -0.00010054623216758114
-2.246529139285846e-05   -1.3166105935037004e-05   -0.00025721032411351805
-2.246529139285846e-05   -1.3166105935037004e-05   -0.00025721032411351805
-2.246529139285846e-05   -1.3166105935037004e-05   -0.00025721032411351805
-2.246529139285846e-05   -1.3166105935037004e-05   -0.00025721032411351805
-1.840227432026696e-05   1.9306739091531216e-06   -0.00010799537936905662
-1.840227432026696e-05   1.9306739091531216e-06   -0.00010799537936905662
-1.840227432026696e-05   1.9306739091531216e-06   -0.00010799537936905662
-1.840227432026696e-05   1.9306739091531216e-06   -0.00010799537936905662
7.292035141908087e-05   -8.98566803406338e-06   -0.00025364995043537265
7.292035141908087e-05   -8.98566803406338e-06   -0.00025364995043537265
7.292035141908087e-05   -8.98566803406338e-06   -0.00025364995043537265
7.292035141908087e-05   -8.98566803406338e-06   -0.00025364995043537265
2.411434728134598e-05   -5.0167346645254435e-06   -0.00017468797022753436
2.411434728134598e-05   -5.0167346645254435e-06   -0.00017468797022753436
2.411434728134598e-05   -5.0167346645254435e-06   -0.00017468797022753436
2.411434728134598e-05   -5.0167346645254435e-06   -0.00017468797022753436
7.292035141908087e-05   1.9306739091531216e-06   -0.00010144557420312637
7.292035141908087e-05   1.9306739091531216e-06   -0.00010144557420312637
7.292035141908087e-05   1.9306739091531216e-06   -0.00010144557420312637
7.292035141908087e-05   1.9306739091531216e-06   -0.00010144557420312637
-1.840227432026696e-05   -8.98566803406338e-06   -0.0002601997556013029
-1.840227432026696e-05   -8.98566803406338e-06   -0.0002601997556013029
-1.840227432026696e-05   -8.98566803406338e-06   -0.0002601997556013029
-1.840227432026696e-05   -8.98566803406338e-06   -0.0002601997556013029
-1.4582440579614963e-05   7.751208851705313e-06   -0.00011163803836445902
-1.4582440579614963e-05   7.751208851705313e-06   -0.00011163803836445902
-1.4582440579614963e-05   7.751208851705313e-06   -0.00011163803836445902
-1.4582440579614963e-05   7.751208851705313e-06   -0.00011163803836445902
7.71085664584743e-05   -3.731112505169984e-06   -0.00025756699061381546
7.71085664584743e-05   -3.731112505169984e-06   -0.00025756699061381546
7.71085664584743e-05   -3.731112505169984e-06   -0.00025756699061381546
7.71085664584743e-05   -3.731112505169984e-06   -0.00025756699061381546
2.8321711370714114e-05   -1.2993230622988794e-06   -0.00017771463913327477
2.8321711370714114e-05   -1.2993230622988794e-06   -0.00017771463913327477
2.8321711370714114e-05   -1.2993230622988794e-06   -0.00017771463913327477
2.8321711370714114e-05   -1.2993230622988794e-06   -0.00017771463913327477
-2.6720319861657385e-05   5.860029511162504e-06   -0.00013412514079159162
-2.6720319861657385e-05   5.860029511162504e-06   -0.00013412514079159162
-2.6720319861657385e-05   5.860029511162504e-06   -0.00013412514079159162
-2.6720319861657385e-05   5.860029511162504e-06   -0.00013412514079159162
-0.00011516215369611875   2.8570916576677735e-06   -0.000283329959894457
-0.00011516215369611875   2.8570916576677735e-06   -0.000283329959894457
-0.00011516215369611875   2.8570916576677735e-06   -0.000283329959894457
-0.00011516215369611875   2.8570916576677735e-06   -0.000283329959894457
-0.00011058102305374408   1.0890509390586514e-05   -0.00013323421908023082
-0.00011058102305374408   1.0890509390586514e-05   -0.00013323421908023082
-0.00011058102305374408   1.0890509390586514e-05   -0.00013323421908023082
-0.00011058102305374408   1.0890509390586514e-05   -0.00013323421908023082
-2.246529139285846e-05   6.690076275702936e-06   -0.00027757351197944336
-2.246529139285846e-05   6.690076275702936e-06   -0.00027757351197944336
-2.246529139285846e-05   6.690076275702936e-06   -0.00027757351197944336
-2.246529139285846e-05   6.690076275702936e-06   -0.00027757351197944336
-6.825841553839853e-05   8.028104434502914e-06   -0.00020205445529882264
-6.825841553839853e-05   8.028104434502914e-06   -0.00020205445529882264
-6.825841553839853e-05   8.028104434502914e-06   -0.00020205445529882264
-6.825841553839853e-05   8.028104434502914e-06   -0.00020205445529882264
-2.246529139285846e-05   1.0890509390586514e-05   -0.00013071395921130085
-2.246529139285846e-05   1.0890509390586514e-05   -0.00013071395921130085
-2.246529139285846e-05   1.0890509390586514e-05   -0.00013071395921130085
-2.246529139285846e-05   1.0890509390586514e-05   -0.00013071395921130085
-0.00011058102305374408   6.690076275702936e-06   -0.00028009377184837377
-0.00011058102305374408   6.690076275702936e-06   -0.00028009377184837377
-0.00011058102305374408   6.690076275702936e-06   -0.00028009377184837377
-0.00011058102305374408   6.690076275702936e-06   -0.00028009377184837377
-0.00010616456426365962   1.622020202855616e-05   -0.00013303281486878524
-0.00010616456426365962   1.622020202855616e-05   -0.00013303281486878524
-0.00010616456426365962   1.622020202855616e-05   -0.00013303281486878524
-0.00010616456426365962   1.622020202855616e-05   -0.00013303281486878524
-1.840227432026685e-05   1.1137520718481828e-05   -0.00027625368932172943
-1.840227432026685e-05   1.1137520718481828e-05   -0.00027625368932172943
-1.840227432026685e-05   1.1137520718481828e-05   -0.00027625368932172943
-1.840227432026685e-05   1.1137520718481828e-05   -0.00027625368932172943
-6.431205517512135e-05   1.161499640295327e-05   -0.00020002387330765245
-6.431205517512135e-05   1.161499640295327e-05   -0.00020002387330765245
-6.431205517512135e-05   1.161499640295327e-05   -0.00020002387330765245
-6.431205517512135e-05   1.161499640295327e-05   -0.00020002387330765245
-1.840227432026685e-05   1.622020202855616e-05   -0.00012998320608274046
-1.840227432026685e-05   1.622020202855616e-05   -0.00012998320608274046
-1.840227432026685e-05   1.622020202855616e-05   -0.00012998320608274046
-1.840227432026685e-05   1.622020202855616e-05   -0.00012998320608274046
-0.00010616456426365962   1.1137520718483562e-05   -0.0002793032981077744
-0.00010616456426365962   1.1137520718483562e-05   -0.0002793032981077744
-0.00010616456426365962   1.1137520718483562e-05   -0.0002793032981077744
-0.00010616456426365962   1.1137520718483562e-05   -0.0002793032981077744
-0.00010208315425342638   2.1641589709573902e-05   -0.0001361446817191034
-0.00010208315425342638   2.1641589709573902e-05   -0.0001361446817191034
-0.00010208315425342638   2.1641589709573902e-05   -0.0001361446817191034
-0.00010208315425342638   2.1641589709573902e-05   -0.0001361446817191034
-1.4582440579614963e-05   1.5735468049823953e-05   -0.0002784355315129405
-1.4582440579614963e-05   1.5735468049823953e-05   -0.0002784355315129405
-1.4582440579614963e-05   1.5735468049823953e-05   -0.0002784355315129405
-1.4582440579614963e-05   1.5735468049823953e-05   -0.0002784355315129405
-6.078250142939833e-05   1.529574156806761e-05   -0.00020117159420758417
-6.078250142939833e-05   1.529574156806761e-05   -0.00020117159420758417
-6.078250142939833e-05   1.529574156806761e-05   -0.00020117159420758417
-6.078250142939833e-05   1.529574156806761e-05   -0.00020117159420758417
-0.00011516215369611894   1.9050725712578195e-05   -0.00010888710076546217
-0.00011516215369611894   1.9050725712578195e-05   -0.00010888710076546217
-0.00011516215369611894   1.9050725712578195e-05   -0.00010888710076546217
-0.00011516215369611894   1.9050725712578195e-05   -0.00010888710076546217
-0.0002018730542006   2.299074536593268e-05   -0.0002510412564809168
-0.0002018730542006   2.299074536593268e-05   -0.0002510412564809168
-0.0002018730542006   2.299074536593268e-05   -0.0002510412564809168
-0.0002018730542006   2.299074536593268e-05   -0.0002510412564809168
-0.00019635720460433104   2.4419608465008763e-05   -0.00010240574716542921
-0.00019635720460433104   2.4419608465008763e-05   -0.00010240574716542921
-0.00019635720460433104   2.4419608465008763e-05   -0.00010240574716542921
-0.00019635720460433104   2.4419608465008763e-05   -0.00010240574716542921
-0.00011058102305374427   2.7869201217270087e-05   -0.0002474358054010967
-0.00011058102305374427   2.7869201217270087e-05   -0.0002474358054010967
-0.00011058102305374427   2.7869201217270087e-05   -0.0002474358054010967
-0.00011058102305374427   2.7869201217270087e-05   -0.0002474358054010967
-0.00015485174917335742   2.4614267375298177e-05   -0.0001716983015632263
-0.00015485174917335742   2.4614267375298177e-05   -0.0001716983015632263
-0.00015485174917335742   2.4614267375298177e-05   -0.0001716983015632263
-0.00015485174917335742   2.4614267375298177e-05   -0.0001716983015632263
-0.00011058102305374427   2.4419608465008763e-05   -0.00010447550281678531
-0.00011058102305374427   2.4419608465008763e-05   -0.00010447550281678531
-0.00011058102305374427   2.4419608465008763e-05   -0.00010447550281678531
-0.00011058102305374427   2.4419608465008763e-05   -0.00010447550281678531
-0.0001963572046043314   2.7869201217270087e-05   -0.0002453660497497411
-0.0001963572046043314   2.7869201217270087e-05   -0.0002453660497497411
-0.0001963572046043314   2.7869201217270087e-05   -0.0002453660497497411
-0.0001963572046043314   2.7869201217270087e-05   -0.0002453660497497411
-0.0001902665538378174   2.926014399801634e-05   -9.88029753656609e-05
-0.0001902665538378174   2.926014399801634e-05   -9.88029753656609e-05
-0.0001902665538378174   2.926014399801634e-05   -9.88029753656609e-05
-0.0001902665538378174   2.926014399801634e-05   -9.88029753656609e-05
-0.00010616456426365984   3.2072190240385254e-05   -0.0002406601857346777
-0.00010616456426365984   3.2072190240385254e-05   -0.0002406601857346777
-0.00010616456426365984   3.2072190240385254e-05   -0.0002406601857346777
-0.00010616456426365984   3.2072190240385254e-05   -0.0002406601857346777
-0.0001492857471443655   2.840575660351813e-05   -0.00016659168741804892
-0.0001492857471443655   2.840575660351813e-05   -0.00016659168741804892
-0.0001492857471443655   2.840575660351813e-05   -0.00016659168741804892
-0.0001492857471443655   2.840575660351813e-05   -0.00016659168741804892
-0.00010616456426365973   2.926014399801634e-05   -0.00010049020311108173
-0.00010616456426365973   2.926014399801634e-05   -0.00010049020311108173
-0.00010616456426365973   2.926014399801634e-05   -0.00010049020311108173
-0.00010616456426365973   2.926014399801634e-05   -0.00010049020311108173
-0.0001902665538378174   3.207219024038352e-05   -0.00023897295798925786
-0.0001902665538378174   3.207219024038352e-05   -0.00023897295798925786
-0.0001902665538378174   3.207219024038352e-05   -0.00023897295798925786
-0.0001902665538378174   3.207219024038352e-05   -0.00023897295798925786
-0.00018511657479788174   3.468572657813751e-05   -0.0001010806301023565
-0.00018511657479788174   3.468572657813751e-05   -0.0001010806301023565
-0.00018511657479788174   3.468572657813751e-05   -0.0001010806301023565
-0.00018511657479788174   3.468572657813751e-05   -0.0001010806301023565
-0.00010208315425342654   3.673056339442704e-05   -0.00024069656643288875
-0.00010208315425342654   3.673056339442704e-05   -0.00024069656643288875
-0.00010208315425342654   3.673056339442704e-05   -0.00024069656643288875
-0.00010208315425342654   3.673056339442704e-05   -0.00024069656643288875
-0.00014579199534254177   3.19015400502623e-05   -0.00016495108394453187
-0.00014579199534254177   3.19015400502623e-05   -0.00016495108394453187
-0.00014579199534254177   3.19015400502623e-05   -0.00016495108394453187
-0.00014579199534254177   3.19015400502623e-05   -0.00016495108394453187
-0.0002018730542006   3.273892464251624e-05   -5.4643509437584184e-05
-0.0002018730542006   3.273892464251624e-05   -5.4643509437584184e-05
-0.0002018730542006   3.273892464251624e-05   -5.4643509437584184e-05
-0.0002018730542006   3.273892464251624e-05   -5.4643509437584184e-05
-0.0002930803831789141   4.531568754995857e-05   -0.00019910966665697642
-0.0002930803831789141   4.531568754995857e-05   -0.00019910966665697642
-0.0002930803831789141   4.531568754995857e-05   -0.00019910966665697642
-0.0002930803831789141   4.531568754995857e-05   -0.00019910966665697642
-0.00028050113861222115   3.830501337510374e-05   -1.7845812534463164e-05
-0.00028050113861222115   3.830501337510374e-05   -1.7845812534463164e-05
-0.00028050113861222115   3.830501337510374e-05   -1.7845812534463164e-05
-0.00028050113861222115   3.830501337510374e-05   -1.7845812534463164e-05
-0.00019635720460433104   5.1795948504679626e-05   -0.00016618026362536065
-0.00019635720460433104   5.1795948504679626e-05   -0.00016618026362536065
-0.00019635720460433104   5.1795948504679626e-05   -0.00016618026362536065
-0.00019635720460433104   5.1795948504679626e-05   -0.00016618026362536065
-0.00023290342822433643   4.3176527033426254e-05   -0.00010009823804259851
-0.00023290342822433643   4.3176527033426254e-05   -0.00010009823804259851
-0.00023290342822433643   4.3176527033426254e-05   -0.00010009823804259851
-0.00023290342822433643   4.3176527033426254e-05   -0.00010009823804259851
-0.00019635720460433123   3.8305013375102004e-05   -2.5940373612209217e-05
-0.00019635720460433123   3.8305013375102004e-05   -2.5940373612209217e-05
-0.00019635720460433123   3.8305013375102004e-05   -2.5940373612209217e-05
-0.00019635720460433123   3.8305013375102004e-05   -2.5940373612209217e-05
-0.0002805011386122207   5.1795948504679626e-05   -0.00015808570254761348
-0.0002805011386122207   5.1795948504679626e-05   -0.00015808570254761348
-0.0002805011386122207   5.1795948504679626e-05   -0.00015808570254761348
-0.0002805011386122207   5.1795948504679626e-05   -0.00015808570254761348
-0.0002701479812819871   4.0296792186096664e-05   -2.5249922765832253e-06
-0.0002701479812819871   4.0296792186096664e-05   -2.5249922765832253e-06
-0.0002701479812819871   4.0296792186096664e-05   -2.5249922765832253e-06
-0.0002701479812819871   4.0296792186096664e-05   -2.5249922765832253e-06
-0.0001902665538378174   5.349548862004262e-05   -0.00014357992254390093
-0.0001902665538378174   5.349548862004262e-05   -0.00014357992254390093
-0.0001902665538378174   5.349548862004262e-05   -0.00014357992254390093
-0.0001902665538378174   5.349548862004262e-05   -0.00014357992254390093
-0.00022854653413909698   4.5741334993448096e-05   -7.512746319914259e-05
-0.00022854653413909698   4.5741334993448096e-05   -7.512746319914259e-05
-0.00022854653413909698   4.5741334993448096e-05   -7.512746319914259e-05
-0.00022854653413909698   4.5741334993448096e-05   -7.512746319914259e-05
-0.0001902665538378174   4.0296792186096664e-05   -1.0444210136952188e-05
-0.0001902665538378174   4.0296792186096664e-05   -1.0444210136952188e-05
-0.0001902665538378174   4.0296792186096664e-05   -1.0444210136952188e-05
-0.0001902665538378174   4.0296792186096664e-05   -1.0444210136952188e-05
-0.0002701479812819862   5.349548862004262e-05   -0.000135660704683533
-0.0002701479812819862   5.349548862004262e-05   -0.000135660704683533
-0.0002701479812819862   5.349548862004262e-05   -0.000135660704683533
-0.0002701479812819862   5.349548862004262e-05   -0.000135660704683533
-0.00025900135596186493   4.284589778514279e-05   1.6879314560166135e-05
-0.00025900135596186493   4.284589778514279e-05   1.6879314560166135e-05
-0.00025900135596186493   4.284589778514279e-05   1.6879314560166135e-05
-0.00025900135596186493   4.284589778514279e-05   1.6879314560166135e-05
-0.00018511657479788174   5.498614804622798e-05   -0.0001135461375364559
-0.00018511657479788174   5.498614804622798e-05   -0.0001135461375364559
-0.00018511657479788174   5.498614804622798e-05   -0.0001135461375364559
-0.00018511657479788174   5.498614804622798e-05   -0.0001135461375364559
-0.0002180902719284632   4.616405175716237e-05   -5.329671787871783e-05
-0.0002180902719284632   4.616405175716237e-05   -5.329671787871783e-05
-0.0002180902719284632   4.616405175716237e-05   -5.329671787871783e-05
-0.0002180902719284632   4.616405175716237e-05   -5.329671787871783e-05
0.000252370072390319   -3.523843833343719e-05   4.9218843137965006e-05
0.000252370072390319   -3.523843833343719e-05   4.9218843137965006e-05
0.000252370072390319   -3.523843833343719e-05   4.9218843137965006e-05
0.000252370072390319   -3.523843833343719e-05   4.9218843137965006e-05
0.00012180343757214895   -5.230119417043086e-05   -0.00017862986839451388
0.00012180343757214895   -5.230119417043086e-05   -0.00017862986839451388
0.00012180343757214895   -5.230119417043086e-05   -0.00017862986839451388
0.00012180343757214895   -5.230119417043086e-05   -0.00017862986839451388
0.00012686551876584548   -3.2759477123443445e-05   2.3306245722463925e-05
0.00012686551876584548   -3.2759477123443445e-05   2.3306245722463925e-05
0.00012686551876584548   -3.2759477123443445e-05   2.3306245722463925e-05
0.00012686551876584548   -3.2759477123443445e-05   2.3306245722463925e-05
0.00026404956783922023   -5.106522675617231e-05   -0.0001943503862868578
0.00026404956783922023   -5.106522675617231e-05   -0.0001943503862868578
0.00026404956783922023   -5.106522675617231e-05   -0.0001943503862868578
0.00026404956783922023   -5.106522675617231e-05   -0.0001943503862868578
0.00018350432840275515   -3.861093564322751e-05   -6.758089522718213e-05
0.00018350432840275515   -3.861093564322751e-05   -6.758089522718213e-05
0.00018350432840275515   -3.861093564322751e-05   -6.758089522718213e-05
0.00018350432840275515   -3.861093564322751e-05   -6.758089522718213e-05
0.00026404956783922066   -3.2759477123443445e-05   3.428969550210194e-05
0.00026404956783922066   -3.2759477123443445e-05   3.428969550210194e-05
0.00026404956783922066   -3.2759477123443445e-05   3.428969550210194e-05
0.00026404956783922066   -3.2759477123443445e-05   3.428969550210194e-05
0.00012686551876584515   -5.106522675617231e-05   -0.00020533383606649493
0.00012686551876584515   -5.106522675617231e-05   -0.00020533383606649493
0.00012686551876584515   -5.106522675617231e-05   -0.00020533383606649493
0.00012686551876584515   -5.106522675617231e-05   -0.00020533383606649493
0.00013189922281738183   -3.064475463742354e-05   1.066282316189611e-05
0.00013189922281738183   -3.064475463742354e-05   1.066282316189611e-05
0.00013189922281738183   -3.064475463742354e-05   1.066282316189611e-05
0.00013189922281738183   -3.064475463742354e-05   1.066282316189611e-05
0.00027302558554913444   -4.9297285605567204e-05   -0.00021335626281013785
0.00027302558554913444   -4.9297285605567204e-05   -0.00021335626281013785
0.00027302558554913444   -4.9297285605567204e-05   -0.00021335626281013785
0.00027302558554913444   -4.9297285605567204e-05   -0.00021335626281013785
0.00019332873835269446   -3.8486573453920536e-05   -8.701461144039338e-05
0.00019332873835269446   -3.8486573453920536e-05   -8.701461144039338e-05
0.00019332873835269446   -3.8486573453920536e-05   -8.701461144039338e-05
0.00019332873835269446   -3.8486573453920536e-05   -8.701461144039338e-05
0.00027302558554913444   -3.064475463742354e-05   2.1854341742783348e-05
0.00027302558554913444   -3.064475463742354e-05   2.1854341742783348e-05
0.00027302558554913444   -3.064475463742354e-05   2.1854341742783348e-05
0.00027302558554913444   -3.064475463742354e-05   2.1854341742783348e-05
0.00013189922281738183   -4.9297285605567204e-05   -0.00022454778139102422
0.00013189922281738183   -4.9297285605567204e-05   -0.00022454778139102422
0.00013189922281738183   -4.9297285605567204e-05   -0.00022454778139102422
0.00013189922281738183   -4.9297285605567204e-05   -0.00022454778139102422
0.00013533060434373708   -2.3939465203881224e-05   -1.486150273514314e-05
0.00013533060434373708   -2.3939465203881224e-05   -1.486150273514314e-05
0.00013533060434373708   -2.3939465203881224e-05   -1.486150273514314e-05
0.00013533060434373708   -2.3939465203881224e-05   -1.486150273514314e-05
0.00028251303142466265   -4.238370966868146e-05   -0.00024909900119114096
0.00028251303142466265   -4.238370966868146e-05   -0.00024909900119114096
0.00028251303142466265   -4.238370966868146e-05   -0.00024909900119114096
0.00028251303142466265   -4.238370966868146e-05   -0.00024909900119114096
0.00019613180703505125   -3.5537847231752184e-05   -0.00010923781133728326
0.00019613180703505125   -3.5537847231752184e-05   -0.00010923781133728326
0.00019613180703505125   -3.5537847231752184e-05   -0.00010923781133728326
0.00019613180703505125   -3.5537847231752184e-05   -0.00010923781133728326
0.00012180343757214928   -1.65841553663032e-05   -6.264202527447946e-05
0.00012180343757214928   -1.65841553663032e-05   -6.264202527447946e-05
0.00012180343757214928   -1.65841553663032e-05   -6.264202527447946e-05
0.00012180343757214928   -1.65841553663032e-05   -6.264202527447946e-05
-7.0405422962588294e-06   -3.4093965979064764e-05   -0.0002878878780894845
-7.0405422962588294e-06   -3.4093965979064764e-05   -0.0002878878780894845
-7.0405422962588294e-06   -3.4093965979064764e-05   -0.0002878878780894845
-7.0405422962588294e-06   -3.4093965979064764e-05   -0.0002878878780894845
-1.8371127778560401e-06   -1.3166105935035269e-05   -6.902742503927389e-05
-1.8371127778560401e-06   -1.3166105935035269e-05   -6.902742503927389e-05
-1.8371127778560401e-06   -1.3166105935035269e-05   -6.902742503927389e-05
-1.8371127778560401e-06   -1.3166105935035269e-05   -6.902742503927389e-05
0.00012686551876584548   -3.248970137166053e-05   -0.0002719376536834692
0.00012686551876584548   -3.248970137166053e-05   -0.0002719376536834692
0.00012686551876584548   -3.248970137166053e-05   -0.0002719376536834692
0.00012686551876584548   -3.248970137166053e-05   -0.0002719376536834692
6.013480564496512e-05   -2.0617528365272225e-05   -0.00016784310228583474
6.013480564496512e-05   -2.0617528365272225e-05   -0.00016784310228583474
6.013480564496512e-05   -2.0617528365272225e-05   -0.00016784310228583474
6.013480564496512e-05   -2.0617528365272225e-05   -0.00016784310228583474
0.00012686551876584537   -1.3166105935035269e-05   -5.74332677773003e-05
0.00012686551876584537   -1.3166105935035269e-05   -5.74332677773003e-05
0.00012686551876584537   -1.3166105935035269e-05   -5.74332677773003e-05
0.00012686551876584537   -1.3166105935035269e-05   -5.74332677773003e-05
-1.8371127778560401e-06   -3.248970137166053e-05   -0.00028353181094544367
-1.8371127778560401e-06   -3.248970137166053e-05   -0.00028353181094544367
-1.8371127778560401e-06   -3.248970137166053e-05   -0.00028353181094544367
-1.8371127778560401e-06   -3.248970137166053e-05   -0.00028353181094544367
2.749326219911568e-06   -8.98566803406338e-06   -7.059981265189301e-05
2.749326219911568e-06   -8.98566803406338e-06   -7.059981265189301e-05
2.749326219911568e-06   -8.98566803406338e-06   -7.059981265189301e-05
2.749326219911568e-06   -8.98566803406338e-06   -7.059981265189301e-05
0.00013189922281738183   -2.9482395467668107e-05   -0.00027355160385418055
0.00013189922281738183   -2.9482395467668107e-05   -0.00027355160385418055
0.00013189922281738183   -2.9482395467668107e-05   -0.00027355160385418055
0.00013189922281738183   -2.9482395467668107e-05   -0.00027355160385418055
6.369423976111324e-05   -1.8955833458471696e-05   -0.0001661925692992461
6.369423976111324e-05   -1.8955833458471696e-05   -0.0001661925692992461
6.369423976111324e-05   -1.8955833458471696e-05   -0.0001661925692992461
6.369423976111324e-05   -1.8955833458471696e-05   -0.0001661925692992461
0.00013189922281738183   -8.98566803406338e-06   -5.830177619173e-05
0.00013189922281738183   -8.98566803406338e-06   -5.830177619173e-05
0.00013189922281738183   -8.98566803406338e-06   -5.830177619173e-05
0.00013189922281738183   -8.98566803406338e-06   -5.830177619173e-05
2.7493262199116764e-06   -2.9482395467668107e-05   -0.00028584964031434443
2.7493262199116764e-06   -2.9482395467668107e-05   -0.00028584964031434443
2.7493262199116764e-06   -2.9482395467668107e-05   -0.00028584964031434443
2.7493262199116764e-06   -2.9482395467668107e-05   -0.00028584964031434443
6.0212325083508315e-06   -3.7311125051717187e-06   -7.332775502379152e-05
6.0212325083508315e-06   -3.7311125051717187e-06   -7.332775502379152e-05
6.0212325083508315e-06   -3.7311125051717187e-06   -7.332775502379152e-05
6.0212325083508315e-06   -3.7311125051717187e-06   -7.332775502379152e-05
0.0001353306043437375   -2.5205274135733577e-05   -0.00027595887777109905
0.0001353306043437375   -2.5205274135733577e-05   -0.00027595887777109905
0.0001353306043437375   -2.5205274135733577e-05   -0.00027595887777109905
0.0001353306043437375   -2.5205274135733577e-05   -0.00027595887777109905
6.792879296447672e-05   -1.601494291192558e-05   -0.00016913672420661944
6.792879296447672e-05   -1.601494291192558e-05   -0.00016913672420661944
6.792879296447672e-05   -1.601494291192558e-05   -0.00016913672420661944
6.792879296447672e-05   -1.601494291192558e-05   -0.00016913672420661944
-7.0405422962588294e-06   2.8570916576677735e-06   -9.485664536896914e-05
-7.0405422962588294e-06   2.8570916576677735e-06   -9.485664536896914e-05
-7.0405422962588294e-06   2.8570916576677735e-06   -9.485664536896914e-05
-7.0405422962588294e-06   2.8570916576677735e-06   -9.485664536896914e-05
-0.0001339802286681498   -1.821466606359047e-05   -0.0003190658439548759
-0.0001339802286681498   -1.821466606359047e-05   -0.0003190658439548759
-0.0001339802286681498   -1.821466606359047e-05   -0.0003190658439548759
-0.0001339802286681498   -1.821466606359047e-05   -0.0003190658439548759
-0.00012773978987952694   6.690076275702936e-06   -0.00010320458068769842
-0.00012773978987952694   6.690076275702936e-06   -0.00010320458068769842
-0.00012773978987952694   6.690076275702936e-06   -0.00010320458068769842
-0.00012773978987952694   6.690076275702936e-06   -0.00010320458068769842
-1.8371127778560401e-06   -1.6333203361793003e-05   -0.00029922840807465167
-1.8371127778560401e-06   -1.6333203361793003e-05   -0.00029922840807465167
-1.8371127778560401e-06   -1.6333203361793003e-05   -0.00029922840807465167
-1.8371127778560401e-06   -1.6333203361793003e-05   -0.00029922840807465167
-6.68348590818027e-05   -3.7255482602839562e-06   -0.0001984634239623126
-6.68348590818027e-05   -3.7255482602839562e-06   -0.0001984634239623126
-6.68348590818027e-05   -3.7255482602839562e-06   -0.0001984634239623126
-6.68348590818027e-05   -3.7255482602839562e-06   -0.0001984634239623126
-1.8371127778560401e-06   6.690076275701201e-06   -8.939061290519964e-05
-1.8371127778560401e-06   6.690076275701201e-06   -8.939061290519964e-05
-1.8371127778560401e-06   6.690076275701201e-06   -8.939061290519964e-05
-1.8371127778560401e-06   6.690076275701201e-06   -8.939061290519964e-05
-0.00012773978987952694   -1.6333203361793003e-05   -0.0003130423758571496
-0.00012773978987952694   -1.6333203361793003e-05   -0.0003130423758571496
-0.00012773978987952694   -1.6333203361793003e-05   -0.0003130423758571496
-0.00012773978987952694   -1.6333203361793003e-05   -0.0003130423758571496
-0.00012201417908953561   1.1137520718483562e-05   -0.00010136105919660715
-0.00012201417908953561   1.1137520718483562e-05   -0.00010136105919660715
-0.00012201417908953561   1.1137520718483562e-05   -0.00010136105919660715
-0.00012201417908953561   1.1137520718483562e-05   -0.00010136105919660715
2.7493262199116764e-06   -1.3374667321998032e-05   -0.000294592921888065
2.7493262199116764e-06   -1.3374667321998032e-05   -0.000294592921888065
2.7493262199116764e-06   -1.3374667321998032e-05   -0.000294592921888065
2.7493262199116764e-06   -1.3374667321998032e-05   -0.000294592921888065
-6.174605242181166e-05   -1.560444278759024e-06   -0.0001941891579778027
-6.174605242181166e-05   -1.560444278759024e-06   -0.0001941891579778027
-6.174605242181166e-05   -1.560444278759024e-06   -0.0001941891579778027
-6.174605242181166e-05   -1.560444278759024e-06   -0.0001941891579778027
2.7493262199116764e-06   1.1137520718483562e-05   -8.665374637232062e-05
2.7493262199116764e-06   1.1137520718483562e-05   -8.665374637232062e-05
2.7493262199116764e-06   1.1137520718483562e-05   -8.665374637232062e-05
2.7493262199116764e-06   1.1137520718483562e-05   -8.665374637232062e-05
-0.00012201417908953583   -1.3374667321998032e-05   -0.0003093002347123548
-0.00012201417908953583   -1.3374667321998032e-05   -0.0003093002347123548
-0.00012201417908953583   -1.3374667321998032e-05   -0.0003093002347123548
-0.00012201417908953583   -1.3374667321998032e-05   -0.0003093002347123548
-0.00011815115733357796   1.5735468049825688e-05   -0.00010309215578046572
-0.00011815115733357796   1.5735468049825688e-05   -0.00010309215578046572
-0.00011815115733357796   1.5735468049825688e-05   -0.00010309215578046572
-0.00011815115733357796   1.5735468049825688e-05   -0.00010309215578046572
6.02123250835094e-06   -1.0573286402967147e-05   -0.0002942608861786721
6.02123250835094e-06   -1.0573286402967147e-05   -0.0002942608861786721
6.02123250835094e-06   -1.0573286402967147e-05   -0.0002942608861786721
6.02123250835094e-06   -1.0573286402967147e-05   -0.0002942608861786721
-5.810991456459418e-05   8.73928232253407e-07   -0.00019424396983823205
-5.810991456459418e-05   8.73928232253407e-07   -0.00019424396983823205
-5.810991456459418e-05   8.73928232253407e-07   -0.00019424396983823205
-5.810991456459418e-05   8.73928232253407e-07   -0.00019424396983823205
-0.0001339802286681496   2.299074536593268e-05   -7.757500838019571e-05
-0.0001339802286681496   2.299074536593268e-05   -7.757500838019571e-05
-0.0001339802286681496   2.299074536593268e-05   -7.757500838019571e-05
-0.0001339802286681496   2.299074536593268e-05   -7.757500838019571e-05
-0.00026264855626626096   3.953919553748367e-06   -0.0003034443165310253
-0.00026264855626626096   3.953919553748367e-06   -0.0003034443165310253
-0.00026264855626626096   3.953919553748367e-06   -0.0003034443165310253
-0.00026264855626626096   3.953919553748367e-06   -0.0003034443165310253
-0.00025376790121218475   2.7869201217270087e-05   -8.278339322895668e-05
-0.00025376790121218475   2.7869201217270087e-05   -8.278339322895668e-05
-0.00025376790121218475   2.7869201217270087e-05   -8.278339322895668e-05
-0.00025376790121218475   2.7869201217270087e-05   -8.278339322895668e-05
-0.00012773978987952673   7.474569569709474e-06   -0.00028059346646151816
-0.00012773978987952673   7.474569569709474e-06   -0.00028059346646151816
-0.00012773978987952673   7.474569569709474e-06   -0.00028059346646151816
-0.00012773978987952673   7.474569569709474e-06   -0.00028059346646151816
-0.00019249877548635247   1.7269404101481756e-05   -0.00017853872450253805
-0.00019249877548635247   1.7269404101481756e-05   -0.00017853872450253805
-0.00019249877548635247   1.7269404101481756e-05   -0.00017853872450253805
-0.00019249877548635247   1.7269404101481756e-05   -0.00017853872450253805
-0.00012773978987952673   2.7869201217270087e-05   -7.0546614240421e-05
-0.00012773978987952673   2.7869201217270087e-05   -7.0546614240421e-05
-0.00012773978987952673   2.7869201217270087e-05   -7.0546614240421e-05
-0.00012773978987952673   2.7869201217270087e-05   -7.0546614240421e-05
-0.0002537679012121852   7.474569569709474e-06   -0.0002928302454500544
-0.0002537679012121852   7.474569569709474e-06   -0.0002928302454500544
-0.0002537679012121852   7.474569569709474e-06   -0.0002928302454500544
-0.0002537679012121852   7.474569569709474e-06   -0.0002928302454500544
-0.00024519698168925613   3.207219024038352e-05   -7.552931904689e-05
-0.00024519698168925613   3.207219024038352e-05   -7.552931904689e-05
-0.00024519698168925613   3.207219024038352e-05   -7.552931904689e-05
-0.00024519698168925613   3.207219024038352e-05   -7.552931904689e-05
-0.00012201417908953583   1.0719903201419217e-05   -0.0002680226178230459
-0.00012201417908953583   1.0719903201419217e-05   -0.0002680226178230459
-0.00012201417908953583   1.0719903201419217e-05   -0.0002680226178230459
-0.00012201417908953583   1.0719903201419217e-05   -0.0002680226178230459
-0.00018449324849476132   2.033194925223948e-05   -0.00016965806311149655
-0.00018449324849476132   2.033194925223948e-05   -0.00016965806311149655
-0.00018449324849476132   2.033194925223948e-05   -0.00016965806311149655
-0.00018449324849476132   2.033194925223948e-05   -0.00016965806311149655
-0.00012201417908953556   3.207219024038352e-05   -6.271794682351055e-05
-0.00012201417908953556   3.207219024038352e-05   -6.271794682351055e-05
-0.00012201417908953556   3.207219024038352e-05   -6.271794682351055e-05
-0.00012201417908953556   3.207219024038352e-05   -6.271794682351055e-05
-0.00024519698168925657   1.0719903201419217e-05   -0.00028083399004642535
-0.00024519698168925657   1.0719903201419217e-05   -0.00028083399004642535
-0.00024519698168925657   1.0719903201419217e-05   -0.00028083399004642535
-0.00024519698168925657   1.0719903201419217e-05   -0.00028083399004642535
-0.0002386750483465373   3.673056339442704e-05   -7.576319147574624e-05
-0.0002386750483465373   3.673056339442704e-05   -7.576319147574624e-05
-0.0002386750483465373   3.673056339442704e-05   -7.576319147574624e-05
-0.0002386750483465373   3.673056339442704e-05   -7.576319147574624e-05
-0.00011815115733357817   1.3474440442457977e-05   -0.0002626826693928301
-0.00011815115733357817   1.3474440442457977e-05   -0.0002626826693928301
-0.00011815115733357817   1.3474440442457977e-05   -0.0002626826693928301
-0.00011815115733357817   1.3474440442457977e-05   -0.0002626826693928301
-0.00017996175501495615   2.2466843209761195e-05   -0.0001650604482509141
-0.00017996175501495615   2.2466843209761195e-05   -0.0001650604482509141
-0.00017996175501495615   2.2466843209761195e-05   -0.0001650604482509141
-0.00017996175501495615   2.2466843209761195e-05   -0.0001650604482509141
-0.00026264855626626096   4.531568754995857e-05   -4.461157178803094e-05
-0.00026264855626626096   4.531568754995857e-05   -4.461157178803094e-05
-0.00026264855626626096   4.531568754995857e-05   -4.461157178803094e-05
-0.00026264855626626096   4.531568754995857e-05   -4.461157178803094e-05
-0.00039695938984666006   4.265176558864055e-05   -0.00027006131426548976
-0.00039695938984666006   4.265176558864055e-05   -0.00027006131426548976
-0.00039695938984666006   4.265176558864055e-05   -0.00027006131426548976
-0.00039695938984666006   4.265176558864055e-05   -0.00027006131426548976
-0.00037955144489619193   5.179594850468136e-05   -2.1725876256832935e-06
-0.00037955144489619193   5.179594850468136e-05   -2.1725876256832935e-06
-0.00037955144489619193   5.179594850468136e-05   -2.1725876256832935e-06
-0.00037955144489619193   5.179594850468136e-05   -2.1725876256832935e-06
-0.0002537679012121843   5.41709809695045e-05   -0.000213236846577923
-0.0002537679012121843   5.41709809695045e-05   -0.000213236846577923
-0.0002537679012121843   5.41709809695045e-05   -0.000213236846577923
-0.0002537679012121843   5.41709809695045e-05   -0.000213236846577923
-0.00030928463491394016   5.1101177975703196e-05   -0.00011886707527871765
-0.00030928463491394016   5.1101177975703196e-05   -0.00011886707527871765
-0.00030928463491394016   5.1101177975703196e-05   -0.00011886707527871765
-0.00030928463491394016   5.1101177975703196e-05   -0.00011886707527871765
-0.00025376790121218497   5.179594850468136e-05   -3.597607104576829e-06
-0.00025376790121218497   5.179594850468136e-05   -3.597607104576829e-06
-0.00025376790121218497   5.179594850468136e-05   -3.597607104576829e-06
-0.00025376790121218497   5.179594850468136e-05   -3.597607104576829e-06
-0.00037955144489619193   5.41709809695045e-05   -0.00021181182709903
-0.00037955144489619193   5.41709809695045e-05   -0.00021181182709903
-0.00037955144489619193   5.41709809695045e-05   -0.00021181182709903
-0.00037955144489619193   5.41709809695045e-05   -0.00021181182709903
-0.0003650965848552637   5.349548862004262e-05   2.181749702667886e-05
-0.0003650965848552637   5.349548862004262e-05   2.181749702667886e-05
-0.0003650965848552637   5.349548862004262e-05   2.181749702667886e-05
-0.0003650965848552637   5.349548862004262e-05   2.181749702667886e-05
-0.00024519698168925613   5.6751789667065095e-05   -0.00017996895554488087
-0.00024519698168925613   5.6751789667065095e-05   -0.00017996895554488087
-0.00024519698168925613   5.6751789667065095e-05   -0.00017996895554488087
-0.00024519698168925613   5.6751789667065095e-05   -0.00017996895554488087
-0.0003025949309478015   5.4832438433065345e-05   -8.315409604023631e-05
-0.0003025949309478015   5.4832438433065345e-05   -8.315409604023631e-05
-0.0003025949309478015   5.4832438433065345e-05   -8.315409604023631e-05
-0.0003025949309478015   5.4832438433065345e-05   -8.315409604023631e-05
-0.00024519698168925657   5.349548862004262e-05   1.986371639846503e-05
-0.00024519698168925657   5.349548862004262e-05   1.986371639846503e-05
-0.00024519698168925657   5.349548862004262e-05   1.986371639846503e-05
-0.00024519698168925657   5.349548862004262e-05   1.986371639846503e-05
-0.00036509658485526304   5.6751789667065095e-05   -0.00017801517491666807
-0.00036509658485526304   5.6751789667065095e-05   -0.00017801517491666807
-0.00036509658485526304   5.6751789667065095e-05   -0.00017801517491666807
-0.00036509658485526304   5.6751789667065095e-05   -0.00017801517491666807
-0.0003499967289601287   5.4986148046226244e-05   5.391093211660168e-05
-0.0003499967289601287   5.4986148046226244e-05   5.391093211660168e-05
-0.0003499967289601287   5.4986148046226244e-05   5.391093211660168e-05
-0.0003499967289601287   5.4986148046226244e-05   5.391093211660168e-05
-0.0002386750483465373   6.123714268904158e-05   -0.00013537579902507389
-0.0002386750483465373   6.123714268904158e-05   -0.00013537579902507389
-0.0002386750483465373   6.123714268904158e-05   -0.00013537579902507389
-0.0002386750483465373   6.123714268904158e-05   -0.00013537579902507389
-0.0002880548492132216   5.610792556637843e-05   -4.9998600640339e-05
-0.0002880548492132216   5.610792556637843e-05   -4.9998600640339e-05
-0.0002880548492132216   5.610792556637843e-05   -4.9998600640339e-05
-0.0002880548492132216   5.610792556637843e-05   -4.9998600640339e-05
0.0003476142169650463   -5.2301194170432594e-05   0.00011794383464945168
0.0003476142169650463   -5.2301194170432594e-05   0.00011794383464945168
0.0003476142169650463   -5.2301194170432594e-05   0.00011794383464945168
0.0003476142169650463   -5.2301194170432594e-05   0.00011794383464945168
0.00017492838433043963   -6.623984477126255e-05   -0.0001782290767687253
0.00017492838433043963   -6.623984477126255e-05   -0.0001782290767687253
0.00017492838433043963   -6.623984477126255e-05   -0.0001782290767687253
0.00017492838433043963   -6.623984477126255e-05   -0.0001782290767687253
0.0001792678249064411   -5.106522675617231e-05   8.444318408522451e-05
0.0001792678249064411   -5.106522675617231e-05   8.444318408522451e-05
0.0001792678249064411   -5.106522675617231e-05   8.444318408522451e-05
0.0001792678249064411   -5.106522675617231e-05   8.444318408522451e-05
0.0003563611822628664   -6.789623725708856e-05   -0.000200613805208268
0.0003563611822628664   -6.789623725708856e-05   -0.000200613805208268
0.0003563611822628664   -6.789623725708856e-05   -0.000200613805208268
0.0003563611822628664   -6.789623725708856e-05   -0.000200613805208268
0.00025401884663281426   -5.34277128697979e-05   -3.872436045722263e-05
0.00025401884663281426   -5.34277128697979e-05   -3.872436045722263e-05
0.00025401884663281426   -5.34277128697979e-05   -3.872436045722263e-05
0.00025401884663281426   -5.34277128697979e-05   -3.872436045722263e-05
0.0003563611822628664   -5.106522675617231e-05   9.454179038577426e-05
0.0003563611822628664   -5.106522675617231e-05   9.454179038577426e-05
0.0003563611822628664   -5.106522675617231e-05   9.454179038577426e-05
0.0003563611822628664   -5.106522675617231e-05   9.454179038577426e-05
0.0001792678249064411   -6.789623725708856e-05   -0.00021071241150881753
0.0001792678249064411   -6.789623725708856e-05   -0.00021071241150881753
0.0001792678249064411   -6.789623725708856e-05   -0.00021071241150881753
0.0001792678249064411   -6.789623725708856e-05   -0.00021071241150881753
0.00018293725848425287   -4.9297285605567204e-05   6.654610138464093e-05
0.00018293725848425287   -4.9297285605567204e-05   6.654610138464093e-05
0.00018293725848425287   -4.9297285605567204e-05   6.654610138464093e-05
0.00018293725848425287   -4.9297285605567204e-05   6.654610138464093e-05
0.0003618190386674551   -6.729390343147325e-05   -0.00022079222822515236
0.0003618190386674551   -6.729390343147325e-05   -0.00022079222822515236
0.0003618190386674551   -6.729390343147325e-05   -0.00022079222822515236
0.0003618190386674551   -6.729390343147325e-05   -0.00022079222822515236
0.00026303240656876413   -5.513095866849227e-05   -6.3445608251788e-05
0.00026303240656876413   -5.513095866849227e-05   -6.3445608251788e-05
0.00026303240656876413   -5.513095866849227e-05   -6.3445608251788e-05
0.00026303240656876413   -5.513095866849227e-05   -6.3445608251788e-05
0.0003618190386674551   -4.9297285605567204e-05   7.734407208018473e-05
0.0003618190386674551   -4.9297285605567204e-05   7.734407208018473e-05
0.0003618190386674551   -4.9297285605567204e-05   7.734407208018473e-05
0.0003618190386674551   -4.9297285605567204e-05   7.734407208018473e-05
0.00018293725848425287   -6.729390343147325e-05   -0.0002315901989206953
0.00018293725848425287   -6.729390343147325e-05   -0.0002315901989206953
0.00018293725848425287   -6.729390343147325e-05   -0.0002315901989206953
0.00018293725848425287   -6.729390343147325e-05   -0.0002315901989206953
0.00018678058925949992   -4.238370966868146e-05   3.17445984340161e-05
0.00018678058925949992   -4.238370966868146e-05   3.17445984340161e-05
0.00018678058925949992   -4.238370966868146e-05   3.17445984340161e-05
0.00018678058925949992   -4.238370966868146e-05   3.17445984340161e-05
0.0003671923644514648   -6.35873853344019e-05   -0.0002562194881531594
0.0003671923644514648   -6.35873853344019e-05   -0.0002562194881531594
0.0003671923644514648   -6.35873853344019e-05   -0.0002562194881531594
0.0003671923644514648   -6.35873853344019e-05   -0.0002562194881531594
0.0002632254938775061   -5.3078058770122255e-05   -8.924696646846328e-05
0.0002632254938775061   -5.3078058770122255e-05   -8.924696646846328e-05
0.0002632254938775061   -5.3078058770122255e-05   -8.924696646846328e-05
0.0002632254938775061   -5.3078058770122255e-05   -8.924696646846328e-05
0.00017492838433043963   -3.4093965979064764e-05   1.0828520961641067e-05
0.00017492838433043963   -3.4093965979064764e-05   1.0828520961641067e-05
0.00017492838433043963   -3.4093965979064764e-05   1.0828520961641067e-05
0.00017492838433043963   -3.4093965979064764e-05   1.0828520961641067e-05
2.1283760641540835e-05   -6.693921509406953e-05   -0.00026495300132219415
2.1283760641540835e-05   -6.693921509406953e-05   -0.00026495300132219415
2.1283760641540835e-05   -6.693921509406953e-05   -0.00026495300132219415
2.1283760641540835e-05   -6.693921509406953e-05   -0.00026495300132219415
2.6347622181770755e-05   -3.248970137166053e-05   -2.639046177956017e-06
2.6347622181770755e-05   -3.248970137166053e-05   -2.639046177956017e-06
2.6347622181770755e-05   -3.248970137166053e-05   -2.639046177956017e-06
2.6347622181770755e-05   -3.248970137166053e-05   -2.639046177956017e-06
0.00017926782490644154   -6.662038911533531e-05   -0.00023702763807286788
0.00017926782490644154   -6.662038911533531e-05   -0.00023702763807286788
0.00017926782490644154   -6.662038911533531e-05   -0.00023702763807286788
0.00017926782490644154   -6.662038911533531e-05   -0.00023702763807286788
0.00010086032066627699   -4.513235465327878e-05   -0.00011924128501649301
0.00010086032066627699   -4.513235465327878e-05   -0.00011924128501649301
0.00010086032066627699   -4.513235465327878e-05   -0.00011924128501649301
0.00010086032066627699   -4.513235465327878e-05   -0.00011924128501649301
0.0001792678249064411   -3.248970137166053e-05   1.783936646825024e-05
0.0001792678249064411   -3.248970137166053e-05   1.783936646825024e-05
0.0001792678249064411   -3.248970137166053e-05   1.783936646825024e-05
0.0001792678249064411   -3.248970137166053e-05   1.783936646825024e-05
2.6347622181770755e-05   -6.662038911533358e-05   -0.0002575060507190724
2.6347622181770755e-05   -6.662038911533358e-05   -0.0002575060507190724
2.6347622181770755e-05   -6.662038911533358e-05   -0.0002575060507190724
2.6347622181770755e-05   -6.662038911533358e-05   -0.0002575060507190724
3.0919379381064344e-05   -2.9482395467668107e-05   -4.223830027462808e-06
3.0919379381064344e-05   -2.9482395467668107e-05   -4.223830027462808e-06
3.0919379381064344e-05   -2.9482395467668107e-05   -4.223830027462808e-06
3.0919379381064344e-05   -2.9482395467668107e-05   -4.223830027462808e-06
0.00018293725848425287   -6.575924371591754e-05   -0.00023582085291716168
0.00018293725848425287   -6.575924371591754e-05   -0.00023582085291716168
0.00018293725848425287   -6.575924371591754e-05   -0.00023582085291716168
0.00018293725848425287   -6.575924371591754e-05   -0.00023582085291716168
0.00010375678688510329   -4.5658669780953426e-05   -0.00011591374461288701
0.00010375678688510329   -4.5658669780953426e-05   -0.00011591374461288701
0.00010375678688510329   -4.5658669780953426e-05   -0.00011591374461288701
0.00010375678688510329   -4.5658669780953426e-05   -0.00011591374461288701
0.00018293725848425287   -2.9482395467668107e-05   1.7542278921485466e-05
0.00018293725848425287   -2.9482395467668107e-05   1.7542278921485466e-05
0.00018293725848425287   -2.9482395467668107e-05   1.7542278921485466e-05
0.00018293725848425287   -2.9482395467668107e-05   1.7542278921485466e-05
3.0919379381064236e-05   -6.575924371591754e-05   -0.0002575869618661108
3.0919379381064236e-05   -6.575924371591754e-05   -0.0002575869618661108
3.0919379381064236e-05   -6.575924371591754e-05   -0.0002575869618661108
3.0919379381064236e-05   -6.575924371591754e-05   -0.0002575869618661108
3.773732272692779e-05   -2.5205274135733577e-05   -7.335977058748819e-06
3.773732272692779e-05   -2.5205274135733577e-05   -7.335977058748819e-06
3.773732272692779e-05   -2.5205274135733577e-05   -7.335977058748819e-06
3.773732272692779e-05   -2.5205274135733577e-05   -7.335977058748819e-06
0.0001867805892594997   -6.401735012187548e-05   -0.00023245417568801643
0.0001867805892594997   -6.401735012187548e-05   -0.00023245417568801643
0.0001867805892594997   -6.401735012187548e-05   -0.00023245417568801643
0.0001867805892594997   -6.401735012187548e-05   -0.00023245417568801643
0.00010922611828824273   -4.498912501481843e-05   -0.00011461365913348863
0.00010922611828824273   -4.498912501481843e-05   -0.00011461365913348863
0.00010922611828824273   -4.498912501481843e-05   -0.00011461365913348863
0.00010922611828824273   -4.498912501481843e-05   -0.00011461365913348863
2.1283760641540835e-05   -1.821466606359047e-05   -2.7413539739997925e-05
2.1283760641540835e-05   -1.821466606359047e-05   -2.7413539739997925e-05
2.1283760641540835e-05   -1.821466606359047e-05   -2.7413539739997925e-05
2.1283760641540835e-05   -1.821466606359047e-05   -2.7413539739997925e-05
-0.00013079423268926884   -8.126759493256794e-05   -0.0003187086192793995
-0.00013079423268926884   -8.126759493256794e-05   -0.0003187086192793995
-0.00013079423268926884   -8.126759493256794e-05   -0.0003187086192793995
-0.00013079423268926884   -8.126759493256794e-05   -0.0003187086192793995
-0.00012291204254082094   -1.6333203361793003e-05   -5.839749261018004e-05
-0.00012291204254082094   -1.6333203361793003e-05   -5.839749261018004e-05
-0.00012291204254082094   -1.6333203361793003e-05   -5.839749261018004e-05
-0.00012291204254082094   -1.6333203361793003e-05   -5.839749261018004e-05
2.6347622181770755e-05   -8.310295220015709e-05   -0.00026710175117814947
2.6347622181770755e-05   -8.310295220015709e-05   -0.00026710175117814947
2.6347622181770755e-05   -8.310295220015709e-05   -0.00026710175117814947
2.6347622181770755e-05   -8.310295220015709e-05   -0.00026710175117814947
-4.974032930843994e-05   -4.6076705552289265e-05   -0.00016250424668318468
-4.974032930843994e-05   -4.6076705552289265e-05   -0.00016250424668318468
-4.974032930843994e-05   -4.6076705552289265e-05   -0.00016250424668318468
-4.974032930843994e-05   -4.6076705552289265e-05   -0.00016250424668318468
2.6347622181770755e-05   -1.6333203361793003e-05   -1.8335643307163148e-05
2.6347622181770755e-05   -1.6333203361793003e-05   -1.8335643307163148e-05
2.6347622181770755e-05   -1.6333203361793003e-05   -1.8335643307163148e-05
2.6347622181770755e-05   -1.6333203361793003e-05   -1.8335643307163148e-05
-0.00012291204254082116   -8.310295220015709e-05   -0.00030716360048116745
-0.00012291204254082116   -8.310295220015709e-05   -0.00030716360048116745
-0.00012291204254082116   -8.310295220015709e-05   -0.00030716360048116745
-0.00012291204254082116   -8.310295220015709e-05   -0.00030716360048116745
-0.000116126369853736   -1.3374667321996297e-05   -5.459839850106146e-05
-0.000116126369853736   -1.3374667321996297e-05   -5.459839850106146e-05
-0.000116126369853736   -1.3374667321996297e-05   -5.459839850106146e-05
-0.000116126369853736   -1.3374667321996297e-05   -5.459839850106146e-05
3.0919379381064236e-05   -8.276014548845752e-05   -0.0002580433603258535
3.0919379381064236e-05   -8.276014548845752e-05   -0.0002580433603258535
3.0919379381064236e-05   -8.276014548845752e-05   -0.0002580433603258535
3.0919379381064236e-05   -8.276014548845752e-05   -0.0002580433603258535
-4.4140194427986725e-05   -4.7153951914577844e-05   -0.00015430778678842934
-4.4140194427986725e-05   -4.7153951914577844e-05   -0.00015430778678842934
-4.4140194427986725e-05   -4.7153951914577844e-05   -0.00015430778678842934
-4.4140194427986725e-05   -4.7153951914577844e-05   -0.00015430778678842934
3.0919379381064236e-05   -1.3374667321998032e-05   -1.2967111601184904e-05
3.0919379381064236e-05   -1.3374667321998032e-05   -1.2967111601184904e-05
3.0919379381064236e-05   -1.3374667321998032e-05   -1.2967111601184904e-05
3.0919379381064236e-05   -1.3374667321998032e-05   -1.2967111601184904e-05
-0.00011612636985373637   -8.276014548845925e-05   -0.0002996746472257294
-0.00011612636985373637   -8.276014548845925e-05   -0.0002996746472257294
-0.00011612636985373637   -8.276014548845925e-05   -0.0002996746472257294
-0.00011612636985373637   -8.276014548845925e-05   -0.0002996746472257294
-0.00010442271882026884   -1.0573286402967147e-05   -5.435670167227083e-05
-0.00010442271882026884   -1.0573286402967147e-05   -5.435670167227083e-05
-0.00010442271882026884   -1.0573286402967147e-05   -5.435670167227083e-05
-0.00010442271882026884   -1.0573286402967147e-05   -5.435670167227083e-05
3.773732272692779e-05   -7.991197504344724e-05   -0.00024968689106664413
3.773732272692779e-05   -7.991197504344724e-05   -0.00024968689106664413
3.773732272692779e-05   -7.991197504344724e-05   -0.00024968689106664413
3.773732272692779e-05   -7.991197504344724e-05   -0.00024968689106664413
-3.6865110993604167e-05   -4.6150187271715506e-05   -0.0001456065741954637
-3.6865110993604167e-05   -4.6150187271715506e-05   -0.0001456065741954637
-3.6865110993604167e-05   -4.6150187271715506e-05   -0.0001456065741954637
-3.6865110993604167e-05   -4.6150187271715506e-05   -0.0001456065741954637
-0.0001307942326892685   3.953919553748367e-06   -3.8201674150222485e-05
-0.0001307942326892685   3.953919553748367e-06   -3.8201674150222485e-05
-0.0001307942326892685   3.953919553748367e-06   -3.8201674150222485e-05
-0.0001307942326892685   3.953919553748367e-06   -3.8201674150222485e-05
-0.0003006713296494608   -0.00010183172113253057   -0.00038480155349564487
-0.0003006713296494608   -0.00010183172113253057   -0.00038480155349564487
-0.0003006713296494608   -0.00010183172113253057   -0.00038480155349564487
-0.0003006713296494608   -0.00010183172113253057   -0.00038480155349564487
-0.0002912976137203565   7.474569569709474e-06   -9.85332326618165e-05
-0.0002912976137203565   7.474569569709474e-06   -9.85332326618165e-05
-0.0002912976137203565   7.474569569709474e-06   -9.85332326618165e-05
-0.0002912976137203565   7.474569569709474e-06   -9.85332326618165e-05
-0.00012291204254082094   -0.00011349984617573666   -0.0003065912018471097
-0.00012291204254082094   -0.00011349984617573666   -0.0003065912018471097
-0.00012291204254082094   -0.00011349984617573666   -0.0003065912018471097
-0.00012291204254082094   -0.00011349984617573666   -0.0003065912018471097
-0.0002083505256182711   -5.204926971610381e-05   -0.0002010640759271382
-0.0002083505256182711   -5.204926971610381e-05   -0.0002010640759271382
-0.0002083505256182711   -5.204926971610381e-05   -0.0002010640759271382
-0.0002083505256182711   -5.204926971610381e-05   -0.0002010640759271382
-0.00012291204254082094   7.474569569709474e-06   -2.5948583214550902e-05
-0.00012291204254082094   7.474569569709474e-06   -2.5948583214550902e-05
-0.00012291204254082094   7.474569569709474e-06   -2.5948583214550902e-05
-0.00012291204254082094   7.474569569709474e-06   -2.5948583214550902e-05
-0.0002912976137203565   -0.00011349984617573493   -0.00037917585129437683
-0.0002912976137203565   -0.00011349984617573493   -0.00037917585129437683
-0.0002912976137203565   -0.00011349984617573493   -0.00037917585129437683
-0.0002912976137203565   -0.00011349984617573493   -0.00037917585129437683
-0.00028230763677279186   1.0719903201419217e-05   -8.826051303708823e-05
-0.00028230763677279186   1.0719903201419217e-05   -8.826051303708823e-05
-0.00028230763677279186   1.0719903201419217e-05   -8.826051303708823e-05
-0.00028230763677279186   1.0719903201419217e-05   -8.826051303708823e-05
-0.00011612636985373627   -0.00011417964917413877   -0.00029028955981018063
-0.00011612636985373627   -0.00011417964917413877   -0.00029028955981018063
-0.00011612636985373627   -0.00011417964917413877   -0.00029028955981018063
-0.00011612636985373627   -0.00011417964917413877   -0.00029028955981018063
-0.00019921204800070754   -5.2267681955715795e-05   -0.00018896060989628208
-0.00019921204800070754   -5.2267681955715795e-05   -0.00018896060989628208
-0.00019921204800070754   -5.2267681955715795e-05   -0.00018896060989628208
-0.00019921204800070754   -5.2267681955715795e-05   -0.00018896060989628208
-0.00011612636985373605   1.0719903201419217e-05   -1.332078161175431e-05
-0.00011612636985373605   1.0719903201419217e-05   -1.332078161175431e-05
-0.00011612636985373605   1.0719903201419217e-05   -1.332078161175431e-05
-0.00011612636985373605   1.0719903201419217e-05   -1.332078161175431e-05
-0.00028230763677279235   -0.00011417964917413703   -0.00036522929123551477
-0.00028230763677279235   -0.00011417964917413703   -0.00036522929123551477
-0.00028230763677279235   -0.00011417964917413703   -0.00036522929123551477
-0.00028230763677279235   -0.00011417964917413703   -0.00036522929123551477
-0.0002676027407622624   1.3474440442457977e-05   -7.776532955029551e-05
-0.0002676027407622624   1.3474440442457977e-05   -7.776532955029551e-05
-0.0002676027407622624   1.3474440442457977e-05   -7.776532955029551e-05
-0.0002676027407622624   1.3474440442457977e-05   -7.776532955029551e-05
-0.00010442271882026927   -0.00010447905511677853   -0.0002789599354514115
-0.00010442271882026927   -0.00010447905511677853   -0.0002789599354514115
-0.00010442271882026927   -0.00010447905511677853   -0.0002789599354514115
-0.00010442271882026927   -0.00010447905511677853   -0.0002789599354514115
-0.0001901522408115383   -4.636304728368283e-05   -0.00017094700349914874
-0.0001901522408115383   -4.636304728368283e-05   -0.00017094700349914874
-0.0001901522408115383   -4.636304728368283e-05   -0.00017094700349914874
-0.0001901522408115383   -4.636304728368283e-05   -0.00017094700349914874
-0.0003006713296494608   4.265176558864055e-05   -6.669170311966559e-05
-0.0003006713296494608   4.265176558864055e-05   -6.669170311966559e-05
-0.0003006713296494608   4.265176558864055e-05   -6.669170311966559e-05
-0.0003006713296494608   4.265176558864055e-05   -6.669170311966559e-05
-0.0005187747681387894   0.0   -0.00045578849328839835
-0.0005187747681387894   0.0   -0.00045578849328839835
-0.0005187747681387894   0.0   -0.00045578849328839835
-0.0005187747681387894   0.0   -0.00045578849328839835
-0.0005050235152716928   5.417098096950276e-05   -5.1442422371388366e-05
-0.0005050235152716928   5.417098096950276e-05   -5.1442422371388366e-05
-0.0005050235152716928   5.417098096950276e-05   -5.1442422371388366e-05
-0.0005050235152716928   5.417098096950276e-05   -5.1442422371388366e-05
-0.000291297613720356   0.0   -0.0003751496697085825
-0.000291297613720356   0.0   -0.0003751496697085825
-0.000291297613720356   0.0   -0.0003751496697085825
-0.000291297613720356   0.0   -0.0003751496697085825
-0.00038676841184509395   1.645518885962788e-05   -0.0002259047861497953
-0.00038676841184509395   1.645518885962788e-05   -0.0002259047861497953
-0.00038676841184509395   1.645518885962788e-05   -0.0002259047861497953
-0.00038676841184509395   1.645518885962788e-05   -0.0002259047861497953
-0.00029129761372035626   5.417098096950276e-05   -1.8939833789686535e-05
-0.00029129761372035626   5.417098096950276e-05   -1.8939833789686535e-05
-0.00029129761372035626   5.417098096950276e-05   -1.8939833789686535e-05
-0.00029129761372035626   5.417098096950276e-05   -1.8939833789686535e-05
-0.0005050235152716919   0.0   -0.0004076522582902829
-0.0005050235152716919   0.0   -0.0004076522582902829
-0.0005050235152716919   0.0   -0.0004076522582902829
-0.0005050235152716919   0.0   -0.0004076522582902829
-0.0004934134898585644   5.6751789667065095e-05   -2.144655233578263e-05
-0.0004934134898585644   5.6751789667065095e-05   -2.144655233578263e-05
-0.0004934134898585644   5.6751789667065095e-05   -2.144655233578263e-05
-0.0004934134898585644   5.6751789667065095e-05   -2.144655233578263e-05
-0.00028230763677279235   0.0   -0.00033923856701183284
-0.00028230763677279235   0.0   -0.00033923856701183284
-0.00028230763677279235   0.0   -0.00033923856701183284
-0.00028230763677279235   0.0   -0.00033923856701183284
-0.0003825762694445371   2.6207780016196044e-05   -0.0001878488472353032
-0.0003825762694445371   2.6207780016196044e-05   -0.0001878488472353032
-0.0003825762694445371   2.6207780016196044e-05   -0.0001878488472353032
-0.0003825762694445371   2.6207780016196044e-05   -0.0001878488472353032
-0.00028230763677279235   5.6751789667065095e-05   1.2604521464456078e-05
-0.00028230763677279235   5.6751789667065095e-05   1.2604521464456078e-05
-0.00028230763677279235   5.6751789667065095e-05   1.2604521464456078e-05
-0.00028230763677279235   5.6751789667065095e-05   1.2604521464456078e-05
-0.0004934134898585634   0.0   -0.0003732896408120698
-0.0004934134898585634   0.0   -0.0003732896408120698
-0.0004934134898585634   0.0   -0.0003732896408120698
-0.0004934134898585634   0.0   -0.0003732896408120698
-0.0004702724505360827   6.123714268904158e-05   2.6752928975216743e-05
-0.0004702724505360827   6.123714268904158e-05   2.6752928975216743e-05
-0.0004702724505360827   6.123714268904158e-05   2.6752928975216743e-05
-0.0004702724505360827   6.123714268904158e-05   2.6752928975216743e-05
-0.00026760274076226287   0.0   -0.0002742876350343926
-0.00026760274076226287   0.0   -0.0002742876350343926
-0.00026760274076226287   0.0   -0.0002742876350343926
-0.00026760274076226287   0.0   -0.0002742876350343926
-0.0003624590762667583   3.236545191569011e-05   -0.0001356130136763137
-0.0003624590762667583   3.236545191569011e-05   -0.0001356130136763137
-0.0003624590762667583   3.236545191569011e-05   -0.0001356130136763137
-0.0003624590762667583   3.236545191569011e-05   -0.0001356130136763137
0.0003845956752051156   -6.623984477126255e-05   0.0002299392733790791
0.0003845956752051156   -6.623984477126255e-05   0.0002299392733790791
0.0003845956752051156   -6.623984477126255e-05   0.0002299392733790791
0.0003845956752051156   -6.623984477126255e-05   0.0002299392733790791
0.00019978118316823894   -5.085834651834785e-05   -6.885598106396666e-05
0.00019978118316823894   -5.085834651834785e-05   -6.885598106396666e-05
0.00019978118316823894   -5.085834651834785e-05   -6.885598106396666e-05
0.00019978118316823894   -5.085834651834785e-05   -6.885598106396666e-05
0.00019470625112793713   -6.789623725708856e-05   0.00020329448604300762
0.00019470625112793713   -6.789623725708856e-05   0.00020329448604300762
0.00019470625112793713   -6.789623725708856e-05   0.00020329448604300762
0.00019470625112793713   -6.789623725708856e-05   0.00020329448604300762
0.0003804145155854547   -5.5951414241315126e-05   -0.00011338618186231897
0.0003804145155854547   -5.5951414241315126e-05   -0.00011338618186231897
0.0003804145155854547   -5.5951414241315126e-05   -0.00011338618186231897
0.0003804145155854547   -5.5951414241315126e-05   -0.00011338618186231897
0.0002780250265026876   -5.6977761950237e-05   5.787877523431373e-05
0.0002780250265026876   -5.6977761950237e-05   5.787877523431373e-05
0.0002780250265026876   -5.6977761950237e-05   5.787877523431373e-05
0.0002780250265026876   -5.6977761950237e-05   5.787877523431373e-05
0.0003804145155854547   -6.789623725708856e-05   0.00019612759223354426
0.0003804145155854547   -6.789623725708856e-05   0.00019612759223354426
0.0003804145155854547   -6.789623725708856e-05   0.00019612759223354426
0.0003804145155854547   -6.789623725708856e-05   0.00019612759223354426
0.00019470625112793713   -5.5951414241315126e-05   -0.00010621928805285442
0.00019470625112793713   -5.5951414241315126e-05   -0.00010621928805285442
0.00019470625112793713   -5.5951414241315126e-05   -0.00010621928805285442
0.00019470625112793713   -5.5951414241315126e-05   -0.00010621928805285442
0.00019011991826166765   -6.729390343147325e-05   0.0001826330565410459
0.00019011991826166765   -6.729390343147325e-05   0.0001826330565410459
0.00019011991826166765   -6.729390343147325e-05   0.0001826330565410459
0.00019011991826166765   -6.729390343147325e-05   0.0001826330565410459
0.0003755964609998611   -5.6433926391557046e-05   -0.00013301050091322683
0.0003755964609998611   -5.6433926391557046e-05   -0.00013301050091322683
0.0003755964609998611   -5.6433926391557046e-05   -0.00013301050091322683
0.0003755964609998611   -5.6433926391557046e-05   -0.00013301050091322683
0.0002777561917053772   -5.797655781529694e-05   3.0982193431823655e-05
0.0002777561917053772   -5.797655781529694e-05   3.0982193431823655e-05
0.0002777561917053772   -5.797655781529694e-05   3.0982193431823655e-05
0.0002777561917053772   -5.797655781529694e-05   3.0982193431823655e-05
0.0003755964609998617   -6.729390343147498e-05   0.00017611707031709584
0.0003755964609998617   -6.729390343147498e-05   0.00017611707031709584
0.0003755964609998617   -6.729390343147498e-05   0.00017611707031709584
0.0003755964609998617   -6.729390343147498e-05   0.00017611707031709584
0.00019011991826166765   -5.6433926391557046e-05   -0.00012649451468927687
0.00019011991826166765   -5.6433926391557046e-05   -0.00012649451468927687
0.00019011991826166765   -5.6433926391557046e-05   -0.00012649451468927687
0.00019011991826166765   -5.6433926391557046e-05   -0.00012649451468927687
0.00018452693878951863   -6.35873853344019e-05   0.00014901932133360753
0.00018452693878951863   -6.35873853344019e-05   0.00014901932133360753
0.00018452693878951863   -6.35873853344019e-05   0.00014901932133360753
0.00018452693878951863   -6.35873853344019e-05   0.00014901932133360753
0.00036804903485738294   -5.530353697582972e-05   -0.00016182114779464353
0.00036804903485738294   -5.530353697582972e-05   -0.00016182114779464353
0.00036804903485738294   -5.530353697582972e-05   -0.00016182114779464353
0.00036804903485738294   -5.530353697582972e-05   -0.00016182114779464353
0.00026822238230433726   -5.513510856264281e-05   4.45554941252025e-06
0.00026822238230433726   -5.513510856264281e-05   4.45554941252025e-06
0.00026822238230433726   -5.513510856264281e-05   4.45554941252025e-06
0.00026822238230433726   -5.513510856264281e-05   4.45554941252025e-06
0.00019978118316823894   -6.693921509406953e-05   0.0001721513972463614
0.00019978118316823894   -6.693921509406953e-05   0.0001721513972463614
0.00019978118316823894   -6.693921509406953e-05   0.0001721513972463614
0.00019978118316823894   -6.693921509406953e-05   0.0001721513972463614
4.3231901901691155e-05   -3.1658543379482415e-05   -6.759566850246534e-05
4.3231901901691155e-05   -3.1658543379482415e-05   -6.759566850246534e-05
4.3231901901691155e-05   -3.1658543379482415e-05   -6.759566850246534e-05
4.3231901901691155e-05   -3.1658543379482415e-05   -6.759566850246534e-05
3.519904421112811e-05   -6.662038911533358e-05   0.00019679564429678914
3.519904421112811e-05   -6.662038911533358e-05   0.00019679564429678914
3.519904421112811e-05   -6.662038911533358e-05   0.00019679564429678914
3.519904421112811e-05   -6.662038911533358e-05   0.00019679564429678914
0.00019470625112793713   -3.359308108561582e-05   -8.886608538238958e-05
0.00019470625112793713   -3.359308108561582e-05   -8.886608538238958e-05
0.00019470625112793713   -3.359308108561582e-05   -8.886608538238958e-05
0.00019470625112793713   -3.359308108561582e-05   -8.886608538238958e-05
0.00011807464158196954   -4.786661815236147e-05   4.741738610093693e-05
0.00011807464158196954   -4.786661815236147e-05   4.741738610093693e-05
0.00011807464158196954   -4.786661815236147e-05   4.741738610093693e-05
0.00011807464158196954   -4.786661815236147e-05   4.741738610093693e-05
0.00019470625112793724   -6.662038911533531e-05   0.00017697925947895814
0.00019470625112793724   -6.662038911533531e-05   0.00017697925947895814
0.00019470625112793724   -6.662038911533531e-05   0.00017697925947895814
0.00019470625112793724   -6.662038911533531e-05   0.00017697925947895814
3.519904421112811e-05   -3.359308108561582e-05   -6.904970056455934e-05
3.519904421112811e-05   -3.359308108561582e-05   -6.904970056455934e-05
3.519904421112811e-05   -3.359308108561582e-05   -6.904970056455934e-05
3.519904421112811e-05   -3.359308108561582e-05   -6.904970056455934e-05
2.9478175915359527e-05   -6.575924371591754e-05   0.00019717493326307407
2.9478175915359527e-05   -6.575924371591754e-05   0.00019717493326307407
2.9478175915359527e-05   -6.575924371591754e-05   0.00019717493326307407
2.9478175915359527e-05   -6.575924371591754e-05   0.00019717493326307407
0.00019011991826166765   -3.4471692518422276e-05   -8.93338346992672e-05
0.00019011991826166765   -3.4471692518422276e-05   -8.93338346992672e-05
0.00019011991826166765   -3.4471692518422276e-05   -8.93338346992672e-05
0.00019011991826166765   -3.4471692518422276e-05   -8.93338346992672e-05
0.00011120656007373959   -4.689993979578068e-05   4.964537731369772e-05
0.00011120656007373959   -4.689993979578068e-05   4.964537731369772e-05
0.00011120656007373959   -4.689993979578068e-05   4.964537731369772e-05
0.00011120656007373959   -4.689993979578068e-05   4.964537731369772e-05
0.00019011991826166808   -6.575924371591581e-05   0.0001784024025445769
0.00019011991826166808   -6.575924371591581e-05   0.0001784024025445769
0.00019011991826166808   -6.575924371591581e-05   0.0001784024025445769
0.00019011991826166808   -6.575924371591581e-05   0.0001784024025445769
2.9478175915359527e-05   -3.4471692518422276e-05   -7.056130398077308e-05
2.9478175915359527e-05   -3.4471692518422276e-05   -7.056130398077308e-05
2.9478175915359527e-05   -3.4471692518422276e-05   -7.056130398077308e-05
2.9478175915359527e-05   -3.4471692518422276e-05   -7.056130398077308e-05
2.311119131625909e-05   -6.401735012187548e-05   0.0002036809677662295
2.311119131625909e-05   -6.401735012187548e-05   0.0002036809677662295
2.311119131625909e-05   -6.401735012187548e-05   0.0002036809677662295
2.311119131625909e-05   -6.401735012187548e-05   0.0002036809677662295
0.00018452693878951852   -3.372713584180037e-05   -8.351940659058216e-05
0.00018452693878951852   -3.372713584180037e-05   -8.351940659058216e-05
0.00018452693878951852   -3.372713584180037e-05   -8.351940659058216e-05
0.00018452693878951852   -3.372713584180037e-05   -8.351940659058216e-05
0.00010699168875692407   -4.486764247852229e-05   5.2390314112442035e-05
0.00010699168875692407   -4.486764247852229e-05   5.2390314112442035e-05
0.00010699168875692407   -4.486764247852229e-05   5.2390314112442035e-05
0.00010699168875692407   -4.486764247852229e-05   5.2390314112442035e-05
4.323190190169126e-05   -8.126759493256794e-05   0.00017739593963929465
4.323190190169126e-05   -8.126759493256794e-05   0.00017739593963929465
4.323190190169126e-05   -8.126759493256794e-05   0.00017739593963929465
4.323190190169126e-05   -8.126759493256794e-05   0.00017739593963929465
-0.00010710491900088723   -1.3639224452957274e-05   -3.258840624390316e-05
-0.00010710491900088723   -1.3639224452957274e-05   -3.258840624390316e-05
-0.00010710491900088723   -1.3639224452957274e-05   -3.258840624390316e-05
-0.00010710491900088723   -1.3639224452957274e-05   -3.258840624390316e-05
-0.00011960656120476286   -8.310295220015709e-05   0.00022841412064951092
-0.00011960656120476286   -8.310295220015709e-05   0.00022841412064951092
-0.00011960656120476286   -8.310295220015709e-05   0.00022841412064951092
-0.00011960656120476286   -8.310295220015709e-05   0.00022841412064951092
3.519904421112822e-05   -1.4412657513826477e-05   -7.08093985221064e-05
3.519904421112822e-05   -1.4412657513826477e-05   -7.08093985221064e-05
3.519904421112822e-05   -1.4412657513826477e-05   -7.08093985221064e-05
3.519904421112822e-05   -1.4412657513826477e-05   -7.08093985221064e-05
-3.5704353706226806e-05   -4.656727812815155e-05   6.665570370874676e-05
-3.5704353706226806e-05   -4.656727812815155e-05   6.665570370874676e-05
-3.5704353706226806e-05   -4.656727812815155e-05   6.665570370874676e-05
-3.5704353706226806e-05   -4.656727812815155e-05   6.665570370874676e-05
3.519904421112811e-05   -8.310295220015709e-05   0.00018719994383771098
3.519904421112811e-05   -8.310295220015709e-05   0.00018719994383771098
3.519904421112811e-05   -8.310295220015709e-05   0.00018719994383771098
3.519904421112811e-05   -8.310295220015709e-05   0.00018719994383771098
-0.00011960656120476264   -1.4412657513828211e-05   -2.9595221710308414e-05
-0.00011960656120476264   -1.4412657513828211e-05   -2.9595221710308414e-05
-0.00011960656120476264   -1.4412657513828211e-05   -2.9595221710308414e-05
-0.00011960656120476264   -1.4412657513828211e-05   -2.9595221710308414e-05
-0.00012723531158480923   -8.276014548845925e-05   0.00023716161813364806
-0.00012723531158480923   -8.276014548845925e-05   0.00023716161813364806
-0.00012723531158480923   -8.276014548845925e-05   0.00023716161813364806
-0.00012723531158480923   -8.276014548845925e-05   0.00023716161813364806
2.9478175915359527e-05   -1.535500660460043e-05   -6.447061103028199e-05
2.9478175915359527e-05   -1.535500660460043e-05   -6.447061103028199e-05
2.9478175915359527e-05   -1.535500660460043e-05   -6.447061103028199e-05
2.9478175915359527e-05   -1.535500660460043e-05   -6.447061103028199e-05
-4.4161996534948934e-05   -4.645275679739276e-05   7.692165983590833e-05
-4.4161996534948934e-05   -4.645275679739276e-05   7.692165983590833e-05
-4.4161996534948934e-05   -4.645275679739276e-05   7.692165983590833e-05
-4.4161996534948934e-05   -4.645275679739276e-05   7.692165983590833e-05
2.9478175915359527e-05   -8.276014548845925e-05   0.0001967185348033338
2.9478175915359527e-05   -8.276014548845925e-05   0.0001967185348033338
2.9478175915359527e-05   -8.276014548845925e-05   0.0001967185348033338
2.9478175915359527e-05   -8.276014548845925e-05   0.0001967185348033338
-0.0001272353115848089   -1.535500660460043e-05   -2.402752769996644e-05
-0.0001272353115848089   -1.535500660460043e-05   -2.402752769996644e-05
-0.0001272353115848089   -1.535500660460043e-05   -2.402752769996644e-05
-0.0001272353115848089   -1.535500660460043e-05   -2.402752769996644e-05
-0.0001362224482611171   -7.991197504344724e-05   0.00024850817464533784
-0.0001362224482611171   -7.991197504344724e-05   0.00024850817464533784
-0.0001362224482611171   -7.991197504344724e-05   0.00024850817464533784
-0.0001362224482611171   -7.991197504344724e-05   0.00024850817464533784
2.311119131625909e-05   -1.5290847266693705e-05   -5.582056798300833e-05
2.311119131625909e-05   -1.5290847266693705e-05   -5.582056798300833e-05
2.311119131625909e-05   -1.5290847266693705e-05   -5.582056798300833e-05
2.311119131625909e-05   -1.5290847266693705e-05   -5.582056798300833e-05
-5.104272360307861e-05   -4.464861753595076e-05   8.538395237744174e-05
-5.104272360307861e-05   -4.464861753595076e-05   8.538395237744174e-05
-5.104272360307861e-05   -4.464861753595076e-05   8.538395237744174e-05
-5.104272360307861e-05   -4.464861753595076e-05   8.538395237744174e-05
-0.00010710491900088734   -0.00010183172113253057   0.0002153514121225851
-0.00010710491900088734   -0.00010183172113253057   0.0002153514121225851
-0.00010710491900088734   -0.00010183172113253057   0.0002153514121225851
-0.00010710491900088734   -0.00010183172113253057   0.0002153514121225851
-0.0002786645589424958   1.37336012284682e-05   -1.2421276968299297e-06
-0.0002786645589424958   1.37336012284682e-05   -1.2421276968299297e-06
-0.0002786645589424958   1.37336012284682e-05   -1.2421276968299297e-06
-0.0002786645589424958   1.37336012284682e-05   -1.2421276968299297e-06
-0.00029364174170333   -0.00011349984617573493   0.0003047837119341812
-0.00029364174170333   -0.00011349984617573493   0.0003047837119341812
-0.00029364174170333   -0.00011349984617573493   0.0003047837119341812
-0.00029364174170333   -0.00011349984617573493   0.0003047837119341812
-0.00011960656120476264   1.2828808241951983e-05   -6.107211488071032e-05
-0.00011960656120476264   1.2828808241951983e-05   -6.107211488071032e-05
-0.00011960656120476264   1.2828808241951983e-05   -6.107211488071032e-05
-0.00011960656120476264   1.2828808241951983e-05   -6.107211488071032e-05
-0.00019693216987523918   -4.269764624688539e-05   0.00010111977226338583
-0.00019693216987523918   -4.269764624688539e-05   0.00010111977226338583
-0.00019693216987523918   -4.269764624688539e-05   0.00010111977226338583
-0.00019693216987523918   -4.269764624688539e-05   0.00010111977226338583
-0.00011960656120476286   -0.00011349984617573493   0.00022898651928356887
-0.00011960656120476286   -0.00011349984617573493   0.00022898651928356887
-0.00011960656120476286   -0.00011349984617573493   0.00022898651928356887
-0.00011960656120476286   -0.00011349984617573493   0.00022898651928356887
-0.00029364174170333   1.2828808241950249e-05   1.4725077769902652e-05
-0.00029364174170333   1.2828808241950249e-05   1.4725077769902652e-05
-0.00029364174170333   1.2828808241950249e-05   1.4725077769902652e-05
-0.00029364174170333   1.2828808241950249e-05   1.4725077769902652e-05
-0.00030277962518338134   -0.00011417964917413703   0.00032178638840053495
-0.00030277962518338134   -0.00011417964917413703   0.00032178638840053495
-0.00030277962518338134   -0.00011417964917413703   0.00032178638840053495
-0.00030277962518338134   -0.00011417964917413703   0.00032178638840053495
-0.0001272353115848089   1.121982224475647e-05   -4.602715044842252e-05
-0.0001272353115848089   1.121982224475647e-05   -4.602715044842252e-05
-0.0001272353115848089   1.121982224475647e-05   -4.602715044842252e-05
-0.0001272353115848089   1.121982224475647e-05   -4.602715044842252e-05
-0.00020669314940773313   -4.9006367261739125e-05   0.00012253829296034842
-0.00020669314940773313   -4.9006367261739125e-05   0.00012253829296034842
-0.00020669314940773313   -4.9006367261739125e-05   0.00012253829296034842
-0.00020669314940773313   -4.9006367261739125e-05   0.00012253829296034842
-0.0001272353115848089   -0.00011417964917413877   0.0002465467055491966
-0.0001272353115848089   -0.00011417964917413877   0.0002465467055491966
-0.0001272353115848089   -0.00011417964917413877   0.0002465467055491966
-0.0001272353115848089   -0.00011417964917413877   0.0002465467055491966
-0.0003027796251833808   1.121982224475647e-05   2.9212532402913237e-05
-0.0003027796251833808   1.121982224475647e-05   2.9212532402913237e-05
-0.0003027796251833808   1.121982224475647e-05   2.9212532402913237e-05
-0.0003027796251833808   1.121982224475647e-05   2.9212532402913237e-05
-0.0003126147495497901   -0.00010447905511677853   0.0003291692198414322
-0.0003126147495497901   -0.00010447905511677853   0.0003291692198414322
-0.0003126147495497901   -0.00010447905511677853   0.0003291692198414322
-0.0003126147495497901   -0.00010447905511677853   0.0003291692198414322
-0.00013622244826111667   9.405738877508313e-06   -3.314882536959449e-05
-0.00013622244826111667   9.405738877508313e-06   -3.314882536959449e-05
-0.00013622244826111667   9.405738877508313e-06   -3.314882536959449e-05
-0.00013622244826111667   9.405738877508313e-06   -3.314882536959449e-05
-0.00021671209358230695   -4.940208186024128e-05   0.00013628527594170816
-0.00021671209358230695   -4.940208186024128e-05   0.00013628527594170816
-0.00021671209358230695   -4.940208186024128e-05   0.00013628527594170816
-0.00021671209358230695   -4.940208186024128e-05   0.00013628527594170816
-0.0002786645589424948   0.0   0.00023929472509961157
-0.0002786645589424948   0.0   0.00023929472509961157
-0.0002786645589424948   0.0   0.00023929472509961157
-0.0002786645589424948   0.0   0.00023929472509961157
-0.0004918781116673243   6.43699137100398e-05   -7.743924788241284e-05
-0.0004918781116673243   6.43699137100398e-05   -7.743924788241284e-05
-0.0004918781116673243   6.43699137100398e-05   -7.743924788241284e-05
-0.0004918781116673243   6.43699137100398e-05   -7.743924788241284e-05
-0.0005126198135934632   0.0   0.0003460243629234989
-0.0005126198135934632   0.0   0.0003460243629234989
-0.0005126198135934632   0.0   0.0003460243629234989
-0.0005126198135934632   0.0   0.0003460243629234989
-0.0002936417417033295   6.202411567254006e-05   -5.6153559630248585e-05
-0.0002936417417033295   6.202411567254006e-05   -5.6153559630248585e-05
-0.0002936417417033295   6.202411567254006e-05   -5.6153559630248585e-05
-0.0002936417417033295   6.202411567254006e-05   -5.6153559630248585e-05
-0.00037737440718350033   3.8197534063019734e-05   9.769683180241599e-05
-0.00037737440718350033   3.8197534063019734e-05   9.769683180241599e-05
-0.00037737440718350033   3.8197534063019734e-05   9.769683180241599e-05
-0.00037737440718350033   3.8197534063019734e-05   9.769683180241599e-05
-0.00029364174170332926   0.0   0.0003088098935199752
-0.00029364174170332926   0.0   0.0003088098935199752
-0.00029364174170332926   0.0   0.0003088098935199752
-0.00029364174170332926   0.0   0.0003088098935199752
-0.0005126198135934638   6.202411567254006e-05   -1.8939090226723597e-05
-0.0005126198135934638   6.202411567254006e-05   -1.8939090226723597e-05
-0.0005126198135934638   6.202411567254006e-05   -1.8939090226723597e-05
-0.0005126198135934638   6.202411567254006e-05   -1.8939090226723597e-05
-0.0005230766427566441   0.0   0.0003840142389962657
-0.0005230766427566441   0.0   0.0003840142389962657
-0.0005230766427566441   0.0   0.0003840142389962657
-0.0005230766427566441   0.0   0.0003840142389962657
-0.0003027796251833808   6.0395210620081685e-05   -1.938458333122328e-05
-0.0003027796251833808   6.0395210620081685e-05   -1.938458333122328e-05
-0.0003027796251833808   6.0395210620081685e-05   -1.938458333122328e-05
-0.0003027796251833808   6.0395210620081685e-05   -1.938458333122328e-05
-0.00039726988565228166   3.186665851439424e-05   0.00015521631538036127
-0.00039726988565228166   3.186665851439424e-05   0.00015521631538036127
-0.00039726988565228166   3.186665851439424e-05   0.00015521631538036127
-0.00039726988565228166   3.186665851439424e-05   0.00015521631538036127
-0.0003027796251833808   0.0   0.0003477771126242169
-0.0003027796251833808   0.0   0.0003477771126242169
-0.0003027796251833808   0.0   0.0003477771126242169
-0.0003027796251833808   0.0   0.0003477771126242169
-0.0005230766427566458   6.039521062008342e-05   1.6852543040826208e-05
-0.0005230766427566458   6.039521062008342e-05   1.6852543040826208e-05
-0.0005230766427566458   6.039521062008342e-05   1.6852543040826208e-05
-0.0005230766427566458   6.039521062008342e-05   1.6852543040826208e-05
-0.0005347617351818513   0.0   0.00043469441766840963
-0.0005347617351818513   0.0   0.00043469441766840963
-0.0005347617351818513   0.0   0.00043469441766840963
-0.0005347617351818513   0.0   0.00043469441766840963
-0.0003126147495497901   5.0134666790695864e-05   3.4368641540554086e-05
-0.0003126147495497901   5.0134666790695864e-05   3.4368641540554086e-05
-0.0003126147495497901   5.0134666790695864e-05   3.4368641540554086e-05
-0.0003126147495497901   5.0134666790695864e-05   3.4368641540554086e-05
-0.00040072164113896157   2.2294867971117682e-05   0.0001979173401475869
-0.00040072164113896157   2.2294867971117682e-05   0.0001979173401475869
-0.00040072164113896157   2.2294867971117682e-05   0.0001979173401475869
-0.00040072164113896157   2.2294867971117682e-05   0.0001979173401475869
0.0003374668603360687   -5.0858346518349584e-05   0.00024029332624187286
0.0003374668603360687   -5.0858346518349584e-05   0.00024029332624187286
0.0003374668603360687   -5.0858346518349584e-05   0.00024029332624187286
0.0003374668603360687   -5.0858346518349584e-05   0.00024029332624187286
0.00017084487331950885   -3.820585190705307e-05   -2.9818488685617178e-05
0.00017084487331950885   -3.820585190705307e-05   -2.9818488685617178e-05
0.00017084487331950885   -3.820585190705307e-05   -2.9818488685617178e-05
0.00017084487331950885   -3.820585190705307e-05   -2.9818488685617178e-05
0.00016628928589917935   -5.5951414241315126e-05   0.00020990199866694273
0.00016628928589917935   -5.5951414241315126e-05   0.00020990199866694273
0.00016628928589917935   -5.5951414241315126e-05   0.00020990199866694273
0.00016628928589917935   -5.5951414241315126e-05   0.00020990199866694273
0.0003293129107582825   -4.3342505470451986e-05   -6.936938802741403e-05
0.0003293129107582825   -4.3342505470451986e-05   -6.936938802741403e-05
0.0003293129107582825   -4.3342505470451986e-05   -6.936938802741403e-05
0.0003293129107582825   -4.3342505470451986e-05   -6.936938802741403e-05
0.00023980525024346495   -4.51953675973879e-05   8.092176344011047e-05
0.00023980525024346495   -4.51953675973879e-05   8.092176344011047e-05
0.00023980525024346495   -4.51953675973879e-05   8.092176344011047e-05
0.00023980525024346495   -4.51953675973879e-05   8.092176344011047e-05
0.00032931291075828195   -5.5951414241315126e-05   0.00020233665340442433
0.00032931291075828195   -5.5951414241315126e-05   0.00020233665340442433
0.00032931291075828195   -5.5951414241315126e-05   0.00020233665340442433
0.00032931291075828195   -5.5951414241315126e-05   0.00020233665340442433
0.00016628928589917957   -4.3342505470451986e-05   -6.18040427648953e-05
0.00016628928589917957   -4.3342505470451986e-05   -6.18040427648953e-05
0.00016628928589917957   -4.3342505470451986e-05   -6.18040427648953e-05
0.00016628928589917957   -4.3342505470451986e-05   -6.18040427648953e-05
0.00016041821738518213   -5.6433926391557046e-05   0.0001885032287780291
0.00016041821738518213   -5.6433926391557046e-05   0.0001885032287780291
0.00016041821738518213   -5.6433926391557046e-05   0.0001885032287780291
0.00016041821738518213   -5.6433926391557046e-05   0.0001885032287780291
0.000321075901445425   -4.411584178731602e-05   -8.665042875158813e-05
0.000321075901445425   -4.411584178731602e-05   -8.665042875158813e-05
0.000321075901445425   -4.411584178731602e-05   -8.665042875158813e-05
0.000321075901445425   -4.411584178731602e-05   -8.665042875158813e-05
0.00023747039971321   -4.717840095365064e-05   5.452960963523573e-05
0.00023747039971321   -4.717840095365064e-05   5.452960963523573e-05
0.00023747039971321   -4.717840095365064e-05   5.452960963523573e-05
0.00023747039971321   -4.717840095365064e-05   5.452960963523573e-05
0.000321075901445425   -5.6433926391557046e-05   0.0001811123780154824
0.000321075901445425   -5.6433926391557046e-05   0.0001811123780154824
0.000321075901445425   -5.6433926391557046e-05   0.0001811123780154824
0.000321075901445425   -5.6433926391557046e-05   0.0001811123780154824
0.00016041821738518213   -4.411584178731602e-05   -7.925957798904284e-05
0.00016041821738518213   -4.411584178731602e-05   -7.925957798904284e-05
0.00016041821738518213   -4.411584178731602e-05   -7.925957798904284e-05
0.00016041821738518213   -4.411584178731602e-05   -7.925957798904284e-05
0.00015426198745303524   -5.530353697582972e-05   0.00015679830414228567
0.00015426198745303524   -5.530353697582972e-05   0.00015679830414228567
0.00015426198745303524   -5.530353697582972e-05   0.00015679830414228567
0.00015426198745303524   -5.530353697582972e-05   0.00015679830414228567
0.00031076788794310857   -4.3880447674025935e-05   -0.00011089871692225169
0.00031076788794310857   -4.3880447674025935e-05   -0.00011089871692225169
0.00031076788794310857   -4.3880447674025935e-05   -0.00011089871692225169
0.00031076788794310857   -4.3880447674025935e-05   -0.00011089871692225169
0.00022680685019404255   -4.595797586916424e-05   3.028286290994572e-05
0.00022680685019404255   -4.595797586916424e-05   3.028286290994572e-05
0.00022680685019404255   -4.595797586916424e-05   3.028286290994572e-05
0.00022680685019404255   -4.595797586916424e-05   3.028286290994572e-05
0.00017084487331950918   -3.1658543379482415e-05   0.0002279767325413986
0.00017084487331950918   -3.1658543379482415e-05   0.0002279767325413986
0.00017084487331950918   -3.1658543379482415e-05   0.0002279767325413986
0.00017084487331950918   -3.1658543379482415e-05   0.0002279767325413986
1.913730102348415e-05   -1.3533532769277948e-05   -1.3994214919187294e-05
1.913730102348415e-05   -1.3533532769277948e-05   -1.3994214919187294e-05
1.913730102348415e-05   -1.3533532769277948e-05   -1.3994214919187294e-05
1.913730102348415e-05   -1.3533532769277948e-05   -1.3994214919187294e-05
1.4616618894281157e-05   -3.359308108561755e-05   0.0002376290510097412
1.4616618894281157e-05   -3.359308108561755e-05   0.0002376290510097412
1.4616618894281157e-05   -3.359308108561755e-05   0.0002376290510097412
1.4616618894281157e-05   -3.359308108561755e-05   0.0002376290510097412
0.00016628928589917957   -1.630333163172605e-05   -2.5532577004089892e-05
0.00016628928589917957   -1.630333163172605e-05   -2.5532577004089892e-05
0.00016628928589917957   -1.630333163172605e-05   -2.5532577004089892e-05
0.00016628928589917957   -1.630333163172605e-05   -2.5532577004089892e-05
9.183631117405024e-05   -2.2097672028806303e-05   0.00010203231844270596
9.183631117405024e-05   -2.2097672028806303e-05   0.00010203231844270596
9.183631117405024e-05   -2.2097672028806303e-05   0.00010203231844270596
9.183631117405024e-05   -2.2097672028806303e-05   0.00010203231844270596
0.0001662892858991794   -3.359308108561755e-05   0.00022725520133740768
0.0001662892858991794   -3.359308108561755e-05   0.00022725520133740768
0.0001662892858991794   -3.359308108561755e-05   0.00022725520133740768
0.0001662892858991794   -3.359308108561755e-05   0.00022725520133740768
1.4616618894281157e-05   -1.630333163172605e-05   -1.5158727331755946e-05
1.4616618894281157e-05   -1.630333163172605e-05   -1.5158727331755946e-05
1.4616618894281157e-05   -1.630333163172605e-05   -1.5158727331755946e-05
1.4616618894281157e-05   -1.630333163172605e-05   -1.5158727331755946e-05
8.840691805550322e-06   -3.447169251842401e-05   0.0002354673275066846
8.840691805550322e-06   -3.447169251842401e-05   0.0002354673275066846
8.840691805550322e-06   -3.447169251842401e-05   0.0002354673275066846
8.840691805550322e-06   -3.447169251842401e-05   0.0002354673275066846
0.00016041821738518213   -1.8132661287343158e-05   -2.6965300531349478e-05
0.00016041821738518213   -1.8132661287343158e-05   -2.6965300531349478e-05
0.00016041821738518213   -1.8132661287343158e-05   -2.6965300531349478e-05
0.00016041821738518213   -1.8132661287343158e-05   -2.6965300531349478e-05
8.61120676897066e-05   -2.315305620912561e-05   9.989051924751656e-05
8.61120676897066e-05   -2.315305620912561e-05   9.989051924751656e-05
8.61120676897066e-05   -2.315305620912561e-05   9.989051924751656e-05
8.61120676897066e-05   -2.315305620912561e-05   9.989051924751656e-05
0.00016041821738518186   -3.4471692518422276e-05   0.0002256639087680366
0.00016041821738518186   -3.4471692518422276e-05   0.0002256639087680366
0.00016041821738518186   -3.4471692518422276e-05   0.0002256639087680366
0.00016041821738518186   -3.4471692518422276e-05   0.0002256639087680366
8.840691805550322e-06   -1.8132661287343158e-05   -1.7161881792702137e-05
8.840691805550322e-06   -1.8132661287343158e-05   -1.7161881792702137e-05
8.840691805550322e-06   -1.8132661287343158e-05   -1.7161881792702137e-05
8.840691805550322e-06   -1.8132661287343158e-05   -1.7161881792702137e-05
2.4595178309874113e-06   -3.3727135841798636e-05   0.00023900478420183467
2.4595178309874113e-06   -3.3727135841798636e-05   0.00023900478420183467
2.4595178309874113e-06   -3.3727135841798636e-05   0.00023900478420183467
2.4595178309874113e-06   -3.3727135841798636e-05   0.00023900478420183467
0.00015426198745303513   -1.893538939074478e-05   -2.2874379705543793e-05
0.00015426198745303513   -1.893538939074478e-05   -2.2874379705543793e-05
0.00015426198745303513   -1.893538939074478e-05   -2.2874379705543793e-05
0.00015426198745303513   -1.893538939074478e-05   -2.2874379705543793e-05
8.142799901256974e-05   -2.2951827442177497e-05   0.0001009254638594287
8.142799901256974e-05   -2.2951827442177497e-05   0.0001009254638594287
8.142799901256974e-05   -2.2951827442177497e-05   0.0001009254638594287
8.142799901256974e-05   -2.2951827442177497e-05   0.0001009254638594287
1.913730102348415e-05   -1.3639224452957274e-05   0.00023328197887831706
1.913730102348415e-05   -1.3639224452957274e-05   0.00023328197887831706
1.913730102348415e-05   -1.3639224452957274e-05   0.00023328197887831706
1.913730102348415e-05   -1.3639224452957274e-05   0.00023328197887831706
-0.00012779493256575062   1.1913413106360432e-05   3.7265054318507893e-06
-0.00012779493256575062   1.1913413106360432e-05   3.7265054318507893e-06
-0.00012779493256575062   1.1913413106360432e-05   3.7265054318507893e-06
-0.00012779493256575062   1.1913413106360432e-05   3.7265054318507893e-06
-0.00013288652181602087   -1.4412657513828211e-05   0.00025038286958435976
-0.00013288652181602087   -1.4412657513828211e-05   0.00025038286958435976
-0.00013288652181602087   -1.4412657513828211e-05   0.00025038286958435976
-0.00013288652181602087   -1.4412657513828211e-05   0.00025038286958435976
1.4616618894281157e-05   9.776536706446182e-06   -9.969214798309428e-06
1.4616618894281157e-05   9.776536706446182e-06   -9.969214798309428e-06
1.4616618894281157e-05   9.776536706446182e-06   -9.969214798309428e-06
1.4616618894281157e-05   9.776536706446182e-06   -9.969214798309428e-06
-5.66260267076155e-05   -4.65708974616702e-07   0.00011491387528015599
-5.66260267076155e-05   -4.65708974616702e-07   0.00011491387528015599
-5.66260267076155e-05   -4.65708974616702e-07   0.00011491387528015599
-5.66260267076155e-05   -4.65708974616702e-07   0.00011491387528015599
1.4616618894281157e-05   -1.4412657513828211e-05   0.00023586935305219478
1.4616618894281157e-05   -1.4412657513828211e-05   0.00023586935305219478
1.4616618894281157e-05   -1.4412657513828211e-05   0.00023586935305219478
1.4616618894281157e-05   -1.4412657513828211e-05   0.00023586935305219478
-0.00013288652181602087   9.776536706446182e-06   4.5443017338562056e-06
-0.00013288652181602087   9.776536706446182e-06   4.5443017338562056e-06
-0.00013288652181602087   9.776536706446182e-06   4.5443017338562056e-06
-0.00013288652181602087   9.776536706446182e-06   4.5443017338562056e-06
-0.00013972407908570677   -1.535500660460043e-05   0.0002554433513253865
-0.00013972407908570677   -1.535500660460043e-05   0.0002554433513253865
-0.00013972407908570677   -1.535500660460043e-05   0.0002554433513253865
-0.00013972407908570677   -1.535500660460043e-05   0.0002554433513253865
8.840691805550322e-06   7.787211509083236e-06   -6.0499310282513975e-06
8.840691805550322e-06   7.787211509083236e-06   -6.0499310282513975e-06
8.840691805550322e-06   7.787211509083236e-06   -6.0499310282513975e-06
8.840691805550322e-06   7.787211509083236e-06   -6.0499310282513975e-06
-6.165153398596007e-05   -1.0782671364222007e-06   0.00011675639914490287
-6.165153398596007e-05   -1.0782671364222007e-06   0.00011675639914490287
-6.165153398596007e-05   -1.0782671364222007e-06   0.00011675639914490287
-6.165153398596007e-05   -1.0782671364222007e-06   0.00011675639914490287
8.840691805550322e-06   -1.535500660460043e-05   0.0002415580204571761
8.840691805550322e-06   -1.535500660460043e-05   0.0002415580204571761
8.840691805550322e-06   -1.535500660460043e-05   0.0002415580204571761
8.840691805550322e-06   -1.535500660460043e-05   0.0002415580204571761
-0.00013972407908570655   7.787211509083236e-06   7.835399839958325e-06
-0.00013972407908570655   7.787211509083236e-06   7.835399839958325e-06
-0.00013972407908570655   7.787211509083236e-06   7.835399839958325e-06
-0.00013972407908570655   7.787211509083236e-06   7.835399839958325e-06
-0.00014700929510153178   -1.529084726669544e-05   0.00026151406949339283
-0.00014700929510153178   -1.529084726669544e-05   0.00026151406949339283
-0.00014700929510153178   -1.529084726669544e-05   0.00026151406949339283
-0.00014700929510153178   -1.529084726669544e-05   0.00026151406949339283
2.4595178309874113e-06   6.35011148668492e-06   -5.851939794989085e-07
2.4595178309874113e-06   6.35011148668492e-06   -5.851939794989085e-07
2.4595178309874113e-06   6.35011148668492e-06   -5.851939794989085e-07
2.4595178309874113e-06   6.35011148668492e-06   -5.851939794989085e-07
-6.806496511679432e-05   -1.5243764365634876e-06   0.00012168030368742144
-6.806496511679432e-05   -1.5243764365634876e-06   0.00012168030368742144
-6.806496511679432e-05   -1.5243764365634876e-06   0.00012168030368742144
-6.806496511679432e-05   -1.5243764365634876e-06   0.00012168030368742144
-0.00012779493256575008   1.37336012284682e-05   0.00021062064654438217
-0.00012779493256575008   1.37336012284682e-05   0.00021062064654438217
-0.00012779493256575008   1.37336012284682e-05   0.00021062064654438217
-0.00012779493256575008   1.37336012284682e-05   0.00021062064654438217
-0.0002716075041773495   3.895926844275921e-05   -1.3931572479708616e-05
-0.0002716075041773495   3.895926844275921e-05   -1.3931572479708616e-05
-0.0002716075041773495   3.895926844275921e-05   -1.3931572479708616e-05
-0.0002716075041773495   3.895926844275921e-05   -1.3931572479708616e-05
-0.0002790474443966404   1.2828808241951983e-05   0.00023329325643668686
-0.0002790474443966404   1.2828808241951983e-05   0.00023329325643668686
-0.0002790474443966404   1.2828808241951983e-05   0.00023329325643668686
-0.0002790474443966404   1.2828808241951983e-05   0.00023329325643668686
-0.00013288652181602043   3.68076082798343e-05   -2.4695561220408613e-05
-0.00013288652181602043   3.68076082798343e-05   -2.4695561220408613e-05
-0.00013288652181602043   3.68076082798343e-05   -2.4695561220408613e-05
-0.00013288652181602043   3.68076082798343e-05   -2.4695561220408613e-05
-0.00020121779828280505   2.6054517983268438e-05   9.564175373550548e-05
-0.00020121779828280505   2.6054517983268438e-05   9.564175373550548e-05
-0.00020121779828280505   2.6054517983268438e-05   9.564175373550548e-05
-0.00020121779828280505   2.6054517983268438e-05   9.564175373550548e-05
-0.00013288652181602065   1.2828808241950249e-05   0.0002189059764139585
-0.00013288652181602065   1.2828808241950249e-05   0.0002189059764139585
-0.00013288652181602065   1.2828808241950249e-05   0.0002189059764139585
-0.00013288652181602065   1.2828808241950249e-05   0.0002189059764139585
-0.00027904744439663997   3.6807608279832565e-05   -1.0308281197677661e-05
-0.00027904744439663997   3.6807608279832565e-05   -1.0308281197677661e-05
-0.00027904744439663997   3.6807608279832565e-05   -1.0308281197677661e-05
-0.00027904744439663997   3.6807608279832565e-05   -1.0308281197677661e-05
-0.0002881567540173823   1.121982224475647e-05   0.0002476076142566407
-0.0002881567540173823   1.121982224475647e-05   0.0002476076142566407
-0.0002881567540173823   1.121982224475647e-05   0.0002476076142566407
-0.0002881567540173823   1.121982224475647e-05   0.0002476076142566407
-0.00013972407908570655   3.482629837760903e-05   -1.3944062975862264e-05
-0.00013972407908570655   3.482629837760903e-05   -1.3944062975862264e-05
-0.00013972407908570655   3.482629837760903e-05   -1.3944062975862264e-05
-0.00013972407908570655   3.482629837760903e-05   -1.3944062975862264e-05
-0.00020677626068036552   2.5538521122433697e-05   0.00010338223936834064
-0.00020677626068036552   2.5538521122433697e-05   0.00010338223936834064
-0.00020677626068036552   2.5538521122433697e-05   0.00010338223936834064
-0.00020677626068036552   2.5538521122433697e-05   0.00010338223936834064
-0.00013972407908570633   1.121982224475647e-05   0.00023344372857692954
-0.00013972407908570633   1.121982224475647e-05   0.00023344372857692954
-0.00013972407908570633   1.121982224475647e-05   0.00023344372857692954
-0.00013972407908570633   1.121982224475647e-05   0.00023344372857692954
-0.0002881567540173823   3.482629837760903e-05   2.1982270384870994e-07
-0.0002881567540173823   3.482629837760903e-05   2.1982270384870994e-07
-0.0002881567540173823   3.482629837760903e-05   2.1982270384870994e-07
-0.0002881567540173823   3.482629837760903e-05   2.1982270384870994e-07
-0.00029780457860987533   9.405738877510048e-06   0.00025907329825499564
-0.00029780457860987533   9.405738877510048e-06   0.00025907329825499564
-0.00029780457860987533   9.405738877510048e-06   0.00025907329825499564
-0.00029780457860987533   9.405738877510048e-06   0.00025907329825499564
-0.00014700929510153124   3.2172676901242106e-05   -5.9123370731522205e-06
-0.00014700929510153124   3.2172676901242106e-05   -5.9123370731522205e-06
-0.00014700929510153124   3.2172676901242106e-05   -5.9123370731522205e-06
-0.00014700929510153124   3.2172676901242106e-05   -5.9123370731522205e-06
-0.000215975385707849   2.3923691015243637e-05   0.00011398053880231794
-0.000215975385707849   2.3923691015243637e-05   0.00011398053880231794
-0.000215975385707849   2.3923691015243637e-05   0.00011398053880231794
-0.000215975385707849   2.3923691015243637e-05   0.00011398053880231794
-0.0002716075041773495   6.436991371004154e-05   0.00011093697846134912
-0.0002716075041773495   6.436991371004154e-05   0.00011093697846134912
-0.0002716075041773495   6.436991371004154e-05   0.00011093697846134912
-0.0002716075041773495   6.436991371004154e-05   0.00011093697846134912
-0.0004091739518783632   6.335999570807917e-05   -0.00011894638517485033
-0.0004091739518783632   6.335999570807917e-05   -0.00011894638517485033
-0.0004091739518783632   6.335999570807917e-05   -0.00011894638517485033
-0.0004091739518783632   6.335999570807917e-05   -0.00011894638517485033
-0.0004225154724718721   6.202411567254006e-05   0.00016391918937247972
-0.0004225154724718721   6.202411567254006e-05   0.00016391918937247972
-0.0004225154724718721   6.202411567254006e-05   0.00016391918937247972
-0.0004225154724718721   6.202411567254006e-05   0.00016391918937247972
-0.00027904744439663997   6.453173289911601e-05   -7.669876108885214e-05
-0.00027904744439663997   6.453173289911601e-05   -7.669876108885214e-05
-0.00027904744439663997   6.453173289911601e-05   -7.669876108885214e-05
-0.00027904744439663997   6.453173289911601e-05   -7.669876108885214e-05
-0.00033167596882278445   6.461130294549075e-05   1.0967704260229309e-05
-0.00033167596882278445   6.461130294549075e-05   1.0967704260229309e-05
-0.00033167596882278445   6.461130294549075e-05   1.0967704260229309e-05
-0.00033167596882278445   6.461130294549075e-05   1.0967704260229309e-05
-0.00027904744439663975   6.202411567254179e-05   0.0001624146190365352
-0.00027904744439663975   6.202411567254179e-05   0.0001624146190365352
-0.00027904744439663975   6.202411567254179e-05   0.0001624146190365352
-0.00027904744439663975   6.202411567254179e-05   0.0001624146190365352
-0.0004225154724718721   6.453173289911428e-05   -7.519419075290891e-05
-0.0004225154724718721   6.453173289911428e-05   -7.519419075290891e-05
-0.0004225154724718721   6.453173289911428e-05   -7.519419075290891e-05
-0.0004225154724718721   6.453173289911428e-05   -7.519419075290891e-05
-0.0004355998274004746   6.0395210620081685e-05   0.00020120486153124215
-0.0004355998274004746   6.0395210620081685e-05   0.00020120486153124215
-0.0004355998274004746   6.0395210620081685e-05   0.00020120486153124215
-0.0004355998274004746   6.0395210620081685e-05   0.00020120486153124215
-0.00028815675401738187   6.405248230131541e-05   -4.6727957115985956e-05
-0.00028815675401738187   6.405248230131541e-05   -4.6727957115985956e-05
-0.00028815675401738187   6.405248230131541e-05   -4.6727957115985956e-05
-0.00028815675401738187   6.405248230131541e-05   -4.6727957115985956e-05
-0.0003468938021624168   6.456310484706865e-05   5.086074959829165e-05
-0.0003468938021624168   6.456310484706865e-05   5.086074959829165e-05
-0.0003468938021624168   6.456310484706865e-05   5.086074959829165e-05
-0.0003468938021624168   6.456310484706865e-05   5.086074959829165e-05
-0.00028815675401738187   6.0395210620081685e-05   0.000199010498522504
-0.00028815675401738187   6.0395210620081685e-05   0.000199010498522504
-0.00028815675401738187   6.0395210620081685e-05   0.000199010498522504
-0.00028815675401738187   6.0395210620081685e-05   0.000199010498522504
-0.0004355998274004746   6.405248230131541e-05   -4.4533594107246284e-05
-0.0004355998274004746   6.405248230131541e-05   -4.4533594107246284e-05
-0.0004355998274004746   6.405248230131541e-05   -4.4533594107246284e-05
-0.0004355998274004746   6.405248230131541e-05   -4.4533594107246284e-05
-0.00045102354908794985   5.01346667906976e-05   0.00026353169043955536
-0.00045102354908794985   5.01346667906976e-05   0.00026353169043955536
-0.00045102354908794985   5.01346667906976e-05   0.00026353169043955536
-0.00045102354908794985   5.01346667906976e-05   0.00026353169043955536
-0.00029780457860987424   5.892100290900461e-05   2.8949379717760175e-06
-0.00029780457860987424   5.892100290900461e-05   2.8949379717760175e-06
-0.00029780457860987424   5.892100290900461e-05   2.8949379717760175e-06
-0.00029780457860987424   5.892100290900461e-05   2.8949379717760175e-06
-0.00035246609653841047   6.146577915222724e-05   9.247060210674108e-05
-0.00035246609653841047   6.146577915222724e-05   9.247060210674108e-05
-0.00035246609653841047   6.146577915222724e-05   9.247060210674108e-05
-0.00035246609653841047   6.146577915222724e-05   9.247060210674108e-05
0.00027280612726803845   -3.820585190705307e-05   0.00021124085670836627
0.00027280612726803845   -3.820585190705307e-05   0.00021124085670836627
0.00027280612726803845   -3.820585190705307e-05   0.00021124085670836627
0.00027280612726803845   -3.820585190705307e-05   0.00021124085670836627
0.00013520173140012026   -2.7893699543368733e-05   -1.1912511653286786e-05
0.00013520173140012026   -2.7893699543368733e-05   -1.1912511653286786e-05
0.00013520173140012026   -2.7893699543368733e-05   -1.1912511653286786e-05
0.00013520173140012026   -2.7893699543368733e-05   -1.1912511653286786e-05
0.00012995663196663487   -4.3342505470451986e-05   0.00018380372053902316
0.00012995663196663487   -4.3342505470451986e-05   0.00018380372053902316
0.00012995663196663487   -4.3342505470451986e-05   0.00018380372053902316
0.00012995663196663487   -4.3342505470451986e-05   0.00018380372053902316
0.00026315323289784263   -3.240108661948897e-05   -4.475546565690064e-05
0.00026315323289784263   -3.240108661948897e-05   -4.475546565690064e-05
0.00026315323289784263   -3.240108661948897e-05   -4.475546565690064e-05
0.00026315323289784263   -3.240108661948897e-05   -4.475546565690064e-05
0.00019110773782190582   -3.5100564953673835e-05   7.694004647017206e-05
0.00019110773782190582   -3.5100564953673835e-05   7.694004647017206e-05
0.00019110773782190582   -3.5100564953673835e-05   7.694004647017206e-05
0.00019110773782190582   -3.5100564953673835e-05   7.694004647017206e-05
0.0002631532328978422   -4.3342505470451986e-05   0.00017723886922844413
0.0002631532328978422   -4.3342505470451986e-05   0.00017723886922844413
0.0002631532328978422   -4.3342505470451986e-05   0.00017723886922844413
0.0002631532328978422   -4.3342505470451986e-05   0.00017723886922844413
0.00012995663196663535   -3.240108661948897e-05   -3.8190614346321657e-05
0.00012995663196663535   -3.240108661948897e-05   -3.8190614346321657e-05
0.00012995663196663535   -3.240108661948897e-05   -3.8190614346321657e-05
0.00012995663196663535   -3.240108661948897e-05   -3.8190614346321657e-05
0.00012413234318849888   -4.411584178731602e-05   0.00016479340536507212
0.00012413234318849888   -4.411584178731602e-05   0.00016479340536507212
0.00012413234318849888   -4.411584178731602e-05   0.00016479340536507212
0.00012413234318849888   -4.411584178731602e-05   0.00016479340536507212
0.00025442061899456133   -3.331334111913477e-05   -5.883522137927388e-05
0.00025442061899456133   -3.331334111913477e-05   -5.883522137927388e-05
0.00025442061899456133   -3.331334111913477e-05   -5.883522137927388e-05
0.00025442061899456133   -3.331334111913477e-05   -5.883522137927388e-05
0.00018743059408407866   -3.684429918421675e-05   5.493339497724629e-05
0.00018743059408407866   -3.684429918421675e-05   5.493339497724629e-05
0.00018743059408407866   -3.684429918421675e-05   5.493339497724629e-05
0.00018743059408407866   -3.684429918421675e-05   5.493339497724629e-05
0.00025442061899456046   -4.4115841787314286e-05   0.00015831190496416302
0.00025442061899456046   -4.4115841787314286e-05   0.00015831190496416302
0.00025442061899456046   -4.4115841787314286e-05   0.00015831190496416302
0.00025442061899456046   -4.4115841787314286e-05   0.00015831190496416302
0.0001241323431884991   -3.331334111913477e-05   -5.2353720978365326e-05
0.0001241323431884991   -3.331334111913477e-05   -5.2353720978365326e-05
0.0001241323431884991   -3.331334111913477e-05   -5.2353720978365326e-05
0.0001241323431884991   -3.331334111913477e-05   -5.2353720978365326e-05
0.00011853429332859893   -4.3880447674025935e-05   0.00013833955685423147
0.00011853429332859893   -4.3880447674025935e-05   0.00013833955685423147
0.00011853429332859893   -4.3880447674025935e-05   0.00013833955685423147
0.00011853429332859893   -4.3880447674025935e-05   0.00013833955685423147
0.0002445381140458382   -3.371643612933191e-05   -7.776521793464967e-05
0.0002445381140458382   -3.371643612933191e-05   -7.776521793464967e-05
0.0002445381140458382   -3.371643612933191e-05   -7.776521793464967e-05
0.0002445381140458382   -3.371643612933191e-05   -7.776521793464967e-05
0.00017769125369147698   -3.6235650183099113e-05   3.515774442155008e-05
0.00017769125369147698   -3.6235650183099113e-05   3.515774442155008e-05
0.00017769125369147698   -3.6235650183099113e-05   3.515774442155008e-05
0.00017769125369147698   -3.6235650183099113e-05   3.515774442155008e-05
0.00013520173140012026   -1.3533532769277948e-05   0.00022237741552688303
0.00013520173140012026   -1.3533532769277948e-05   0.00022237741552688303
0.00013520173140012026   -1.3533532769277948e-05   0.00022237741552688303
0.00013520173140012026   -1.3533532769277948e-05   0.00022237741552688303
6.046038790124544e-06   -5.3216383613143015e-06   1.2045064488336137e-05
6.046038790124544e-06   -5.3216383613143015e-06   1.2045064488336137e-05
6.046038790124544e-06   -5.3216383613143015e-06   1.2045064488336137e-05
6.046038790124544e-06   -5.3216383613143015e-06   1.2045064488336137e-05
1.0151398978254641e-06   -1.630333163172605e-05   0.00022474134833726928
1.0151398978254641e-06   -1.630333163172605e-05   0.00022474134833726928
1.0151398978254641e-06   -1.630333163172605e-05   0.00022474134833726928
1.0151398978254641e-06   -1.630333163172605e-05   0.00022474134833726928
0.00012995663196663535   -8.526394902655735e-06   5.172699518478201e-06
0.00012995663196663535   -8.526394902655735e-06   5.172699518478201e-06
0.00012995663196663535   -8.526394902655735e-06   5.172699518478201e-06
0.00012995663196663535   -8.526394902655735e-06   5.172699518478201e-06
6.723145336169127e-05   -1.0512426282732051e-05   0.00011090628268809648
6.723145336169127e-05   -1.0512426282732051e-05   0.00011090628268809648
6.723145336169127e-05   -1.0512426282732051e-05   0.00011090628268809648
6.723145336169127e-05   -1.0512426282732051e-05   0.00011090628268809648
0.00012995663196663525   -1.630333163172605e-05   0.00022007518629982813
0.00012995663196663525   -1.630333163172605e-05   0.00022007518629982813
0.00012995663196663525   -1.630333163172605e-05   0.00022007518629982813
0.00012995663196663525   -1.630333163172605e-05   0.00022007518629982813
1.0151398978254641e-06   -8.526394902655735e-06   9.838861555920217e-06
1.0151398978254641e-06   -8.526394902655735e-06   9.838861555920217e-06
1.0151398978254641e-06   -8.526394902655735e-06   9.838861555920217e-06
1.0151398978254641e-06   -8.526394902655735e-06   9.838861555920217e-06
-4.213844851075799e-06   -1.8132661287343158e-05   0.00022141653264084842
-4.213844851075799e-06   -1.8132661287343158e-05   0.00022141653264084842
-4.213844851075799e-06   -1.8132661287343158e-05   0.00022141653264084842
-4.213844851075799e-06   -1.8132661287343158e-05   0.00022141653264084842
0.0001241323431884991   -1.0917911590536608e-05   3.1773694234750872e-06
0.0001241323431884991   -1.0917911590536608e-05   3.1773694234750872e-06
0.0001241323431884991   -1.0917911590536608e-05   3.1773694234750872e-06
0.0001241323431884991   -1.0917911590536608e-05   3.1773694234750872e-06
6.146604310775468e-05   -1.2196456591947319e-05   0.00010838832989223121
6.146604310775468e-05   -1.2196456591947319e-05   0.00010838832989223121
6.146604310775468e-05   -1.2196456591947319e-05   0.00010838832989223121
6.146604310775468e-05   -1.2196456591947319e-05   0.00010838832989223121
0.00012413234318849888   -1.8132661287344892e-05   0.0002170876828227657
0.00012413234318849888   -1.8132661287344892e-05   0.0002170876828227657
0.00012413234318849888   -1.8132661287344892e-05   0.0002170876828227657
0.00012413234318849888   -1.8132661287344892e-05   0.0002170876828227657
-4.213844851075799e-06   -1.0917911590538343e-05   7.506219241558074e-06
-4.213844851075799e-06   -1.0917911590538343e-05   7.506219241558074e-06
-4.213844851075799e-06   -1.0917911590538343e-05   7.506219241558074e-06
-4.213844851075799e-06   -1.0917911590538343e-05   7.506219241558074e-06
-9.657464570891894e-06   -1.8935389390746515e-05   0.00022318075220132717
-9.657464570891894e-06   -1.8935389390746515e-05   0.00022318075220132717
-9.657464570891894e-06   -1.8935389390746515e-05   0.00022318075220132717
-9.657464570891894e-06   -1.8935389390746515e-05   0.00022318075220132717
0.00011853429332859926   -1.2817536538298202e-05   5.85711065737238e-06
0.00011853429332859926   -1.2817536538298202e-05   5.85711065737238e-06
0.00011853429332859926   -1.2817536538298202e-05   5.85711065737238e-06
0.00011853429332859926   -1.2817536538298202e-05   5.85711065737238e-06
5.711409869208029e-05   -1.3113854699341176e-05   0.00010840189261486716
5.711409869208029e-05   -1.3113854699341176e-05   0.00010840189261486716
5.711409869208029e-05   -1.3113854699341176e-05   0.00010840189261486716
5.711409869208029e-05   -1.3113854699341176e-05   0.00010840189261486716
6.046038790124544e-06   1.1913413106360432e-05   0.0002296936899871078
6.046038790124544e-06   1.1913413106360432e-05   0.0002296936899871078
6.046038790124544e-06   1.1913413106360432e-05   0.0002296936899871078
6.046038790124544e-06   1.1913413106360432e-05   0.0002296936899871078
-0.00011930783202702174   1.738009138169648e-05   2.4050578923733024e-05
-0.00011930783202702174   1.738009138169648e-05   2.4050578923733024e-05
-0.00011930783202702174   1.738009138169648e-05   2.4050578923733024e-05
-0.00011930783202702174   1.738009138169648e-05   2.4050578923733024e-05
-0.0001245618548657982   9.776536706446182e-06   0.00023288542010483325
-0.0001245618548657982   9.776536706446182e-06   0.00023288542010483325
-0.0001245618548657982   9.776536706446182e-06   0.00023288542010483325
-0.0001245618548657982   9.776536706446182e-06   0.00023288542010483325
1.0151398978254641e-06   1.4700802096636809e-05   2.063586959801249e-05
1.0151398978254641e-06   1.4700802096636809e-05   2.063586959801249e-05
1.0151398978254641e-06   1.4700802096636809e-05   2.063586959801249e-05
1.0151398978254641e-06   1.4700802096636809e-05   2.063586959801249e-05
-5.92947779097177e-05   1.3607166315286745e-05   0.00012180858074606078
-5.92947779097177e-05   1.3607166315286745e-05   0.00012180858074606078
-5.92947779097177e-05   1.3607166315286745e-05   0.00012180858074606078
-5.92947779097177e-05   1.3607166315286745e-05   0.00012180858074606078
1.0151398978254641e-06   9.776536706446182e-06   0.00022993086087071818
1.0151398978254641e-06   9.776536706446182e-06   0.00022993086087071818
1.0151398978254641e-06   9.776536706446182e-06   0.00022993086087071818
1.0151398978254641e-06   9.776536706446182e-06   0.00022993086087071818
-0.0001245618548657982   1.4700802096636809e-05   2.3590428832126475e-05
-0.0001245618548657982   1.4700802096636809e-05   2.3590428832126475e-05
-0.0001245618548657982   1.4700802096636809e-05   2.3590428832126475e-05
-0.0001245618548657982   1.4700802096636809e-05   2.3590428832126475e-05
-0.00013011327533862078   7.787211509083236e-06   0.00023511534504062903
-0.00013011327533862078   7.787211509083236e-06   0.00023511534504062903
-0.00013011327533862078   7.787211509083236e-06   0.00023511534504062903
-0.00013011327533862078   7.787211509083236e-06   0.00023511534504062903
-4.213844851075799e-06   1.209864756796658e-05   2.2696099259389988e-05
-4.213844851075799e-06   1.209864756796658e-05   2.2696099259389988e-05
-4.213844851075799e-06   1.209864756796658e-05   2.2696099259389988e-05
-4.213844851075799e-06   1.209864756796658e-05   2.2696099259389988e-05
-6.417768670112257e-05   1.2070663640260243e-05   0.0001226526260327595
-6.417768670112257e-05   1.2070663640260243e-05   0.0001226526260327595
-6.417768670112257e-05   1.2070663640260243e-05   0.0001226526260327595
-6.417768670112257e-05   1.2070663640260243e-05   0.0001226526260327595
-4.213844851075799e-06   7.78721150908497e-06   0.00023252848340529937
-4.213844851075799e-06   7.78721150908497e-06   0.00023252848340529937
-4.213844851075799e-06   7.78721150908497e-06   0.00023252848340529937
-4.213844851075799e-06   7.78721150908497e-06   0.00023252848340529937
-0.000130113275338621   1.209864756796658e-05   2.5282960894720298e-05
-0.000130113275338621   1.209864756796658e-05   2.5282960894720298e-05
-0.000130113275338621   1.209864756796658e-05   2.5282960894720298e-05
-0.000130113275338621   1.209864756796658e-05   2.5282960894720298e-05
-0.00013584376130246364   6.35011148668492e-06   0.00023865380209334847
-0.00013584376130246364   6.35011148668492e-06   0.00023865380209334847
-0.00013584376130246364   6.35011148668492e-06   0.00023865380209334847
-0.00013584376130246364   6.35011148668492e-06   0.00023865380209334847
-9.657464570891894e-06   9.781631547703395e-06   2.6284395504116986e-05
-9.657464570891894e-06   9.781631547703395e-06   2.6284395504116986e-05
-9.657464570891894e-06   9.781631547703395e-06   2.6284395504116986e-05
-9.657464570891894e-06   9.781631547703395e-06   2.6284395504116986e-05
-6.946148756620458e-05   1.0597217319694568e-05   0.000125468415699782
-6.946148756620458e-05   1.0597217319694568e-05   0.000125468415699782
-6.946148756620458e-05   1.0597217319694568e-05   0.000125468415699782
-6.946148756620458e-05   1.0597217319694568e-05   0.000125468415699782
-0.00011930783202702207   3.8959268442760944e-05   0.00020018021871217456
-0.00011930783202702207   3.8959268442760944e-05   0.00020018021871217456
-0.00011930783202702207   3.8959268442760944e-05   0.00020018021871217456
-0.00011930783202702207   3.8959268442760944e-05   0.00020018021871217456
-0.0002405855788589384   3.944936988250526e-05   -1.6552984771715101e-06
-0.0002405855788589384   3.944936988250526e-05   -1.6552984771715101e-06
-0.0002405855788589384   3.944936988250526e-05   -1.6552984771715101e-06
-0.0002405855788589384   3.944936988250526e-05   -1.6552984771715101e-06
-0.0002466867799608165   3.6807608279832565e-05   0.00020368877665501682
-0.0002466867799608165   3.6807608279832565e-05   0.00020368877665501682
-0.0002466867799608165   3.6807608279832565e-05   0.00020368877665501682
-0.0002466867799608165   3.6807608279832565e-05   0.00020368877665501682
-0.0001245618548657984   3.6879640787247994e-05   1.0401532553978507e-07
-0.0001245618548657984   3.6879640787247994e-05   1.0401532553978507e-07
-0.0001245618548657984   3.6879640787247994e-05   1.0401532553978507e-07
-0.0001245618548657984   3.6879640787247994e-05   1.0401532553978507e-07
-0.00018196809128003867   3.794830688622075e-05   9.513987635655606e-05
-0.00018196809128003867   3.794830688622075e-05   9.513987635655606e-05
-0.00018196809128003867   3.794830688622075e-05   9.513987635655606e-05
-0.00018196809128003867   3.794830688622075e-05   9.513987635655606e-05
-0.0001245618548657984   3.6807608279832565e-05   0.0002036455571505693
-0.0001245618548657984   3.6807608279832565e-05   0.0002036455571505693
-0.0001245618548657984   3.6807608279832565e-05   0.0002036455571505693
-0.0001245618548657984   3.6807608279832565e-05   0.0002036455571505693
-0.00024668677996081607   3.6879640787247994e-05   1.472348299877413e-07
-0.00024668677996081607   3.6879640787247994e-05   1.472348299877413e-07
-0.00024668677996081607   3.6879640787247994e-05   1.472348299877413e-07
-0.00024668677996081607   3.6879640787247994e-05   1.472348299877413e-07
-0.00025345501555188647   3.482629837760903e-05   0.00021315227312336885
-0.00025345501555188647   3.482629837760903e-05   0.00021315227312336885
-0.00025345501555188647   3.482629837760903e-05   0.00021315227312336885
-0.00025345501555188647   3.482629837760903e-05   0.00021315227312336885
-0.000130113275338621   3.452028320854311e-05   7.76631520269834e-06
-0.000130113275338621   3.452028320854311e-05   7.76631520269834e-06
-0.000130113275338621   3.452028320854311e-05   7.76631520269834e-06
-0.000130113275338621   3.452028320854311e-05   7.76631520269834e-06
-0.00018639893414803437   3.649060258158893e-05   0.0001003935549278947
-0.00018639893414803437   3.649060258158893e-05   0.0001003935549278947
-0.00018639893414803437   3.649060258158893e-05   0.0001003935549278947
-0.00018639893414803437   3.649060258158893e-05   0.0001003935549278947
-0.0001301132753386209   3.48262983776073e-05   0.00021333588222480823
-0.0001301132753386209   3.48262983776073e-05   0.00021333588222480823
-0.0001301132753386209   3.48262983776073e-05   0.00021333588222480823
-0.0001301132753386209   3.48262983776073e-05   0.00021333588222480823
-0.00025345501555188604   3.452028320854311e-05   7.582706101258961e-06
-0.00025345501555188604   3.452028320854311e-05   7.582706101258961e-06
-0.00025345501555188604   3.452028320854311e-05   7.582706101258961e-06
-0.00025345501555188604   3.452028320854311e-05   7.582706101258961e-06
-0.0002599091289627463   3.217267690124384e-05   0.0002200271038963978
-0.0002599091289627463   3.217267690124384e-05   0.0002200271038963978
-0.0002599091289627463   3.217267690124384e-05   0.0002200271038963978
-0.0002599091289627463   3.217267690124384e-05   0.0002200271038963978
-0.00013584376130246407   3.164771048246029e-05   1.3566470980533015e-05
-0.00013584376130246407   3.164771048246029e-05   1.3566470980533015e-05
-0.00013584376130246407   3.164771048246029e-05   1.3566470980533015e-05
-0.00013584376130246407   3.164771048246029e-05   1.3566470980533015e-05
-0.0001934035632990755   3.460984222240435e-05   0.00010772219526426026
-0.0001934035632990755   3.460984222240435e-05   0.00010772219526426026
-0.0001934035632990755   3.460984222240435e-05   0.00010772219526426026
-0.0001934035632990755   3.460984222240435e-05   0.00010772219526426026
-0.00024058557885893775   6.335999570807917e-05   9.606541768205669e-05
-0.00024058557885893775   6.335999570807917e-05   9.606541768205669e-05
-0.00024058557885893775   6.335999570807917e-05   9.606541768205669e-05
-0.00024058557885893775   6.335999570807917e-05   9.606541768205669e-05
-0.00035559720238683584   5.6686985030801954e-05   -9.962442793747233e-05
-0.00035559720238683584   5.6686985030801954e-05   -9.962442793747233e-05
-0.00035559720238683584   5.6686985030801954e-05   -9.962442793747233e-05
-0.00035559720238683584   5.6686985030801954e-05   -9.962442793747233e-05
-0.0003652025310382477   6.453173289911428e-05   0.00013293076672162354
-0.0003652025310382477   6.453173289911428e-05   0.00013293076672162354
-0.0003652025310382477   6.453173289911428e-05   0.00013293076672162354
-0.0003652025310382477   6.453173289911428e-05   0.00013293076672162354
-0.0002466867799608165   5.725251616208252e-05   -6.022795503187817e-05
-0.0002466867799608165   5.725251616208252e-05   -6.022795503187817e-05
-0.0002466867799608165   5.725251616208252e-05   -6.022795503187817e-05
-0.0002466867799608165   5.725251616208252e-05   -6.022795503187817e-05
-0.0002904593256338756   6.012607374013268e-05   1.1002153209724828e-05
-0.0002904593256338756   6.012607374013268e-05   1.1002153209724828e-05
-0.0002904593256338756   6.012607374013268e-05   1.1002153209724828e-05
-0.0002904593256338756   6.012607374013268e-05   1.1002153209724828e-05
-0.00024668677996081585   6.453173289911601e-05   0.0001372982967638419
-0.00024668677996081585   6.453173289911601e-05   0.0001372982967638419
-0.00024668677996081585   6.453173289911601e-05   0.0001372982967638419
-0.00024668677996081585   6.453173289911601e-05   0.0001372982967638419
-0.000365202531038249   5.725251616208252e-05   -6.459548507409783e-05
-0.000365202531038249   5.725251616208252e-05   -6.459548507409783e-05
-0.000365202531038249   5.725251616208252e-05   -6.459548507409783e-05
-0.000365202531038249   5.725251616208252e-05   -6.459548507409783e-05
-0.00037459083022470794   6.405248230131541e-05   0.000161740424434606
-0.00037459083022470794   6.405248230131541e-05   0.000161740424434606
-0.00037459083022470794   6.405248230131541e-05   0.000161740424434606
-0.00037459083022470794   6.405248230131541e-05   0.000161740424434606
-0.00025345501555188647   5.6612367519769113e-05   -3.568853115117109e-05
-0.00025345501555188647   5.6612367519769113e-05   -3.568853115117109e-05
-0.00025345501555188647   5.6612367519769113e-05   -3.568853115117109e-05
-0.00025345501555188647   5.6612367519769113e-05   -3.568853115117109e-05
-0.00030219649401055156   6.120968320860211e-05   4.27888768666433e-05
-0.00030219649401055156   6.120968320860211e-05   4.27888768666433e-05
-0.00030219649401055156   6.120968320860211e-05   4.27888768666433e-05
-0.00030219649401055156   6.120968320860211e-05   4.27888768666433e-05
-0.00025345501555188647   6.405248230131541e-05   0.00016620449330353483
-0.00025345501555188647   6.405248230131541e-05   0.00016620449330353483
-0.00025345501555188647   6.405248230131541e-05   0.00016620449330353483
-0.00025345501555188647   6.405248230131541e-05   0.00016620449330353483
-0.00037459083022470924   5.6612367519769113e-05   -4.015260002009861e-05
-0.00037459083022470924   5.6612367519769113e-05   -4.015260002009861e-05
-0.00037459083022470924   5.6612367519769113e-05   -4.015260002009861e-05
-0.00037459083022470924   5.6612367519769113e-05   -4.015260002009861e-05
-0.0003855644818156218   5.892100290900461e-05   0.00021115460415776534
-0.0003855644818156218   5.892100290900461e-05   0.00021115460415776534
-0.0003855644818156218   5.892100290900461e-05   0.00021115460415776534
-0.0003855644818156218   5.892100290900461e-05   0.00021115460415776534
-0.0002599091289627463   5.2221649626800135e-05   5.748628038960112e-06
-0.0002599091289627463   5.2221649626800135e-05   5.748628038960112e-06
-0.0002599091289627463   5.2221649626800135e-05   5.748628038960112e-06
-0.0002599091289627463   5.2221649626800135e-05   5.748628038960112e-06
-0.0003052736422169892   5.940042813156604e-05   7.704888302651055e-05
-0.0003052736422169892   5.940042813156604e-05   7.704888302651055e-05
-0.0003052736422169892   5.940042813156604e-05   7.704888302651055e-05
-0.0003052736422169892   5.940042813156604e-05   7.704888302651055e-05
0.00020624089321948671   -2.7893699543368733e-05   0.00017575332208999948
0.00020624089321948671   -2.7893699543368733e-05   0.00017575332208999948
0.00020624089321948671   -2.7893699543368733e-05   0.00017575332208999948
0.00020624089321948671   -2.7893699543368733e-05   0.00017575332208999948
9.717013281767227e-05   -1.8328424878772537e-05   -2.9211378093415424e-07
9.717013281767227e-05   -1.8328424878772537e-05   -2.9211378093415424e-07
9.717013281767227e-05   -1.8328424878772537e-05   -2.9211378093415424e-07
9.717013281767227e-05   -1.8328424878772537e-05   -2.9211378093415424e-07
9.24928614800625e-05   -3.2401086619487235e-05   0.00015451901754055027
9.24928614800625e-05   -3.2401086619487235e-05   0.00015451901754055027
9.24928614800625e-05   -3.2401086619487235e-05   0.00015451901754055027
9.24928614800625e-05   -3.2401086619487235e-05   0.00015451901754055027
0.00019719738733479228   -2.228470244712913e-05   -2.605835605408018e-05
0.00019719738733479228   -2.228470244712913e-05   -2.605835605408018e-05
0.00019719738733479228   -2.228470244712913e-05   -2.605835605408018e-05
0.00019719738733479228   -2.228470244712913e-05   -2.605835605408018e-05
0.00014129713302269938   -2.54266904085379e-05   6.8993927242919e-05
0.00014129713302269938   -2.54266904085379e-05   6.8993927242919e-05
0.00014129713302269938   -2.54266904085379e-05   6.8993927242919e-05
0.00014129713302269938   -2.54266904085379e-05   6.8993927242919e-05
0.00019719738733479228   -3.240108661948897e-05   0.0001484491870371368
0.00019719738733479228   -3.240108661948897e-05   0.0001484491870371368
0.00019719738733479228   -3.240108661948897e-05   0.0001484491870371368
0.00019719738733479228   -3.240108661948897e-05   0.0001484491870371368
9.249286148006264e-05   -2.228470244712913e-05   -1.9988525550664916e-05
9.249286148006264e-05   -2.228470244712913e-05   -1.9988525550664916e-05
9.249286148006264e-05   -2.228470244712913e-05   -1.9988525550664916e-05
9.249286148006264e-05   -2.228470244712913e-05   -1.9988525550664916e-05
8.733622524020122e-05   -3.331334111913303e-05   0.00013958342322030644
8.733622524020122e-05   -3.331334111913303e-05   0.00013958342322030644
8.733622524020122e-05   -3.331334111913303e-05   0.00013958342322030644
8.733622524020122e-05   -3.331334111913303e-05   0.00013958342322030644
0.0001892792403572983   -2.3347436311403624e-05   -3.630114485949281e-05
0.0001892792403572983   -2.3347436311403624e-05   -3.630114485949281e-05
0.0001892792403572983   -2.3347436311403624e-05   -3.630114485949281e-05
0.0001892792403572983   -2.3347436311403624e-05   -3.630114485949281e-05
0.00013750877489097723   -2.7028596504108382e-05   5.219166036666851e-05
0.00013750877489097723   -2.7028596504108382e-05   5.219166036666851e-05
0.00013750877489097723   -2.7028596504108382e-05   5.219166036666851e-05
0.00013750877489097723   -2.7028596504108382e-05   5.219166036666851e-05
0.00018927924035729796   -3.331334111913303e-05   0.00013360388033566845
0.00018927924035729796   -3.331334111913303e-05   0.00013360388033566845
0.00018927924035729796   -3.331334111913303e-05   0.00013360388033566845
0.00018927924035729796   -3.331334111913303e-05   0.00013360388033566845
8.733622524020139e-05   -2.3347436311403624e-05   -3.0321601974854333e-05
8.733622524020139e-05   -2.3347436311403624e-05   -3.0321601974854333e-05
8.733622524020139e-05   -2.3347436311403624e-05   -3.0321601974854333e-05
8.733622524020139e-05   -2.3347436311403624e-05   -3.0321601974854333e-05
8.25781107202329e-05   -3.371643612933191e-05   0.00011940995701450585
8.25781107202329e-05   -3.371643612933191e-05   0.00011940995701450585
8.25781107202329e-05   -3.371643612933191e-05   0.00011940995701450585
8.25781107202329e-05   -3.371643612933191e-05   0.00011940995701450585
0.0001804433369764226   -2.436761534711611e-05   -4.930804588180429e-05
0.0001804433369764226   -2.436761534711611e-05   -4.930804588180429e-05
0.0001804433369764226   -2.436761534711611e-05   -4.930804588180429e-05
0.0001804433369764226   -2.436761534711611e-05   -4.930804588180429e-05
0.00012928470061307408   -2.6887672153830602e-05   3.7468382141140916e-05
0.00012928470061307408   -2.6887672153830602e-05   3.7468382141140916e-05
0.00012928470061307408   -2.6887672153830602e-05   3.7468382141140916e-05
0.00012928470061307408   -2.6887672153830602e-05   3.7468382141140916e-05
9.717013281767192e-05   -5.3216383613143015e-06   0.00020052292638560003
9.717013281767192e-05   -5.3216383613143015e-06   0.00020052292638560003
9.717013281767192e-05   -5.3216383613143015e-06   0.00020052292638560003
9.717013281767192e-05   -5.3216383613143015e-06   0.00020052292638560003
-6.111133218722779e-06   -3.810453128721969e-08   3.155760328962549e-05
-6.111133218722779e-06   -3.810453128721969e-08   3.155760328962549e-05
-6.111133218722779e-06   -3.810453128721969e-08   3.155760328962549e-05
-6.111133218722779e-06   -3.810453128721969e-08   3.155760328962549e-05
-1.0505103032346606e-05   -8.52639490265747e-06   0.00020090440157204126
-1.0505103032346606e-05   -8.52639490265747e-06   0.00020090440157204126
-1.0505103032346606e-05   -8.52639490265747e-06   0.00020090440157204126
-1.0505103032346606e-05   -8.52639490265747e-06   0.00020090440157204126
9.249286148006264e-05   -3.4896112915058786e-06   2.6219057218001998e-05
9.249286148006264e-05   -3.4896112915058786e-06   2.6219057218001998e-05
9.249286148006264e-05   -3.4896112915058786e-06   2.6219057218001998e-05
9.249286148006264e-05   -3.4896112915058786e-06   2.6219057218001998e-05
4.256263287597419e-05   -4.467559485816369e-06   0.00011002287380806929
4.256263287597419e-05   -4.467559485816369e-06   0.00011002287380806929
4.256263287597419e-05   -4.467559485816369e-06   0.00011002287380806929
4.256263287597419e-05   -4.467559485816369e-06   0.00011002287380806929
9.24928614800624e-05   -8.52639490265747e-06   0.000197882331405351
9.24928614800624e-05   -8.52639490265747e-06   0.000197882331405351
9.24928614800624e-05   -8.52639490265747e-06   0.000197882331405351
9.24928614800624e-05   -8.52639490265747e-06   0.000197882331405351
-1.0505103032346606e-05   -3.4896112915058786e-06   2.9241127384692367e-05
-1.0505103032346606e-05   -3.4896112915058786e-06   2.9241127384692367e-05
-1.0505103032346606e-05   -3.4896112915058786e-06   2.9241127384692367e-05
-1.0505103032346606e-05   -3.4896112915058786e-06   2.9241127384692367e-05
-1.4991202527064461e-05   -1.0917911590538343e-05   0.00019793318624175115
-1.4991202527064461e-05   -1.0917911590538343e-05   0.00019793318624175115
-1.4991202527064461e-05   -1.0917911590538343e-05   0.00019793318624175115
-1.4991202527064461e-05   -1.0917911590538343e-05   0.00019793318624175115
8.733622524020139e-05   -6.220123891195403e-06   2.4568800676703093e-05
8.733622524020139e-05   -6.220123891195403e-06   2.4568800676703093e-05
8.733622524020139e-05   -6.220123891195403e-06   2.4568800676703093e-05
8.733622524020139e-05   -6.220123891195403e-06   2.4568800676703093e-05
3.764313104109153e-05   -6.60283411790287e-06   0.0001076202504779176
3.764313104109153e-05   -6.60283411790287e-06   0.0001076202504779176
3.764313104109153e-05   -6.60283411790287e-06   0.0001076202504779176
3.764313104109153e-05   -6.60283411790287e-06   0.0001076202504779176
8.733622524020122e-05   -1.0917911590538343e-05   0.00019511451362214625
8.733622524020122e-05   -1.0917911590538343e-05   0.00019511451362214625
8.733622524020122e-05   -1.0917911590538343e-05   0.00019511451362214625
8.733622524020122e-05   -1.0917911590538343e-05   0.00019511451362214625
-1.4991202527064461e-05   -6.220123891195403e-06   2.738747329630864e-05
-1.4991202527064461e-05   -6.220123891195403e-06   2.738747329630864e-05
-1.4991202527064461e-05   -6.220123891195403e-06   2.738747329630864e-05
-1.4991202527064461e-05   -6.220123891195403e-06   2.738747329630864e-05
-1.9500808880787857e-05   -1.2817536538298202e-05   0.0001993676854632042
-1.9500808880787857e-05   -1.2817536538298202e-05   0.0001993676854632042
-1.9500808880787857e-05   -1.2817536538298202e-05   0.0001993676854632042
-1.9500808880787857e-05   -1.2817536538298202e-05   0.0001993676854632042
8.257811072023301e-05   -8.761191899147105e-06   2.6802346011344067e-05
8.257811072023301e-05   -8.761191899147105e-06   2.6802346011344067e-05
8.257811072023301e-05   -8.761191899147105e-06   2.6802346011344067e-05
8.257811072023301e-05   -8.761191899147105e-06   2.6802346011344067e-05
3.387158263302527e-05   -8.19528767830556e-06   0.00010764035029085664
3.387158263302527e-05   -8.19528767830556e-06   0.00010764035029085664
3.387158263302527e-05   -8.19528767830556e-06   0.00010764035029085664
3.387158263302527e-05   -8.19528767830556e-06   0.00010764035029085664
-6.111133218722779e-06   1.738009138169648e-05   0.00021241855415381206
-6.111133218722779e-06   1.738009138169648e-05   0.00021241855415381206
-6.111133218722779e-06   1.738009138169648e-05   0.00021241855415381206
-6.111133218722779e-06   1.738009138169648e-05   0.00021241855415381206
-0.00010722686323000677   1.786721639317028e-05   4.418461247522251e-05
-0.00010722686323000677   1.786721639317028e-05   4.418461247522251e-05
-0.00010722686323000677   1.786721639317028e-05   4.418461247522251e-05
-0.00010722686323000677   1.786721639317028e-05   4.418461247522251e-05
-0.00011164115197035763   1.4700802096636809e-05   0.0002117749540267071
-0.00011164115197035763   1.4700802096636809e-05   0.0002117749540267071
-0.00011164115197035763   1.4700802096636809e-05   0.0002117749540267071
-0.00011164115197035763   1.4700802096636809e-05   0.0002117749540267071
-1.0505103032346606e-05   1.482337611759428e-05   4.314132805078165e-05
-1.0505103032346606e-05   1.482337611759428e-05   4.314132805078165e-05
-1.0505103032346606e-05   1.482337611759428e-05   4.314132805078165e-05
-1.0505103032346606e-05   1.482337611759428e-05   4.314132805078165e-05
-5.902457443965971e-05   1.591642398080309e-05   0.00012335128501171242
-5.902457443965971e-05   1.591642398080309e-05   0.00012335128501171242
-5.902457443965971e-05   1.591642398080309e-05   0.00012335128501171242
-5.902457443965971e-05   1.591642398080309e-05   0.00012335128501171242
-1.0505103032346606e-05   1.4700802096636809e-05   0.00021170140961413418
-1.0505103032346606e-05   1.4700802096636809e-05   0.00021170140961413418
-1.0505103032346606e-05   1.4700802096636809e-05   0.00021170140961413418
-1.0505103032346606e-05   1.4700802096636809e-05   0.00021170140961413418
-0.00011164115197035763   1.482337611759428e-05   4.3214872463355654e-05
-0.00011164115197035763   1.482337611759428e-05   4.3214872463355654e-05
-0.00011164115197035763   1.482337611759428e-05   4.3214872463355654e-05
-0.00011164115197035763   1.482337611759428e-05   4.3214872463355654e-05
-0.0001161674874228713   1.209864756796658e-05   0.0002129602749586226
-0.0001161674874228713   1.209864756796658e-05   0.0002129602749586226
-0.0001161674874228713   1.209864756796658e-05   0.0002129602749586226
-0.0001161674874228713   1.209864756796658e-05   0.0002129602749586226
-1.4991202527064461e-05   1.1827328733031092e-05   4.449592476657221e-05
-1.4991202527064461e-05   1.1827328733031092e-05   4.449592476657221e-05
-1.4991202527064461e-05   1.1827328733031092e-05   4.449592476657221e-05
-1.4991202527064461e-05   1.1827328733031092e-05   4.449592476657221e-05
-6.312613207029453e-05   1.3864992737953191e-05   0.00012349820893567355
-6.312613207029453e-05   1.3864992737953191e-05   0.00012349820893567355
-6.312613207029453e-05   1.3864992737953191e-05   0.00012349820893567355
-6.312613207029453e-05   1.3864992737953191e-05   0.00012349820893567355
-1.4991202527064461e-05   1.209864756796658e-05   0.00021312306625958458
-1.4991202527064461e-05   1.209864756796658e-05   0.00021312306625958458
-1.4991202527064461e-05   1.209864756796658e-05   0.00021312306625958458
-1.4991202527064461e-05   1.209864756796658e-05   0.00021312306625958458
-0.0001161674874228713   1.1827328733031092e-05   4.4333133465611525e-05
-0.0001161674874228713   1.1827328733031092e-05   4.4333133465611525e-05
-0.0001161674874228713   1.1827328733031092e-05   4.4333133465611525e-05
-0.0001161674874228713   1.1827328733031092e-05   4.4333133465611525e-05
-0.00012069367947109956   9.781631547703395e-06   0.00021564536505412537
-0.00012069367947109956   9.781631547703395e-06   0.00021564536505412537
-0.00012069367947109956   9.781631547703395e-06   0.00021564536505412537
-0.00012069367947109956   9.781631547703395e-06   0.00021564536505412537
-1.9500808880787857e-05   8.983475640447769e-06   4.7469474281293996e-05
-1.9500808880787857e-05   8.983475640447769e-06   4.7469474281293996e-05
-1.9500808880787857e-05   8.983475640447769e-06   4.7469474281293996e-05
-1.9500808880787857e-05   8.983475640447769e-06   4.7469474281293996e-05
-6.741855861053031e-05   1.186460414064755e-05   0.00012560371339741423
-6.741855861053031e-05   1.186460414064755e-05   0.00012560371339741423
-6.741855861053031e-05   1.186460414064755e-05   0.00012560371339741423
-6.741855861053031e-05   1.186460414064755e-05   0.00012560371339741423
-0.00010722686323000666   3.944936988250526e-05   0.0001867108908959452
-0.00010722686323000666   3.944936988250526e-05   0.0001867108908959452
-0.00010722686323000666   3.944936988250526e-05   0.0001867108908959452
-0.00010722686323000666   3.944936988250526e-05   0.0001867108908959452
-0.0002060147257218895   3.508231109426892e-05   1.944421813653268e-05
-0.0002060147257218895   3.508231109426892e-05   1.944421813653268e-05
-0.0002060147257218895   3.508231109426892e-05   1.944421813653268e-05
-0.0002060147257218895   3.508231109426892e-05   1.944421813653268e-05
-0.00021076176553343207   3.6879640787247994e-05   0.00018545532410229118
-0.00021076176553343207   3.6879640787247994e-05   0.00018545532410229118
-0.00021076176553343207   3.6879640787247994e-05   0.00018545532410229118
-0.00021076176553343207   3.6879640787247994e-05   0.00018545532410229118
-0.00011164115197035774   3.215761342419826e-05   2.3087517914996024e-05
-0.00011164115197035774   3.215761342419826e-05   2.3087517914996024e-05
-0.00011164115197035774   3.215761342419826e-05   2.3087517914996024e-05
-0.00011164115197035774   3.215761342419826e-05   2.3087517914996024e-05
-0.00015838868879938984   3.5435906389248706e-05   9.903310351768628e-05
-0.00015838868879938984   3.5435906389248706e-05   9.903310351768628e-05
-0.00015838868879938984   3.5435906389248706e-05   9.903310351768628e-05
-0.00015838868879938984   3.5435906389248706e-05   9.903310351768628e-05
-0.00011164115197035763   3.6879640787247994e-05   0.00018828854052011998
-0.00011164115197035763   3.6879640787247994e-05   0.00018828854052011998
-0.00011164115197035763   3.6879640787247994e-05   0.00018828854052011998
-0.00011164115197035763   3.6879640787247994e-05   0.00018828854052011998
-0.00021076176553343207   3.215761342419826e-05   2.025430149716744e-05
-0.00021076176553343207   3.215761342419826e-05   2.025430149716744e-05
-0.00021076176553343207   3.215761342419826e-05   2.025430149716744e-05
-0.00021076176553343207   3.215761342419826e-05   2.025430149716744e-05
-0.0002159920848636863   3.452028320854311e-05   0.0001923963820928097
-0.0002159920848636863   3.452028320854311e-05   0.0001923963820928097
-0.0002159920848636863   3.452028320854311e-05   0.0001923963820928097
-0.0002159920848636863   3.452028320854311e-05   0.0001923963820928097
-0.00011616748742287162   2.9441537918891564e-05   2.906930019857764e-05
-0.00011616748742287162   2.9441537918891564e-05   2.906930019857764e-05
-0.00011616748742287162   2.9441537918891564e-05   2.906930019857764e-05
-0.00011616748742287162   2.9441537918891564e-05   2.906930019857764e-05
-0.00016181552491533737   3.356457024824254e-05   0.00010267554328841424
-0.00016181552491533737   3.356457024824254e-05   0.00010267554328841424
-0.00016181552491533737   3.356457024824254e-05   0.00010267554328841424
-0.00016181552491533737   3.356457024824254e-05   0.00010267554328841424
-0.00011616748742287162   3.452028320854311e-05   0.0001954436292666015
-0.00011616748742287162   3.452028320854311e-05   0.0001954436292666015
-0.00011616748742287162   3.452028320854311e-05   0.0001954436292666015
-0.00011616748742287162   3.452028320854311e-05   0.0001954436292666015
-0.0002159920848636863   2.9441537918891564e-05   2.6022053024786496e-05
-0.0002159920848636863   2.9441537918891564e-05   2.6022053024786496e-05
-0.0002159920848636863   2.9441537918891564e-05   2.6022053024786496e-05
-0.0002159920848636863   2.9441537918891564e-05   2.6022053024786496e-05
-0.00022077987040637972   3.164771048246029e-05   0.00019765206237300909
-0.00022077987040637972   3.164771048246029e-05   0.00019765206237300909
-0.00022077987040637972   3.164771048246029e-05   0.00019765206237300909
-0.00022077987040637972   3.164771048246029e-05   0.00019765206237300909
-0.00012069367947109967   2.6286933614259184e-05   3.405821026846389e-05
-0.00012069367947109967   2.6286933614259184e-05   3.405821026846389e-05
-0.00012069367947109967   2.6286933614259184e-05   3.405821026846389e-05
-0.00012069367947109967   2.6286933614259184e-05   3.405821026846389e-05
-0.0001672278537865254   3.146373241168232e-05   0.00010850908818239424
-0.0001672278537865254   3.146373241168232e-05   0.00010850908818239424
-0.0001672278537865254   3.146373241168232e-05   0.00010850908818239424
-0.0001672278537865254   3.146373241168232e-05   0.00010850908818239424
-0.0002060147257218895   5.6686985030801954e-05   9.012533256906857e-05
-0.0002060147257218895   5.6686985030801954e-05   9.012533256906857e-05
-0.0002060147257218895   5.6686985030801954e-05   9.012533256906857e-05
-0.0002060147257218895   5.6686985030801954e-05   9.012533256906857e-05
-0.00029960566981166   4.823024247740601e-05   -7.093361977925355e-05
-0.00029960566981166   4.823024247740601e-05   -7.093361977925355e-05
-0.00029960566981166   4.823024247740601e-05   -7.093361977925355e-05
-0.00029960566981166   4.823024247740601e-05   -7.093361977925355e-05
-0.00030812614514038315   5.725251616208078e-05   0.00011950106512369045
-0.00030812614514038315   5.725251616208078e-05   0.00011950106512369045
-0.00030812614514038315   5.725251616208078e-05   0.00011950106512369045
-0.00030812614514038315   5.725251616208078e-05   0.00011950106512369045
-0.00021076176553343207   4.795406763419101e-05   -3.719383177116023e-05
-0.00021076176553343207   4.795406763419101e-05   -3.719383177116023e-05
-0.00021076176553343207   4.795406763419101e-05   -3.719383177116023e-05
-0.00021076176553343207   4.795406763419101e-05   -3.719383177116023e-05
-0.0002463877698911863   5.1775456780988466e-05   1.98900086703516e-05
-0.0002463877698911863   5.1775456780988466e-05   1.98900086703516e-05
-0.0002463877698911863   5.1775456780988466e-05   1.98900086703516e-05
-0.0002463877698911863   5.1775456780988466e-05   1.98900086703516e-05
-0.00021076176553343185   5.725251616208078e-05   0.0001250801342404257
-0.00021076176553343185   5.725251616208078e-05   0.0001250801342404257
-0.00021076176553343185   5.725251616208078e-05   0.0001250801342404257
-0.00021076176553343185   5.725251616208078e-05   0.0001250801342404257
-0.0003081261451403838   4.795406763419101e-05   -4.2772900887895916e-05
-0.0003081261451403838   4.795406763419101e-05   -4.2772900887895916e-05
-0.0003081261451403838   4.795406763419101e-05   -4.2772900887895916e-05
-0.0003081261451403838   4.795406763419101e-05   -4.2772900887895916e-05
-0.00031576504187727636   5.661236751976738e-05   0.00014333685177010148
-0.00031576504187727636   5.661236751976738e-05   0.00014333685177010148
-0.00031576504187727636   5.661236751976738e-05   0.00014333685177010148
-0.00031576504187727636   5.661236751976738e-05   0.00014333685177010148
-0.0002159920848636863   4.696521240263665e-05   -1.7163116848938672e-05
-0.0002159920848636863   4.696521240263665e-05   -1.7163116848938672e-05
-0.0002159920848636863   4.696521240263665e-05   -1.7163116848938672e-05
-0.0002159920848636863   4.696521240263665e-05   -1.7163116848938672e-05
-0.0002561311244208385   5.233448621423144e-05   4.6513718126036264e-05
-0.0002561311244208385   5.233448621423144e-05   4.6513718126036264e-05
-0.0002561311244208385   5.233448621423144e-05   4.6513718126036264e-05
-0.0002561311244208385   5.233448621423144e-05   4.6513718126036264e-05
-0.0002159920848636863   5.6612367519769113e-05   0.00014912514484038183
-0.0002159920848636863   5.6612367519769113e-05   0.00014912514484038183
-0.0002159920848636863   5.6612367519769113e-05   0.00014912514484038183
-0.0002159920848636863   5.6612367519769113e-05   0.00014912514484038183
-0.0003157650418772768   4.696521240263665e-05   -2.2951409919216847e-05
-0.0003157650418772768   4.696521240263665e-05   -2.2951409919216847e-05
-0.0003157650418772768   4.696521240263665e-05   -2.2951409919216847e-05
-0.0003157650418772768   4.696521240263665e-05   -2.2951409919216847e-05
-0.0003245521650864331   5.222164962680187e-05   0.0001843949068143346
-0.0003245521650864331   5.222164962680187e-05   0.0001843949068143346
-0.0003245521650864331   5.222164962680187e-05   0.0001843949068143346
-0.0003245521650864331   5.222164962680187e-05   0.0001843949068143346
-0.00022077987040637972   4.263116217951245e-05   1.7195374815948475e-05
-0.00022077987040637972   4.263116217951245e-05   1.7195374815948475e-05
-0.00022077987040637972   4.263116217951245e-05   1.7195374815948475e-05
-0.00022077987040637972   4.263116217951245e-05   1.7195374815948475e-05
-0.00025829578759832235   5.054087306064804e-05   7.497607694051216e-05
-0.00025829578759832235   5.054087306064804e-05   7.497607694051216e-05
-0.00025829578759832235   5.054087306064804e-05   7.497607694051216e-05
-0.00025829578759832235   5.054087306064804e-05   7.497607694051216e-05
0.00014127775004754928   -1.832842487877427e-05   0.00014251881599313364
0.00014127775004754928   -1.832842487877427e-05   0.00014251881599313364
0.00014127775004754928   -1.832842487877427e-05   0.00014251881599313364
0.00014127775004754928   -1.832842487877427e-05   0.00014251881599313364
5.8570412466434193e-05   -8.892571179263536e-06   1.0334765577648015e-05
5.8570412466434193e-05   -8.892571179263536e-06   1.0334765577648015e-05
5.8570412466434193e-05   -8.892571179263536e-06   1.0334765577648015e-05
5.8570412466434193e-05   -8.892571179263536e-06   1.0334765577648015e-05
5.48189841032246e-05   -2.228470244712913e-05   0.00012823176987566184
5.48189841032246e-05   -2.228470244712913e-05   0.00012823176987566184
5.48189841032246e-05   -2.228470244712913e-05   0.00012823176987566184
5.48189841032246e-05   -2.228470244712913e-05   0.00012823176987566184
0.00013330590203332657   -1.241810928075994e-05   -8.499715907664776e-06
0.00013330590203332657   -1.241810928075994e-05   -8.499715907664776e-06
0.00013330590203332657   -1.241810928075994e-05   -8.499715907664776e-06
0.00013330590203332657   -1.241810928075994e-05   -8.499715907664776e-06
9.216174002185414e-05   -1.5860693612135962e-05   6.213943804362016e-05
9.216174002185414e-05   -1.5860693612135962e-05   6.213943804362016e-05
9.216174002185414e-05   -1.5860693612135962e-05   6.213943804362016e-05
9.216174002185414e-05   -1.5860693612135962e-05   6.213943804362016e-05
0.00013330590203332684   -2.2284702447130864e-05   0.0001223118139758398
0.00013330590203332684   -2.2284702447130864e-05   0.0001223118139758398
0.00013330590203332684   -2.2284702447130864e-05   0.0001223118139758398
0.00013330590203332684   -2.2284702447130864e-05   0.0001223118139758398
5.481898410322441e-05   -1.241810928075994e-05   -2.5797600078421995e-06
5.481898410322441e-05   -1.241810928075994e-05   -2.5797600078421995e-06
5.481898410322441e-05   -1.241810928075994e-05   -2.5797600078421995e-06
5.481898410322441e-05   -1.241810928075994e-05   -2.5797600078421995e-06
5.061233481572152e-05   -2.3347436311403624e-05   0.00011760924522687902
5.061233481572152e-05   -2.3347436311403624e-05   0.00011760924522687902
5.061233481572152e-05   -2.3347436311403624e-05   0.00011760924522687902
5.061233481572152e-05   -2.3347436311403624e-05   0.00011760924522687902
0.00012646954040505711   -1.3638928030386757e-05   -1.4644535723956045e-05
0.00012646954040505711   -1.3638928030386757e-05   -1.4644535723956045e-05
0.00012646954040505711   -1.3638928030386757e-05   -1.4644535723956045e-05
0.00012646954040505711   -1.3638928030386757e-05   -1.4644535723956045e-05
8.858184239682116e-05   -1.7353554370887203e-05   5.0730403427407065e-05
8.858184239682116e-05   -1.7353554370887203e-05   5.0730403427407065e-05
8.858184239682116e-05   -1.7353554370887203e-05   5.0730403427407065e-05
8.858184239682116e-05   -1.7353554370887203e-05   5.0730403427407065e-05
0.00012646954040505733   -2.3347436311403624e-05   0.0001117841402582696
0.00012646954040505733   -2.3347436311403624e-05   0.0001117841402582696
0.00012646954040505733   -2.3347436311403624e-05   0.0001117841402582696
0.00012646954040505733   -2.3347436311403624e-05   0.0001117841402582696
5.0612334815721435e-05   -1.3638928030386757e-05   -8.81943075534651e-06
5.0612334815721435e-05   -1.3638928030386757e-05   -8.81943075534651e-06
5.0612334815721435e-05   -1.3638928030386757e-05   -8.81943075534651e-06
5.0612334815721435e-05   -1.3638928030386757e-05   -8.81943075534651e-06
4.684436473191404e-05   -2.436761534711611e-05   0.00010386868102294725
4.684436473191404e-05   -2.436761534711611e-05   0.00010386868102294725
4.684436473191404e-05   -2.436761534711611e-05   0.00010386868102294725
4.684436473191404e-05   -2.436761534711611e-05   0.00010386868102294725
0.00011872743448450187   -1.5275750418628636e-05   -2.1391554188458306e-05
0.00011872743448450187   -1.5275750418628636e-05   -2.1391554188458306e-05
0.00011872743448450187   -1.5275750418628636e-05   -2.1391554188458306e-05
0.00011872743448450187   -1.5275750418628636e-05   -2.1391554188458306e-05
8.205187207324798e-05   -1.7661851594144573e-05   4.1166043868942365e-05
8.205187207324798e-05   -1.7661851594144573e-05   4.1166043868942365e-05
8.205187207324798e-05   -1.7661851594144573e-05   4.1166043868942365e-05
8.205187207324798e-05   -1.7661851594144573e-05   4.1166043868942365e-05
5.857041246643438e-05   -3.810453128721969e-08   0.00017685992498538312
5.857041246643438e-05   -3.810453128721969e-08   0.00017685992498538312
5.857041246643438e-05   -3.810453128721969e-08   0.00017685992498538312
5.857041246643438e-05   -3.810453128721969e-08   0.00017685992498538312
-1.910381237416384e-05   4.732618832816934e-06   5.026531760284926e-05
-1.910381237416384e-05   4.732618832816934e-06   5.026531760284926e-05
-1.910381237416384e-05   4.732618832816934e-06   5.026531760284926e-05
-1.910381237416384e-05   4.732618832816934e-06   5.026531760284926e-05
-2.254790226182443e-05   -3.4896112915058786e-06   0.00017722361775370475
-2.254790226182443e-05   -3.4896112915058786e-06   0.00017722361775370475
-2.254790226182443e-05   -3.4896112915058786e-06   0.00017722361775370475
-2.254790226182443e-05   -3.4896112915058786e-06   0.00017722361775370475
5.481898410322441e-05   1.1508305574545186e-06   4.549454203591524e-05
5.481898410322441e-05   1.1508305574545186e-06   4.549454203591524e-05
5.481898410322441e-05   1.1508305574545186e-06   4.549454203591524e-05
5.481898410322441e-05   1.1508305574545186e-06   4.549454203591524e-05
1.738302384760925e-05   2.843062141422853e-07   0.00010840772373459703
1.738302384760925e-05   2.843062141422853e-07   0.00010840772373459703
1.738302384760925e-05   2.843062141422853e-07   0.00010840772373459703
1.738302384760925e-05   2.843062141422853e-07   0.00010840772373459703
5.481898410322457e-05   -3.4896112915058786e-06   0.00017443935264432973
5.481898410322457e-05   -3.4896112915058786e-06   0.00017443935264432973
5.481898410322457e-05   -3.4896112915058786e-06   0.00017443935264432973
5.481898410322457e-05   -3.4896112915058786e-06   0.00017443935264432973
-2.254790226182443e-05   1.1508305574545186e-06   4.8278807145291265e-05
-2.254790226182443e-05   1.1508305574545186e-06   4.8278807145291265e-05
-2.254790226182443e-05   1.1508305574545186e-06   4.8278807145291265e-05
-2.254790226182443e-05   1.1508305574545186e-06   4.8278807145291265e-05
-2.6067708736397972e-05   -6.220123891195403e-06   0.00017515803836441572
-2.6067708736397972e-05   -6.220123891195403e-06   0.00017515803836441572
-2.6067708736397972e-05   -6.220123891195403e-06   0.00017515803836441572
-2.6067708736397972e-05   -6.220123891195403e-06   0.00017515803836441572
5.0612334815721435e-05   -1.7894730812307441e-06   4.469957529157207e-05
5.0612334815721435e-05   -1.7894730812307441e-06   4.469957529157207e-05
5.0612334815721435e-05   -1.7894730812307441e-06   4.469957529157207e-05
5.0612334815721435e-05   -1.7894730812307441e-06   4.469957529157207e-05
1.3603207620577535e-05   -2.1103237611719977e-06   0.00010657396435811636
1.3603207620577535e-05   -2.1103237611719977e-06   0.00010657396435811636
1.3603207620577535e-05   -2.1103237611719977e-06   0.00010657396435811636
1.3603207620577535e-05   -2.1103237611719977e-06   0.00010657396435811636
5.06123348157216e-05   -6.220123891195403e-06   0.0001724996478784371
5.06123348157216e-05   -6.220123891195403e-06   0.0001724996478784371
5.06123348157216e-05   -6.220123891195403e-06   0.0001724996478784371
5.06123348157216e-05   -6.220123891195403e-06   0.0001724996478784371
-2.6067708736397972e-05   -1.7894730812307441e-06   4.735796577755129e-05
-2.6067708736397972e-05   -1.7894730812307441e-06   4.735796577755129e-05
-2.6067708736397972e-05   -1.7894730812307441e-06   4.735796577755129e-05
-2.6067708736397972e-05   -1.7894730812307441e-06   4.735796577755129e-05
-2.9556783299430228e-05   -8.761191899147105e-06   0.00017680710182164504
-2.9556783299430228e-05   -8.761191899147105e-06   0.00017680710182164504
-2.9556783299430228e-05   -8.761191899147105e-06   0.00017680710182164504
-2.9556783299430228e-05   -8.761191899147105e-06   0.00017680710182164504
4.684436473191382e-05   -4.69898960768142e-06   4.70345337278603e-05
4.684436473191382e-05   -4.69898960768142e-06   4.70345337278603e-05
4.684436473191382e-05   -4.69898960768142e-06   4.70345337278603e-05
4.684436473191382e-05   -4.69898960768142e-06   4.70345337278603e-05
1.0605904294586598e-05   -4.118136654832419e-06   0.00010708345601836283
1.0605904294586598e-05   -4.118136654832419e-06   0.00010708345601836283
1.0605904294586598e-05   -4.118136654832419e-06   0.00010708345601836283
1.0605904294586598e-05   -4.118136654832419e-06   0.00010708345601836283
-1.910381237416373e-05   1.7867216393168545e-05   0.0001920570931825587
-1.910381237416373e-05   1.7867216393168545e-05   0.0001920570931825587
-1.910381237416373e-05   1.7867216393168545e-05   0.0001920570931825587
-1.910381237416373e-05   1.7867216393168545e-05   0.0001920570931825587
-9.552226223187295e-05   1.7550699633928774e-05   6.450310003083305e-05
-9.552226223187295e-05   1.7550699633928774e-05   6.450310003083305e-05
-9.552226223187295e-05   1.7550699633928774e-05   6.450310003083305e-05
-9.552226223187295e-05   1.7550699633928774e-05   6.450310003083305e-05
-9.891680751869568e-05   1.482337611759428e-05   0.00019080104639573447
-9.891680751869568e-05   1.482337611759428e-05   0.00019080104639573447
-9.891680751869568e-05   1.482337611759428e-05   0.00019080104639573447
-9.891680751869568e-05   1.482337611759428e-05   0.00019080104639573447
-2.254790226182432e-05   1.4285422744160156e-05   6.384230965834144e-05
-2.254790226182432e-05   1.4285422744160156e-05   6.384230965834144e-05
-2.254790226182432e-05   1.4285422744160156e-05   6.384230965834144e-05
-2.254790226182432e-05   1.4285422744160156e-05   6.384230965834144e-05
-5.916890125491267e-05   1.5739122012152842e-05   0.0001240050884193651
-5.916890125491267e-05   1.5739122012152842e-05   0.0001240050884193651
-5.916890125491267e-05   1.5739122012152842e-05   0.0001240050884193651
-5.916890125491267e-05   1.5739122012152842e-05   0.0001240050884193651
-2.254790226182443e-05   1.482337611759428e-05   0.00019112381841979425
-2.254790226182443e-05   1.482337611759428e-05   0.00019112381841979425
-2.254790226182443e-05   1.482337611759428e-05   0.00019112381841979425
-2.254790226182443e-05   1.482337611759428e-05   0.00019112381841979425
-9.891680751869568e-05   1.4285422744160156e-05   6.351953763428318e-05
-9.891680751869568e-05   1.4285422744160156e-05   6.351953763428318e-05
-9.891680751869568e-05   1.4285422744160156e-05   6.351953763428318e-05
-9.891680751869568e-05   1.4285422744160156e-05   6.351953763428318e-05
-0.00010239435322857509   1.1827328733031092e-05   0.0001918044538899424
-0.00010239435322857509   1.1827328733031092e-05   0.0001918044538899424
-0.00010239435322857509   1.1827328733031092e-05   0.0001918044538899424
-0.00010239435322857509   1.1827328733031092e-05   0.0001918044538899424
-2.6067708736397864e-05   1.1057268825135844e-05   6.50554156810517e-05
-2.6067708736397864e-05   1.1057268825135844e-05   6.50554156810517e-05
-2.6067708736397864e-05   1.1057268825135844e-05   6.50554156810517e-05
-2.6067708736397864e-05   1.1057268825135844e-05   6.50554156810517e-05
-6.228108256678324e-05   1.336464537706264e-05   0.00012402661280054182
-6.228108256678324e-05   1.336464537706264e-05   0.00012402661280054182
-6.228108256678324e-05   1.336464537706264e-05   0.00012402661280054182
-6.228108256678324e-05   1.336464537706264e-05   0.00012402661280054182
-2.6067708736397972e-05   1.1827328733031092e-05   0.00019226648983467973
-2.6067708736397972e-05   1.1827328733031092e-05   0.00019226648983467973
-2.6067708736397972e-05   1.1827328733031092e-05   0.00019226648983467973
-2.6067708736397972e-05   1.1827328733031092e-05   0.00019226648983467973
-0.00010239435322857509   1.1057268825135844e-05   6.459337973631525e-05
-0.00010239435322857509   1.1057268825135844e-05   6.459337973631525e-05
-0.00010239435322857509   1.1057268825135844e-05   6.459337973631525e-05
-0.00010239435322857509   1.1057268825135844e-05   6.459337973631525e-05
-0.0001058327721729696   8.983475640447769e-06   0.00019441908094896924
-0.0001058327721729696   8.983475640447769e-06   0.00019441908094896924
-0.0001058327721729696   8.983475640447769e-06   0.00019441908094896924
-0.0001058327721729696   8.983475640447769e-06   0.00019441908094896924
-2.955678329943012e-05   7.947905041888123e-06   6.791377518553898e-05
-2.955678329943012e-05   7.947905041888123e-06   6.791377518553898e-05
-2.955678329943012e-05   7.947905041888123e-06   6.791377518553898e-05
-2.955678329943012e-05   7.947905041888123e-06   6.791377518553898e-05
-6.553465091338435e-05   1.1044812722814379e-05   0.00012601874326690623
-6.553465091338435e-05   1.1044812722814379e-05   0.00012601874326690623
-6.553465091338435e-05   1.1044812722814379e-05   0.00012601874326690623
-6.553465091338435e-05   1.1044812722814379e-05   0.00012601874326690623
-9.552226223187295e-05   3.508231109427065e-05   0.00016974702406126734
-9.552226223187295e-05   3.508231109427065e-05   0.00016974702406126734
-9.552226223187295e-05   3.508231109427065e-05   0.00016974702406126734
-9.552226223187295e-05   3.508231109427065e-05   0.00016974702406126734
-0.0001705856698384536   3.001249937842343e-05   4.159945768745805e-05
-0.0001705856698384536   3.001249937842343e-05   4.159945768745805e-05
-0.0001705856698384536   3.001249937842343e-05   4.159945768745805e-05
-0.0001705856698384536   3.001249937842343e-05   4.159945768745805e-05
-0.00017422292348843993   3.215761342419826e-05   0.00016746826821090188
-0.00017422292348843993   3.215761342419826e-05   0.00016746826821090188
-0.00017422292348843993   3.215761342419826e-05   0.00016746826821090188
-0.00017422292348843993   3.215761342419826e-05   0.00016746826821090188
-9.891680751869525e-05   2.6815240696746734e-05   4.51634985644692e-05
-9.891680751869525e-05   2.6815240696746734e-05   4.51634985644692e-05
-9.891680751869525e-05   2.6815240696746734e-05   4.51634985644692e-05
-9.891680751869525e-05   2.6815240696746734e-05   4.51634985644692e-05
-0.0001344333428134225   3.0500860031897406e-05   0.0001021463524545933
-0.0001344333428134225   3.0500860031897406e-05   0.0001021463524545933
-0.0001344333428134225   3.0500860031897406e-05   0.0001021463524545933
-0.0001344333428134225   3.0500860031897406e-05   0.0001021463524545933
-9.891680751869568e-05   3.2157613424199996e-05   0.00017067369184737505
-9.891680751869568e-05   3.2157613424199996e-05   0.00017067369184737505
-9.891680751869568e-05   3.2157613424199996e-05   0.00017067369184737505
-9.891680751869568e-05   3.2157613424199996e-05   0.00017067369184737505
-0.0001742229234884395   2.6815240696745e-05   4.195807492799646e-05
-0.0001742229234884395   2.6815240696745e-05   4.195807492799646e-05
-0.0001742229234884395   2.6815240696745e-05   4.195807492799646e-05
-0.0001742229234884395   2.6815240696745e-05   4.195807492799646e-05
-0.00017832009080325753   2.9441537918891564e-05   0.00017319455895281697
-0.00017832009080325753   2.9441537918891564e-05   0.00017319455895281697
-0.00017832009080325753   2.9441537918891564e-05   0.00017319455895281697
-0.00017832009080325753   2.9441537918891564e-05   0.00017319455895281697
-0.00010239435322857487   2.3864768468738473e-05   4.999772466510481e-05
-0.00010239435322857487   2.3864768468738473e-05   4.999772466510481e-05
-0.00010239435322857487   2.3864768468738473e-05   4.999772466510481e-05
-0.00010239435322857487   2.3864768468738473e-05   4.999772466510481e-05
-0.0001369693475981623   2.8319460584937117e-05   0.0001049499000113697
-0.0001369693475981623   2.8319460584937117e-05   0.0001049499000113697
-0.0001369693475981623   2.8319460584937117e-05   0.0001049499000113697
-0.0001369693475981623   2.8319460584937117e-05   0.0001049499000113697
-0.00010239435322857509   2.9441537918891564e-05   0.0001765406206229083
-0.00010239435322857509   2.9441537918891564e-05   0.0001765406206229083
-0.00010239435322857509   2.9441537918891564e-05   0.0001765406206229083
-0.00010239435322857509   2.9441537918891564e-05   0.0001765406206229083
-0.00017832009080325732   2.386476846873674e-05   4.6651662995013474e-05
-0.00017832009080325732   2.386476846873674e-05   4.6651662995013474e-05
-0.00017832009080325732   2.386476846873674e-05   4.6651662995013474e-05
-0.00017832009080325732   2.386476846873674e-05   4.6651662995013474e-05
-0.00018196875084747926   2.6286933614259184e-05   0.00017805916391210996
-0.00018196875084747926   2.6286933614259184e-05   0.00017805916391210996
-0.00018196875084747926   2.6286933614259184e-05   0.00017805916391210996
-0.00018196875084747926   2.6286933614259184e-05   0.00017805916391210996
-0.00010583277217296916   2.057435600028891e-05   5.4593412689643225e-05
-0.00010583277217296916   2.057435600028891e-05   5.4593412689643225e-05
-0.00010583277217296916   2.057435600028891e-05   5.4593412689643225e-05
-0.00010583277217296916   2.057435600028891e-05   5.4593412689643225e-05
-0.00014106652365715965   2.6032387449614544e-05   0.00011004151296036945
-0.00014106652365715965   2.6032387449614544e-05   0.00011004151296036945
-0.00014106652365715965   2.6032387449614544e-05   0.00011004151296036945
-0.00014106652365715965   2.6032387449614544e-05   0.00011004151296036945
-0.0001705856698384536   4.8230242477404275e-05   8.140134464800983e-05
-0.0001705856698384536   4.8230242477404275e-05   8.140134464800983e-05
-0.0001705856698384536   4.8230242477404275e-05   8.140134464800983e-05
-0.0001705856698384536   4.8230242477404275e-05   8.140134464800983e-05
-0.00024075670401632002   3.925101841119501e-05   -4.0937913421493395e-05
-0.00024075670401632002   3.925101841119501e-05   -4.0937913421493395e-05
-0.00024075670401632002   3.925101841119501e-05   -4.0937913421493395e-05
-0.00024075670401632002   3.925101841119501e-05   -4.0937913421493395e-05
-0.0002483463079013355   4.7954067634189274e-05   0.00010417062628950355
-0.0002483463079013355   4.7954067634189274e-05   0.00010417062628950355
-0.0002483463079013355   4.7954067634189274e-05   0.00010417062628950355
-0.0002483463079013355   4.7954067634189274e-05   0.00010417062628950355
-0.00017422292348843928   3.8204886545739614e-05   -1.3518839078918883e-05
-0.00017422292348843928   3.8204886545739614e-05   -1.3518839078918883e-05
-0.00017422292348843928   3.8204886545739614e-05   -1.3518839078918883e-05
-0.00017422292348843928   3.8204886545739614e-05   -1.3518839078918883e-05
-0.00020067004108853526   4.263336814215764e-05   2.790260129672574e-05
-0.00020067004108853526   4.263336814215764e-05   2.790260129672574e-05
-0.00020067004108853526   4.263336814215764e-05   2.790260129672574e-05
-0.00020067004108853526   4.263336814215764e-05   2.790260129672574e-05
-0.00017422292348843972   4.795406763419101e-05   0.00011002013494257421
-0.00017422292348843972   4.795406763419101e-05   0.00011002013494257421
-0.00017422292348843972   4.795406763419101e-05   0.00011002013494257421
-0.00017422292348843972   4.795406763419101e-05   0.00011002013494257421
-0.0002483463079013359   3.8204886545739614e-05   -1.9368347731989546e-05
-0.0002483463079013359   3.8204886545739614e-05   -1.9368347731989546e-05
-0.0002483463079013359   3.8204886545739614e-05   -1.9368347731989546e-05
-0.0002483463079013359   3.8204886545739614e-05   -1.9368347731989546e-05
-0.0002549783496974484   4.696521240263665e-05   0.00012400377644124737
-0.0002549783496974484   4.696521240263665e-05   0.00012400377644124737
-0.0002549783496974484   4.696521240263665e-05   0.00012400377644124737
-0.0002549783496974484   4.696521240263665e-05   0.00012400377644124737
-0.00017832009080325688   3.695585800622854e-05   2.245624255440854e-06
-0.00017832009080325688   3.695585800622854e-05   2.245624255440854e-06
-0.00017832009080325688   3.695585800622854e-05   2.245624255440854e-06
-0.00017832009080325688   3.695585800622854e-05   2.245624255440854e-06
-0.0002086726460117477   4.264603409732427e-05   4.9419110614941884e-05
-0.0002086726460117477   4.264603409732427e-05   4.9419110614941884e-05
-0.0002086726460117477   4.264603409732427e-05   4.9419110614941884e-05
-0.0002086726460117477   4.264603409732427e-05   4.9419110614941884e-05
-0.00017832009080325753   4.696521240263665e-05   0.00013000938907909224
-0.00017832009080325753   4.696521240263665e-05   0.00013000938907909224
-0.00017832009080325753   4.696521240263665e-05   0.00013000938907909224
-0.00017832009080325753   4.696521240263665e-05   0.00013000938907909224
-0.0002549783496974484   3.695585800622854e-05   -3.7599883824044472e-06
-0.0002549783496974484   3.695585800622854e-05   -3.7599883824044472e-06
-0.0002549783496974484   3.695585800622854e-05   -3.7599883824044472e-06
-0.0002549783496974484   3.695585800622854e-05   -3.7599883824044472e-06
-0.00026268044147238355   4.263116217951245e-05   0.00015850663965472425
-0.00026268044147238355   4.263116217951245e-05   0.00015850663965472425
-0.00026268044147238355   4.263116217951245e-05   0.00015850663965472425
-0.00026268044147238355   4.263116217951245e-05   0.00015850663965472425
-0.0001819687508474786   3.278757063652875e-05   2.9893310205675837e-05
-0.0001819687508474786   3.278757063652875e-05   2.9893310205675837e-05
-0.0001819687508474786   3.278757063652875e-05   2.9893310205675837e-05
-0.0001819687508474786   3.278757063652875e-05   2.9893310205675837e-05
-0.00021052359759431497   4.083292792769755e-05   7.265750707569942e-05
-0.00021052359759431497   4.083292792769755e-05   7.265750707569942e-05
-0.00021052359759431497   4.083292792769755e-05   7.265750707569942e-05
-0.00021052359759431497   4.083292792769755e-05   7.265750707569942e-05
7.756704969405623e-05   -8.892571179263536e-06   0.00011163109554009065
7.756704969405623e-05   -8.892571179263536e-06   0.00011163109554009065
7.756704969405623e-05   -8.892571179263536e-06   0.00011163109554009065
7.756704969405623e-05   -8.892571179263536e-06   0.00011163109554009065
1.9936333715394342e-05   4.0657012893245e-07   2.115938702723901e-05
1.9936333715394342e-05   4.0657012893245e-07   2.115938702723901e-05
1.9936333715394342e-05   4.0657012893245e-07   2.115938702723901e-05
1.9936333715394342e-05   4.0657012893245e-07   2.115938702723901e-05
1.7144622104559094e-05   -1.241810928075994e-05   0.00010419959689550711
1.7144622104559094e-05   -1.241810928075994e-05   0.00010419959689550711
1.7144622104559094e-05   -1.241810928075994e-05   0.00010419959689550711
1.7144622104559094e-05   -1.241810928075994e-05   0.00010419959689550711
7.06767199420065e-05   -2.743956449775646e-06   9.17494213450575e-06
7.06767199420065e-05   -2.743956449775646e-06   9.17494213450575e-06
7.06767199420065e-05   -2.743956449775646e-06   9.17494213450575e-06
7.06767199420065e-05   -2.743956449775646e-06   9.17494213450575e-06
4.357941867128132e-05   -6.358207911527983e-06   5.650566179610196e-05
4.357941867128132e-05   -6.358207911527983e-06   5.650566179610196e-05
4.357941867128132e-05   -6.358207911527983e-06   5.650566179610196e-05
4.357941867128132e-05   -6.358207911527983e-06   5.650566179610196e-05
7.06767199420066e-05   -1.241810928075994e-05   9.839510519691654e-05
7.06767199420066e-05   -1.241810928075994e-05   9.839510519691654e-05
7.06767199420066e-05   -1.241810928075994e-05   9.839510519691654e-05
7.06767199420066e-05   -1.241810928075994e-05   9.839510519691654e-05
1.7144622104559053e-05   -2.743956449775646e-06   1.497943383309535e-05
1.7144622104559053e-05   -2.743956449775646e-06   1.497943383309535e-05
1.7144622104559053e-05   -2.743956449775646e-06   1.497943383309535e-05
1.7144622104559053e-05   -2.743956449775646e-06   1.497943383309535e-05
1.3897667682120305e-05   -1.3638928030386757e-05   9.787569209719106e-05
1.3897667682120305e-05   -1.3638928030386757e-05   9.787569209719106e-05
1.3897667682120305e-05   -1.3638928030386757e-05   9.787569209719106e-05
1.3897667682120305e-05   -1.3638928030386757e-05   9.787569209719106e-05
6.485032705379136e-05   -4.112564267930684e-06   7.2387748869338214e-06
6.485032705379136e-05   -4.112564267930684e-06   7.2387748869338214e-06
6.485032705379136e-05   -4.112564267930684e-06   7.2387748869338214e-06
6.485032705379136e-05   -4.112564267930684e-06   7.2387748869338214e-06
4.022477395474369e-05   -7.732418857233497e-06   5.045327613892791e-05
4.022477395474369e-05   -7.732418857233497e-06   5.045327613892791e-05
4.022477395474369e-05   -7.732418857233497e-06   5.045327613892791e-05
4.022477395474369e-05   -7.732418857233497e-06   5.045327613892791e-05
6.485032705379147e-05   -1.3638928030386757e-05   9.215987383971724e-05
6.485032705379147e-05   -1.3638928030386757e-05   9.215987383971724e-05
6.485032705379147e-05   -1.3638928030386757e-05   9.215987383971724e-05
6.485032705379147e-05   -1.3638928030386757e-05   9.215987383971724e-05
1.3897667682120278e-05   -4.112564267930684e-06   1.2954593144406772e-05
1.3897667682120278e-05   -4.112564267930684e-06   1.2954593144406772e-05
1.3897667682120278e-05   -4.112564267930684e-06   1.2954593144406772e-05
1.3897667682120278e-05   -4.112564267930684e-06   1.2954593144406772e-05
1.1087879038696743e-05   -1.5275750418628636e-05   9.062992541021466e-05
1.1087879038696743e-05   -1.5275750418628636e-05   9.062992541021466e-05
1.1087879038696743e-05   -1.5275750418628636e-05   9.062992541021466e-05
1.1087879038696743e-05   -1.5275750418628636e-05   9.062992541021466e-05
5.8038491199309094e-05   -6.411630104633838e-06   7.060432954132429e-06
5.8038491199309094e-05   -6.411630104633838e-06   7.060432954132429e-06
5.8038491199309094e-05   -6.411630104633838e-06   7.060432954132429e-06
5.8038491199309094e-05   -6.411630104633838e-06   7.060432954132429e-06
3.5351090469380286e-05   -8.460039091134908e-06   4.610181289591529e-05
3.5351090469380286e-05   -8.460039091134908e-06   4.610181289591529e-05
3.5351090469380286e-05   -8.460039091134908e-06   4.610181289591529e-05
3.5351090469380286e-05   -8.460039091134908e-06   4.610181289591529e-05
1.9936333715394396e-05   4.732618832816934e-06   0.00015427869833174734
1.9936333715394396e-05   4.732618832816934e-06   0.00015427869833174734
1.9936333715394396e-05   4.732618832816934e-06   0.00015427869833174734
1.9936333715394396e-05   4.732618832816934e-06   0.00015427869833174734
-3.262611466660272e-05   8.922313710331767e-06   6.918843462159607e-05
-3.262611466660272e-05   8.922313710331767e-06   6.918843462159607e-05
-3.262611466660272e-05   8.922313710331767e-06   6.918843462159607e-05
-3.262611466660272e-05   8.922313710331767e-06   6.918843462159607e-05
-3.5074956029665e-05   1.1508305574545186e-06   0.00015479255383328127
-3.5074956029665e-05   1.1508305574545186e-06   0.00015479255383328127
-3.5074956029665e-05   1.1508305574545186e-06   0.00015479255383328127
-3.5074956029665e-05   1.1508305574545186e-06   0.00015479255383328127
1.7144622104559053e-05   5.3485887141499835e-06   6.524126871555833e-05
1.7144622104559053e-05   5.3485887141499835e-06   6.524126871555833e-05
1.7144622104559053e-05   5.3485887141499835e-06   6.524126871555833e-05
1.7144622104559053e-05   5.3485887141499835e-06   6.524126871555833e-05
-8.043873174056379e-06   4.688165437867486e-06   0.00010761834814569096
-8.043873174056379e-06   4.688165437867486e-06   0.00010761834814569096
-8.043873174056379e-06   4.688165437867486e-06   0.00010761834814569096
-8.043873174056379e-06   4.688165437867486e-06   0.00010761834814569096
1.7144622104559094e-05   1.1508305574545186e-06   0.00015227389893926208
1.7144622104559094e-05   1.1508305574545186e-06   0.00015227389893926208
1.7144622104559094e-05   1.1508305574545186e-06   0.00015227389893926208
1.7144622104559094e-05   1.1508305574545186e-06   0.00015227389893926208
-3.5074956029665e-05   5.3485887141499835e-06   6.775992360957567e-05
-3.5074956029665e-05   5.3485887141499835e-06   6.775992360957567e-05
-3.5074956029665e-05   5.3485887141499835e-06   6.775992360957567e-05
-3.5074956029665e-05   5.3485887141499835e-06   6.775992360957567e-05
-3.7593790404965265e-05   -1.7894730812307441e-06   0.00015385426091147052
-3.7593790404965265e-05   -1.7894730812307441e-06   0.00015385426091147052
-3.7593790404965265e-05   -1.7894730812307441e-06   0.00015385426091147052
-3.7593790404965265e-05   -1.7894730812307441e-06   0.00015385426091147052
1.3897667682120278e-05   2.3097981977047988e-06   6.557560133230191e-05
1.3897667682120278e-05   2.3097981977047988e-06   6.557560133230191e-05
1.3897667682120278e-05   2.3097981977047988e-06   6.557560133230191e-05
1.3897667682120278e-05   2.3097981977047988e-06   6.557560133230191e-05
-1.0653592806574094e-05   2.1893377604269293e-06   0.00010656664507582717
-1.0653592806574094e-05   2.1893377604269293e-06   0.00010656664507582717
-1.0653592806574094e-05   2.1893377604269293e-06   0.00010656664507582717
-1.0653592806574094e-05   2.1893377604269293e-06   0.00010656664507582717
1.3897667682120305e-05   -1.7894730812290094e-06   0.00015139469814411024
1.3897667682120305e-05   -1.7894730812290094e-06   0.00015139469814411024
1.3897667682120305e-05   -1.7894730812290094e-06   0.00015139469814411024
1.3897667682120305e-05   -1.7894730812290094e-06   0.00015139469814411024
-3.759379040496537e-05   2.3097981977039314e-06   6.803516409966282e-05
-3.759379040496537e-05   2.3097981977039314e-06   6.803516409966282e-05
-3.759379040496537e-05   2.3097981977039314e-06   6.803516409966282e-05
-3.759379040496537e-05   2.3097981977039314e-06   6.803516409966282e-05
-4.007331425292268e-05   -4.69898960768142e-06   0.00015593553423539751
-4.007331425292268e-05   -4.69898960768142e-06   0.00015593553423539751
-4.007331425292268e-05   -4.69898960768142e-06   0.00015593553423539751
-4.007331425292268e-05   -4.69898960768142e-06   0.00015593553423539751
1.1087879038696716e-05   -8.079231644210136e-07   6.83322388834098e-05
1.1087879038696716e-05   -8.079231644210136e-07   6.83322388834098e-05
1.1087879038696716e-05   -8.079231644210136e-07   6.83322388834098e-05
1.1087879038696716e-05   -8.079231644210136e-07   6.83322388834098e-05
-1.2870246988572691e-05   -6.457987068199389e-08   0.00010781644295261615
-1.2870246988572691e-05   -6.457987068199389e-08   0.00010781644295261615
-1.2870246988572691e-05   -6.457987068199389e-08   0.00010781644295261615
-1.2870246988572691e-05   -6.457987068199389e-08   0.00010781644295261615
-3.262611466660272e-05   1.7550699633928774e-05   0.00017122020774178529
-3.262611466660272e-05   1.7550699633928774e-05   0.00017122020774178529
-3.262611466660272e-05   1.7550699633928774e-05   0.00017122020774178529
-3.262611466660272e-05   1.7550699633928774e-05   0.00017122020774178529
-8.43374332864025e-05   1.6512521611129934e-05   8.441176989510508e-05
-8.43374332864025e-05   1.6512521611129934e-05   8.441176989510508e-05
-8.43374332864025e-05   1.6512521611129934e-05   8.441176989510508e-05
-8.43374332864025e-05   1.6512521611129934e-05   8.441176989510508e-05
-8.668384002424065e-05   1.428542274416189e-05   0.00016970931293169844
-8.668384002424065e-05   1.428542274416189e-05   0.00016970931293169844
-8.668384002424065e-05   1.428542274416189e-05   0.00016970931293169844
-8.668384002424065e-05   1.428542274416189e-05   0.00016970931293169844
-3.5074956029664895e-05   1.3207517053102913e-05   8.434124968870844e-05
-3.5074956029664895e-05   1.3207517053102913e-05   8.434124968870844e-05
-3.5074956029664895e-05   1.3207517053102913e-05   8.434124968870844e-05
-3.5074956029664895e-05   1.3207517053102913e-05   8.434124968870844e-05
-5.978879635348556e-05   1.5030701647491054e-05   0.0001244370728051146
-5.978879635348556e-05   1.5030701647491054e-05   0.0001244370728051146
-5.978879635348556e-05   1.5030701647491054e-05   0.0001244370728051146
-5.978879635348556e-05   1.5030701647491054e-05   0.0001244370728051146
-3.5074956029665e-05   1.428542274416189e-05   0.00017035605634633383
-3.5074956029665e-05   1.428542274416189e-05   0.00017035605634633383
-3.5074956029665e-05   1.428542274416189e-05   0.00017035605634633383
-3.5074956029665e-05   1.428542274416189e-05   0.00017035605634633383
-8.668384002424043e-05   1.3207517053102913e-05   8.369450627407392e-05
-8.668384002424043e-05   1.3207517053102913e-05   8.369450627407392e-05
-8.668384002424043e-05   1.3207517053102913e-05   8.369450627407392e-05
-8.668384002424043e-05   1.3207517053102913e-05   8.369450627407392e-05
-8.910842869126138e-05   1.1057268825135844e-05   0.00017086882881361953
-8.910842869126138e-05   1.1057268825135844e-05   0.00017086882881361953
-8.910842869126138e-05   1.1057268825135844e-05   0.00017086882881361953
-8.910842869126138e-05   1.1057268825135844e-05   0.00017086882881361953
-3.7593790404965265e-05   9.919132156214518e-06   8.569398033781263e-05
-3.7593790404965265e-05   9.919132156214518e-06   8.569398033781263e-05
-3.7593790404965265e-05   9.919132156214518e-06   8.569398033781263e-05
-3.7593790404965265e-05   9.919132156214518e-06   8.569398033781263e-05
-6.188051679969955e-05   1.2512057394154646e-05   0.00012461610251960535
-6.188051679969955e-05   1.2512057394154646e-05   0.00012461610251960535
-6.188051679969955e-05   1.2512057394154646e-05   0.00012461610251960535
-6.188051679969955e-05   1.2512057394154646e-05   0.00012461610251960535
-3.759379040496537e-05   1.1057268825135844e-05   0.0001715517108149718
-3.759379040496537e-05   1.1057268825135844e-05   0.0001715517108149718
-3.759379040496537e-05   1.1057268825135844e-05   0.0001715517108149718
-3.759379040496537e-05   1.1057268825135844e-05   0.0001715517108149718
-8.910842869126116e-05   9.919132156214518e-06   8.501109833645992e-05
-8.910842869126116e-05   9.919132156214518e-06   8.501109833645992e-05
-8.910842869126116e-05   9.919132156214518e-06   8.501109833645992e-05
-8.910842869126116e-05   9.919132156214518e-06   8.501109833645992e-05
-9.14960013583268e-05   7.947905041888123e-06   0.00017366933912836904
-9.14960013583268e-05   7.947905041888123e-06   0.00017366933912836904
-9.14960013583268e-05   7.947905041888123e-06   0.00017366933912836904
-9.14960013583268e-05   7.947905041888123e-06   0.00017366933912836904
-4.007331425292268e-05   6.76771305883981e-06   8.867297580919271e-05
-4.007331425292268e-05   6.76771305883981e-06   8.867297580919271e-05
-4.007331425292268e-05   6.76771305883981e-06   8.867297580919271e-05
-4.007331425292268e-05   6.76771305883981e-06   8.867297580919271e-05
-6.410397853102762e-05   1.0042506776296312e-05   0.00012675920670889625
-6.410397853102762e-05   1.0042506776296312e-05   0.00012675920670889625
-6.410397853102762e-05   1.0042506776296312e-05   0.00012675920670889625
-6.410397853102762e-05   1.0042506776296312e-05   0.00012675920670889625
-8.43374332864025e-05   3.001249937842343e-05   0.00015073554561423688
-8.43374332864025e-05   3.001249937842343e-05   0.00015073554561423688
-8.43374332864025e-05   3.001249937842343e-05   0.00015073554561423688
-8.43374332864025e-05   3.001249937842343e-05   0.00015073554561423688
-0.0001350519609811295   2.445674533338698e-05   6.287788036267016e-05
-0.0001350519609811295   2.445674533338698e-05   6.287788036267016e-05
-0.0001350519609811295   2.445674533338698e-05   6.287788036267016e-05
-0.0001350519609811295   2.445674533338698e-05   6.287788036267016e-05
-0.00013760590545175747   2.6815240696745e-05   0.00014793548925204347
-0.00013760590545175747   2.6815240696745e-05   0.00014793548925204347
-0.00013760590545175747   2.6815240696745e-05   0.00014793548925204347
-0.00013760590545175747   2.6815240696745e-05   0.00014793548925204347
-8.668384002424021e-05   2.1118933013678995e-05   6.648316481602324e-05
-8.668384002424021e-05   2.1118933013678995e-05   6.648316481602324e-05
-8.668384002424021e-05   2.1118933013678995e-05   6.648316481602324e-05
-8.668384002424021e-05   2.1118933013678995e-05   6.648316481602324e-05
-0.00011065377350392785   2.5197445665897655e-05   0.00010398594635751103
-0.00011065377350392785   2.5197445665897655e-05   0.00010398594635751103
-0.00011065377350392785   2.5197445665897655e-05   0.00010398594635751103
-0.00011065377350392785   2.5197445665897655e-05   0.00010398594635751103
-8.668384002424065e-05   2.6815240696746734e-05   0.00015135327386188446
-8.668384002424065e-05   2.6815240696746734e-05   0.00015135327386188446
-8.668384002424065e-05   2.6815240696746734e-05   0.00015135327386188446
-8.668384002424065e-05   2.6815240696746734e-05   0.00015135327386188446
-0.00013760590545175725   2.1118933013678995e-05   6.306538020618311e-05
-0.00013760590545175725   2.1118933013678995e-05   6.306538020618311e-05
-0.00013760590545175725   2.1118933013678995e-05   6.306538020618311e-05
-0.00013760590545175725   2.1118933013678995e-05   6.306538020618311e-05
-0.00014063480522073248   2.3864768468738473e-05   0.00015280903906800432
-0.00014063480522073248   2.3864768468738473e-05   0.00015280903906800432
-0.00014063480522073248   2.3864768468738473e-05   0.00015280903906800432
-0.00014063480522073248   2.3864768468738473e-05   0.00015280903906800432
-8.910842869126094e-05   1.809121067806313e-05   7.039587952662471e-05
-8.910842869126094e-05   1.809121067806313e-05   7.039587952662471e-05
-8.910842869126094e-05   1.809121067806313e-05   7.039587952662471e-05
-8.910842869126094e-05   1.809121067806313e-05   7.039587952662471e-05
-0.00011232003186214135   2.2832890142437598e-05   0.00010623687713279869
-0.00011232003186214135   2.2832890142437598e-05   0.00010623687713279869
-0.00011232003186214135   2.2832890142437598e-05   0.00010623687713279869
-0.00011232003186214135   2.2832890142437598e-05   0.00010623687713279869
-8.910842869126116e-05   2.3864768468738473e-05   0.00015627317374240952
-8.910842869126116e-05   2.3864768468738473e-05   0.00015627317374240952
-8.910842869126116e-05   2.3864768468738473e-05   0.00015627317374240952
-8.910842869126116e-05   2.3864768468738473e-05   0.00015627317374240952
-0.00014063480522073205   1.809121067806313e-05   6.693174485221994e-05
-0.00014063480522073205   1.809121067806313e-05   6.693174485221994e-05
-0.00014063480522073205   1.809121067806313e-05   6.693174485221994e-05
-0.00014063480522073205   1.809121067806313e-05   6.693174485221994e-05
-0.00014323941532060677   2.0574356000290644e-05   0.00015754344763595045
-0.00014323941532060677   2.0574356000290644e-05   0.00015754344763595045
-0.00014323941532060677   2.0574356000290644e-05   0.00015754344763595045
-0.00014323941532060677   2.0574356000290644e-05   0.00015754344763595045
-9.149600135832658e-05   1.4862903740859093e-05   7.473129572114264e-05
-9.149600135832658e-05   1.4862903740859093e-05   7.473129572114264e-05
-9.149600135832658e-05   1.4862903740859093e-05   7.473129572114264e-05
-9.149600135832658e-05   1.4862903740859093e-05   7.473129572114264e-05
-0.00011516401417498005   2.0472824282042473e-05   0.00011081203142419447
-0.00011516401417498005   2.0472824282042473e-05   0.00011081203142419447
-0.00011516401417498005   2.0472824282042473e-05   0.00011081203142419447
-0.00011516401417498005   2.0472824282042473e-05   0.00011081203142419447
-0.0001350519609811297   3.925101841119674e-05   7.025225651798982e-05
-0.0001350519609811297   3.925101841119674e-05   7.025225651798982e-05
-0.0001350519609811297   3.925101841119674e-05   7.025225651798982e-05
-0.0001350519609811297   3.925101841119674e-05   7.025225651798982e-05
-0.00018056722230142984   2.9975779788517405e-05   -1.1171655522783765e-05
-0.00018056722230142984   2.9975779788517405e-05   -1.1171655522783765e-05
-0.00018056722230142984   2.9975779788517405e-05   -1.1171655522783765e-05
-0.00018056722230142984   2.9975779788517405e-05   -1.1171655522783765e-05
-0.00018710484967169195   3.8204886545739614e-05   8.648758807020505e-05
-0.00018710484967169195   3.8204886545739614e-05   8.648758807020505e-05
-0.00018710484967169195   3.8204886545739614e-05   8.648758807020505e-05
-0.00018710484967169195   3.8204886545739614e-05   8.648758807020505e-05
-0.00013760590545175704   2.8253241254199563e-05   9.960334878569583e-06
-0.00013760590545175704   2.8253241254199563e-05   9.960334878569583e-06
-0.00013760590545175704   2.8253241254199563e-05   9.960334878569583e-06
-0.00013760590545175704   2.8253241254199563e-05   9.960334878569583e-06
-0.000154258632662566   3.331358248352852e-05   3.4678675492327664e-05
-0.000154258632662566   3.331358248352852e-05   3.4678675492327664e-05
-0.000154258632662566   3.331358248352852e-05   3.4678675492327664e-05
-0.000154258632662566   3.331358248352852e-05   3.4678675492327664e-05
-0.00013760590545175704   3.8204886545739614e-05   9.24585752451277e-05
-0.00013760590545175704   3.8204886545739614e-05   9.24585752451277e-05
-0.00013760590545175704   3.8204886545739614e-05   9.24585752451277e-05
-0.00013760590545175704   3.8204886545739614e-05   9.24585752451277e-05
-0.00018710484967169325   2.8253241254199563e-05   3.989347703646723e-06
-0.00018710484967169325   2.8253241254199563e-05   3.989347703646723e-06
-0.00018710484967169325   2.8253241254199563e-05   3.989347703646723e-06
-0.00018710484967169325   2.8253241254199563e-05   3.989347703646723e-06
-0.00019274343314291606   3.695585800622854e-05   0.00010232641821378459
-0.00019274343314291606   3.695585800622854e-05   0.00010232641821378459
-0.00019274343314291606   3.695585800622854e-05   0.00010232641821378459
-0.00019274343314291606   3.695585800622854e-05   0.00010232641821378459
-0.00014063480522073205   2.6828221148484516e-05   2.155528712479175e-05
-0.00014063480522073205   2.6828221148484516e-05   2.155528712479175e-05
-0.00014063480522073205   2.6828221148484516e-05   2.155528712479175e-05
-0.00014063480522073205   2.6828221148484516e-05   2.155528712479175e-05
-0.00016051411595678796   3.2857593248341796e-05   5.1069848424973446e-05
-0.00016051411595678796   3.2857593248341796e-05   5.1069848424973446e-05
-0.00016051411595678796   3.2857593248341796e-05   5.1069848424973446e-05
-0.00016051411595678796   3.2857593248341796e-05   5.1069848424973446e-05
-0.00014063480522073226   3.695585800622854e-05   0.0001084030003284317
-0.00014063480522073226   3.695585800622854e-05   0.0001084030003284317
-0.00014063480522073226   3.695585800622854e-05   0.0001084030003284317
-0.00014063480522073226   3.695585800622854e-05   0.0001084030003284317
-0.00019274343314291693   2.6828221148484516e-05   1.5478705010145725e-05
-0.00019274343314291693   2.6828221148484516e-05   1.5478705010145725e-05
-0.00019274343314291693   2.6828221148484516e-05   1.5478705010145725e-05
-0.00019274343314291693   2.6828221148484516e-05   1.5478705010145725e-05
-0.00019950277338076335   3.2787570636527014e-05   0.00013038360773577964
-0.00019950277338076335   3.2787570636527014e-05   0.00013038360773577964
-0.00019950277338076335   3.2787570636527014e-05   0.00013038360773577964
-0.00019950277338076335   3.2787570636527014e-05   0.00013038360773577964
-0.00014323941532060633   2.297543066221916e-05   4.2498628286770455e-05
-0.00014323941532060633   2.297543066221916e-05   4.2498628286770455e-05
-0.00014323941532060633   2.297543066221916e-05   4.2498628286770455e-05
-0.00014323941532060633   2.297543066221916e-05   4.2498628286770455e-05
-0.00016211883662259872   3.11056852770903e-05   6.908617768783785e-05
-0.00016211883662259872   3.11056852770903e-05   6.908617768783785e-05
-0.00016211883662259872   3.11056852770903e-05   6.908617768783785e-05
-0.00016211883662259872   3.11056852770903e-05   6.908617768783785e-05
1.4161371951688527e-05   4.0657012893331734e-07   8.282036172515411e-05
1.4161371951688527e-05   4.0657012893331734e-07   8.282036172515411e-05
1.4161371951688527e-05   4.0657012893331734e-07   8.282036172515411e-05
1.4161371951688527e-05   4.0657012893331734e-07   8.282036172515411e-05
-1.8402217562036465e-05   9.300108569428034e-06   3.3883835599909755e-05
-1.8402217562036465e-05   9.300108569428034e-06   3.3883835599909755e-05
-1.8402217562036465e-05   9.300108569428034e-06   3.3883835599909755e-05
-1.8402217562036465e-05   9.300108569428034e-06   3.3883835599909755e-05
-2.03582280667917e-05   -2.7439564497765134e-06   8.186603609251905e-05
-2.03582280667917e-05   -2.7439564497765134e-06   8.186603609251905e-05
-2.03582280667917e-05   -2.7439564497765134e-06   8.186603609251905e-05
-2.03582280667917e-05   -2.7439564497765134e-06   8.186603609251905e-05
8.191093814283765e-06   6.362511260218397e-06   2.8819952331396816e-05
8.191093814283765e-06   6.362511260218397e-06   2.8819952331396816e-05
8.191093814283765e-06   6.362511260218397e-06   2.8819952331396816e-05
8.191093814283765e-06   6.362511260218397e-06   2.8819952331396816e-05
-4.825536214970763e-06   2.8335581385464936e-06   5.26317075864903e-05
-4.825536214970763e-06   2.8335581385464936e-06   5.26317075864903e-05
-4.825536214970763e-06   2.8335581385464936e-06   5.26317075864903e-05
-4.825536214970763e-06   2.8335581385464936e-06   5.26317075864903e-05
8.191093814283765e-06   -2.7439564497765134e-06   7.640215546652219e-05
8.191093814283765e-06   -2.7439564497765134e-06   7.640215546652219e-05
8.191093814283765e-06   -2.7439564497765134e-06   7.640215546652219e-05
8.191093814283765e-06   -2.7439564497765134e-06   7.640215546652219e-05
-2.03582280667917e-05   6.362511260218397e-06   3.428383295739357e-05
-2.03582280667917e-05   6.362511260218397e-06   3.428383295739357e-05
-2.03582280667917e-05   6.362511260218397e-06   3.428383295739357e-05
-2.03582280667917e-05   6.362511260218397e-06   3.428383295739357e-05
-2.2770975246178357e-05   -4.112564267929816e-06   7.983727370000724e-05
-2.2770975246178357e-05   -4.112564267929816e-06   7.983727370000724e-05
-2.2770975246178357e-05   -4.112564267929816e-06   7.983727370000724e-05
-2.2770975246178357e-05   -4.112564267929816e-06   7.983727370000724e-05
3.019699170410037e-06   4.730896462383158e-06   3.154673990083865e-05
3.019699170410037e-06   4.730896462383158e-06   3.154673990083865e-05
3.019699170410037e-06   4.730896462383158e-06   3.154673990083865e-05
3.019699170410037e-06   4.730896462383158e-06   3.154673990083865e-05
-8.06264134037886e-06   1.5807287924709743e-06   5.190740802076682e-05
-8.06264134037886e-06   1.5807287924709743e-06   5.190740802076682e-05
-8.06264134037886e-06   1.5807287924709743e-06   5.190740802076682e-05
-8.06264134037886e-06   1.5807287924709743e-06   5.190740802076682e-05
3.0196991704100912e-06   -4.112564267930684e-06   7.45311972618172e-05
3.0196991704100912e-06   -4.112564267930684e-06   7.45311972618172e-05
3.0196991704100912e-06   -4.112564267930684e-06   7.45311972618172e-05
3.0196991704100912e-06   -4.112564267930684e-06   7.45311972618172e-05
-2.2770975246178303e-05   4.730896462383158e-06   3.6852816339026304e-05
-2.2770975246178303e-05   4.730896462383158e-06   3.6852816339026304e-05
-2.2770975246178303e-05   4.730896462383158e-06   3.6852816339026304e-05
-2.2770975246178303e-05   4.730896462383158e-06   3.6852816339026304e-05
-2.4781445707859812e-05   -6.411630104633838e-06   7.92822285526247e-05
-2.4781445707859812e-05   -6.411630104633838e-06   7.92822285526247e-05
-2.4781445707859812e-05   -6.411630104633838e-06   7.92822285526247e-05
-2.4781445707859812e-05   -6.411630104633838e-06   7.92822285526247e-05
-3.460833244897123e-06   1.2561993694114315e-06   3.914717676326072e-05
-3.460833244897123e-06   1.2561993694114315e-06   3.914717676326072e-05
-3.460833244897123e-06   1.2561993694114315e-06   3.914717676326072e-05
-3.460833244897123e-06   1.2561993694114315e-06   3.914717676326072e-05
-1.1497862240059383e-05   4.1095380976310936e-07   5.3049372424319357e-05
-1.1497862240059383e-05   4.1095380976310936e-07   5.3049372424319357e-05
-1.1497862240059383e-05   4.1095380976310936e-07   5.3049372424319357e-05
-1.1497862240059383e-05   4.1095380976310936e-07   5.3049372424319357e-05
-1.8402217562036465e-05   8.922313710331767e-06   0.00013367171545729944
-1.8402217562036465e-05   8.922313710331767e-06   0.00013367171545729944
-1.8402217562036465e-05   8.922313710331767e-06   0.00013367171545729944
-1.8402217562036465e-05   8.922313710331767e-06   0.00013367171545729944
-4.568720249612868e-05   1.0649200000743125e-05   8.923287234139212e-05
-4.568720249612868e-05   1.0649200000743125e-05   8.923287234139212e-05
-4.568720249612868e-05   1.0649200000743125e-05   8.923287234139212e-05
-4.568720249612868e-05   1.0649200000743125e-05   8.923287234139212e-05
-4.715487893787137e-05   5.3485887141499835e-06   0.00013333519303416422
-4.715487893787137e-05   5.3485887141499835e-06   0.00013333519303416422
-4.715487893787137e-05   5.3485887141499835e-06   0.00013333519303416422
-4.715487893787137e-05   5.3485887141499835e-06   0.00013333519303416422
-2.03582280667917e-05   7.360792146119191e-06   8.746678618984843e-05
-2.03582280667917e-05   7.360792146119191e-06   8.746678618984843e-05
-2.03582280667917e-05   7.360792146119191e-06   8.746678618984843e-05
-2.03582280667917e-05   7.360792146119191e-06   8.746678618984843e-05
-3.308167514298848e-05   7.697035006946212e-06   0.00010847078560034785
-3.308167514298848e-05   7.697035006946212e-06   0.00010847078560034785
-3.308167514298848e-05   7.697035006946212e-06   0.00010847078560034785
-3.308167514298848e-05   7.697035006946212e-06   0.00010847078560034785
-2.03582280667917e-05   5.3485887141499835e-06   0.00013212787097498149
-2.03582280667917e-05   5.3485887141499835e-06   0.00013212787097498149
-2.03582280667917e-05   5.3485887141499835e-06   0.00013212787097498149
-2.03582280667917e-05   5.3485887141499835e-06   0.00013212787097498149
-4.715487893787137e-05   7.360792146119191e-06   8.867410824903122e-05
-4.715487893787137e-05   7.360792146119191e-06   8.867410824903122e-05
-4.715487893787137e-05   7.360792146119191e-06   8.867410824903122e-05
-4.715487893787137e-05   7.360792146119191e-06   8.867410824903122e-05
-4.866763429833105e-05   2.3097981977047988e-06   0.00013365965660242472
-4.866763429833105e-05   2.3097981977047988e-06   0.00013365965660242472
-4.866763429833105e-05   2.3097981977047988e-06   0.00013365965660242472
-4.866763429833105e-05   2.3097981977047988e-06   0.00013365965660242472
-2.2770975246178303e-05   4.3120893885775086e-06   8.929718346764609e-05
-2.2770975246178303e-05   4.3120893885775086e-06   8.929718346764609e-05
-2.2770975246178303e-05   4.3120893885775086e-06   8.929718346764609e-05
-2.2770975246178303e-05   4.3120893885775086e-06   8.929718346764609e-05
-3.457787981536316e-05   5.28609434769043e-06   0.00010839095477415458
-3.457787981536316e-05   5.28609434769043e-06   0.00010839095477415458
-3.457787981536316e-05   5.28609434769043e-06   0.00010839095477415458
-3.457787981536316e-05   5.28609434769043e-06   0.00010839095477415458
-2.2770975246178357e-05   2.3097981977047988e-06   0.0001324582818879004
-2.2770975246178357e-05   2.3097981977047988e-06   0.0001324582818879004
-2.2770975246178357e-05   2.3097981977047988e-06   0.0001324582818879004
-2.2770975246178357e-05   2.3097981977047988e-06   0.0001324582818879004
-4.866763429833105e-05   4.3120893885775086e-06   9.049855818216981e-05
-4.866763429833105e-05   4.3120893885775086e-06   9.049855818216981e-05
-4.866763429833105e-05   4.3120893885775086e-06   9.049855818216981e-05
-4.866763429833105e-05   4.3120893885775086e-06   9.049855818216981e-05
-5.014874159074841e-05   -8.079231644218809e-07   0.00013631741286822003
-5.014874159074841e-05   -8.079231644218809e-07   0.00013631741286822003
-5.014874159074841e-05   -8.079231644218809e-07   0.00013631741286822003
-5.014874159074841e-05   -8.079231644218809e-07   0.00013631741286822003
-2.4781445707859785e-05   9.951611267683402e-07   9.29567358220257e-05
-2.4781445707859785e-05   9.951611267683402e-07   9.29567358220257e-05
-2.4781445707859785e-05   9.951611267683402e-07   9.29567358220257e-05
-2.4781445707859785e-05   9.951611267683402e-07   9.29567358220257e-05
-3.60771497239018e-05   2.9038002931254525e-06   0.00011063772568228034
-3.60771497239018e-05   2.9038002931254525e-06   0.00011063772568228034
-3.60771497239018e-05   2.9038002931254525e-06   0.00011063772568228034
-3.60771497239018e-05   2.9038002931254525e-06   0.00011063772568228034
-4.5687202496128574e-05   1.6512521611129934e-05   0.00015055408931873536
-4.5687202496128574e-05   1.6512521611129934e-05   0.00015055408931873536
-4.5687202496128574e-05   1.6512521611129934e-05   0.00015055408931873536
-4.5687202496128574e-05   1.6512521611129934e-05   0.00015055408931873536
-7.295240088159576e-05   1.2683264109496738e-05   0.00010281453750864405
-7.295240088159576e-05   1.2683264109496738e-05   0.00010281453750864405
-7.295240088159576e-05   1.2683264109496738e-05   0.00010281453750864405
-7.295240088159576e-05   1.2683264109496738e-05   0.00010281453750864405
-7.418963870257402e-05   1.320751705310378e-05   0.0001477672752497692
-7.418963870257402e-05   1.320751705310378e-05   0.0001477672752497692
-7.418963870257402e-05   1.320751705310378e-05   0.0001477672752497692
-7.418963870257402e-05   1.320751705310378e-05   0.0001477672752497692
-4.715487893787137e-05   9.625443947224553e-06   0.00010485858617212494
-4.715487893787137e-05   9.625443947224553e-06   0.00010485858617212494
-4.715487893787137e-05   9.625443947224553e-06   0.00010485858617212494
-4.715487893787137e-05   9.625443947224553e-06   0.00010485858617212494
-6.002102229480321e-05   1.27671234286756e-05   0.00012441715074480654
-6.002102229480321e-05   1.27671234286756e-05   0.00012441715074480654
-6.002102229480321e-05   1.27671234286756e-05   0.00012441715074480654
-6.002102229480321e-05   1.27671234286756e-05   0.00012441715074480654
-4.715487893787137e-05   1.320751705310378e-05   0.00014991651911329656
-4.715487893787137e-05   1.320751705310378e-05   0.00014991651911329656
-4.715487893787137e-05   1.320751705310378e-05   0.00014991651911329656
-4.715487893787137e-05   1.320751705310378e-05   0.00014991651911329656
-7.418963870257402e-05   9.625443947224553e-06   0.00010270934230859714
-7.418963870257402e-05   9.625443947224553e-06   0.00010270934230859714
-7.418963870257402e-05   9.625443947224553e-06   0.00010270934230859714
-7.418963870257402e-05   9.625443947224553e-06   0.00010270934230859714
-7.551733042179473e-05   9.919132156214518e-06   0.00014927692047639156
-7.551733042179473e-05   9.919132156214518e-06   0.00014927692047639156
-7.551733042179473e-05   9.919132156214518e-06   0.00014927692047639156
-7.551733042179473e-05   9.919132156214518e-06   0.00014927692047639156
-4.866763429833105e-05   6.5165448825746375e-06   0.00010656897930146894
-4.866763429833105e-05   6.5165448825746375e-06   0.00010656897930146894
-4.866763429833105e-05   6.5165448825746375e-06   0.00010656897930146894
-4.866763429833105e-05   6.5165448825746375e-06   0.00010656897930146894
-6.107780626492975e-05   1.0312830143618078e-05   0.0001249748280891744
-6.107780626492975e-05   1.0312830143618078e-05   0.0001249748280891744
-6.107780626492975e-05   1.0312830143618078e-05   0.0001249748280891744
-6.107780626492975e-05   1.0312830143618078e-05   0.0001249748280891744
-4.866763429833105e-05   9.919132156214518e-06   0.0001513184728405741
-4.866763429833105e-05   9.919132156214518e-06   0.0001513184728405741
-4.866763429833105e-05   9.919132156214518e-06   0.0001513184728405741
-4.866763429833105e-05   9.919132156214518e-06   0.0001513184728405741
-7.551733042179451e-05   6.516544882575505e-06   0.00010452742693728553
-7.551733042179451e-05   6.516544882575505e-06   0.00010452742693728553
-7.551733042179451e-05   6.516544882575505e-06   0.00010452742693728553
-7.551733042179451e-05   6.516544882575505e-06   0.00010452742693728553
-7.681748992303277e-05   6.76771305883981e-06   0.00015240133708593982
-7.681748992303277e-05   6.76771305883981e-06   0.00015240133708593982
-7.681748992303277e-05   6.76771305883981e-06   0.00015240133708593982
-7.681748992303277e-05   6.76771305883981e-06   0.00015240133708593982
-5.0148741590748305e-05   3.5640916553301982e-06   0.00010987559604090668
-5.0148741590748305e-05   3.5640916553301982e-06   0.00010987559604090668
-5.0148741590748305e-05   3.5640916553301982e-06   0.00010987559604090668
-5.0148741590748305e-05   3.5640916553301982e-06   0.00010987559604090668
-6.225566916961755e-05   7.89332908682043e-06   0.0001274562662134601
-6.225566916961755e-05   7.89332908682043e-06   0.0001274562662134601
-6.225566916961755e-05   7.89332908682043e-06   0.0001274562662134601
-6.225566916961755e-05   7.89332908682043e-06   0.0001274562662134601
-7.295240088159597e-05   2.445674533338698e-05   0.00013005609771234335
-7.295240088159597e-05   2.445674533338698e-05   0.00013005609771234335
-7.295240088159597e-05   2.445674533338698e-05   0.00013005609771234335
-7.295240088159597e-05   2.445674533338698e-05   0.00013005609771234335
-9.973389833949509e-05   1.7089978046575666e-05   8.100020824375743e-05
-9.973389833949509e-05   1.7089978046575666e-05   8.100020824375743e-05
-9.973389833949509e-05   1.7089978046575666e-05   8.100020824375743e-05
-9.973389833949509e-05   1.7089978046575666e-05   8.100020824375743e-05
-0.00010109166485027942   2.1118933013678995e-05   0.00012620754616398527
-0.00010109166485027942   2.1118933013678995e-05   0.00012620754616398527
-0.00010109166485027942   2.1118933013678995e-05   0.00012620754616398527
-0.00010109166485027942   2.1118933013678995e-05   0.00012620754616398527
-7.418963870257402e-05   1.3871620300789402e-05   8.571922354554378e-05
-7.418963870257402e-05   1.3871620300789402e-05   8.571922354554378e-05
-7.418963870257402e-05   1.3871620300789402e-05   8.571922354554378e-05
-7.418963870257402e-05   1.3871620300789402e-05   8.571922354554378e-05
-8.680790586718047e-05   1.8985915664463532e-05   0.00010368109160168153
-8.680790586718047e-05   1.8985915664463532e-05   0.00010368109160168153
-8.680790586718047e-05   1.8985915664463532e-05   0.00010368109160168153
-8.680790586718047e-05   1.8985915664463532e-05   0.00010368109160168153
-7.418963870257402e-05   2.1118933013678995e-05   0.0001305559337917185
-7.418963870257402e-05   2.1118933013678995e-05   0.0001305559337917185
-7.418963870257402e-05   2.1118933013678995e-05   0.0001305559337917185
-7.418963870257402e-05   2.1118933013678995e-05   0.0001305559337917185
-0.0001010916648502792   1.3871620300789402e-05   8.137083591780946e-05
-0.0001010916648502792   1.3871620300789402e-05   8.137083591780946e-05
-0.0001010916648502792   1.3871620300789402e-05   8.137083591780946e-05
-0.0001010916648502792   1.3871620300789402e-05   8.137083591780946e-05
-0.0001029780804489937   1.8091210678062263e-05   0.0001304152565865446
-0.0001029780804489937   1.8091210678062263e-05   0.0001304152565865446
-0.0001029780804489937   1.8091210678062263e-05   0.0001304152565865446
-0.0001029780804489937   1.8091210678062263e-05   0.0001304152565865446
-7.551733042179473e-05   1.1013802211376142e-05   8.889378495455843e-05
-7.551733042179473e-05   1.1013802211376142e-05   8.889378495455843e-05
-7.551733042179473e-05   1.1013802211376142e-05   8.889378495455843e-05
-7.551733042179473e-05   1.1013802211376142e-05   8.889378495455843e-05
-8.7546724366416e-05   1.6606909704425243e-05   0.00010558691036643107
-8.7546724366416e-05   1.6606909704425243e-05   0.00010558691036643107
-8.7546724366416e-05   1.6606909704425243e-05   0.00010558691036643107
-8.7546724366416e-05   1.6606909704425243e-05   0.00010558691036643107
-7.551733042179451e-05   1.8091210678062263e-05   0.00013466170166655418
-7.551733042179451e-05   1.8091210678062263e-05   0.00013466170166655418
-7.551733042179451e-05   1.8091210678062263e-05   0.00013466170166655418
-7.551733042179451e-05   1.8091210678062263e-05   0.00013466170166655418
-0.00010297808044899348   1.1013802211375275e-05   8.464733987454624e-05
-0.00010297808044899348   1.1013802211375275e-05   8.464733987454624e-05
-0.00010297808044899348   1.1013802211375275e-05   8.464733987454624e-05
-0.00010297808044899348   1.1013802211375275e-05   8.464733987454624e-05
-0.00010449270305611536   1.486290374085996e-05   0.00013511497163231495
-0.00010449270305611536   1.486290374085996e-05   0.00013511497163231495
-0.00010449270305611536   1.486290374085996e-05   0.00013511497163231495
-0.00010449270305611536   1.486290374085996e-05   0.00013511497163231495
-7.681748992303277e-05   8.108236148518001e-06   9.3042416965916e-05
-7.681748992303277e-05   8.108236148518001e-06   9.3042416965916e-05
-7.681748992303277e-05   8.108236148518001e-06   9.3042416965916e-05
-7.681748992303277e-05   8.108236148518001e-06   9.3042416965916e-05
-8.910362762440567e-05   1.4350923529402038e-05   0.00010977370070634242
-8.910362762440567e-05   1.4350923529402038e-05   0.00010977370070634242
-8.910362762440567e-05   1.4350923529402038e-05   0.00010977370070634242
-8.910362762440567e-05   1.4350923529402038e-05   0.00010977370070634242
-9.973389833949509e-05   2.9975779788518273e-05   5.7151644628409756e-05
-9.973389833949509e-05   2.9975779788518273e-05   5.7151644628409756e-05
-9.973389833949509e-05   2.9975779788518273e-05   5.7151644628409756e-05
-9.973389833949509e-05   2.9975779788518273e-05   5.7151644628409756e-05
-0.00012049617144327222   2.0093132195260488e-05   1.6618267566160426e-05
-0.00012049617144327222   2.0093132195260488e-05   1.6618267566160426e-05
-0.00012049617144327222   2.0093132195260488e-05   1.6618267566160426e-05
-0.00012049617144327222   2.0093132195260488e-05   1.6618267566160426e-05
-0.00012568200923223022   2.8253241254199563e-05   6.692059574417344e-05
-0.00012568200923223022   2.8253241254199563e-05   6.692059574417344e-05
-0.00012568200923223022   2.8253241254199563e-05   6.692059574417344e-05
-0.00012568200923223022   2.8253241254199563e-05   6.692059574417344e-05
-0.00010109166485027942   1.7950066100533985e-05   3.211859353312047e-05
-0.00010109166485027942   1.7950066100533985e-05   3.211859353312047e-05
-0.00010109166485027942   1.7950066100533985e-05   3.211859353312047e-05
-0.00010109166485027942   1.7950066100533985e-05   3.211859353312047e-05
-0.00010788002257183533   2.3844383078864065e-05   3.989593288204968e-05
-0.00010788002257183533   2.3844383078864065e-05   3.989593288204968e-05
-0.00010788002257183533   2.3844383078864065e-05   3.989593288204968e-05
-0.00010788002257183533   2.3844383078864065e-05   3.989593288204968e-05
-0.0001010916648502792   2.8253241254198695e-05   7.310250083637174e-05
-0.0001010916648502792   2.8253241254198695e-05   7.310250083637174e-05
-0.0001010916648502792   2.8253241254198695e-05   7.310250083637174e-05
-0.0001010916648502792   2.8253241254198695e-05   7.310250083637174e-05
-0.00012568200923223022   1.7950066100533985e-05   2.5936688440921434e-05
-0.00012568200923223022   1.7950066100533985e-05   2.5936688440921434e-05
-0.00012568200923223022   1.7950066100533985e-05   2.5936688440921434e-05
-0.00012568200923223022   1.7950066100533985e-05   2.5936688440921434e-05
-0.00013014186505097168   2.6828221148484516e-05   7.883187995365564e-05
-0.00013014186505097168   2.6828221148484516e-05   7.883187995365564e-05
-0.00013014186505097168   2.6828221148484516e-05   7.883187995365564e-05
-0.00013014186505097168   2.6828221148484516e-05   7.883187995365564e-05
-0.00010297808044899348   1.6483356306049197e-05   3.976582452248608e-05
-0.00010297808044899348   1.6483356306049197e-05   3.976582452248608e-05
-0.00010297808044899348   1.6483356306049197e-05   3.976582452248608e-05
-0.00010297808044899348   1.6483356306049197e-05   3.976582452248608e-05
-0.00011226105346120118   2.2993792995124225e-05   5.1331184196057224e-05
-0.00011226105346120118   2.2993792995124225e-05   5.1331184196057224e-05
-0.00011226105346120118   2.2993792995124225e-05   5.1331184196057224e-05
-0.00011226105346120118   2.2993792995124225e-05   5.1331184196057224e-05
-0.00010297808044899348   2.6828221148485383e-05   8.503879885911596e-05
-0.00010297808044899348   2.6828221148485383e-05   8.503879885911596e-05
-0.00010297808044899348   2.6828221148485383e-05   8.503879885911596e-05
-0.00010297808044899348   2.6828221148485383e-05   8.503879885911596e-05
-0.0001301418650509721   1.6483356306050065e-05   3.355890561702493e-05
-0.0001301418650509721   1.6483356306050065e-05   3.355890561702493e-05
-0.0001301418650509721   1.6483356306050065e-05   3.355890561702493e-05
-0.0001301418650509721   1.6483356306050065e-05   3.355890561702493e-05
-0.000135837533805961   2.297543066221916e-05   0.00010040818794727902
-0.000135837533805961   2.297543066221916e-05   0.00010040818794727902
-0.000135837533805961   2.297543066221916e-05   0.00010040818794727902
-0.000135837533805961   2.297543066221916e-05   0.00010040818794727902
-0.00010449270305611514   1.3140451318351641e-05   5.406779097052398e-05
-0.00010449270305611514   1.3140451318351641e-05   5.406779097052398e-05
-0.00010449270305611514   1.3140451318351641e-05   5.406779097052398e-05
-0.00010449270305611514   1.3140451318351641e-05   5.406779097052398e-05
-0.00011353521951831499   2.1396906786702932e-05   6.418477845984488e-05
-0.00011353521951831499   2.1396906786702932e-05   6.418477845984488e-05
-0.00011353521951831499   2.1396906786702932e-05   6.418477845984488e-05
-0.00011353521951831499   2.1396906786702932e-05   6.418477845984488e-05
-5.1747750231072624e-05   9.300108569428034e-06   5.8623083113854176e-05
-5.1747750231072624e-05   9.300108569428034e-06   5.8623083113854176e-05
-5.1747750231072624e-05   9.300108569428034e-06   5.8623083113854176e-05
-5.1747750231072624e-05   9.300108569428034e-06   5.8623083113854176e-05
-5.5534911533642635e-05   1.7373640421770083e-05   5.7155266720976174e-05
-5.5534911533642635e-05   1.7373640421770083e-05   5.7155266720976174e-05
-5.5534911533642635e-05   1.7373640421770083e-05   5.7155266720976174e-05
-5.5534911533642635e-05   1.7373640421770083e-05   5.7155266720976174e-05
-5.691006892674156e-05   6.362511260218397e-06   6.326320587051685e-05
-5.691006892674156e-05   6.362511260218397e-06   6.326320587051685e-05
-5.691006892674156e-05   6.362511260218397e-06   6.326320587051685e-05
-5.691006892674156e-05   6.362511260218397e-06   6.326320587051685e-05
-5.763944166278112e-05   1.361178215797702e-05   6.012926455859402e-05
-5.763944166278112e-05   1.361178215797702e-05   6.012926455859402e-05
-5.763944166278112e-05   1.361178215797702e-05   6.012926455859402e-05
-5.763944166278112e-05   1.361178215797702e-05   6.012926455859402e-05
-5.4048883920001505e-05   1.0920229826193867e-05   5.57599330530316e-05
-5.4048883920001505e-05   1.0920229826193867e-05   5.57599330530316e-05
-5.4048883920001505e-05   1.0920229826193867e-05   5.57599330530316e-05
-5.4048883920001505e-05   1.0920229826193867e-05   5.57599330530316e-05
-5.763944166278117e-05   6.362511260217529e-06   5.891364333186072e-05
-5.763944166278117e-05   6.362511260217529e-06   5.891364333186072e-05
-5.763944166278117e-05   6.362511260217529e-06   5.891364333186072e-05
-5.763944166278117e-05   6.362511260217529e-06   5.891364333186072e-05
-5.691006892674156e-05   1.361178215797702e-05   6.447882709724939e-05
-5.691006892674156e-05   1.361178215797702e-05   6.447882709724939e-05
-5.691006892674156e-05   1.361178215797702e-05   6.447882709724939e-05
-5.691006892674156e-05   1.361178215797702e-05   6.447882709724939e-05
-5.86969272631409e-05   4.730896462383158e-06   6.543144085416168e-05
-5.86969272631409e-05   4.730896462383158e-06   6.543144085416168e-05
-5.86969272631409e-05   4.730896462383158e-06   6.543144085416168e-05
-5.86969272631409e-05   4.730896462383158e-06   6.543144085416168e-05
-6.335739641635287e-05   1.0996094119427625e-05   6.943977084862085e-05
-6.335739641635287e-05   1.0996094119427625e-05   6.943977084862085e-05
-6.335739641635287e-05   1.0996094119427625e-05   6.943977084862085e-05
-6.335739641635287e-05   1.0996094119427625e-05   6.943977084862085e-05
-5.756156135514912e-05   9.293137608180554e-06   6.080181965336111e-05
-5.756156135514912e-05   9.293137608180554e-06   6.080181965336111e-05
-5.756156135514912e-05   9.293137608180554e-06   6.080181965336111e-05
-5.756156135514912e-05   9.293137608180554e-06   6.080181965336111e-05
-6.335739641635297e-05   4.730896462383158e-06   6.167232225993361e-05
-6.335739641635297e-05   4.730896462383158e-06   6.167232225993361e-05
-6.335739641635297e-05   4.730896462383158e-06   6.167232225993361e-05
-6.335739641635297e-05   4.730896462383158e-06   6.167232225993361e-05
-5.86969272631409e-05   1.0996094119427625e-05   7.319888944284751e-05
-5.86969272631409e-05   1.0996094119427625e-05   7.319888944284751e-05
-5.86969272631409e-05   1.0996094119427625e-05   7.319888944284751e-05
-5.86969272631409e-05   1.0996094119427625e-05   7.319888944284751e-05
-5.98149355604019e-05   1.2561993694114315e-06   7.220617050098964e-05
-5.98149355604019e-05   1.2561993694114315e-06   7.220617050098964e-05
-5.98149355604019e-05   1.2561993694114315e-06   7.220617050098964e-05
-5.98149355604019e-05   1.2561993694114315e-06   7.220617050098964e-05
-6.943769399116558e-05   4.554204460560391e-06   8.626529816423861e-05
-6.943769399116558e-05   4.554204460560391e-06   8.626529816423861e-05
-6.943769399116558e-05   4.554204460560391e-06   8.626529816423861e-05
-6.943769399116558e-05   4.554204460560391e-06   8.626529816423861e-05
-5.996812398289901e-05   7.277193657110291e-06   6.884888796586256e-05
-5.996812398289901e-05   7.277193657110291e-06   6.884888796586256e-05
-5.996812398289901e-05   7.277193657110291e-06   6.884888796586256e-05
-5.996812398289901e-05   7.277193657110291e-06   6.884888796586256e-05
-5.5534911533642553e-05   1.0649200000743993e-05   0.00011778010719249495
-5.5534911533642553e-05   1.0649200000743993e-05   0.00011778010719249495
-5.5534911533642553e-05   1.0649200000743993e-05   0.00011778010719249495
-5.5534911533642553e-05   1.0649200000743993e-05   0.00011778010719249495
-5.564625188877103e-05   4.4872096998994394e-06   0.00011389734575344103
-5.564625188877103e-05   4.4872096998994394e-06   0.00011389734575344103
-5.564625188877103e-05   4.4872096998994394e-06   0.00011389734575344103
-5.564625188877103e-05   4.4872096998994394e-06   0.00011389734575344103
-5.6042800463843175e-05   7.3607921461200584e-06   0.00011333745899879321
-5.6042800463843175e-05   7.3607921461200584e-06   0.00011333745899879321
-5.6042800463843175e-05   7.3607921461200584e-06   0.00011333745899879321
-5.6042800463843175e-05   7.3607921461200584e-06   0.00011333745899879321
-5.691006892674156e-05   2.1796253058203006e-06   0.00011789160654113629
-5.691006892674156e-05   2.1796253058203006e-06   0.00011789160654113629
-5.691006892674156e-05   2.1796253058203006e-06   0.00011789160654113629
-5.691006892674156e-05   2.1796253058203006e-06   0.00011789160654113629
-5.584781586027124e-05   5.466566638480039e-06   0.00011414901996408986
-5.584781586027124e-05   5.466566638480039e-06   0.00011414901996408986
-5.584781586027124e-05   5.466566638480039e-06   0.00011414901996408986
-5.584781586027124e-05   5.466566638480039e-06   0.00011414901996408986
-5.6910068926741534e-05   7.360792146119191e-06   0.00011644615910297047
-5.6910068926741534e-05   7.360792146119191e-06   0.00011644615910297047
-5.6910068926741534e-05   7.360792146119191e-06   0.00011644615910297047
-5.6910068926741534e-05   7.360792146119191e-06   0.00011644615910297047
-5.604280046384296e-05   2.1796253058203006e-06   0.00011478290643695687
-5.604280046384296e-05   2.1796253058203006e-06   0.00011478290643695687
-5.604280046384296e-05   2.1796253058203006e-06   0.00011478290643695687
-5.604280046384296e-05   2.1796253058203006e-06   0.00011478290643695687
-5.653970441022078e-05   4.3120893885775086e-06   0.00011497552430542917
-5.653970441022078e-05   4.3120893885775086e-06   0.00011497552430542917
-5.653970441022078e-05   4.3120893885775086e-06   0.00011497552430542917
-5.653970441022078e-05   4.3120893885775086e-06   0.00011497552430542917
-5.86969272631409e-05   -5.217167403448811e-07   0.00012147117940431476
-5.86969272631409e-05   -5.217167403448811e-07   0.00012147117940431476
-5.86969272631409e-05   -5.217167403448811e-07   0.00012147117940431476
-5.86969272631409e-05   -5.217167403448811e-07   0.00012147117940431476
-5.633983939181944e-05   3.54133600088697e-06   0.00011510486797403823
-5.633983939181944e-05   3.54133600088697e-06   0.00011510486797403823
-5.633983939181944e-05   3.54133600088697e-06   0.00011510486797403823
-5.633983939181944e-05   3.54133600088697e-06   0.00011510486797403823
-5.86969272631409e-05   4.312089388576641e-06   0.00011787580798278
-5.86969272631409e-05   4.312089388576641e-06   0.00011787580798278
-5.86969272631409e-05   4.312089388576641e-06   0.00011787580798278
-5.86969272631409e-05   4.312089388576641e-06   0.00011787580798278
-5.653970441022067e-05   -5.217167403448811e-07   0.00011857089572696149
-5.653970441022067e-05   -5.217167403448811e-07   0.00011857089572696149
-5.653970441022067e-05   -5.217167403448811e-07   0.00011857089572696149
-5.653970441022067e-05   -5.217167403448811e-07   0.00011857089572696149
-5.6884991620367083e-05   9.951611267683402e-07   0.00011836560474181353
-5.6884991620367083e-05   9.951611267683402e-07   0.00011836560474181353
-5.6884991620367083e-05   9.951611267683402e-07   0.00011836560474181353
-5.6884991620367083e-05   9.951611267683402e-07   0.00011836560474181353
-5.981493556040185e-05   -4.087217429088897e-06   0.00012629827177538453
-5.981493556040185e-05   -4.087217429088897e-06   0.00012629827177538453
-5.981493556040185e-05   -4.087217429088897e-06   0.00012629827177538453
-5.981493556040185e-05   -4.087217429088897e-06   0.00012629827177538453
-5.714356916256031e-05   1.2634828924348515e-06   0.00011863557425273181
-5.714356916256031e-05   1.2634828924348515e-06   0.00011863557425273181
-5.714356916256031e-05   1.2634828924348515e-06   0.00011863557425273181
-5.714356916256031e-05   1.2634828924348515e-06   0.00011863557425273181
-5.564625188877125e-05   1.2683264109496738e-05   0.00012996213268022007
-5.564625188877125e-05   1.2683264109496738e-05   0.00012996213268022007
-5.564625188877125e-05   1.2683264109496738e-05   0.00012996213268022007
-5.564625188877125e-05   1.2683264109496738e-05   0.00012996213268022007
-5.9405199694723436e-05   1.2345101755295573e-06   0.00011682796730991924
-5.9405199694723436e-05   1.2345101755295573e-06   0.00011682796730991924
-5.9405199694723436e-05   1.2345101755295573e-06   0.00011682796730991924
-5.9405199694723436e-05   1.2345101755295573e-06   0.00011682796730991924
-5.950982059610855e-05   9.625443947224553e-06   0.00012330835276690415
-5.950982059610855e-05   9.625443947224553e-06   0.00012330835276690415
-5.950982059610855e-05   9.625443947224553e-06   0.00012330835276690415
-5.950982059610855e-05   9.625443947224553e-06   0.00012330835276690415
-5.604280046384296e-05   -7.305296444120972e-07   0.00012374357003477735
-5.604280046384296e-05   -7.305296444120972e-07   0.00012374357003477735
-5.604280046384296e-05   -7.305296444120972e-07   0.00012374357003477735
-5.604280046384296e-05   -7.305296444120972e-07   0.00012374357003477735
-5.754541862750944e-05   5.5189329480134774e-06   0.0001224982560854332
-5.754541862750944e-05   5.5189329480134774e-06   0.0001224982560854332
-5.754541862750944e-05   5.5189329480134774e-06   0.0001224982560854332
-5.754541862750944e-05   5.5189329480134774e-06   0.0001224982560854332
-5.604280046384296e-05   9.625443947224553e-06   0.00012952193692188562
-5.604280046384296e-05   9.625443947224553e-06   0.00012952193692188562
-5.604280046384296e-05   9.625443947224553e-06   0.00012952193692188562
-5.604280046384296e-05   9.625443947224553e-06   0.00012952193692188562
-5.950982059610833e-05   -7.305296444125309e-07   0.00011752998587979578
-5.950982059610833e-05   -7.305296444125309e-07   0.00011752998587979578
-5.950982059610833e-05   -7.305296444125309e-07   0.00011752998587979578
-5.950982059610833e-05   -7.305296444125309e-07   0.00011752998587979578
-5.973300163908944e-05   6.5165448825746375e-06   0.00012528513994435574
-5.973300163908944e-05   6.5165448825746375e-06   0.00012528513994435574
-5.973300163908944e-05   6.5165448825746375e-06   0.00012528513994435574
-5.973300163908944e-05   6.5165448825746375e-06   0.00012528513994435574
-5.653970441022078e-05   -3.084797584712671e-06   0.00012572378337661282
-5.653970441022078e-05   -3.084797584712671e-06   0.00012572378337661282
-5.653970441022078e-05   -3.084797584712671e-06   0.00012572378337661282
-5.653970441022078e-05   -3.084797584712671e-06   0.00012572378337661282
-5.753707081594331e-05   3.5658018349444404e-06   0.00012339570106768534
-5.753707081594331e-05   3.5658018349444404e-06   0.00012339570106768534
-5.753707081594331e-05   3.5658018349444404e-06   0.00012339570106768534
-5.753707081594331e-05   3.5658018349444404e-06   0.00012339570106768534
-5.653970441022078e-05   6.516544882575505e-06   0.00013104594542472656
-5.653970441022078e-05   6.516544882575505e-06   0.00013104594542472656
-5.653970441022078e-05   6.516544882575505e-06   0.00013104594542472656
-5.653970441022078e-05   6.516544882575505e-06   0.00013104594542472656
-5.973300163908922e-05   -3.084797584712671e-06   0.00011996297789623994
-5.973300163908922e-05   -3.084797584712671e-06   0.00011996297789623994
-5.973300163908922e-05   -3.084797584712671e-06   0.00011996297789623994
-5.973300163908922e-05   -3.084797584712671e-06   0.00011996297789623994
-5.985931877373245e-05   3.5640916553301982e-06   0.00012878890022036907
-5.985931877373245e-05   3.5640916553301982e-06   0.00012878890022036907
-5.985931877373245e-05   3.5640916553301982e-06   0.00012878890022036907
-5.985931877373245e-05   3.5640916553301982e-06   0.00012878890022036907
-5.6884991620367083e-05   -5.458765287355474e-06   0.00012924540246370326
-5.6884991620367083e-05   -5.458765287355474e-06   0.00012924540246370326
-5.6884991620367083e-05   -5.458765287355474e-06   0.00012924540246370326
-5.6884991620367083e-05   -5.458765287355474e-06   0.00012924540246370326
-5.762214475532254e-05   1.5556504968329207e-06   0.00012626534155144595
-5.762214475532254e-05   1.5556504968329207e-06   0.00012626534155144595
-5.762214475532254e-05   1.5556504968329207e-06   0.00012626534155144595
-5.762214475532254e-05   1.5556504968329207e-06   0.00012626534155144595
-5.9405199694723436e-05   1.7089978046575666e-05   0.00010569861142703963
-5.9405199694723436e-05   1.7089978046575666e-05   0.00010569861142703963
-5.9405199694723436e-05   1.7089978046575666e-05   0.00010569861142703963
-5.9405199694723436e-05   1.7089978046575666e-05   0.00010569861142703963
-6.506485779398806e-05   5.5848708249242075e-06   8.9362783595275e-05
-6.506485779398806e-05   5.5848708249242075e-06   8.9362783595275e-05
-6.506485779398806e-05   5.5848708249242075e-06   8.9362783595275e-05
-6.506485779398806e-05   5.5848708249242075e-06   8.9362783595275e-05
-6.51288375610559e-05   1.3871620300789402e-05   9.979608889587512e-05
-6.51288375610559e-05   1.3871620300789402e-05   9.979608889587512e-05
-6.51288375610559e-05   1.3871620300789402e-05   9.979608889587512e-05
-6.51288375610559e-05   1.3871620300789402e-05   9.979608889587512e-05
-5.950982059610855e-05   3.001378454161978e-06   9.695320572893811e-05
-5.950982059610855e-05   3.001378454161978e-06   9.695320572893811e-05
-5.950982059610855e-05   3.001378454161978e-06   9.695320572893811e-05
-5.950982059610855e-05   3.001378454161978e-06   9.695320572893811e-05
-6.211315597403548e-05   1.0134634137006111e-05   9.70121446157773e-05
-6.211315597403548e-05   1.0134634137006111e-05   9.70121446157773e-05
-6.211315597403548e-05   1.0134634137006111e-05   9.70121446157773e-05
-6.211315597403548e-05   1.0134634137006111e-05   9.70121446157773e-05
-5.950982059610855e-05   1.3871620300789402e-05   0.00010631823400384993
-5.950982059610855e-05   1.3871620300789402e-05   0.00010631823400384993
-5.950982059610855e-05   1.3871620300789402e-05   0.00010631823400384993
-5.950982059610855e-05   1.3871620300789402e-05   0.00010631823400384993
-6.51288375610559e-05   3.001378454161978e-06   9.043106062096192e-05
-6.51288375610559e-05   3.001378454161978e-06   9.043106062096192e-05
-6.51288375610559e-05   3.001378454161978e-06   9.043106062096192e-05
-6.51288375610559e-05   3.001378454161978e-06   9.043106062096192e-05
-6.580027089644674e-05   1.1013802211376142e-05   0.0001035185617062652
-6.580027089644674e-05   1.1013802211376142e-05   0.0001035185617062652
-6.580027089644674e-05   1.1013802211376142e-05   0.0001035185617062652
-6.580027089644674e-05   1.1013802211376142e-05   0.0001035185617062652
-5.973300163908922e-05   7.922417857696845e-07   9.953938253269871e-05
-5.973300163908922e-05   7.922417857696845e-07   9.953938253269871e-05
-5.973300163908922e-05   7.922417857696845e-07   9.953938253269871e-05
-5.973300163908922e-05   7.922417857696845e-07   9.953938253269871e-05
-6.189727247665636e-05   8.004725259142496e-06   9.881901051128237e-05
-6.189727247665636e-05   8.004725259142496e-06   9.881901051128237e-05
-6.189727247665636e-05   8.004725259142496e-06   9.881901051128237e-05
-6.189727247665636e-05   8.004725259142496e-06   9.881901051128237e-05
-5.973300163908922e-05   1.1013802211375275e-05   0.00010965149796162603
-5.973300163908922e-05   1.1013802211375275e-05   0.00010965149796162603
-5.973300163908922e-05   1.1013802211375275e-05   0.00010965149796162603
-5.973300163908922e-05   1.1013802211375275e-05   0.00010965149796162603
-6.580027089644674e-05   7.922417857692508e-07   9.340644627733554e-05
-6.580027089644674e-05   7.922417857692508e-07   9.340644627733554e-05
-6.580027089644674e-05   7.922417857692508e-07   9.340644627733554e-05
-6.580027089644674e-05   7.922417857692508e-07   9.340644627733554e-05
-6.618882552079171e-05   8.108236148518001e-06   0.00010815332912005211
-6.618882552079171e-05   8.108236148518001e-06   0.00010815332912005211
-6.618882552079171e-05   8.108236148518001e-06   0.00010815332912005211
-6.618882552079171e-05   8.108236148518001e-06   0.00010815332912005211
-5.9859318773732234e-05   -1.4327052972034487e-06   0.000103328716075718
-5.9859318773732234e-05   -1.4327052972034487e-06   0.000103328716075718
-5.9859318773732234e-05   -1.4327052972034487e-06   0.000103328716075718
-5.9859318773732234e-05   -1.4327052972034487e-06   0.000103328716075718
-6.216675601833301e-05   6.106551918610287e-06   0.0001026508904872288
-6.216675601833301e-05   6.106551918610287e-06   0.0001026508904872288
-6.216675601833301e-05   6.106551918610287e-06   0.0001026508904872288
-6.216675601833301e-05   6.106551918610287e-06   0.0001026508904872288
-6.506485779398784e-05   2.0093132195261355e-05   4.034319497240582e-05
-6.506485779398784e-05   2.0093132195261355e-05   4.034319497240582e-05
-6.506485779398784e-05   2.0093132195261355e-05   4.034319497240582e-05
-6.506485779398784e-05   2.0093132195261355e-05   4.034319497240582e-05
-6.365548763854166e-05   9.133437932160732e-06   3.611632867362357e-05
-6.365548763854166e-05   9.133437932160732e-06   3.611632867362357e-05
-6.365548763854166e-05   9.133437932160732e-06   3.611632867362357e-05
-6.365548763854166e-05   9.133437932160732e-06   3.611632867362357e-05
-6.692579781040261e-05   1.7950066100533985e-05   4.41622983053452e-05
-6.692579781040261e-05   1.7950066100533985e-05   4.41622983053452e-05
-6.692579781040261e-05   1.7950066100533985e-05   4.41622983053452e-05
-6.692579781040261e-05   1.7950066100533985e-05   4.41622983053452e-05
-6.512883756105568e-05   7.3141524241345304e-06   4.7548912762274305e-05
-6.512883756105568e-05   7.3141524241345304e-06   4.7548912762274305e-05
-6.512883756105568e-05   7.3141524241345304e-06   4.7548912762274305e-05
-6.512883756105568e-05   7.3141524241345304e-06   4.7548912762274305e-05
-6.308143222725473e-05   1.4110030883846165e-05   4.005904346344536e-05
-6.308143222725473e-05   1.4110030883846165e-05   4.005904346344536e-05
-6.308143222725473e-05   1.4110030883846165e-05   4.005904346344536e-05
-6.308143222725473e-05   1.4110030883846165e-05   4.005904346344536e-05
-6.51288375610559e-05   1.7950066100534852e-05   5.054384651118375e-05
-6.51288375610559e-05   1.7950066100534852e-05   5.054384651118375e-05
-6.51288375610559e-05   1.7950066100534852e-05   5.054384651118375e-05
-6.51288375610559e-05   1.7950066100534852e-05   5.054384651118375e-05
-6.692579781040261e-05   7.3141524241345304e-06   4.116736455643424e-05
-6.692579781040261e-05   7.3141524241345304e-06   4.116736455643424e-05
-6.692579781040261e-05   7.3141524241345304e-06   4.116736455643424e-05
-6.692579781040261e-05   7.3141524241345304e-06   4.116736455643424e-05
-6.980201530783344e-05   1.6483356306050065e-05   5.242040572114078e-05
-6.980201530783344e-05   1.6483356306050065e-05   5.242040572114078e-05
-6.980201530783344e-05   1.6483356306050065e-05   5.242040572114078e-05
-6.980201530783344e-05   1.6483356306050065e-05   5.242040572114078e-05
-6.580027089644652e-05   6.1222885842779e-06   5.196747233522517e-05
-6.580027089644652e-05   6.1222885842779e-06   5.196747233522517e-05
-6.580027089644652e-05   6.1222885842779e-06   5.196747233522517e-05
-6.580027089644652e-05   6.1222885842779e-06   5.196747233522517e-05
-6.539643505503411e-05   1.3033312268779379e-05   4.714779838883333e-05
-6.539643505503411e-05   1.3033312268779379e-05   4.714779838883333e-05
-6.539643505503411e-05   1.3033312268779379e-05   4.714779838883333e-05
-6.539643505503411e-05   1.3033312268779379e-05   4.714779838883333e-05
-6.580027089644631e-05   1.6483356306050065e-05   5.863704635420287e-05
-6.580027089644631e-05   1.6483356306050065e-05   5.863704635420287e-05
-6.580027089644631e-05   1.6483356306050065e-05   5.863704635420287e-05
-6.580027089644631e-05   1.6483356306050065e-05   5.863704635420287e-05
-6.980201530783388e-05   6.1222885842779e-06   4.575083170216157e-05
-6.980201530783388e-05   6.1222885842779e-06   4.575083170216157e-05
-6.980201530783388e-05   6.1222885842779e-06   4.575083170216157e-05
-6.980201530783388e-05   6.1222885842779e-06   4.575083170216157e-05
-7.411493145755487e-05   1.3140451318351641e-05   6.759813922430514e-05
-7.411493145755487e-05   1.3140451318351641e-05   6.759813922430514e-05
-7.411493145755487e-05   1.3140451318351641e-05   6.759813922430514e-05
-7.411493145755487e-05   1.3140451318351641e-05   6.759813922430514e-05
-6.618882552079171e-05   3.7515105587534493e-06   6.0021327118790335e-05
-6.618882552079171e-05   3.7515105587534493e-06   6.0021327118790335e-05
-6.618882552079171e-05   3.7515105587534493e-06   6.0021327118790335e-05
-6.618882552079171e-05   3.7515105587534493e-06   6.0021327118790335e-05
-6.617553664177228e-05   1.1773746383868418e-05   5.518583749201727e-05
-6.617553664177228e-05   1.1773746383868418e-05   5.518583749201727e-05
-6.617553664177228e-05   1.1773746383868418e-05   5.518583749201727e-05
-6.617553664177228e-05   1.1773746383868418e-05   5.518583749201727e-05
-0.00013130219103114216   1.737364042176965e-05   4.864703116279909e-05
-0.00013130219103114216   1.737364042176965e-05   4.864703116279909e-05
-0.00013130219103114216   1.737364042176965e-05   4.864703116279909e-05
-0.00013130219103114216   1.737364042176965e-05   4.864703116279909e-05
-8.813655151665407e-05   2.4119300720618943e-05   0.00012463715986625536
-8.813655151665407e-05   2.4119300720618943e-05   0.00012463715986625536
-8.813655151665407e-05   2.4119300720618943e-05   0.00012463715986625536
-8.813655151665407e-05   2.4119300720618943e-05   0.00012463715986625536
-8.805895679490087e-05   1.361178215797702e-05   5.573919501222053e-05
-8.805895679490087e-05   1.361178215797702e-05   5.573919501222053e-05
-8.805895679490087e-05   1.361178215797702e-05   5.573919501222053e-05
-8.805895679490087e-05   1.361178215797702e-05   5.573919501222053e-05
-0.00014434501205024133   1.0026358567129115e-05   0.0001517005412589644
-0.00014434501205024133   1.0026358567129115e-05   0.0001517005412589644
-0.00014434501205024133   1.0026358567129115e-05   0.0001517005412589644
-0.00014434501205024133   1.0026358567129115e-05   0.0001517005412589644
-0.00010714228123481133   1.435203483603079e-05   8.710058413857345e-05
-0.00010714228123481133   1.435203483603079e-05   8.710058413857345e-05
-0.00010714228123481133   1.435203483603079e-05   8.710058413857345e-05
-0.00010714228123481133   1.435203483603079e-05   8.710058413857345e-05
-0.00014434501205024154   1.361178215797702e-05   5.789044916672953e-05
-0.00014434501205024154   1.361178215797702e-05   5.789044916672953e-05
-0.00014434501205024154   1.361178215797702e-05   5.789044916672953e-05
-0.00014434501205024154   1.361178215797702e-05   5.789044916672953e-05
-8.805895679490087e-05   1.0026358567129115e-05   0.00014954928710445578
-8.805895679490087e-05   1.0026358567129115e-05   0.00014954928710445578
-8.805895679490087e-05   1.0026358567129115e-05   0.00014954928710445578
-8.805895679490087e-05   1.0026358567129115e-05   0.00014954928710445578
-8.917015989026085e-05   1.0996094119427625e-05   6.25720444694547e-05
-8.917015989026085e-05   1.0996094119427625e-05   6.25720444694547e-05
-8.917015989026085e-05   1.0996094119427625e-05   6.25720444694547e-05
-8.917015989026085e-05   1.0996094119427625e-05   6.25720444694547e-05
-0.00014477138991205878   7.285398539923172e-06   0.00015746717852015363
-0.00014477138991205878   7.285398539923172e-06   0.00015746717852015363
-0.00014477138991205878   7.285398539923172e-06   0.00015746717852015363
-0.00014477138991205878   7.285398539923172e-06   0.00015746717852015363
-0.00011418541465385302   9.060347234308985e-06   0.00010542558387317813
-0.00011418541465385302   9.060347234308985e-06   0.00010542558387317813
-0.00011418541465385302   9.060347234308985e-06   0.00010542558387317813
-0.00011418541465385302   9.060347234308985e-06   0.00010542558387317813
-0.00014477138991205905   1.0996094119427625e-05   6.479846181715746e-05
-0.00014477138991205905   1.0996094119427625e-05   6.479846181715746e-05
-0.00014477138991205905   1.0996094119427625e-05   6.479846181715746e-05
-0.00014477138991205905   1.0996094119427625e-05   6.479846181715746e-05
-8.917015989026066e-05   7.285398539923172e-06   0.00015524076117245087
-8.917015989026066e-05   7.285398539923172e-06   0.00015524076117245087
-8.917015989026066e-05   7.285398539923172e-06   0.00015524076117245087
-8.917015989026066e-05   7.285398539923172e-06   0.00015524076117245087
-8.812958696267472e-05   4.554204460560391e-06   7.454082423281752e-05
-8.812958696267472e-05   4.554204460560391e-06   7.454082423281752e-05
-8.812958696267472e-05   4.554204460560391e-06   7.454082423281752e-05
-8.812958696267472e-05   4.554204460560391e-06   7.454082423281752e-05
-0.00014619738779842516   -4.317282360843033e-06   0.00017664338438524324
-0.00014619738779842516   -4.317282360843033e-06   0.00017664338438524324
-0.00014619738779842516   -4.317282360843033e-06   0.00017664338438524324
-0.00014619738779842516   -4.317282360843033e-06   0.00017664338438524324
-0.00011235130179311266   4.507155069004461e-06   0.00011493857858514711
-0.00011235130179311266   4.507155069004461e-06   0.00011493857858514711
-0.00011235130179311266   4.507155069004461e-06   0.00011493857858514711
-0.00011235130179311266   4.507155069004461e-06   0.00011493857858514711
-8.813655151665423e-05   4.4872096998994394e-06   0.00011313370055508016
-8.813655151665423e-05   4.4872096998994394e-06   0.00011313370055508016
-8.813655151665423e-05   4.4872096998994394e-06   0.00011313370055508016
-8.813655151665423e-05   4.4872096998994394e-06   0.00011313370055508016
-5.383578434174196e-05   -2.641437700587378e-05   0.00015176069382313666
-5.383578434174196e-05   -2.641437700587378e-05   0.00015176069382313666
-5.383578434174196e-05   -2.641437700587378e-05   0.00015176069382313666
-5.383578434174196e-05   -2.641437700587378e-05   0.00015176069382313666
-5.388758144450254e-05   2.1796253058203006e-06   9.491242633145837e-05
-5.388758144450254e-05   2.1796253058203006e-06   9.491242633145837e-05
-5.388758144450254e-05   2.1796253058203006e-06   9.491242633145837e-05
-5.388758144450254e-05   2.1796253058203006e-06   9.491242633145837e-05
-8.805895679490087e-05   -2.1552954901929216e-05   0.00016610426670677307
-8.805895679490087e-05   -2.1552954901929216e-05   0.00016610426670677307
-8.805895679490087e-05   -2.1552954901929216e-05   0.00016610426670677307
-8.805895679490087e-05   -2.1552954901929216e-05   0.00016610426670677307
-7.058172193309317e-05   -1.3046379204282189e-05   0.0001318715965185058
-7.058172193309317e-05   -1.3046379204282189e-05   0.0001318715965185058
-7.058172193309317e-05   -1.3046379204282189e-05   0.0001318715965185058
-7.058172193309317e-05   -1.3046379204282189e-05   0.0001318715965185058
-8.805895679490092e-05   2.1796253058203006e-06   0.00010915197445610742
-8.805895679490092e-05   2.1796253058203006e-06   0.00010915197445610742
-8.805895679490092e-05   2.1796253058203006e-06   0.00010915197445610742
-8.805895679490092e-05   2.1796253058203006e-06   0.00010915197445610742
-5.388758144450232e-05   -2.1552954901929216e-05   0.00015186471858212353
-5.388758144450232e-05   -2.1552954901929216e-05   0.00015186471858212353
-5.388758144450232e-05   -2.1552954901929216e-05   0.00015186471858212353
-5.388758144450232e-05   -2.1552954901929216e-05   0.00015186471858212353
-5.401778259072818e-05   -5.217167403448811e-07   9.791707882009964e-05
-5.401778259072818e-05   -5.217167403448811e-07   9.791707882009964e-05
-5.401778259072818e-05   -5.217167403448811e-07   9.791707882009964e-05
-5.401778259072818e-05   -5.217167403448811e-07   9.791707882009964e-05
-8.917015989026066e-05   -2.206714275838212e-05   0.00016943162993014228
-8.917015989026066e-05   -2.206714275838212e-05   0.00016943162993014228
-8.917015989026066e-05   -2.206714275838212e-05   0.00016943162993014228
-8.917015989026066e-05   -2.206714275838212e-05   0.00016943162993014228
-7.000834522114217e-05   -1.1394637835250403e-05   0.00013109176919439813
-7.000834522114217e-05   -1.1394637835250403e-05   0.00013109176919439813
-7.000834522114217e-05   -1.1394637835250403e-05   0.00013109176919439813
-7.000834522114217e-05   -1.1394637835250403e-05   0.00013109176919439813
-8.917015989026085e-05   -5.217167403448811e-07   0.00011084433443092232
-8.917015989026085e-05   -5.217167403448811e-07   0.00011084433443092232
-8.917015989026085e-05   -5.217167403448811e-07   0.00011084433443092232
-8.917015989026085e-05   -5.217167403448811e-07   0.00011084433443092232
-5.401778259072818e-05   -2.206714275838212e-05   0.0001565043743193198
-5.401778259072818e-05   -2.206714275838212e-05   0.0001565043743193198
-5.401778259072818e-05   -2.206714275838212e-05   0.0001565043743193198
-5.401778259072818e-05   -2.206714275838212e-05   0.0001565043743193198
-5.3392765719964194e-05   -4.087217429088897e-06   0.00010164419498984601
-5.3392765719964194e-05   -4.087217429088897e-06   0.00010164419498984601
-5.3392765719964194e-05   -4.087217429088897e-06   0.00010164419498984601
-5.3392765719964194e-05   -4.087217429088897e-06   0.00010164419498984601
-8.812958696267448e-05   -2.2338550428135798e-05   0.00017048969686045726
-8.812958696267448e-05   -2.2338550428135798e-05   0.00017048969686045726
-8.812958696267448e-05   -2.2338550428135798e-05   0.00017048969686045726
-8.812958696267448e-05   -2.2338550428135798e-05   0.00017048969686045726
-7.024771198236146e-05   -1.2842780015477444e-05   0.00013498910964567412
-7.024771198236146e-05   -1.2842780015477444e-05   0.00013498910964567412
-7.024771198236146e-05   -1.2842780015477444e-05   0.00013498910964567412
-7.024771198236146e-05   -1.2842780015477444e-05   0.00013498910964567412
-5.383578434174196e-05   1.2345101755295573e-06   0.00010439262244847473
-5.383578434174196e-05   1.2345101755295573e-06   0.00010439262244847473
-5.383578434174196e-05   1.2345101755295573e-06   0.00010439262244847473
-5.383578434174196e-05   1.2345101755295573e-06   0.00010439262244847473
-3.933169181802006e-05   -2.062646515071432e-05   0.00011544952479226517
-3.933169181802006e-05   -2.062646515071432e-05   0.00011544952479226517
-3.933169181802006e-05   -2.062646515071432e-05   0.00011544952479226517
-3.933169181802006e-05   -2.062646515071432e-05   0.00011544952479226517
-3.8916323596070246e-05   -7.305296444120972e-07   9.215706108717334e-05
-3.8916323596070246e-05   -7.305296444120972e-07   9.215706108717334e-05
-3.8916323596070246e-05   -7.305296444120972e-07   9.215706108717334e-05
-3.8916323596070246e-05   -7.305296444120972e-07   9.215706108717334e-05
-5.388758144450232e-05   -2.0257244381254903e-05   0.00012882518634333307
-5.388758144450232e-05   -2.0257244381254903e-05   0.00012882518634333307
-5.388758144450232e-05   -2.0257244381254903e-05   0.00012882518634333307
-5.388758144450232e-05   -2.0257244381254903e-05   0.00012882518634333307
-4.619747251713235e-05   -1.0440370457118122e-05   0.00011011821377656869
-4.619747251713235e-05   -1.0440370457118122e-05   0.00011011821377656869
-4.619747251713235e-05   -1.0440370457118122e-05   0.00011011821377656869
-4.619747251713235e-05   -1.0440370457118122e-05   0.00011011821377656869
-5.388758144450232e-05   -7.305296444120972e-07   0.00010387308992927929
-5.388758144450232e-05   -7.305296444120972e-07   0.00010387308992927929
-5.388758144450232e-05   -7.305296444120972e-07   0.00010387308992927929
-5.388758144450232e-05   -7.305296444120972e-07   0.00010387308992927929
-3.8916323596070246e-05   -2.0257244381254903e-05   0.0001171091575012277
-3.8916323596070246e-05   -2.0257244381254903e-05   0.0001171091575012277
-3.8916323596070246e-05   -2.0257244381254903e-05   0.0001171091575012277
-3.8916323596070246e-05   -2.0257244381254903e-05   0.0001171091575012277
-3.853847841404326e-05   -3.084797584712671e-06   9.438658137162197e-05
-3.853847841404326e-05   -3.084797584712671e-06   9.438658137162197e-05
-3.853847841404326e-05   -3.084797584712671e-06   9.438658137162197e-05
-3.853847841404326e-05   -3.084797584712671e-06   9.438658137162197e-05
-5.401778259072818e-05   -2.0890439414927376e-05   0.000130868806764225
-5.401778259072818e-05   -2.0890439414927376e-05   0.000130868806764225
-5.401778259072818e-05   -2.0890439414927376e-05   0.000130868806764225
-5.401778259072818e-05   -2.0890439414927376e-05   0.000130868806764225
-4.572533824205154e-05   -1.116778654378309e-05   0.00011121447446040835
-4.572533824205154e-05   -1.116778654378309e-05   0.00011121447446040835
-4.572533824205154e-05   -1.116778654378309e-05   0.00011121447446040835
-4.572533824205154e-05   -1.116778654378309e-05   0.00011121447446040835
-5.401778259072818e-05   -3.084797584712671e-06   0.00010506996646975119
-5.401778259072818e-05   -3.084797584712671e-06   0.00010506996646975119
-5.401778259072818e-05   -3.084797584712671e-06   0.00010506996646975119
-5.401778259072818e-05   -3.084797584712671e-06   0.00010506996646975119
-3.853847841404326e-05   -2.0890439414927376e-05   0.00012018542166609641
-3.853847841404326e-05   -2.0890439414927376e-05   0.00012018542166609641
-3.853847841404326e-05   -2.0890439414927376e-05   0.00012018542166609641
-3.853847841404326e-05   -2.0890439414927376e-05   0.00012018542166609641
-3.7693053018607184e-05   -5.458765287355474e-06   9.782916678295226e-05
-3.7693053018607184e-05   -5.458765287355474e-06   9.782916678295226e-05
-3.7693053018607184e-05   -5.458765287355474e-06   9.782916678295226e-05
-3.7693053018607184e-05   -5.458765287355474e-06   9.782916678295226e-05
-5.3392765719964086e-05   -2.1811408668567572e-05   0.00013380694064727338
-5.3392765719964086e-05   -2.1811408668567572e-05   0.00013380694064727338
-5.3392765719964086e-05   -2.1811408668567572e-05   0.00013380694064727338
-5.3392765719964086e-05   -2.1811408668567572e-05   0.00013380694064727338
-4.516856593026207e-05   -1.2213703048382166e-05   0.00011434131762565886
-4.516856593026207e-05   -1.2213703048382166e-05   0.00011434131762565886
-4.516856593026207e-05   -1.2213703048382166e-05   0.00011434131762565886
-4.516856593026207e-05   -1.2213703048382166e-05   0.00011434131762565886
-3.933169181802006e-05   5.5848708249242075e-06   7.071391787107474e-05
-3.933169181802006e-05   5.5848708249242075e-06   7.071391787107474e-05
-3.933169181802006e-05   5.5848708249242075e-06   7.071391787107474e-05
-3.933169181802006e-05   5.5848708249242075e-06   7.071391787107474e-05
-3.246914846652491e-05   -8.435981534591882e-06   7.373897870785679e-05
-3.246914846652491e-05   -8.435981534591882e-06   7.373897870785679e-05
-3.246914846652491e-05   -8.435981534591882e-06   7.373897870785679e-05
-3.246914846652491e-05   -8.435981534591882e-06   7.373897870785679e-05
-3.169813148141878e-05   3.001378454161978e-06   6.383879351708026e-05
-3.169813148141878e-05   3.001378454161978e-06   6.383879351708026e-05
-3.169813148141878e-05   3.001378454161978e-06   6.383879351708026e-05
-3.169813148141878e-05   3.001378454161978e-06   6.383879351708026e-05
-3.8916323596070246e-05   -9.901100577896149e-06   8.361060112740352e-05
-3.8916323596070246e-05   -9.901100577896149e-06   8.361060112740352e-05
-3.8916323596070246e-05   -9.901100577896149e-06   8.361060112740352e-05
-3.8916323596070246e-05   -9.901100577896149e-06   8.361060112740352e-05
-3.534072842870692e-05   -1.9199879360406666e-06   7.286260826335194e-05
-3.534072842870692e-05   -1.9199879360406666e-06   7.286260826335194e-05
-3.534072842870692e-05   -1.9199879360406666e-06   7.286260826335194e-05
-3.534072842870692e-05   -1.9199879360406666e-06   7.286260826335194e-05
-3.8916323596070246e-05   3.001378454161978e-06   7.158028093631578e-05
-3.8916323596070246e-05   3.001378454161978e-06   7.158028093631578e-05
-3.8916323596070246e-05   3.001378454161978e-06   7.158028093631578e-05
-3.8916323596070246e-05   3.001378454161978e-06   7.158028093631578e-05
-3.169813148141878e-05   -9.901100577896149e-06   7.586911370816799e-05
-3.169813148141878e-05   -9.901100577896149e-06   7.586911370816799e-05
-3.169813148141878e-05   -9.901100577896149e-06   7.586911370816799e-05
-3.169813148141878e-05   -9.901100577896149e-06   7.586911370816799e-05
-3.13081541723206e-05   7.922417857696845e-07   6.68774333937314e-05
-3.13081541723206e-05   7.922417857696845e-07   6.68774333937314e-05
-3.13081541723206e-05   7.922417857696845e-07   6.68774333937314e-05
-3.13081541723206e-05   7.922417857696845e-07   6.68774333937314e-05
-3.853847841404326e-05   -1.1017012571479549e-05   8.601352641095109e-05
-3.853847841404326e-05   -1.1017012571479549e-05   8.601352641095109e-05
-3.853847841404326e-05   -1.1017012571479549e-05   8.601352641095109e-05
-3.853847841404326e-05   -1.1017012571479549e-05   8.601352641095109e-05
-3.457859176077933e-05   -3.5045826194584143e-06   7.49062573509613e-05
-3.457859176077933e-05   -3.5045826194584143e-06   7.49062573509613e-05
-3.457859176077933e-05   -3.5045826194584143e-06   7.49062573509613e-05
-3.457859176077933e-05   -3.5045826194584143e-06   7.49062573509613e-05
-3.853847841404326e-05   7.922417857696845e-07   7.39629860080802e-05
-3.853847841404326e-05   7.922417857696845e-07   7.39629860080802e-05
-3.853847841404326e-05   7.922417857696845e-07   7.39629860080802e-05
-3.853847841404326e-05   7.922417857696845e-07   7.39629860080802e-05
-3.13081541723206e-05   -1.1017012571479766e-05   7.892797379660164e-05
-3.13081541723206e-05   -1.1017012571479766e-05   7.892797379660164e-05
-3.13081541723206e-05   -1.1017012571479766e-05   7.892797379660164e-05
-3.13081541723206e-05   -1.1017012571479766e-05   7.892797379660164e-05
-3.07107095751458e-05   -1.4327052972034487e-06   7.069357797917595e-05
-3.07107095751458e-05   -1.4327052972034487e-06   7.069357797917595e-05
-3.07107095751458e-05   -1.4327052972034487e-06   7.069357797917595e-05
-3.07107095751458e-05   -1.4327052972034487e-06   7.069357797917595e-05
-3.7693053018607184e-05   -1.2487066266205459e-05   8.896343363301324e-05
-3.7693053018607184e-05   -1.2487066266205459e-05   8.896343363301324e-05
-3.7693053018607184e-05   -1.2487066266205459e-05   8.896343363301324e-05
-3.7693053018607184e-05   -1.2487066266205459e-05   8.896343363301324e-05
-3.396155517783794e-05   -4.886512937458953e-06   7.818393856781798e-05
-3.396155517783794e-05   -4.886512937458953e-06   7.818393856781798e-05
-3.396155517783794e-05   -4.886512937458953e-06   7.818393856781798e-05
-3.396155517783794e-05   -4.886512937458953e-06   7.818393856781798e-05
-3.246914846652491e-05   9.133437932161165e-06   1.56307680915734e-05
-3.246914846652491e-05   9.133437932161165e-06   1.56307680915734e-05
-3.246914846652491e-05   9.133437932161165e-06   1.56307680915734e-05
-3.246914846652491e-05   9.133437932161165e-06   1.56307680915734e-05
-1.827756493434727e-05   -9.891545590826143e-07   3.3209851817123104e-05
-1.827756493434727e-05   -9.891545590826143e-07   3.3209851817123104e-05
-1.827756493434727e-05   -9.891545590826143e-07   3.3209851817123104e-05
-1.827756493434727e-05   -9.891545590826143e-07   3.3209851817123104e-05
-1.9257916279395628e-05   7.3141524241345304e-06   1.5752021536023786e-05
-1.9257916279395628e-05   7.3141524241345304e-06   1.5752021536023786e-05
-1.9257916279395628e-05   7.3141524241345304e-06   1.5752021536023786e-05
-1.9257916279395628e-05   7.3141524241345304e-06   1.5752021536023786e-05
-3.169813148141878e-05   -1.3602211131470525e-06   4.169033766176621e-05
-3.169813148141878e-05   -1.3602211131470525e-06   4.169033766176621e-05
-3.169813148141878e-05   -1.3602211131470525e-06   4.169033766176621e-05
-3.169813148141878e-05   -1.3602211131470525e-06   4.169033766176621e-05
-2.455280200041655e-05   4.683922013681233e-06   2.6154969317334752e-05
-2.455280200041655e-05   4.683922013681233e-06   2.6154969317334752e-05
-2.455280200041655e-05   4.683922013681233e-06   2.6154969317334752e-05
-2.455280200041655e-05   4.683922013681233e-06   2.6154969317334752e-05
-3.169813148141878e-05   7.3141524241345304e-06   2.0956645658392562e-05
-3.169813148141878e-05   7.3141524241345304e-06   2.0956645658392562e-05
-3.169813148141878e-05   7.3141524241345304e-06   2.0956645658392562e-05
-3.169813148141878e-05   7.3141524241345304e-06   2.0956645658392562e-05
-1.9257916279395628e-05   -1.3602211131470525e-06   3.648571353939787e-05
-1.9257916279395628e-05   -1.3602211131470525e-06   3.648571353939787e-05
-1.9257916279395628e-05   -1.3602211131470525e-06   3.648571353939787e-05
-1.9257916279395628e-05   -1.3602211131470525e-06   3.648571353939787e-05
-2.0053063020270337e-05   6.1222885842779e-06   2.0643789647479226e-05
-2.0053063020270337e-05   6.1222885842779e-06   2.0643789647479226e-05
-2.0053063020270337e-05   6.1222885842779e-06   2.0643789647479226e-05
-2.0053063020270337e-05   6.1222885842779e-06   2.0643789647479226e-05
-3.13081541723206e-05   -1.8688277559572326e-06   4.419694470503667e-05
-3.13081541723206e-05   -1.8688277559572326e-06   4.419694470503667e-05
-3.13081541723206e-05   -1.8688277559572326e-06   4.419694470503667e-05
-3.13081541723206e-05   -1.8688277559572326e-06   4.419694470503667e-05
-2.4908997952454315e-05   3.7725091106936837e-06   3.014688221860025e-05
-2.4908997952454315e-05   3.7725091106936837e-06   3.014688221860025e-05
-2.4908997952454315e-05   3.7725091106936837e-06   3.014688221860025e-05
-2.4908997952454315e-05   3.7725091106936837e-06   3.014688221860025e-05
-3.13081541723206e-05   6.1222885842779e-06   2.5438459451621303e-05
-3.13081541723206e-05   6.1222885842779e-06   2.5438459451621303e-05
-3.13081541723206e-05   6.1222885842779e-06   2.5438459451621303e-05
-3.13081541723206e-05   6.1222885842779e-06   2.5438459451621303e-05
-2.005306302027077e-05   -1.8688277559572326e-06   3.940227490089503e-05
-2.005306302027077e-05   -1.8688277559572326e-06   3.940227490089503e-05
-2.005306302027077e-05   -1.8688277559572326e-06   3.940227490089503e-05
-2.005306302027077e-05   -1.8688277559572326e-06   3.940227490089503e-05
-2.2135912035434538e-05   3.7515105587534493e-06   2.938102216727429e-05
-2.2135912035434538e-05   3.7515105587534493e-06   2.938102216727429e-05
-2.2135912035434538e-05   3.7515105587534493e-06   2.938102216727429e-05
-2.2135912035434538e-05   3.7515105587534493e-06   2.938102216727429e-05
-3.07107095751458e-05   -2.464708978591095e-06   4.7402083122532936e-05
-3.07107095751458e-05   -2.464708978591095e-06   4.7402083122532936e-05
-3.07107095751458e-05   -2.464708978591095e-06   4.7402083122532936e-05
-3.07107095751458e-05   -2.464708978591095e-06   4.7402083122532936e-05
-2.490214933133705e-05   3.1671357997261652e-06   3.43420425158625e-05
-2.490214933133705e-05   3.1671357997261652e-06   3.43420425158625e-05
-2.490214933133705e-05   3.1671357997261652e-06   3.43420425158625e-05
-2.490214933133705e-05   3.1671357997261652e-06   3.43420425158625e-05
-0.00030472954136173994   2.411930072061916e-05   0.0001272060805729609
-0.00030472954136173994   2.411930072061916e-05   0.0001272060805729609
-0.00030472954136173994   2.411930072061916e-05   0.0001272060805729609
-0.00030472954136173994   2.411930072061916e-05   0.0001272060805729609
-7.202789253628577e-05   -0.00014476387465526074   0.0004137122567231903
-7.202789253628577e-05   -0.00014476387465526074   0.0004137122567231903
-7.202789253628577e-05   -0.00014476387465526074   0.0004137122567231903
-7.202789253628577e-05   -0.00014476387465526074   0.0004137122567231903
-8.427605445338488e-05   1.0026358567128899e-05   7.016729800446387e-05
-8.427605445338488e-05   1.0026358567128899e-05   7.016729800446387e-05
-8.427605445338488e-05   1.0026358567128899e-05   7.016729800446387e-05
-8.427605445338488e-05   1.0026358567128899e-05   7.016729800446387e-05
-0.0002779194278435551   -0.00011189184056330717   0.00046605717313300866
-0.0002779194278435551   -0.00011189184056330717   0.00046605717313300866
-0.0002779194278435551   -0.00011189184056330717   0.00046605717313300866
-0.0002779194278435551   -0.00011189184056330717   0.00046605717313300866
-0.0001854042973589256   -5.57331017983088e-05   0.00027817004573296044
-0.0001854042973589256   -5.57331017983088e-05   0.00027817004573296044
-0.0001854042973589256   -5.57331017983088e-05   0.00027817004573296044
-0.0001854042973589256   -5.57331017983088e-05   0.00027817004573296044
-0.0002779194278435546   1.0026358567128899e-05   0.00014331821748272543
-0.0002779194278435546   1.0026358567128899e-05   0.00014331821748272543
-0.0002779194278435546   1.0026358567128899e-05   0.00014331821748272543
-0.0002779194278435546   1.0026358567128899e-05   0.00014331821748272543
-8.427605445338504e-05   -0.00011189184056330717   0.0003929062536547469
-8.427605445338504e-05   -0.00011189184056330717   0.0003929062536547469
-8.427605445338504e-05   -0.00011189184056330717   0.0003929062536547469
-8.427605445338504e-05   -0.00011189184056330717   0.0003929062536547469
-8.604859368106213e-05   7.285398539923389e-06   7.708163511023936e-05
-8.604859368106213e-05   7.285398539923389e-06   7.708163511023936e-05
-8.604859368106213e-05   7.285398539923389e-06   7.708163511023936e-05
-8.604859368106213e-05   7.285398539923389e-06   7.708163511023936e-05
-0.0002621953320408403   -9.59687976508817e-05   0.00043261205009101854
-0.0002621953320408403   -9.59687976508817e-05   0.00043261205009101854
-0.0002621953320408403   -9.59687976508817e-05   0.00043261205009101854
-0.0002621953320408403   -9.59687976508817e-05   0.00043261205009101854
-0.00017975425206268134   -5.273504758917635e-05   0.00026927000009039726
-0.00017975425206268134   -5.273504758917635e-05   0.00026927000009039726
-0.00017975425206268134   -5.273504758917635e-05   0.00026927000009039726
-0.00017975425206268134   -5.273504758917635e-05   0.00026927000009039726
-0.00026219533204083987   7.285398539923389e-06   0.00013903415282472207
-0.00026219533204083987   7.285398539923389e-06   0.00013903415282472207
-0.00026219533204083987   7.285398539923389e-06   0.00013903415282472207
-0.00026219533204083987   7.285398539923389e-06   0.00013903415282472207
-8.604859368106235e-05   -9.59687976508817e-05   0.00037065953237653567
-8.604859368106235e-05   -9.59687976508817e-05   0.00037065953237653567
-8.604859368106235e-05   -9.59687976508817e-05   0.00037065953237653567
-8.604859368106235e-05   -9.59687976508817e-05   0.00037065953237653567
-9.398504066356929e-05   -4.317282360843033e-06   9.664859834960431e-05
-9.398504066356929e-05   -4.317282360843033e-06   9.664859834960431e-05
-9.398504066356929e-05   -4.317282360843033e-06   9.664859834960431e-05
-9.398504066356929e-05   -4.317282360843033e-06   9.664859834960431e-05
-0.00024208412112862107   -7.487663797373153e-05   0.0003858160124924229
-0.00024208412112862107   -7.487663797373153e-05   0.0003858160124924229
-0.00024208412112862107   -7.487663797373153e-05   0.0003858160124924229
-0.00024208412112862107   -7.487663797373153e-05   0.0003858160124924229
-0.0001727577143009741   -4.864965967092054e-05   0.00025453581413132503
-0.0001727577143009741   -4.864965967092054e-05   0.00025453581413132503
-0.0001727577143009741   -4.864965967092054e-05   0.00025453581413132503
-0.0001727577143009741   -4.864965967092054e-05   0.00025453581413132503
-7.202789253628566e-05   -2.641437700587378e-05   7.154066132777784e-05
-7.202789253628566e-05   -2.641437700587378e-05   7.154066132777784e-05
-7.202789253628566e-05   -2.641437700587378e-05   7.154066132777784e-05
-7.202789253628566e-05   -2.641437700587378e-05   7.154066132777784e-05
-2.5204157185526013e-05   -4.373201016941611e-05   0.0001391896403475853
-2.5204157185526013e-05   -4.373201016941611e-05   0.0001391896403475853
-2.5204157185526013e-05   -4.373201016941611e-05   0.0001391896403475853
-2.5204157185526013e-05   -4.373201016941611e-05   0.0001391896403475853
-2.7999072044504166e-05   -2.1552954901929216e-05   6.45784044231597e-05
-2.7999072044504166e-05   -2.1552954901929216e-05   6.45784044231597e-05
-2.7999072044504166e-05   -2.1552954901929216e-05   6.45784044231597e-05
-2.7999072044504166e-05   -2.1552954901929216e-05   6.45784044231597e-05
-8.427605445338504e-05   -5.845941020796535e-05   0.00018051724828824862
-8.427605445338504e-05   -5.845941020796535e-05   0.00018051724828824862
-8.427605445338504e-05   -5.845941020796535e-05   0.00018051724828824862
-8.427605445338504e-05   -5.845941020796535e-05   0.00018051724828824862
-4.9647833655166594e-05   -3.080123736116263e-05   0.0001062086432498026
-4.9647833655166594e-05   -3.080123736116263e-05   0.0001062086432498026
-4.9647833655166594e-05   -3.080123736116263e-05   0.0001062086432498026
-4.9647833655166594e-05   -3.080123736116263e-05   0.0001062086432498026
-8.427605445338483e-05   -2.1552954901929216e-05   8.672227760678068e-05
-8.427605445338483e-05   -2.1552954901929216e-05   8.672227760678068e-05
-8.427605445338483e-05   -2.1552954901929216e-05   8.672227760678068e-05
-8.427605445338483e-05   -2.1552954901929216e-05   8.672227760678068e-05
-2.7999072044504274e-05   -5.845941020796535e-05   0.00015837337510462706
-2.7999072044504274e-05   -5.845941020796535e-05   0.00015837337510462706
-2.7999072044504274e-05   -5.845941020796535e-05   0.00015837337510462706
-2.7999072044504274e-05   -5.845941020796535e-05   0.00015837337510462706
-3.0381595950590423e-05   -2.206714275838212e-05   7.259264544062132e-05
-3.0381595950590423e-05   -2.206714275838212e-05   7.259264544062132e-05
-3.0381595950590423e-05   -2.206714275838212e-05   7.259264544062132e-05
-3.0381595950590423e-05   -2.206714275838212e-05   7.259264544062132e-05
-8.604859368106235e-05   -5.320024013723077e-05   0.00018405083341871626
-8.604859368106235e-05   -5.320024013723077e-05   0.00018405083341871626
-8.604859368106235e-05   -5.320024013723077e-05   0.00018405083341871626
-8.604859368106235e-05   -5.320024013723077e-05   0.00018405083341871626
-5.5808299755748074e-05   -3.78084240970645e-05   0.00012441525391909377
-5.5808299755748074e-05   -3.78084240970645e-05   0.00012441525391909377
-5.5808299755748074e-05   -3.78084240970645e-05   0.00012441525391909377
-5.5808299755748074e-05   -3.78084240970645e-05   0.00012441525391909377
-8.604859368106213e-05   -2.206714275838212e-05   9.127250386793033e-05
-8.604859368106213e-05   -2.206714275838212e-05   9.127250386793033e-05
-8.604859368106213e-05   -2.206714275838212e-05   9.127250386793033e-05
-8.604859368106213e-05   -2.206714275838212e-05   9.127250386793033e-05
-3.0381595950590423e-05   -5.320024013723077e-05   0.0001653709749914072
-3.0381595950590423e-05   -5.320024013723077e-05   0.0001653709749914072
-3.0381595950590423e-05   -5.320024013723077e-05   0.0001653709749914072
-3.0381595950590423e-05   -5.320024013723077e-05   0.0001653709749914072
-3.4230989412277805e-05   -2.2338550428135798e-05   7.92741837820465e-05
-3.4230989412277805e-05   -2.2338550428135798e-05   7.92741837820465e-05
-3.4230989412277805e-05   -2.2338550428135798e-05   7.92741837820465e-05
-3.4230989412277805e-05   -2.2338550428135798e-05   7.92741837820465e-05
-9.398504066356945e-05   -4.991124898749324e-05   0.00019540788833647934
-9.398504066356945e-05   -4.991124898749324e-05   0.00019540788833647934
-9.398504066356945e-05   -4.991124898749324e-05   0.00019540788833647934
-9.398504066356945e-05   -4.991124898749324e-05   0.00019540788833647934
-5.93138187523299e-05   -3.4495815537995914e-05   0.0001283732584147154
-5.93138187523299e-05   -3.4495815537995914e-05   0.0001283732584147154
-5.93138187523299e-05   -3.4495815537995914e-05   0.0001283732584147154
-5.93138187523299e-05   -3.4495815537995914e-05   0.0001283732584147154
-2.5204157185526013e-05   -2.062646515071432e-05   3.795549759452689e-05
-2.5204157185526013e-05   -2.062646515071432e-05   3.795549759452689e-05
-2.5204157185526013e-05   -2.062646515071432e-05   3.795549759452689e-05
-2.5204157185526013e-05   -2.062646515071432e-05   3.795549759452689e-05
-1.3991583168054518e-05   -1.1570712401379993e-05   6.207657260658074e-05
-1.3991583168054518e-05   -1.1570712401379993e-05   6.207657260658074e-05
-1.3991583168054518e-05   -1.1570712401379993e-05   6.207657260658074e-05
-1.3991583168054518e-05   -1.1570712401379993e-05   6.207657260658074e-05
-1.3367623233941474e-05   -2.0257244381254903e-05   4.44783365452792e-05
-1.3367623233941474e-05   -2.0257244381254903e-05   4.44783365452792e-05
-1.3367623233941474e-05   -2.0257244381254903e-05   4.44783365452792e-05
-1.3367623233941474e-05   -2.0257244381254903e-05   4.44783365452792e-05
-2.7999072044504274e-05   -1.5358137113072697e-05   6.592462020197395e-05
-2.7999072044504274e-05   -1.5358137113072697e-05   6.592462020197395e-05
-2.7999072044504274e-05   -1.5358137113072697e-05   6.592462020197395e-05
-2.7999072044504274e-05   -1.5358137113072697e-05   6.592462020197395e-05
-1.887372609560479e-05   -1.6151055957383314e-05   5.119146159372713e-05
-1.887372609560479e-05   -1.6151055957383314e-05   5.119146159372713e-05
-1.887372609560479e-05   -1.6151055957383314e-05   5.119146159372713e-05
-1.887372609560479e-05   -1.6151055957383314e-05   5.119146159372713e-05
-2.7999072044504166e-05   -2.0257244381254903e-05   4.1538872184369684e-05
-2.7999072044504166e-05   -2.0257244381254903e-05   4.1538872184369684e-05
-2.7999072044504166e-05   -2.0257244381254903e-05   4.1538872184369684e-05
-2.7999072044504166e-05   -2.0257244381254903e-05   4.1538872184369684e-05
-1.3367623233941257e-05   -1.5358137113072697e-05   6.886408456288325e-05
-1.3367623233941257e-05   -1.5358137113072697e-05   6.886408456288325e-05
-1.3367623233941257e-05   -1.5358137113072697e-05   6.886408456288325e-05
-1.3367623233941257e-05   -1.5358137113072697e-05   6.886408456288325e-05
-1.330918229287912e-05   -2.0890439414927376e-05   4.750311583724253e-05
-1.330918229287912e-05   -2.0890439414927376e-05   4.750311583724253e-05
-1.330918229287912e-05   -2.0890439414927376e-05   4.750311583724253e-05
-1.330918229287912e-05   -2.0890439414927376e-05   4.750311583724253e-05
-3.0381595950590423e-05   -1.998037616206811e-05   7.541110064837857e-05
-3.0381595950590423e-05   -1.998037616206811e-05   7.541110064837857e-05
-3.0381595950590423e-05   -1.998037616206811e-05   7.541110064837857e-05
-3.0381595950590423e-05   -1.998037616206811e-05   7.541110064837857e-05
-1.9912412317343972e-05   -1.7663957885552138e-05   5.6572610293724804e-05
-1.9912412317343972e-05   -1.7663957885552138e-05   5.6572610293724804e-05
-1.9912412317343972e-05   -1.7663957885552138e-05   5.6572610293724804e-05
-1.9912412317343972e-05   -1.7663957885552138e-05   5.6572610293724804e-05
-3.0381595950590315e-05   -2.0890439414927376e-05   4.6957077885526836e-05
-3.0381595950590315e-05   -2.0890439414927376e-05   4.6957077885526836e-05
-3.0381595950590315e-05   -2.0890439414927376e-05   4.6957077885526836e-05
-3.0381595950590315e-05   -2.0890439414927376e-05   4.6957077885526836e-05
-1.330918229287912e-05   -1.998037616206811e-05   7.595713860009405e-05
-1.330918229287912e-05   -1.998037616206811e-05   7.595713860009405e-05
-1.330918229287912e-05   -1.998037616206811e-05   7.595713860009405e-05
-1.330918229287912e-05   -1.998037616206811e-05   7.595713860009405e-05
-1.336533500633885e-05   -2.1811408668567572e-05   5.199782340483978e-05
-1.336533500633885e-05   -2.1811408668567572e-05   5.199782340483978e-05
-1.336533500633885e-05   -2.1811408668567572e-05   5.199782340483978e-05
-1.336533500633885e-05   -2.1811408668567572e-05   5.199782340483978e-05
-3.4230989412277805e-05   -2.4385415274318057e-05   8.831831804485433e-05
-3.4230989412277805e-05   -2.4385415274318057e-05   8.831831804485433e-05
-3.4230989412277805e-05   -2.4385415274318057e-05   8.831831804485433e-05
-3.4230989412277805e-05   -2.4385415274318057e-05   8.831831804485433e-05
-2.1076409341723088e-05   -1.9364347599935394e-05   6.33813773226338e-05
-2.1076409341723088e-05   -1.9364347599935394e-05   6.33813773226338e-05
-2.1076409341723088e-05   -1.9364347599935394e-05   6.33813773226338e-05
-2.1076409341723088e-05   -1.9364347599935394e-05   6.33813773226338e-05
-1.3991583168054518e-05   -8.435981534592098e-06   1.009091457542942e-05
-1.3991583168054518e-05   -8.435981534592098e-06   1.009091457542942e-05
-1.3991583168054518e-05   -8.435981534592098e-06   1.009091457542942e-05
-1.3991583168054518e-05   -8.435981534592098e-06   1.009091457542942e-05
-1.0235768711447293e-05   2.730059341768122e-06   2.305022986225742e-05
-1.0235768711447293e-05   2.730059341768122e-06   2.305022986225742e-05
-1.0235768711447293e-05   2.730059341768122e-06   2.305022986225742e-05
-1.0235768711447293e-05   2.730059341768122e-06   2.305022986225742e-05
-8.21607451885779e-06   -9.901100577896149e-06   1.7778373255152892e-05
-8.21607451885779e-06   -9.901100577896149e-06   1.7778373255152892e-05
-8.21607451885779e-06   -9.901100577896149e-06   1.7778373255152892e-05
-8.21607451885779e-06   -9.901100577896149e-06   1.7778373255152892e-05
-1.3367623233941257e-05   1.429887894935448e-06   1.9565694696591952e-05
-1.3367623233941257e-05   1.429887894935448e-06   1.9565694696591952e-05
-1.3367623233941257e-05   1.429887894935448e-06   1.9565694696591952e-05
-1.3367623233941257e-05   1.429887894935448e-06   1.9565694696591952e-05
-1.0751821240865492e-05   -3.740124385894286e-06   1.830803207662898e-05
-1.0751821240865492e-05   -3.740124385894286e-06   1.830803207662898e-05
-1.0751821240865492e-05   -3.740124385894286e-06   1.830803207662898e-05
-1.0751821240865492e-05   -3.740124385894286e-06   1.830803207662898e-05
-1.3367623233941257e-05   -9.901100577896149e-06   1.0979780171453853e-05
-1.3367623233941257e-05   -9.901100577896149e-06   1.0979780171453853e-05
-1.3367623233941257e-05   -9.901100577896149e-06   1.0979780171453853e-05
-1.3367623233941257e-05   -9.901100577896149e-06   1.0979780171453853e-05
-8.21607451885779e-06   1.429887894935448e-06   2.636428778029099e-05
-8.21607451885779e-06   1.429887894935448e-06   2.636428778029099e-05
-8.21607451885779e-06   1.429887894935448e-06   2.636428778029099e-05
-8.21607451885779e-06   1.429887894935448e-06   2.636428778029099e-05
-7.0795119573524926e-06   -1.1017012571479766e-05   1.9523299280846656e-05
-7.0795119573524926e-06   -1.1017012571479766e-05   1.9523299280846656e-05
-7.0795119573524926e-06   -1.1017012571479766e-05   1.9523299280846656e-05
-7.0795119573524926e-06   -1.1017012571479766e-05   1.9523299280846656e-05
-1.330918229287912e-05   -6.968814068973735e-07   2.371400447464091e-05
-1.330918229287912e-05   -6.968814068973735e-07   2.371400447464091e-05
-1.330918229287912e-05   -6.968814068973735e-07   2.371400447464091e-05
-1.330918229287912e-05   -6.968814068973735e-07   2.371400447464091e-05
-9.683854408695076e-06   -4.838660613949025e-06   2.015685885856577e-05
-9.683854408695076e-06   -4.838660613949025e-06   2.015685885856577e-05
-9.683854408695076e-06   -4.838660613949025e-06   2.015685885856577e-05
-9.683854408695076e-06   -4.838660613949025e-06   2.015685885856577e-05
-1.3309182292878903e-05   -1.1017012571479766e-05   1.3331220582096098e-05
-1.3309182292878903e-05   -1.1017012571479766e-05   1.3331220582096098e-05
-1.3309182292878903e-05   -1.1017012571479766e-05   1.3331220582096098e-05
-1.3309182292878903e-05   -1.1017012571479766e-05   1.3331220582096098e-05
-7.0795119573524926e-06   -6.968814068973735e-07   2.99060831733906e-05
-7.0795119573524926e-06   -6.968814068973735e-07   2.99060831733906e-05
-7.0795119573524926e-06   -6.968814068973735e-07   2.99060831733906e-05
-7.0795119573524926e-06   -6.968814068973735e-07   2.99060831733906e-05
-5.332077780620739e-06   -1.2487066266205459e-05   2.1369813560184747e-05
-5.332077780620739e-06   -1.2487066266205459e-05   2.1369813560184747e-05
-5.332077780620739e-06   -1.2487066266205459e-05   2.1369813560184747e-05
-5.332077780620739e-06   -1.2487066266205459e-05   2.1369813560184747e-05
-1.336533500633885e-05   -5.147214364742506e-06   3.0354664462169112e-05
-1.336533500633885e-05   -5.147214364742506e-06   3.0354664462169112e-05
-1.336533500633885e-05   -5.147214364742506e-06   3.0354664462169112e-05
-1.336533500633885e-05   -5.147214364742506e-06   3.0354664462169112e-05
-8.78158161912398e-06   -6.550568652728553e-06   2.3557088056271047e-05
-8.78158161912398e-06   -6.550568652728553e-06   2.3557088056271047e-05
-8.78158161912398e-06   -6.550568652728553e-06   2.3557088056271047e-05
-8.78158161912398e-06   -6.550568652728553e-06   2.3557088056271047e-05
-1.0235768711447293e-05   -9.891545590823975e-07   -1.7665032294742443e-05
-1.0235768711447293e-05   -9.891545590823975e-07   -1.7665032294742443e-05
-1.0235768711447293e-05   -9.891545590823975e-07   -1.7665032294742443e-05
-1.0235768711447293e-05   -9.891545590823975e-07   -1.7665032294742443e-05
-1.7407958668143667e-06   1.531249689511535e-06   -1.9945016711975933e-06
-1.7407958668143667e-06   1.531249689511535e-06   -1.9945016711975933e-06
-1.7407958668143667e-06   1.531249689511535e-06   -1.9945016711975933e-06
-1.7407958668143667e-06   1.531249689511535e-06   -1.9945016711975933e-06
2.4850462573226123e-07   -1.3602211131470525e-06   -1.3979245535302061e-05
2.4850462573226123e-07   -1.3602211131470525e-06   -1.3979245535302061e-05
2.4850462573226123e-07   -1.3602211131470525e-06   -1.3979245535302061e-05
2.4850462573226123e-07   -1.3602211131470525e-06   -1.3979245535302061e-05
-8.21607451885779e-06   2.6750409800951826e-06   -2.292770883599235e-06
-8.21607451885779e-06   2.6750409800951826e-06   -2.292770883599235e-06
-8.21607451885779e-06   2.6750409800951826e-06   -2.292770883599235e-06
-8.21607451885779e-06   2.6750409800951826e-06   -2.292770883599235e-06
-4.558585835390608e-06   6.883394426759979e-07   -7.19656443359416e-06
-4.558585835390608e-06   6.883394426759979e-07   -7.19656443359416e-06
-4.558585835390608e-06   6.883394426759979e-07   -7.19656443359416e-06
-4.558585835390608e-06   6.883394426759979e-07   -7.19656443359416e-06
-8.21607451885779e-06   -1.3602211131470525e-06   -1.6400402791249104e-05
-8.21607451885779e-06   -1.3602211131470525e-06   -1.6400402791249104e-05
-8.21607451885779e-06   -1.3602211131470525e-06   -1.6400402791249104e-05
-8.21607451885779e-06   -1.3602211131470525e-06   -1.6400402791249104e-05
2.4850462573226123e-07   2.6750409800951826e-06   1.2838637234629038e-07
2.4850462573226123e-07   2.6750409800951826e-06   1.2838637234629038e-07
2.4850462573226123e-07   2.6750409800951826e-06   1.2838637234629038e-07
2.4850462573226123e-07   2.6750409800951826e-06   1.2838637234629038e-07
1.3201482335347889e-06   -1.8688277559572326e-06   -1.2669810600492853e-05
1.3201482335347889e-06   -1.8688277559572326e-06   -1.2669810600492853e-05
1.3201482335347889e-06   -1.8688277559572326e-06   -1.2669810600492853e-05
1.3201482335347889e-06   -1.8688277559572326e-06   -1.2669810600492853e-05
-7.0795119573524926e-06   2.3610375944195885e-06   -1.2082961592416001e-06
-7.0795119573524926e-06   2.3610375944195885e-06   -1.2082961592416001e-06
-7.0795119573524926e-06   2.3610375944195885e-06   -1.2082961592416001e-06
-7.0795119573524926e-06   2.3610375944195885e-06   -1.2082961592416001e-06
-3.073925869257919e-06   4.553099649594154e-07   -6.740836395052914e-06
-3.073925869257919e-06   4.553099649594154e-07   -6.740836395052914e-06
-3.073925869257919e-06   4.553099649594154e-07   -6.740836395052914e-06
-3.073925869257919e-06   4.553099649594154e-07   -6.740836395052914e-06
-7.0795119573524926e-06   -1.8688277559570157e-06   -1.5207729810717873e-05
-7.0795119573524926e-06   -1.8688277559570157e-06   -1.5207729810717873e-05
-7.0795119573524926e-06   -1.8688277559570157e-06   -1.5207729810717873e-05
-7.0795119573524926e-06   -1.8688277559570157e-06   -1.5207729810717873e-05
1.3201482335347889e-06   2.3610375944195885e-06   1.3296230509853707e-06
1.3201482335347889e-06   2.3610375944195885e-06   1.3296230509853707e-06
1.3201482335347889e-06   2.3610375944195885e-06   1.3296230509853707e-06
1.3201482335347889e-06   2.3610375944195885e-06   1.3296230509853707e-06
2.6731922952456105e-06   -2.464708978591095e-06   -1.07842132748533e-05
2.6731922952456105e-06   -2.464708978591095e-06   -1.07842132748533e-05
2.6731922952456105e-06   -2.464708978591095e-06   -1.07842132748533e-05
2.6731922952456105e-06   -2.464708978591095e-06   -1.07842132748533e-05
-5.332077780620739e-06   2.1598028448099784e-06   -2.1680357578440432e-07
-5.332077780620739e-06   2.1598028448099784e-06   -2.1680357578440432e-07
-5.332077780620739e-06   2.1598028448099784e-06   -2.1680357578440432e-07
-5.332077780620739e-06   2.1598028448099784e-06   -2.1680357578440432e-07
-1.7234228646824216e-06   1.8689272824929e-07   -5.047482365744347e-06
-1.7234228646824216e-06   1.8689272824929e-07   -5.047482365744347e-06
-1.7234228646824216e-06   1.8689272824929e-07   -5.047482365744347e-06
-1.7234228646824216e-06   1.8689272824929e-07   -5.047482365744347e-06
              </DataArray>   
             <DataArray type="Float64" NumberOfComponents="3" Name="Stress" format="ascii">   
-15.7593886769632   -3.9398471692408   -3.9398471692408
-15.7593886769632   -3.9398471692408   -3.9398471692408
-15.7593886769632   -3.9398471692408   -3.9398471692408
-15.7593886769632   -3.9398471692408   -3.9398471692408
-9.121654665796411   -0.2851182121399396   -0.18136377483053134
-9.121654665796411   -0.2851182121399396   -0.18136377483053134
-9.121654665796411   -0.2851182121399396   -0.18136377483053134
-9.121654665796411   -0.2851182121399396   -0.18136377483053134
-9.835571913614274   -2.4588929784035685   -2.4588929784035685
-9.835571913614274   -2.4588929784035685   -2.4588929784035685
-9.835571913614274   -2.4588929784035685   -2.4588929784035685
-9.835571913614274   -2.4588929784035685   -2.4588929784035685
-15.190247346000506   -1.244392235945892   -0.4749339859321515
-15.190247346000506   -1.244392235945892   -0.4749339859321515
-15.190247346000506   -1.244392235945892   -0.4749339859321515
-15.190247346000506   -1.244392235945892   -0.4749339859321515
-11.91457247141429   -1.9515129093046018   -0.032688118967636834
-11.91457247141429   -1.9515129093046018   -0.032688118967636834
-11.91457247141429   -1.9515129093046018   -0.032688118967636834
-11.91457247141429   -1.9515129093046018   -0.032688118967636834
-16.495980112916577   -4.123995028229144   -4.123995028229144
-16.495980112916577   -4.123995028229144   -4.123995028229144
-16.495980112916577   -4.123995028229144   -4.123995028229144
-16.495980112916577   -4.123995028229144   -4.123995028229144
-8.83918227420508   0.1113666863728291   -0.04720444613398678
-8.83918227420508   0.1113666863728291   -0.04720444613398678
-8.83918227420508   0.1113666863728291   -0.04720444613398678
-8.83918227420508   0.1113666863728291   -0.04720444613398678
-9.865963021465307   -2.4664907553663267   -2.4664907553663267
-9.865963021465307   -2.4664907553663267   -2.4664907553663267
-9.865963021465307   -2.4664907553663267   -2.4664907553663267
-9.865963021465307   -2.4664907553663267   -2.4664907553663267
-15.70374211257566   -1.2571616187452586   -0.6963033284270314
-15.70374211257566   -1.2571616187452586   -0.6963033284270314
-15.70374211257566   -1.2571616187452586   -0.6963033284270314
-15.70374211257566   -1.2571616187452586   -0.6963033284270314
-12.36180524853835   -1.8383370569072865   -0.6563171334253195
-12.36180524853835   -1.8383370569072865   -0.6563171334253195
-12.36180524853835   -1.8383370569072865   -0.6563171334253195
-12.36180524853835   -1.8383370569072865   -0.6563171334253195
-17.014499025712478   -4.2536247564281195   -4.2536247564281195
-17.014499025712478   -4.2536247564281195   -4.2536247564281195
-17.014499025712478   -4.2536247564281195   -4.2536247564281195
-17.014499025712478   -4.2536247564281195   -4.2536247564281195
-8.815965476641107   0.26921301400394215   0.04779319938440263
-8.815965476641107   0.26921301400394215   0.04779319938440263
-8.815965476641107   0.26921301400394215   0.04779319938440263
-8.815965476641107   0.26921301400394215   0.04779319938440263
-9.863767986919466   -2.4659419967298666   -2.4659419967298666
-9.863767986919466   -2.4659419967298666   -2.4659419967298666
-9.863767986919466   -2.4659419967298666   -2.4659419967298666
-9.863767986919466   -2.4659419967298666   -2.4659419967298666
-16.62019588212577   -1.1045880698225239   -0.4163469874152408
-16.62019588212577   -1.1045880698225239   -0.4163469874152408
-16.62019588212577   -1.1045880698225239   -0.4163469874152408
-16.62019588212577   -1.1045880698225239   -0.4163469874152408
-12.694667612461972   -1.8105401884140324   -1.1866970954740528
-12.694667612461972   -1.8105401884140324   -1.1866970954740528
-12.694667612461972   -1.8105401884140324   -1.1866970954740528
-12.694667612461972   -1.8105401884140324   -1.1866970954740528
-10.0315091871137   -2.507877296778425   -2.507877296778425
-10.0315091871137   -2.507877296778425   -2.507877296778425
-10.0315091871137   -2.507877296778425   -2.507877296778425
-10.0315091871137   -2.507877296778425   -2.507877296778425
-4.181910776690039   -0.2757070871960129   -0.08983720008528528
-4.181910776690039   -0.2757070871960129   -0.08983720008528528
-4.181910776690039   -0.2757070871960129   -0.08983720008528528
-4.181910776690039   -0.2757070871960129   -0.08983720008528528
-4.393460832817574   -1.0983652082043935   -1.0983652082043935
-4.393460832817574   -1.0983652082043935   -1.0983652082043935
-4.393460832817574   -1.0983652082043935   -1.0983652082043935
-4.393460832817574   -1.0983652082043935   -1.0983652082043935
-9.134903966116616   -1.0728801890435564   -0.34156603027529275
-9.134903966116616   -1.0728801890435564   -0.34156603027529275
-9.134903966116616   -1.0728801890435564   -0.34156603027529275
-9.134903966116616   -1.0728801890435564   -0.34156603027529275
-6.735643092895216   -1.2751098555072704   0.053076935876502446
-6.735643092895216   -1.2751098555072704   0.053076935876502446
-6.735643092895216   -1.2751098555072704   0.053076935876502446
-6.735643092895216   -1.2751098555072704   0.053076935876502446
-9.835571913614265   -2.4588929784035662   -2.4588929784035662
-9.835571913614265   -2.4588929784035662   -2.4588929784035662
-9.835571913614265   -2.4588929784035662   -2.4588929784035662
-9.835571913614265   -2.4588929784035662   -2.4588929784035662
-3.9479138696507325   0.03252659682480319   -0.0015221973993789772
-3.9479138696507325   0.03252659682480319   -0.0015221973993789772
-3.9479138696507325   0.03252659682480319   -0.0015221973993789772
-3.9479138696507325   0.03252659682480319   -0.0015221973993789772
-4.298015248962812   -1.074503812240703   -1.074503812240703
-4.298015248962812   -1.074503812240703   -1.074503812240703
-4.298015248962812   -1.074503812240703   -1.074503812240703
-4.298015248962812   -1.074503812240703   -1.074503812240703
-9.114502813015502   -0.8759488144274943   -0.2997316540561363
-9.114502813015502   -0.8759488144274943   -0.2997316540561363
-9.114502813015502   -0.8759488144274943   -0.2997316540561363
-9.114502813015502   -0.8759488144274943   -0.2997316540561363
-6.64445352642184   -1.0740129706566561   -0.34768354565416504
-6.64445352642184   -1.0740129706566561   -0.34768354565416504
-6.64445352642184   -1.0740129706566561   -0.34768354565416504
-6.64445352642184   -1.0740129706566561   -0.34768354565416504
-9.865963021465307   -2.4664907553663267   -2.4664907553663267
-9.865963021465307   -2.4664907553663267   -2.4664907553663267
-9.865963021465307   -2.4664907553663267   -2.4664907553663267
-9.865963021465307   -2.4664907553663267   -2.4664907553663267
-3.7936476182261987   0.26894555098493733   0.10388497821671899
-3.7936476182261987   0.26894555098493733   0.10388497821671899
-3.7936476182261987   0.26894555098493733   0.10388497821671899
-3.7936476182261987   0.26894555098493733   0.10388497821671899
-4.211542838482589   -1.0528857096206472   -1.0528857096206472
-4.211542838482589   -1.0528857096206472   -1.0528857096206472
-4.211542838482589   -1.0528857096206472   -1.0528857096206472
-4.211542838482589   -1.0528857096206472   -1.0528857096206472
-9.050373333831894   -0.6766497943061955   -0.188260933715786
-9.050373333831894   -0.6766497943061955   -0.188260933715786
-9.050373333831894   -0.6766497943061955   -0.188260933715786
-9.050373333831894   -0.6766497943061955   -0.188260933715786
-6.68011663499478   -0.9511789808083209   -0.7750160092828285
-6.68011663499478   -0.9511789808083209   -0.7750160092828285
-6.68011663499478   -0.9511789808083209   -0.7750160092828285
-6.68011663499478   -0.9511789808083209   -0.7750160092828285
-4.565335465815318   -1.1413338664538295   -1.1413338664538295
-4.565335465815318   -1.1413338664538295   -1.1413338664538295
-4.565335465815318   -1.1413338664538295   -1.1413338664538295
-4.565335465815318   -1.1413338664538295   -1.1413338664538295
0.54962999965025   0.0372854424512557   0.004387986174694429
0.54962999965025   0.0372854424512557   0.004387986174694429
0.54962999965025   0.0372854424512557   0.004387986174694429
0.54962999965025   0.0372854424512557   0.004387986174694429
0.7099166933184781   0.17747917332961952   0.17747917332961952
0.7099166933184781   0.17747917332961952   0.17747917332961952
0.7099166933184781   0.17747917332961952   0.17747917332961952
0.7099166933184781   0.17747917332961952   0.17747917332961952
-4.130344470720465   -0.7139717370592624   -0.16717686886401745
-4.130344470720465   -0.7139717370592624   -0.16717686886401745
-4.130344470720465   -0.7139717370592624   -0.16717686886401745
-4.130344470720465   -0.7139717370592624   -0.16717686886401745
-1.764190650786663   -0.44770162172888467   0.3014406059134224
-1.764190650786663   -0.44770162172888467   0.3014406059134224
-1.764190650786663   -0.44770162172888467   0.3014406059134224
-1.764190650786663   -0.44770162172888467   0.3014406059134224
-4.393460832817574   -1.0983652082043935   -1.0983652082043935
-4.393460832817574   -1.0983652082043935   -1.0983652082043935
-4.393460832817574   -1.0983652082043935   -1.0983652082043935
-4.393460832817574   -1.0983652082043935   -1.0983652082043935
0.7221829582839246   0.3110225473430937   0.10526712414337253
0.7221829582839246   0.3110225473430937   0.10526712414337253
0.7221829582839246   0.3110225473430937   0.10526712414337253
0.7221829582839246   0.3110225473430937   0.10526712414337253
0.7951833116785818   0.19879582791964545   0.19879582791964545
0.7951833116785818   0.19879582791964545   0.19879582791964545
0.7951833116785818   0.19879582791964545   0.19879582791964545
0.7951833116785818   0.19879582791964545   0.19879582791964545
-3.986946123765619   -0.4815233590901606   -0.11213863940535067
-3.986946123765619   -0.4815233590901606   -0.11213863940535067
-3.986946123765619   -0.4815233590901606   -0.11213863940535067
-3.986946123765619   -0.4815233590901606   -0.11213863940535067
-1.69507119918263   -0.27708851591121875   -0.10214305743921466
-1.69507119918263   -0.27708851591121875   -0.10214305743921466
-1.69507119918263   -0.27708851591121875   -0.10214305743921466
-1.69507119918263   -0.27708851591121875   -0.10214305743921466
-4.298015248962812   -1.074503812240703   -1.074503812240703
-4.298015248962812   -1.074503812240703   -1.074503812240703
-4.298015248962812   -1.074503812240703   -1.074503812240703
-4.298015248962812   -1.074503812240703   -1.074503812240703
0.8604451820826932   0.5459690262771207   0.17793198158272078
0.8604451820826932   0.5459690262771207   0.17793198158272078
0.8604451820826932   0.5459690262771207   0.17793198158272078
0.8604451820826932   0.5459690262771207   0.17793198158272078
0.9107906517376657   0.22769766293441643   0.22769766293441643
0.9107906517376657   0.22769766293441643   0.22769766293441643
0.9107906517376657   0.22769766293441643   0.22769766293441643
0.9107906517376657   0.22769766293441643   0.22769766293441643
-3.8308407856861284   -0.20409865815565031   0.001837502896614135
-3.8308407856861284   -0.20409865815565031   0.001837502896614135
-3.8308407856861284   -0.20409865815565031   0.001837502896614135
-3.8308407856861284   -0.20409865815565031   0.001837502896614135
-1.6471997056384189   -0.11261589188323273   -0.5021272925522988
-1.6471997056384189   -0.11261589188323273   -0.5021272925522988
-1.6471997056384189   -0.11261589188323273   -0.5021272925522988
-1.6471997056384189   -0.11261589188323273   -0.5021272925522988
0.6014392376945121   0.15035980942362803   0.15035980942362803
0.6014392376945121   0.15035980942362803   0.15035980942362803
0.6014392376945121   0.15035980942362803   0.15035980942362803
0.6014392376945121   0.15035980942362803   0.15035980942362803
5.7269016487162165   0.5251143613317283   0.1750235668265647
5.7269016487162165   0.5251143613317283   0.1750235668265647
5.7269016487162165   0.5251143613317283   0.1750235668265647
5.7269016487162165   0.5251143613317283   0.1750235668265647
6.215248461419198   1.5538121153547995   1.5538121153547995
6.215248461419198   1.5538121153547995   1.5538121153547995
6.215248461419198   1.5538121153547995   1.5538121153547995
6.215248461419198   1.5538121153547995   1.5538121153547995
0.5411234932992267   -0.403531041542722   -0.08547661189430653
0.5411234932992267   -0.403531041542722   -0.08547661189430653
0.5411234932992267   -0.403531041542722   -0.08547661189430653
0.5411234932992267   -0.403531041542722   -0.08547661189430653
3.267692541020298   0.40666570026163734   0.5942496818340072
3.267692541020298   0.40666570026163734   0.5942496818340072
3.267692541020298   0.40666570026163734   0.5942496818340072
3.267692541020298   0.40666570026163734   0.5942496818340072
0.7099166933184805   0.17747917332962013   0.17747917332962013
0.7099166933184805   0.17747917332962013   0.17747917332962013
0.7099166933184805   0.17747917332962013   0.17747917332962013
0.7099166933184805   0.17747917332962013   0.17747917332962013
5.79154262394677   0.7178892630292835   0.27120578031817755
5.79154262394677   0.7178892630292835   0.27120578031817755
5.79154262394677   0.7178892630292835   0.27120578031817755
5.79154262394677   0.7178892630292835   0.27120578031817755
6.185675603646873   1.5464189009117182   1.5464189009117182
6.185675603646873   1.5464189009117182   1.5464189009117182
6.185675603646873   1.5464189009117182   1.5464189009117182
6.185675603646873   1.5464189009117182   1.5464189009117182
0.6802780893619116   -0.17634674719534799   -0.0005877085487184242
0.6802780893619116   -0.17634674719534799   -0.0005877085487184242
0.6802780893619116   -0.17634674719534799   -0.0005877085487184242
0.6802780893619116   -0.17634674719534799   -0.0005877085487184242
3.2405686330569123   0.5325929036160214   0.15516759349649276
3.2405686330569123   0.5325929036160214   0.15516759349649276
3.2405686330569123   0.5325929036160214   0.15516759349649276
3.2405686330569123   0.5325929036160214   0.15516759349649276
0.7951833116785825   0.19879582791964562   0.19879582791964562
0.7951833116785825   0.19879582791964562   0.19879582791964562
0.7951833116785825   0.19879582791964562   0.19879582791964562
0.7951833116785825   0.19879582791964562   0.19879582791964562
5.818290781319455   0.9187967257859786   0.3371169644003705
5.818290781319455   0.9187967257859786   0.3371169644003705
5.818290781319455   0.9187967257859786   0.3371169644003705
5.818290781319455   0.9187967257859786   0.3371169644003705
6.302635269532534   1.5756588173831334   1.5756588173831334
6.302635269532534   1.5756588173831334   1.5756588173831334
6.302635269532534   1.5756588173831334   1.5756588173831334
6.302635269532534   1.5756588173831334   1.5756588173831334
0.8634568731599678   0.1244882653646525   0.09423816761568282
0.8634568731599678   0.1244882653646525   0.09423816761568282
0.8634568731599678   0.1244882653646525   0.09423816761568282
0.8634568731599678   0.1244882653646525   0.09423816761568282
3.2879785533083936   0.7217777016772725   -0.2519767428603041
3.2879785533083936   0.7217777016772725   -0.2519767428603041
3.2879785533083936   0.7217777016772725   -0.2519767428603041
3.2879785533083936   0.7217777016772725   -0.2519767428603041
6.207637847871732   1.551909461967933   1.551909461967933
6.207637847871732   1.551909461967933   1.551909461967933
6.207637847871732   1.551909461967933   1.551909461967933
6.207637847871732   1.551909461967933   1.551909461967933
12.859168554608763   0.9792618481308479   0.3323049699520425
12.859168554608763   0.9792618481308479   0.3323049699520425
12.859168554608763   0.9792618481308479   0.3323049699520425
12.859168554608763   0.9792618481308479   0.3323049699520425
13.140525434164347   3.285131358541087   3.285131358541087
13.140525434164347   3.285131358541087   3.285131358541087
13.140525434164347   3.285131358541087   3.285131358541087
13.140525434164347   3.285131358541087   3.285131358541087
5.523975701158253   -0.3151292297031243   -0.033610340891999435
5.523975701158253   -0.3151292297031243   -0.033610340891999435
5.523975701158253   -0.3151292297031243   -0.033610340891999435
5.523975701158253   -0.3151292297031243   -0.033610340891999435
9.173480612844932   1.2973455868322374   1.036690092811242
9.173480612844932   1.2973455868322374   1.036690092811242
9.173480612844932   1.2973455868322374   1.036690092811242
9.173480612844932   1.2973455868322374   1.036690092811242
6.215248461419193   1.5538121153547984   1.5538121153547984
6.215248461419193   1.5538121153547984   1.5538121153547984
6.215248461419193   1.5538121153547984   1.5538121153547984
6.215248461419193   1.5538121153547984   1.5538121153547984
12.176115170009922   1.1430525095897217   0.6051588867205318
12.176115170009922   1.1430525095897217   0.6051588867205318
12.176115170009922   1.1430525095897217   0.6051588867205318
12.176115170009922   1.1430525095897217   0.6051588867205318
12.744464452177779   3.1861161130444446   3.1861161130444446
12.744464452177779   3.1861161130444446   3.1861161130444446
12.744464452177779   3.1861161130444446   3.1861161130444446
12.744464452177779   3.1861161130444446   3.1861161130444446
5.540506896447795   -0.1753554303203979   0.042349696148444804
5.540506896447795   -0.1753554303203979   0.042349696148444804
5.540506896447795   -0.1753554303203979   0.042349696148444804
5.540506896447795   -0.1753554303203979   0.042349696148444804
8.898103634205423   1.3338883689377041   0.4972757464962447
8.898103634205423   1.3338883689377041   0.4972757464962447
8.898103634205423   1.3338883689377041   0.4972757464962447
8.898103634205423   1.3338883689377041   0.4972757464962447
6.185675603646873   1.5464189009117182   1.5464189009117182
6.185675603646873   1.5464189009117182   1.5464189009117182
6.185675603646873   1.5464189009117182   1.5464189009117182
6.185675603646873   1.5464189009117182   1.5464189009117182
11.780911357181786   1.1459573940154493   0.408509357093675
11.780911357181786   1.1459573940154493   0.408509357093675
11.780911357181786   1.1459573940154493   0.408509357093675
11.780911357181786   1.1459573940154493   0.408509357093675
12.156905628490598   3.0392264071226496   3.0392264071226496
12.156905628490598   3.0392264071226496   3.0392264071226496
12.156905628490598   3.0392264071226496   3.0392264071226496
12.156905628490598   3.0392264071226496   3.0392264071226496
5.7425429743664935   0.17720675090290494   0.17364940803316348
5.7425429743664935   0.17720675090290494   0.17364940803316348
5.7425429743664935   0.17720675090290494   0.17364940803316348
5.7425429743664935   0.17720675090290494   0.17364940803316348
8.517259876155242   1.4452118211687943   -0.12972021270194597
8.517259876155242   1.4452118211687943   -0.12972021270194597
8.517259876155242   1.4452118211687943   -0.12972021270194597
8.517259876155242   1.4452118211687943   -0.12972021270194597
-12.480995076527444   -0.893285996135122   0.1371377159246071
-12.480995076527444   -0.893285996135122   0.1371377159246071
-12.480995076527444   -0.893285996135122   0.1371377159246071
-12.480995076527444   -0.893285996135122   0.1371377159246071
-7.9410274205622455   -0.18000428496145093   -0.05017567575825471
-7.9410274205622455   -0.18000428496145093   -0.05017567575825471
-7.9410274205622455   -0.18000428496145093   -0.05017567575825471
-7.9410274205622455   -0.18000428496145093   -0.05017567575825471
-7.997547993274353   0.3221152835480612   0.16490425881147885
-7.997547993274353   0.3221152835480612   0.16490425881147885
-7.997547993274353   0.3221152835480612   0.16490425881147885
-7.997547993274353   0.3221152835480612   0.16490425881147885
-12.668189882524214   -0.8624360893875844   -0.14851778570588453
-12.668189882524214   -0.8624360893875844   -0.14851778570588453
-12.668189882524214   -0.8624360893875844   -0.14851778570588453
-12.668189882524214   -0.8624360893875844   -0.14851778570588453
-9.867391163761587   -0.3359660755596192   -0.0373860339380358
-9.867391163761587   -0.3359660755596192   -0.0373860339380358
-9.867391163761587   -0.3359660755596192   -0.0373860339380358
-9.867391163761587   -0.3359660755596192   -0.0373860339380358
-12.577631939373415   -0.6154293244182858   0.05726516507880586
-12.577631939373415   -0.6154293244182858   0.05726516507880586
-12.577631939373415   -0.6154293244182858   0.05726516507880586
-12.577631939373415   -0.6154293244182858   0.05726516507880586
-8.101560184728063   0.061654270275877554   -0.09469568518475541
-8.101560184728063   0.061654270275877554   -0.09469568518475541
-8.101560184728063   0.061654270275877554   -0.09469568518475541
-8.101560184728063   0.061654270275877554   -0.09469568518475541
-8.00881797691022   0.45875300967012045   0.1883456779844387
-8.00881797691022   0.45875300967012045   0.1883456779844387
-8.00881797691022   0.45875300967012045   0.1883456779844387
-8.00881797691022   0.45875300967012045   0.1883456779844387
-12.747422046034435   -0.7602997531323537   -0.1962340131261452
-12.747422046034435   -0.7602997531323537   -0.1962340131261452
-12.747422046034435   -0.7602997531323537   -0.1962340131261452
-12.747422046034435   -0.7602997531323537   -0.1962340131261452
-10.146662096992912   -0.22561778233850482   -0.09538820888527266
-10.146662096992912   -0.22561778233850482   -0.09538820888527266
-10.146662096992912   -0.22561778233850482   -0.09538820888527266
-10.146662096992912   -0.22561778233850482   -0.09538820888527266
-12.520278860750318   -0.3711432255519971   0.5503253857139513
-12.520278860750318   -0.3711432255519971   0.5503253857139513
-12.520278860750318   -0.3711432255519971   0.5503253857139513
-12.520278860750318   -0.3711432255519971   0.5503253857139513
-8.14092418034199   0.16463346394210143   -0.178065793446314
-8.14092418034199   0.16463346394210143   -0.178065793446314
-8.14092418034199   0.16463346394210143   -0.178065793446314
-8.14092418034199   0.16463346394210143   -0.178065793446314
-7.8650959003516085   0.7984648191496406   0.3438174756714374
-7.8650959003516085   0.7984648191496406   0.3438174756714374
-7.8650959003516085   0.7984648191496406   0.3438174756714374
-7.8650959003516085   0.7984648191496406   0.3438174756714374
-12.398776887422189   -0.6149805027584629   -0.3218182262698689
-12.398776887422189   -0.6149805027584629   -0.3218182262698689
-12.398776887422189   -0.6149805027584629   -0.3218182262698689
-12.398776887422189   -0.6149805027584629   -0.3218182262698689
-9.761331709084256   0.08942032979676595   0.2157520584577175
-9.761331709084256   0.08942032979676595   0.2157520584577175
-9.761331709084256   0.08942032979676595   0.2157520584577175
-9.761331709084256   0.08942032979676595   0.2157520584577175
-8.13925900132151   -1.0778973875070443   -0.14344047700897322
-8.13925900132151   -1.0778973875070443   -0.14344047700897322
-8.13925900132151   -1.0778973875070443   -0.14344047700897322
-8.13925900132151   -1.0778973875070443   -0.14344047700897322
-3.7454878873558246   -0.08116392295483821   0.04025648644947244
-3.7454878873558246   -0.08116392295483821   0.04025648644947244
-3.7454878873558246   -0.08116392295483821   0.04025648644947244
-3.7454878873558246   -0.08116392295483821   0.04025648644947244
-3.80219767881864   0.07314962693409932   0.055876762315018286
-3.80219767881864   0.07314962693409932   0.055876762315018286
-3.80219767881864   0.07314962693409932   0.055876762315018286
-3.80219767881864   0.07314962693409932   0.055876762315018286
-8.301647607098602   -0.7893163922403859   -0.24416213452131275
-8.301647607098602   -0.7893163922403859   -0.24416213452131275
-8.301647607098602   -0.7893163922403859   -0.24416213452131275
-8.301647607098602   -0.7893163922403859   -0.24416213452131275
-5.996825369413342   -0.4858932073307266   -0.1366067358902127
-5.996825369413342   -0.4858932073307266   -0.1366067358902127
-5.996825369413342   -0.4858932073307266   -0.1366067358902127
-5.996825369413342   -0.4858932073307266   -0.1366067358902127
-8.294176423699371   -0.8630383303818053   -0.1330842793837765
-8.294176423699371   -0.8630383303818053   -0.1330842793837765
-8.294176423699371   -0.8630383303818053   -0.1330842793837765
-8.294176423699371   -0.8630383303818053   -0.1330842793837765
-3.7948374435845857   0.1617029837088092   0.004124581710616859
-3.7948374435845857   0.1617029837088092   0.004124581710616859
-3.7948374435845857   0.1617029837088092   0.004124581710616859
-3.7948374435845857   0.1617029837088092   0.004124581710616859
-3.7894460505507834   0.2643146648831316   0.07652898003227487
-3.7894460505507834   0.2643146648831316   0.07652898003227487
-3.7894460505507834   0.2643146648831316   0.07652898003227487
-3.7894460505507834   0.2643146648831316   0.07652898003227487
-8.30688896157539   -0.5793032842182475   -0.26395295145305203
-8.30688896157539   -0.5793032842182475   -0.26395295145305203
-8.30688896157539   -0.5793032842182475   -0.26395295145305203
-8.30688896157539   -0.5793032842182475   -0.26395295145305203
-5.986788474499981   -0.27077838644676255   -0.06487983919083662
-5.986788474499981   -0.27077838644676255   -0.06487983919083662
-5.986788474499981   -0.27077838644676255   -0.06487983919083662
-5.986788474499981   -0.27077838644676255   -0.06487983919083662
-8.27469696857385   -0.6537504740505462   -0.02854579661304818
-8.27469696857385   -0.6537504740505462   -0.02854579661304818
-8.27469696857385   -0.6537504740505462   -0.02854579661304818
-8.27469696857385   -0.6537504740505462   -0.02854579661304818
-3.794119537539449   0.36628036072832193   -0.04880415075617728
-3.794119537539449   0.36628036072832193   -0.04880415075617728
-3.794119537539449   0.36628036072832193   -0.04880415075617728
-3.794119537539449   0.36628036072832193   -0.04880415075617728
-3.7274863542155363   0.4565056380464608   0.15462924843115478
-3.7274863542155363   0.4565056380464608   0.15462924843115478
-3.7274863542155363   0.4565056380464608   0.15462924843115478
-3.7274863542155363   0.4565056380464608   0.15462924843115478
-8.219704283057679   -0.3366759266095336   -0.2940836920997806
-8.219704283057679   -0.3366759266095336   -0.2940836920997806
-8.219704283057679   -0.3366759266095336   -0.2940836920997806
-8.219704283057679   -0.3366759266095336   -0.2940836920997806
-5.9634960608797405   -0.06724534751359035   0.030018562143043326
-5.9634960608797405   -0.06724534751359035   0.030018562143043326
-5.9634960608797405   -0.06724534751359035   0.030018562143043326
-5.9634960608797405   -0.06724534751359035   0.030018562143043326
-3.9502937172891066   -0.8971368461715976   -0.16779974000021583
-3.9502937172891066   -0.8971368461715976   -0.16779974000021583
-3.9502937172891066   -0.8971368461715976   -0.16779974000021583
-3.9502937172891066   -0.8971368461715976   -0.16779974000021583
0.41797313586364343   0.09509786136799625   0.15390236824152342
0.41797313586364343   0.09509786136799625   0.15390236824152342
0.41797313586364343   0.09509786136799625   0.15390236824152342
0.41797313586364343   0.09509786136799625   0.15390236824152342
0.39774969682364136   0.22749316421477622   0.012053469962076041
0.39774969682364136   0.22749316421477622   0.012053469962076041
0.39774969682364136   0.22749316421477622   0.012053469962076041
0.39774969682364136   0.22749316421477622   0.012053469962076041
-3.9684046521307312   -0.5949286628306609   -0.10707981448067344
-3.9684046521307312   -0.5949286628306609   -0.10707981448067344
-3.9684046521307312   -0.5949286628306609   -0.10707981448067344
-3.9684046521307312   -0.5949286628306609   -0.10707981448067344
-1.7928892317636345   -0.2968626378138506   -0.0562747967471434
-1.7928892317636345   -0.2968626378138506   -0.0562747967471434
-1.7928892317636345   -0.2968626378138506   -0.0562747967471434
-1.7928892317636345   -0.2968626378138506   -0.0562747967471434
-3.99581223295845   -0.6845326600200355   -0.15451372142989175
-3.99581223295845   -0.6845326600200355   -0.15451372142989175
-3.99581223295845   -0.6845326600200355   -0.15451372142989175
-3.99581223295845   -0.6845326600200355   -0.15451372142989175
0.44051073740911184   0.33245062116190266   0.12090121594230197
0.44051073740911184   0.33245062116190266   0.12090121594230197
0.44051073740911184   0.33245062116190266   0.12090121594230197
0.44051073740911184   0.33245062116190266   0.12090121594230197
0.42723402363805624   0.43807808731329395   0.0716884452082389
0.42723402363805624   0.43807808731329395   0.0716884452082389
0.42723402363805624   0.43807808731329395   0.0716884452082389
0.42723402363805624   0.43807808731329395   0.0716884452082389
-3.95711995651651   -0.36404447274641394   -0.13348141216681259
-3.95711995651651   -0.36404447274641394   -0.13348141216681259
-3.95711995651651   -0.36404447274641394   -0.13348141216681259
-3.95711995651651   -0.36404447274641394   -0.13348141216681259
-1.7662408854298277   -0.07296648632975822   0.021470330380390243
-1.7662408854298277   -0.07296648632975822   0.021470330380390243
-1.7662408854298277   -0.07296648632975822   0.021470330380390243
-1.7662408854298277   -0.07296648632975822   0.021470330380390243
-3.96759448136846   -0.47100417047021004   -0.07889433870276491
-3.96759448136846   -0.47100417047021004   -0.07889433870276491
-3.96759448136846   -0.47100417047021004   -0.07889433870276491
-3.96759448136846   -0.47100417047021004   -0.07889433870276491
0.4542140808868348   0.5615433174339184   0.08312350133150384
0.4542140808868348   0.5615433174339184   0.08312350133150384
0.4542140808868348   0.5615433174339184   0.08312350133150384
0.4542140808868348   0.5615433174339184   0.08312350133150384
0.4356437170327099   0.6724857484085988   0.11827503299902127
0.4356437170327099   0.6724857484085988   0.11827503299902127
0.4356437170327099   0.6724857484085988   0.11827503299902127
0.4356437170327099   0.6724857484085988   0.11827503299902127
-3.906735459156231   -0.1171060258338692   -0.16800461239197192
-3.906735459156231   -0.1171060258338692   -0.16800461239197192
-3.906735459156231   -0.1171060258338692   -0.16800461239197192
-3.906735459156231   -0.1171060258338692   -0.16800461239197192
-1.7233985935634824   0.16118286937744558   0.10657861820939102
-1.7233985935634824   0.16118286937744558   0.10657861820939102
-1.7233985935634824   0.16118286937744558   0.10657861820939102
-1.7233985935634824   0.16118286937744558   0.10657861820939102
0.19567404881792355   -0.6571957609475483   -0.20529944467153166
0.19567404881792355   -0.6571957609475483   -0.20529944467153166
0.19567404881792355   -0.6571957609475483   -0.20529944467153166
0.19567404881792355   -0.6571957609475483   -0.20529944467153166
4.7207358657886935   0.3267347210663999   0.28194572366589943
4.7207358657886935   0.3267347210663999   0.28194572366589943
4.7207358657886935   0.3267347210663999   0.28194572366589943
4.7207358657886935   0.3267347210663999   0.28194572366589943
4.713829409924194   0.43914865991822627   -0.044784021214539865
4.713829409924194   0.43914865991822627   -0.044784021214539865
4.713829409924194   0.43914865991822627   -0.044784021214539865
4.713829409924194   0.43914865991822627   -0.044784021214539865
0.2761526216574562   -0.39579786231730174   0.027359120663227904
0.2761526216574562   -0.39579786231730174   0.027359120663227904
0.2761526216574562   -0.39579786231730174   0.027359120663227904
0.2761526216574562   -0.39579786231730174   0.027359120663227904
2.446172773673539   -0.055675252344212556   0.005665585071029627
2.446172773673539   -0.055675252344212556   0.005665585071029627
2.446172773673539   -0.055675252344212556   0.005665585071029627
2.446172773673539   -0.055675252344212556   0.005665585071029627
0.22314641254092882   -0.48060424396905144   -0.15286554326765567
0.22314641254092882   -0.48060424396905144   -0.15286554326765567
0.22314641254092882   -0.48060424396905144   -0.15286554326765567
0.22314641254092882   -0.48060424396905144   -0.15286554326765567
4.794339823142332   0.5514592456715814   0.24545745912276729
4.794339823142332   0.5514592456715814   0.24545745912276729
4.794339823142332   0.5514592456715814   0.24545745912276729
4.794339823142332   0.5514592456715814   0.24545745912276729
4.74941634437602   0.6473322707050537   0.04866912593918167
4.74941634437602   0.6473322707050537   0.04866912593918167
4.74941634437602   0.6473322707050537   0.04866912593918167
4.74941634437602   0.6473322707050537   0.04866912593918167
0.2844307381864085   -0.18953748883507215   -0.014712405901633668
0.2844307381864085   -0.18953748883507215   -0.014712405901633668
0.2844307381864085   -0.18953748883507215   -0.014712405901633668
0.2844307381864085   -0.18953748883507215   -0.014712405901633668
2.47726705203473   0.1433799460733165   0.10120304780966452
2.47726705203473   0.1433799460733165   0.10120304780966452
2.47726705203473   0.1433799460733165   0.10120304780966452
2.47726705203473   0.1433799460733165   0.10120304780966452
0.24596866252438082   -0.28533595455206595   -0.11122431849477749
0.24596866252438082   -0.28533595455206595   -0.11122431849477749
0.24596866252438082   -0.28533595455206595   -0.11122431849477749
0.24596866252438082   -0.28533595455206595   -0.11122431849477749
4.807766792305169   0.7630191086891555   0.2247345276007439
4.807766792305169   0.7630191086891555   0.2247345276007439
4.807766792305169   0.7630191086891555   0.2247345276007439
4.807766792305169   0.7630191086891555   0.2247345276007439
4.67189008826188   0.8876487197794068   0.10160722458754255
4.67189008826188   0.8876487197794068   0.10160722458754255
4.67189008826188   0.8876487197794068   0.10160722458754255
4.67189008826188   0.8876487197794068   0.10160722458754255
0.28059368258436995   0.06618320915140964   -0.05067259998548933
0.28059368258436995   0.06618320915140964   -0.05067259998548933
0.28059368258436995   0.06618320915140964   -0.05067259998548933
0.28059368258436995   0.06618320915140964   -0.05067259998548933
2.5123781075527782   0.3710003529742341   0.18954841037424436
2.5123781075527782   0.3710003529742341   0.18954841037424436
2.5123781075527782   0.3710003529742341   0.18954841037424436
2.5123781075527782   0.3710003529742341   0.18954841037424436
4.350440726501278   -0.8645864681850115   -0.37820878351976905
4.350440726501278   -0.8645864681850115   -0.37820878351976905
4.350440726501278   -0.8645864681850115   -0.37820878351976905
4.350440726501278   -0.8645864681850115   -0.37820878351976905
8.950549035938963   0.5911104873221398   0.2731772620648048
8.950549035938963   0.5911104873221398   0.2731772620648048
8.950549035938963   0.5911104873221398   0.2731772620648048
8.950549035938963   0.5911104873221398   0.2731772620648048
9.050087329447615   0.2830650366582068   -0.5687506373747204
9.050087329447615   0.2830650366582068   -0.5687506373747204
9.050087329447615   0.2830650366582068   -0.5687506373747204
9.050087329447615   0.2830650366582068   -0.5687506373747204
4.631589318791338   -0.17967107251151382   0.16283525555084577
4.631589318791338   -0.17967107251151382   0.16283525555084577
4.631589318791338   -0.17967107251151382   0.16283525555084577
4.631589318791338   -0.17967107251151382   0.16283525555084577
6.410612499067534   -0.11030627247222191   -0.1591121671804221
6.410612499067534   -0.11030627247222191   -0.1591121671804221
6.410612499067534   -0.11030627247222191   -0.1591121671804221
6.410612499067534   -0.11030627247222191   -0.1591121671804221
4.471095286083456   -0.5690370338664021   -0.2502689466336217
4.471095286083456   -0.5690370338664021   -0.2502689466336217
4.471095286083456   -0.5690370338664021   -0.2502689466336217
4.471095286083456   -0.5690370338664021   -0.2502689466336217
9.29242458183012   0.7542742176877293   0.1717264435082807
9.29242458183012   0.7542742176877293   0.1717264435082807
9.29242458183012   0.7542742176877293   0.1717264435082807
9.29242458183012   0.7542742176877293   0.1717264435082807
9.147289944955213   0.5121749042809669   -0.12678167935216422
9.147289944955213   0.5121749042809669   -0.12678167935216422
9.147289944955213   0.5121749042809669   -0.12678167935216422
9.147289944955213   0.5121749042809669   -0.12678167935216422
4.611452082567498   -0.07700664522661915   0.08318673282815864
4.611452082567498   -0.07700664522661915   0.08318673282815864
4.611452082567498   -0.07700664522661915   0.08318673282815864
4.611452082567498   -0.07700664522661915   0.08318673282815864
6.7434198366050335   0.16829138074090544   0.11048662638404455
6.7434198366050335   0.16829138074090544   0.11048662638404455
6.7434198366050335   0.16829138074090544   0.11048662638404455
6.7434198366050335   0.16829138074090544   0.11048662638404455
4.482954715091214   -0.4354976298144728   -0.20080911996536488
4.482954715091214   -0.4354976298144728   -0.20080911996536488
4.482954715091214   -0.4354976298144728   -0.20080911996536488
4.482954715091214   -0.4354976298144728   -0.20080911996536488
9.264772057621803   0.8596506340591354   0.11315315420262445
9.264772057621803   0.8596506340591354   0.11315315420262445
9.264772057621803   0.8596506340591354   0.11315315420262445
9.264772057621803   0.8596506340591354   0.11315315420262445
9.129157126071853   0.7808261521365254   -0.19486773750409941
9.129157126071853   0.7808261521365254   -0.19486773750409941
9.129157126071853   0.7808261521365254   -0.19486773750409941
9.129157126071853   0.7808261521365254   -0.19486773750409941
4.515219506939317   0.1602348241369297   0.04566821361712825
4.515219506939317   0.1602348241369297   0.04566821361712825
4.515219506939317   0.1602348241369297   0.04566821361712825
4.515219506939317   0.1602348241369297   0.04566821361712825
6.569025812065154   0.29393317059396584   0.08090872078925154
6.569025812065154   0.29393317059396584   0.08090872078925154
6.569025812065154   0.29393317059396584   0.08090872078925154
6.569025812065154   0.29393317059396584   0.08090872078925154
-9.830258620152701   -0.44740026333197624   0.502075631979543
-9.830258620152701   -0.44740026333197624   0.502075631979543
-9.830258620152701   -0.44740026333197624   0.502075631979543
-9.830258620152701   -0.44740026333197624   0.502075631979543
-6.522286461166623   -0.24522788215248426   -0.130644053535529
-6.522286461166623   -0.24522788215248426   -0.130644053535529
-6.522286461166623   -0.24522788215248426   -0.130644053535529
-6.522286461166623   -0.24522788215248426   -0.130644053535529
-6.289296832077956   0.527375351696898   0.4216463692702697
-6.289296832077956   0.527375351696898   0.4216463692702697
-6.289296832077956   0.527375351696898   0.4216463692702697
-6.289296832077956   0.527375351696898   0.4216463692702697
-9.876306533235729   -0.7041909643160293   -0.20495412278893177
-9.876306533235729   -0.7041909643160293   -0.20495412278893177
-9.876306533235729   -0.7041909643160293   -0.20495412278893177
-9.876306533235729   -0.7041909643160293   -0.20495412278893177
-7.799020530342446   -0.12064106606963243   -0.012597040757899192
-7.799020530342446   -0.12064106606963243   -0.012597040757899192
-7.799020530342446   -0.12064106606963243   -0.012597040757899192
-7.799020530342446   -0.12064106606963243   -0.012597040757899192
-9.603248408970362   -0.10709594224271846   0.563241476464593
-9.603248408970362   -0.10709594224271846   0.563241476464593
-9.603248408970362   -0.10709594224271846   0.563241476464593
-9.603248408970362   -0.10709594224271846   0.563241476464593
-6.519308554740483   -0.026673268773573566   -0.17436362357189927
-6.519308554740483   -0.026673268773573566   -0.17436362357189927
-6.519308554740483   -0.026673268773573566   -0.17436362357189927
-6.519308554740483   -0.026673268773573566   -0.17436362357189927
-6.264424759714693   0.6537777249055952   0.3911560907438575
-6.264424759714693   0.6537777249055952   0.3911560907438575
-6.264424759714693   0.6537777249055952   0.3911560907438575
-6.264424759714693   0.6537777249055952   0.3911560907438575
-9.725128967289075   -0.5896988990948622   -0.2808998556875482
-9.725128967289075   -0.5896988990948622   -0.2808998556875482
-9.725128967289075   -0.5896988990948622   -0.2808998556875482
-9.725128967289075   -0.5896988990948622   -0.2808998556875482
-7.8170973996887385   0.02789398679249966   0.09097811883037726
-7.8170973996887385   0.02789398679249966   0.09097811883037726
-7.8170973996887385   0.02789398679249966   0.09097811883037726
-7.8170973996887385   0.02789398679249966   0.09097811883037726
-9.470742265240098   0.01212496395353213   0.3892097915089473
-9.470742265240098   0.01212496395353213   0.3892097915089473
-9.470742265240098   0.01212496395353213   0.3892097915089473
-9.470742265240098   0.01212496395353213   0.3892097915089473
-6.504614173418782   0.06615115020211104   -0.2221644030730367
-6.504614173418782   0.06615115020211104   -0.2221644030730367
-6.504614173418782   0.06615115020211104   -0.2221644030730367
-6.504614173418782   0.06615115020211104   -0.2221644030730367
-6.271190308832734   0.7369701206529424   0.31034831219770365
-6.271190308832734   0.7369701206529424   0.31034831219770365
-6.271190308832734   0.7369701206529424   0.31034831219770365
-6.271190308832734   0.7369701206529424   0.31034831219770365
-9.528411057410967   -0.4685010002729484   -0.358455887198375
-9.528411057410967   -0.4685010002729484   -0.358455887198375
-9.528411057410967   -0.4685010002729484   -0.358455887198375
-9.528411057410967   -0.4685010002729484   -0.358455887198375
-7.593677476401726   0.16068834642624696   0.1877760944353482
-7.593677476401726   0.16068834642624696   0.1877760944353482
-7.593677476401726   0.16068834642624696   0.1877760944353482
-7.593677476401726   0.16068834642624696   0.1877760944353482
-6.542926464873103   -0.6204311054935653   0.14135915127314755
-6.542926464873103   -0.6204311054935653   0.14135915127314755
-6.542926464873103   -0.6204311054935653   0.14135915127314755
-6.542926464873103   -0.6204311054935653   0.14135915127314755
-3.29849622710469   -0.11782192701824346   0.006599731430552869
-3.29849622710469   -0.11782192701824346   0.006599731430552869
-3.29849622710469   -0.11782192701824346   0.006599731430552869
-3.29849622710469   -0.11782192701824346   0.006599731430552869
-3.2059691984495204   0.32451074808128433   0.22929515843795778
-3.2059691984495204   0.32451074808128433   0.22929515843795778
-3.2059691984495204   0.32451074808128433   0.22929515843795778
-3.2059691984495204   0.32451074808128433   0.22929515843795778
-6.647267608305197   -0.6118645446969577   -0.22896761547213834
-6.647267608305197   -0.6118645446969577   -0.22896761547213834
-6.647267608305197   -0.6118645446969577   -0.22896761547213834
-6.647267608305197   -0.6118645446969577   -0.22896761547213834
-4.905974521720017   -0.24072410419539514   -0.09856122060551031
-4.905974521720017   -0.24072410419539514   -0.09856122060551031
-4.905974521720017   -0.24072410419539514   -0.09856122060551031
-4.905974521720017   -0.24072410419539514   -0.09856122060551031
-6.523131569804519   -0.35734262617536716   0.13719065850969958
-6.523131569804519   -0.35734262617536716   0.13719065850969958
-6.523131569804519   -0.35734262617536716   0.13719065850969958
-6.523131569804519   -0.35734262617536716   0.13719065850969958
-3.3048823534958207   0.09521171301408249   -0.03597158172631182
-3.3048823534958207   0.09521171301408249   -0.03597158172631182
-3.3048823534958207   0.09521171301408249   -0.03597158172631182
-3.3048823534958207   0.09521171301408249   -0.03597158172631182
-3.1964582341048753   0.5352764759785682   0.19851512206051086
-3.1964582341048753   0.5352764759785682   0.19851512206051086
-3.1964582341048753   0.5352764759785682   0.19851512206051086
-3.1964582341048753   0.5352764759785682   0.19851512206051086
-6.6104636286941005   -0.41500045386639717   -0.2702600753811872
-6.6104636286941005   -0.41500045386639717   -0.2702600753811872
-6.6104636286941005   -0.41500045386639717   -0.2702600753811872
-6.6104636286941005   -0.41500045386639717   -0.2702600753811872
-4.8531209135437035   -0.0272360714639881   0.00010829779393922712
-4.8531209135437035   -0.0272360714639881   0.00010829779393922712
-4.8531209135437035   -0.0272360714639881   0.00010829779393922712
-4.8531209135437035   -0.0272360714639881   0.00010829779393922712
-6.48377462309923   -0.14354410540587703   0.09172860413264045
-6.48377462309923   -0.14354410540587703   0.09172860413264045
-6.48377462309923   -0.14354410540587703   0.09172860413264045
-6.48377462309923   -0.14354410540587703   0.09172860413264045
-3.3026036594317145   0.284363707786087   -0.08129923638115216
-3.3026036594317145   0.284363707786087   -0.08129923638115216
-3.3026036594317145   0.284363707786087   -0.08129923638115216
-3.3026036594317145   0.284363707786087   -0.08129923638115216
-3.1961372061534234   0.756626537360784   0.14886155084752034
-3.1961372061534234   0.756626537360784   0.14886155084752034
-3.1961372061534234   0.756626537360784   0.14886155084752034
-3.1961372061534234   0.756626537360784   0.14886155084752034
-6.579384910004636   -0.20275482714853998   -0.29089974586033784
-6.579384910004636   -0.20275482714853998   -0.29089974586033784
-6.579384910004636   -0.20275482714853998   -0.29089974586033784
-6.579384910004636   -0.20275482714853998   -0.29089974586033784
-4.85704821117756   0.16830165464400437   0.0754088279712406
-4.85704821117756   0.16830165464400437   0.0754088279712406
-4.85704821117756   0.16830165464400437   0.0754088279712406
-4.85704821117756   0.16830165464400437   0.0754088279712406
-3.421860428580562   -0.707714971468803   -0.020328231498267936
-3.421860428580562   -0.707714971468803   -0.020328231498267936
-3.421860428580562   -0.707714971468803   -0.020328231498267936
-3.421860428580562   -0.707714971468803   -0.020328231498267936
-0.10498152227117467   0.03689617227418259   0.14618910731020515
-0.10498152227117467   0.03689617227418259   0.14618910731020515
-0.10498152227117467   0.03689617227418259   0.14618910731020515
-0.10498152227117467   0.03689617227418259   0.14618910731020515
-0.11811096074968097   0.21049920174034953   0.06976581699332918
-0.11811096074968097   0.21049920174034953   0.06976581699332918
-0.11811096074968097   0.21049920174034953   0.06976581699332918
-0.11811096074968097   0.21049920174034953   0.06976581699332918
-3.424790928383053   -0.4543399331057917   -0.08596281004262937
-3.424790928383053   -0.4543399331057917   -0.08596281004262937
-3.424790928383053   -0.4543399331057917   -0.08596281004262937
-3.424790928383053   -0.4543399331057917   -0.08596281004262937
-1.7728148084817537   -0.2213122622629011   -0.05498834149659019
-1.7728148084817537   -0.2213122622629011   -0.05498834149659019
-1.7728148084817537   -0.2213122622629011   -0.05498834149659019
-1.7728148084817537   -0.2213122622629011   -0.05498834149659019
-3.4211116152322454   -0.4736961066947547   -0.048210070699627745
-3.4211116152322454   -0.4736961066947547   -0.048210070699627745
-3.4211116152322454   -0.4736961066947547   -0.048210070699627745
-3.4211116152322454   -0.4736961066947547   -0.048210070699627745
-0.1029734646619978   0.24867218456781398   0.10728031460428207
-0.1029734646619978   0.24867218456781398   0.10728031460428207
-0.1029734646619978   0.24867218456781398   0.10728031460428207
-0.1029734646619978   0.24867218456781398   0.10728031460428207
-0.10315308790266992   0.44018838410336425   0.03371600346823793
-0.10315308790266992   0.44018838410336425   0.03371600346823793
-0.10315308790266992   0.44018838410336425   0.03371600346823793
-0.10315308790266992   0.44018838410336425   0.03371600346823793
-3.416835711522677   -0.2422426609295073   -0.12585312812040106
-3.416835711522677   -0.2422426609295073   -0.12585312812040106
-3.416835711522677   -0.2422426609295073   -0.12585312812040106
-3.416835711522677   -0.2422426609295073   -0.12585312812040106
-1.7562124549220486   -0.00882833553814244   0.02469917118958287
-1.7562124549220486   -0.00882833553814244   0.02469917118958287
-1.7562124549220486   -0.00882833553814244   0.02469917118958287
-1.7562124549220486   -0.00882833553814244   0.02469917118958287
-3.411674091459579   -0.24726379587379022   -0.09502389286062557
-3.411674091459579   -0.24726379587379022   -0.09502389286062557
-3.411674091459579   -0.24726379587379022   -0.09502389286062557
-3.411674091459579   -0.24726379587379022   -0.09502389286062557
-0.09277154014890368   0.46075268686451226   0.06505943947592305
-0.09277154014890368   0.46075268686451226   0.06505943947592305
-0.09277154014890368   0.46075268686451226   0.06505943947592305
-0.09277154014890368   0.46075268686451226   0.06505943947592305
-0.1004854403912088   0.676791549078492   -0.004766756595188604
-0.1004854403912088   0.676791549078492   -0.004766756595188604
-0.1004854403912088   0.676791549078492   -0.004766756595188604
-0.1004854403912088   0.676791549078492   -0.004766756595188604
-3.4157532978272807   -0.026492053786254965   -0.16610031637473371
-3.4157532978272807   -0.026492053786254965   -0.16610031637473371
-3.4157532978272807   -0.026492053786254965   -0.16610031637473371
-3.4157532978272807   -0.026492053786254965   -0.16610031637473371
-1.7434648391099377   0.20385336823558586   0.09776273717710807
-1.7434648391099377   0.20385336823558586   0.09776273717710807
-1.7434648391099377   0.20385336823558586   0.09776273717710807
-1.7434648391099377   0.20385336823558586   0.09776273717710807
-0.33025215021709264   -0.773754665747481   -0.16951319439771925
-0.33025215021709264   -0.773754665747481   -0.16951319439771925
-0.33025215021709264   -0.773754665747481   -0.16951319439771925
-0.33025215021709264   -0.773754665747481   -0.16951319439771925
3.077698024624449   0.21821993140853646   0.2778208727959094
3.077698024624449   0.21821993140853646   0.2778208727959094
3.077698024624449   0.21821993140853646   0.2778208727959094
3.077698024624449   0.21821993140853646   0.2778208727959094
2.977233293371991   0.11721468842376614   -0.10865879734596784
2.977233293371991   0.11721468842376614   -0.10865879734596784
2.977233293371991   0.11721468842376614   -0.10865879734596784
2.977233293371991   0.11721468842376614   -0.10865879734596784
-0.21919630131283788   -0.28427383427428354   0.059112150192179275
-0.21919630131283788   -0.28427383427428354   0.059112150192179275
-0.21919630131283788   -0.28427383427428354   0.059112150192179275
-0.21919630131283788   -0.28427383427428354   0.059112150192179275
1.3569552000535003   -0.17796878143039407   -0.03083722928765728
1.3569552000535003   -0.17796878143039407   -0.03083722928765728
1.3569552000535003   -0.17796878143039407   -0.03083722928765728
1.3569552000535003   -0.17796878143039407   -0.03083722928765728
-0.329679756816391   -0.5649599620539089   -0.21261899954596092
-0.329679756816391   -0.5649599620539089   -0.21261899954596092
-0.329679756816391   -0.5649599620539089   -0.21261899954596092
-0.329679756816391   -0.5649599620539089   -0.21261899954596092
3.1091122401240336   0.41929630745188096   0.2486543173861305
3.1091122401240336   0.41929630745188096   0.2486543173861305
3.1091122401240336   0.41929630745188096   0.2486543173861305
3.1091122401240336   0.41929630745188096   0.2486543173861305
3.0242100460894417   0.3308216508764952   -0.1526960152468297
3.0242100460894417   0.3308216508764952   -0.1526960152468297
3.0242100460894417   0.3308216508764952   -0.1526960152468297
3.0242100460894417   0.3308216508764952   -0.1526960152468297
-0.21346968556323323   -0.09427102853473612   0.016592427803524965
-0.21346968556323323   -0.09427102853473612   0.016592427803524965
-0.21346968556323323   -0.09427102853473612   0.016592427803524965
-0.21346968556323323   -0.09427102853473612   0.016592427803524965
1.3679110594746415   0.014070050064939332   0.04827359314291882
1.3679110594746415   0.014070050064939332   0.04827359314291882
1.3679110594746415   0.014070050064939332   0.04827359314291882
1.3679110594746415   0.014070050064939332   0.04827359314291882
-0.3209013875812874   -0.3588573791438178   -0.2559797316776663
-0.3209013875812874   -0.3588573791438178   -0.2559797316776663
-0.3209013875812874   -0.3588573791438178   -0.2559797316776663
-0.3209013875812874   -0.3588573791438178   -0.2559797316776663
3.154951836587306   0.6187180899653876   0.21311649815360373
3.154951836587306   0.6187180899653876   0.21311649815360373
3.154951836587306   0.6187180899653876   0.21311649815360373
3.154951836587306   0.6187180899653876   0.21311649815360373
3.052838377152556   0.598953825654822   -0.15906421203664392
3.052838377152556   0.598953825654822   -0.15906421203664392
3.052838377152556   0.598953825654822   -0.15906421203664392
3.052838377152556   0.598953825654822   -0.15906421203664392
-0.21444537242619927   0.12804249721732663   -0.025817364908973205
-0.21444537242619927   0.12804249721732663   -0.025817364908973205
-0.21444537242619927   0.12804249721732663   -0.025817364908973205
-0.21444537242619927   0.12804249721732663   -0.025817364908973205
1.4140496838997132   0.2285116831422309   0.14234780390704654
1.4140496838997132   0.2285116831422309   0.14234780390704654
1.4140496838997132   0.2285116831422309   0.14234780390704654
1.4140496838997132   0.2285116831422309   0.14234780390704654
2.7591045247640213   -0.7676660052877902   -0.32926068980987305
2.7591045247640213   -0.7676660052877902   -0.32926068980987305
2.7591045247640213   -0.7676660052877902   -0.32926068980987305
2.7591045247640213   -0.7676660052877902   -0.32926068980987305
6.056565014501118   0.4498422710843131   0.3077244036959971
6.056565014501118   0.4498422710843131   0.3077244036959971
6.056565014501118   0.4498422710843131   0.3077244036959971
6.056565014501118   0.4498422710843131   0.3077244036959971
6.009086507328048   -0.024381410561140626   -0.4382136232340281
6.009086507328048   -0.024381410561140626   -0.4382136232340281
6.009086507328048   -0.024381410561140626   -0.4382136232340281
6.009086507328048   -0.024381410561140626   -0.4382136232340281
3.003588740325093   -0.065851586509166   0.20618471235249777
3.003588740325093   -0.065851586509166   0.20618471235249777
3.003588740325093   -0.065851586509166   0.20618471235249777
3.003588740325093   -0.065851586509166   0.20618471235249777
4.24079840970096   -0.14873555915535253   -0.13837185139412955
4.24079840970096   -0.14873555915535253   -0.13837185139412955
4.24079840970096   -0.14873555915535253   -0.13837185139412955
4.24079840970096   -0.14873555915535253   -0.13837185139412955
2.7610639218349275   -0.6673344969453803   -0.40495646966210597
2.7610639218349275   -0.6673344969453803   -0.40495646966210597
2.7610639218349275   -0.6673344969453803   -0.40495646966210597
2.7610639218349275   -0.6673344969453803   -0.40495646966210597
6.2690631312561065   0.5945533053129674   0.24273478053215128
6.2690631312561065   0.5945533053129674   0.24273478053215128
6.2690631312561065   0.5945533053129674   0.24273478053215128
6.2690631312561065   0.5945533053129674   0.24273478053215128
6.154233637311636   0.09745729309373385   -0.587275130314215
6.154233637311636   0.09745729309373385   -0.587275130314215
6.154233637311636   0.09745729309373385   -0.587275130314215
6.154233637311636   0.09745729309373385   -0.587275130314215
3.0246599924213537   0.02705896744504488   0.1533163998442304
3.0246599924213537   0.02705896744504488   0.1533163998442304
3.0246599924213537   0.02705896744504488   0.1533163998442304
3.0246599924213537   0.02705896744504488   0.1533163998442304
4.430833174881044   -0.01720648161774363   -0.04264583306238115
4.430833174881044   -0.01720648161774363   -0.04264583306238115
4.430833174881044   -0.01720648161774363   -0.04264583306238115
4.430833174881044   -0.01720648161774363   -0.04264583306238115
2.791384059708373   -0.5457153796826715   -0.44028891659297914
2.791384059708373   -0.5457153796826715   -0.44028891659297914
2.791384059708373   -0.5457153796826715   -0.44028891659297914
2.791384059708373   -0.5457153796826715   -0.44028891659297914
6.42602568152836   0.7087477517251983   0.16039463213799088
6.42602568152836   0.7087477517251983   0.16039463213799088
6.42602568152836   0.7087477517251983   0.16039463213799088
6.42602568152836   0.7087477517251983   0.16039463213799088
6.384826700953166   0.4146556369038419   -0.5518349165621589
6.384826700953166   0.4146556369038419   -0.5518349165621589
6.384826700953166   0.4146556369038419   -0.5518349165621589
6.384826700953166   0.4146556369038419   -0.5518349165621589
3.0338098760496384   0.23300218337553796   0.11174492472809704
3.0338098760496384   0.23300218337553796   0.11174492472809704
3.0338098760496384   0.23300218337553796   0.11174492472809704
3.0338098760496384   0.23300218337553796   0.11174492472809704
4.461650278427799   0.13348595607770108   0.062985075892808
4.461650278427799   0.13348595607770108   0.062985075892808
4.461650278427799   0.13348595607770108   0.062985075892808
4.461650278427799   0.13348595607770108   0.062985075892808
-7.043571592012362   -0.23215613119868417   0.4559998320792108
-7.043571592012362   -0.23215613119868417   0.4559998320792108
-7.043571592012362   -0.23215613119868417   0.4559998320792108
-7.043571592012362   -0.23215613119868417   0.4559998320792108
-4.91998323102725   -0.32654699573154156   -0.17272412402843337
-4.91998323102725   -0.32654699573154156   -0.17272412402843337
-4.91998323102725   -0.32654699573154156   -0.17272412402843337
-4.91998323102725   -0.32654699573154156   -0.17272412402843337
-4.63219726600617   0.4634433188261261   0.38910802569228387
-4.63219726600617   0.4634433188261261   0.38910802569228387
-4.63219726600617   0.4634433188261261   0.38910802569228387
-4.63219726600617   0.4634433188261261   0.38910802569228387
-7.044214302224697   -0.5793551291353881   -0.25254873252858123
-7.044214302224697   -0.5793551291353881   -0.25254873252858123
-7.044214302224697   -0.5793551291353881   -0.25254873252858123
-7.044214302224697   -0.5793551291353881   -0.25254873252858123
-5.6674235375814686   -0.09080023311251662   -0.010807216773804362
-5.6674235375814686   -0.09080023311251662   -0.010807216773804362
-5.6674235375814686   -0.09080023311251662   -0.010807216773804362
-5.6674235375814686   -0.09080023311251662   -0.010807216773804362
-6.78255756530263   0.04235468201470782   0.4340251409316547
-6.78255756530263   0.04235468201470782   0.4340251409316547
-6.78255756530263   0.04235468201470782   0.4340251409316547
-6.78255756530263   0.04235468201470782   0.4340251409316547
-4.872605072649777   -0.13701756204550442   -0.21247012665408202
-4.872605072649777   -0.13701756204550442   -0.21247012665408202
-4.872605072649777   -0.13701756204550442   -0.21247012665408202
-4.872605072649777   -0.13701756204550442   -0.21247012665408202
-4.588648673939427   0.5595809708137318   0.32901920050577343
-4.588648673939427   0.5595809708137318   0.32901920050577343
-4.588648673939427   0.5595809708137318   0.32901920050577343
-4.588648673939427   0.5595809708137318   0.32901920050577343
-6.878562632043916   -0.4722368957126495   -0.31952404151377456
-6.878562632043916   -0.4722368957126495   -0.31952404151377456
-6.878562632043916   -0.4722368957126495   -0.31952404151377456
-6.878562632043916   -0.4722368957126495   -0.31952404151377456
-5.628577178322309   0.03611054165116956   0.060592284532010376
-5.628577178322309   0.03611054165116956   0.060592284532010376
-5.628577178322309   0.03611054165116956   0.060592284532010376
-5.628577178322309   0.03611054165116956   0.060592284532010376
-6.619002330154349   0.15742876159489616   0.34861181062651786
-6.619002330154349   0.15742876159489616   0.34861181062651786
-6.619002330154349   0.15742876159489616   0.34861181062651786
-6.619002330154349   0.15742876159489616   0.34861181062651786
-4.828962775743683   -0.05083848640849853   -0.2621318512932518
-4.828962775743683   -0.05083848640849853   -0.2621318512932518
-4.828962775743683   -0.05083848640849853   -0.2621318512932518
-4.828962775743683   -0.05083848640849853   -0.2621318512932518
-4.5644998696409065   0.6526021460928639   0.2831486568606859
-4.5644998696409065   0.6526021460928639   0.2831486568606859
-4.5644998696409065   0.6526021460928639   0.2831486568606859
-4.5644998696409065   0.6526021460928639   0.2831486568606859
-6.656388373100284   -0.33088520019508216   -0.3827199904881806
-6.656388373100284   -0.33088520019508216   -0.3827199904881806
-6.656388373100284   -0.33088520019508216   -0.3827199904881806
-6.656388373100284   -0.33088520019508216   -0.3827199904881806
-5.417913493475253   0.15475955195137958   0.16109798371503015
-5.417913493475253   0.15475955195137958   0.16109798371503015
-5.417913493475253   0.15475955195137958   0.16109798371503015
-5.417913493475253   0.15475955195137958   0.16109798371503015
-4.8658610669600275   -0.3986224176334917   0.16996211820958862
-4.8658610669600275   -0.3986224176334917   0.16996211820958862
-4.8658610669600275   -0.3986224176334917   0.16996211820958862
-4.8658610669600275   -0.3986224176334917   0.16996211820958862
-2.814063084731755   -0.21164843026965408   -0.02784578978131691
-2.814063084731755   -0.21164843026965408   -0.02784578978131691
-2.814063084731755   -0.21164843026965408   -0.02784578978131691
-2.814063084731755   -0.21164843026965408   -0.02784578978131691
-2.671261864126662   0.27109617199911473   0.20983022382963
-2.671261864126662   0.27109617199911473   0.20983022382963
-2.671261864126662   0.27109617199911473   0.20983022382963
-2.671261864126662   0.27109617199911473   0.20983022382963
-4.938661304331772   -0.4738487563054795   -0.20592009080412524
-4.938661304331772   -0.4738487563054795   -0.20592009080412524
-4.938661304331772   -0.4738487563054795   -0.20592009080412524
-4.938661304331772   -0.4738487563054795   -0.20592009080412524
-3.8068579779228675   -0.18614164966633606   -0.0770029908759968
-3.8068579779228675   -0.18614164966633606   -0.0770029908759968
-3.8068579779228675   -0.18614164966633606   -0.0770029908759968
-3.8068579779228675   -0.18614164966633606   -0.0770029908759968
-4.8090596940138735   -0.17065133154023537   0.1388905360200905
-4.8090596940138735   -0.17065133154023537   0.1388905360200905
-4.8090596940138735   -0.17065133154023537   0.1388905360200905
-4.8090596940138735   -0.17065133154023537   0.1388905360200905
-2.7842517799544204   -0.015489558275994075   -0.06853362503404972
-2.7842517799544204   -0.015489558275994075   -0.06853362503404972
-2.7842517799544204   -0.015489558275994075   -0.06853362503404972
-2.7842517799544204   -0.015489558275994075   -0.06853362503404972
-2.6372569000701107   0.4681199377144175   0.17213515389889716
-2.6372569000701107   0.4681199377144175   0.17213515389889716
-2.6372569000701107   0.4681199377144175   0.17213515389889716
-2.6372569000701107   0.4681199377144175   0.17213515389889716
-4.872415127083307   -0.2876695577235112   -0.2425625366763894
-4.872415127083307   -0.2876695577235112   -0.2425625366763894
-4.872415127083307   -0.2876695577235112   -0.2425625366763894
-4.872415127083307   -0.2876695577235112   -0.2425625366763894
-3.7338113793414394   0.007806721039294695   0.006297053063656799
-3.7338113793414394   0.007806721039294695   0.006297053063656799
-3.7338113793414394   0.007806721039294695   0.006297053063656799
-3.7338113793414394   0.007806721039294695   0.006297053063656799
-4.733000651192876   0.0399268447671135   0.1269134402851418
-4.733000651192876   0.0399268447671135   0.1269134402851418
-4.733000651192876   0.0399268447671135   0.1269134402851418
-4.733000651192876   0.0399268447671135   0.1269134402851418
-2.7560415929828572   0.16115331820148182   -0.11482169115187482
-2.7560415929828572   0.16115331820148182   -0.11482169115187482
-2.7560415929828572   0.16115331820148182   -0.11482169115187482
-2.7560415929828572   0.16115331820148182   -0.11482169115187482
-2.604410725239139   0.6778263341215165   0.13703187572444886
-2.604410725239139   0.6778263341215165   0.13703187572444886
-2.604410725239139   0.6778263341215165   0.13703187572444886
-2.604410725239139   0.6778263341215165   0.13703187572444886
-4.822739796988955   -0.08727439627172795   -0.26817443751495196
-4.822739796988955   -0.08727439627172795   -0.26817443751495196
-4.822739796988955   -0.08727439627172795   -0.26817443751495196
-4.822739796988955   -0.08727439627172795   -0.26817443751495196
-3.7056300223450918   0.18999762741909798   0.08550511509872777
-3.7056300223450918   0.18999762741909798   0.08550511509872777
-3.7056300223450918   0.18999762741909798   0.08550511509872777
-3.7056300223450918   0.18999762741909798   0.08550511509872777
-2.873927484823528   -0.5449117381669192   0.006095517657050039
-2.873927484823528   -0.5449117381669192   0.006095517657050039
-2.873927484823528   -0.5449117381669192   0.006095517657050039
-2.873927484823528   -0.5449117381669192   0.006095517657050039
-0.730592956740985   -0.061874912475980245   0.11734283500259332
-0.730592956740985   -0.061874912475980245   0.11734283500259332
-0.730592956740985   -0.061874912475980245   0.11734283500259332
-0.730592956740985   -0.061874912475980245   0.11734283500259332
-0.7123197841120762   0.11334927276496654   0.0400120750401847
-0.7123197841120762   0.11334927276496654   0.0400120750401847
-0.7123197841120762   0.11334927276496654   0.0400120750401847
-0.7123197841120762   0.11334927276496654   0.0400120750401847
-2.8423690617730917   -0.319526911056482   -0.05508268134694991
-2.8423690617730917   -0.319526911056482   -0.05508268134694991
-2.8423690617730917   -0.319526911056482   -0.05508268134694991
-2.8423690617730917   -0.319526911056482   -0.05508268134694991
-1.7928173573678676   -0.19460900393358854   -0.054636003123373925
-1.7928173573678676   -0.19460900393358854   -0.054636003123373925
-1.7928173573678676   -0.19460900393358854   -0.054636003123373925
-1.7928173573678676   -0.19460900393358854   -0.054636003123373925
-2.837782003394511   -0.3250670385013862   -0.026607262009143623
-2.837782003394511   -0.3250670385013862   -0.026607262009143623
-2.837782003394511   -0.3250670385013862   -0.026607262009143623
-2.837782003394511   -0.3250670385013862   -0.026607262009143623
-0.7002547754677788   0.13554146723274849   0.07814492379388957
-0.7002547754677788   0.13554146723274849   0.07814492379388957
-0.7002547754677788   0.13554146723274849   0.07814492379388957
-0.7002547754677788   0.13554146723274849   0.07814492379388957
-0.6712774995063248   0.33418398046065323   0.010721866813987596
-0.6712774995063248   0.33418398046065323   0.010721866813987596
-0.6712774995063248   0.33418398046065323   0.010721866813987596
-0.6712774995063248   0.33418398046065323   0.010721866813987596
-2.8083422182944657   -0.1207647487179988   -0.09440675079045979
-2.8083422182944657   -0.1207647487179988   -0.09440675079045979
-2.8083422182944657   -0.1207647487179988   -0.09440675079045979
-2.8083422182944657   -0.1207647487179988   -0.09440675079045979
-1.7489923542282004   0.003966712749656209   0.023817861482389943
-1.7489923542282004   0.003966712749656209   0.023817861482389943
-1.7489923542282004   0.003966712749656209   0.023817861482389943
-1.7489923542282004   0.003966712749656209   0.023817861482389943
-2.797941059062226   -0.10493853790232421   -0.05822716544493667
-2.797941059062226   -0.10493853790232421   -0.05822716544493667
-2.797941059062226   -0.10493853790232421   -0.05822716544493667
-2.797941059062226   -0.10493853790232421   -0.05822716544493667
-0.6663052312790523   0.33373119710450205   0.03603599130650814
-0.6663052312790523   0.33373119710450205   0.03603599130650814
-0.6663052312790523   0.33373119710450205   0.03603599130650814
-0.6663052312790523   0.33373119710450205   0.03603599130650814
-0.6344986704041617   0.5582204481080305   -0.023792434326424944
-0.6344986704041617   0.5582204481080305   -0.023792434326424944
-0.6344986704041617   0.5582204481080305   -0.023792434326424944
-0.6344986704041617   0.5582204481080305   -0.023792434326424944
-2.7784091788865983   0.08032651131798452   -0.13546056970932255
-2.7784091788865983   0.08032651131798452   -0.13546056970932255
-2.7784091788865983   0.08032651131798452   -0.13546056970932255
-2.7784091788865983   0.08032651131798452   -0.13546056970932255
-1.7089715369130558   0.20349189202287465   0.09939923022718242
-1.7089715369130558   0.20349189202287465   0.09939923022718242
-1.7089715369130558   0.20349189202287465   0.09939923022718242
-1.7089715369130558   0.20349189202287465   0.09939923022718242
-0.9055066210419881   -0.6648377100663454   -0.15426268891206316
-0.9055066210419881   -0.6648377100663454   -0.15426268891206316
-0.9055066210419881   -0.6648377100663454   -0.15426268891206316
-0.9055066210419881   -0.6648377100663454   -0.15426268891206316
1.3269411912829896   0.10622761375291412   0.25455725661743406
1.3269411912829896   0.10622761375291412   0.25455725661743406
1.3269411912829896   0.10622761375291412   0.25455725661743406
1.3269411912829896   0.10622761375291412   0.25455725661743406
1.236369573377957   -0.0331258855433115   -0.1407139808437555
1.236369573377957   -0.0331258855433115   -0.1407139808437555
1.236369573377957   -0.0331258855433115   -0.1407139808437555
1.236369573377957   -0.0331258855433115   -0.1407139808437555
-0.7552258700843074   -0.15496693073760812   0.09379784868160326
-0.7552258700843074   -0.15496693073760812   0.09379784868160326
-0.7552258700843074   -0.15496693073760812   0.09379784868160326
-0.7552258700843074   -0.15496693073760812   0.09379784868160326
0.2172110419127289   -0.181516322741631   -0.03882324398509964
0.2172110419127289   -0.181516322741631   -0.03882324398509964
0.2172110419127289   -0.181516322741631   -0.03882324398509964
0.2172110419127289   -0.181516322741631   -0.03882324398509964
-0.8739124022554043   -0.4649665275696089   -0.18963521534188074
-0.8739124022554043   -0.4649665275696089   -0.18963521534188074
-0.8739124022554043   -0.4649665275696089   -0.18963521534188074
-0.8739124022554043   -0.4649665275696089   -0.18963521534188074
1.3748812346401218   0.2966988403797545   0.22201959954398717
1.3748812346401218   0.2966988403797545   0.22201959954398717
1.3748812346401218   0.2966988403797545   0.22201959954398717
1.3748812346401218   0.2966988403797545   0.22201959954398717
1.3125936011293506   0.17575146756502869   -0.15935837839017344
1.3125936011293506   0.17575146756502869   -0.15935837839017344
1.3125936011293506   0.17575146756502869   -0.15935837839017344
1.3125936011293506   0.17575146756502869   -0.15935837839017344
-0.7255955351998914   0.022789325338247762   0.05052634346856691
-0.7255955351998914   0.022789325338247762   0.05052634346856691
-0.7255955351998914   0.022789325338247762   0.05052634346856691
-0.7255955351998914   0.022789325338247762   0.05052634346856691
0.2576687073536809   -0.0016348775973992202   0.04092981049585467
0.2576687073536809   -0.0016348775973992202   0.04092981049585467
0.2576687073536809   -0.0016348775973992202   0.04092981049585467
0.2576687073536809   -0.0016348775973992202   0.04092981049585467
-0.8401297340819467   -0.2689938240998973   -0.23036150150356746
-0.8401297340819467   -0.2689938240998973   -0.23036150150356746
-0.8401297340819467   -0.2689938240998973   -0.23036150150356746
-0.8401297340819467   -0.2689938240998973   -0.23036150150356746
1.4443154990836975   0.48472231607547106   0.19028026287109473
1.4443154990836975   0.48472231607547106   0.19028026287109473
1.4443154990836975   0.48472231607547106   0.19028026287109473
1.4443154990836975   0.48472231607547106   0.19028026287109473
1.373918131913826   0.4140748947003167   -0.1840188818341096
1.373918131913826   0.4140748947003167   -0.1840188818341096
1.373918131913826   0.4140748947003167   -0.1840188818341096
1.373918131913826   0.4140748947003167   -0.1840188818341096
-0.69391385667227   0.22798671302841092   0.009365369412646374
-0.69391385667227   0.22798671302841092   0.009365369412646374
-0.69391385667227   0.22798671302841092   0.009365369412646374
-0.69391385667227   0.22798671302841092   0.009365369412646374
0.32045956735382697   0.19439311434595025   0.12363143921466026
0.32045956735382697   0.19439311434595025   0.12363143921466026
0.32045956735382697   0.19439311434595025   0.12363143921466026
0.32045956735382697   0.19439311434595025   0.12363143921466026
1.0596551494082997   -0.6718447087283905   -0.3038006302747028
1.0596551494082997   -0.6718447087283905   -0.3038006302747028
1.0596551494082997   -0.6718447087283905   -0.3038006302747028
1.0596551494082997   -0.6718447087283905   -0.3038006302747028
3.1612158010450013   0.3106553822457603   0.3285990134813614
3.1612158010450013   0.3106553822457603   0.3285990134813614
3.1612158010450013   0.3106553822457603   0.3285990134813614
3.1612158010450013   0.3106553822457603   0.3285990134813614
3.1303789785264837   -0.1616945134193314   -0.3998201603996585
3.1303789785264837   -0.1616945134193314   -0.3998201603996585
3.1303789785264837   -0.1616945134193314   -0.3998201603996585
3.1303789785264837   -0.1616945134193314   -0.3998201603996585
1.3310552985308763   0.05454517005091075   0.24504358932661074
1.3310552985308763   0.05454517005091075   0.24504358932661074
1.3310552985308763   0.05454517005091075   0.24504358932661074
1.3310552985308763   0.05454517005091075   0.24504358932661074
2.057546964658178   -0.13790346212187965   -0.10769201313579535
2.057546964658178   -0.13790346212187965   -0.10769201313579535
2.057546964658178   -0.13790346212187965   -0.10769201313579535
2.057546964658178   -0.13790346212187965   -0.10769201313579535
1.088810143735485   -0.560309709347894   -0.3513273052515342
1.088810143735485   -0.560309709347894   -0.3513273052515342
1.088810143735485   -0.560309709347894   -0.3513273052515342
1.088810143735485   -0.560309709347894   -0.3513273052515342
3.3928379973465197   0.4733742300041372   0.27740619027709973
3.3928379973465197   0.4733742300041372   0.27740619027709973
3.3928379973465197   0.4733742300041372   0.27740619027709973
3.3928379973465197   0.4733742300041372   0.27740619027709973
3.298815399359837   -0.04460241303962942   -0.4791459095176248
3.298815399359837   -0.04460241303962942   -0.4791459095176248
3.298815399359837   -0.04460241303962942   -0.4791459095176248
3.298815399359837   -0.04460241303962942   -0.4791459095176248
1.375547633338005   0.14029178250874288   0.19087146770936148
1.375547633338005   0.14029178250874288   0.19087146770936148
1.375547633338005   0.14029178250874288   0.19087146770936148
1.375547633338005   0.14029178250874288   0.19087146770936148
2.228343850278225   -0.02001032753443449   -0.013569053849922658
2.228343850278225   -0.02001032753443449   -0.013569053849922658
2.228343850278225   -0.02001032753443449   -0.013569053849922658
2.228343850278225   -0.02001032753443449   -0.013569053849922658
1.135307259725701   -0.4629021521930112   -0.40713646565039713
1.135307259725701   -0.4629021521930112   -0.40713646565039713
1.135307259725701   -0.4629021521930112   -0.40713646565039713
1.135307259725701   -0.4629021521930112   -0.40713646565039713
3.5600866925303998   0.5796224412204153   0.20298570207520608
3.5600866925303998   0.5796224412204153   0.20298570207520608
3.5600866925303998   0.5796224412204153   0.20298570207520608
3.5600866925303998   0.5796224412204153   0.20298570207520608
3.5570833200599172   0.2127908428456396   -0.5125852219316125
3.5570833200599172   0.2127908428456396   -0.5125852219316125
3.5570833200599172   0.2127908428456396   -0.5125852219316125
3.5570833200599172   0.2127908428456396   -0.5125852219316125
1.4211028887583272   0.31440543291481154   0.1515743641738857
1.4211028887583272   0.31440543291481154   0.1515743641738857
1.4211028887583272   0.31440543291481154   0.1515743641738857
1.4211028887583272   0.31440543291481154   0.1515743641738857
2.3124821859507323   0.11022119635142447   0.06716057326662875
2.3124821859507323   0.11022119635142447   0.06716057326662875
2.3124821859507323   0.11022119635142447   0.06716057326662875
2.3124821859507323   0.11022119635142447   0.06716057326662875
-4.237634214572976   -0.07354656819714211   0.4099289971894121
-4.237634214572976   -0.07354656819714211   0.4099289971894121
-4.237634214572976   -0.07354656819714211   0.4099289971894121
-4.237634214572976   -0.07354656819714211   0.4099289971894121
-3.2945911207932976   -0.416358560778039   -0.20364721660451288
-3.2945911207932976   -0.416358560778039   -0.20364721660451288
-3.2945911207932976   -0.416358560778039   -0.20364721660451288
-3.2945911207932976   -0.416358560778039   -0.20364721660451288
-2.982627508428354   0.35362839589284445   0.35078209881623856
-2.982627508428354   0.35362839589284445   0.35078209881623856
-2.982627508428354   0.35362839589284445   0.35078209881623856
-2.982627508428354   0.35362839589284445   0.35078209881623856
-4.219198216768354   -0.45919412742195076   -0.27685034333894165
-4.219198216768354   -0.45919412742195076   -0.27685034333894165
-4.219198216768354   -0.45919412742195076   -0.27685034333894165
-4.219198216768354   -0.45919412742195076   -0.27685034333894165
-3.542026255154388   -0.09804344651673802   -0.05043316429800351
-3.542026255154388   -0.09804344651673802   -0.05043316429800351
-3.542026255154388   -0.09804344651673802   -0.05043316429800351
-3.542026255154388   -0.09804344651673802   -0.05043316429800351
-3.9603677635033048   0.16628790352289735   0.39181989204145384
-3.9603677635033048   0.16628790352289735   0.39181989204145384
-3.9603677635033048   0.16628790352289735   0.39181989204145384
-3.9603677635033048   0.16628790352289735   0.39181989204145384
-3.2235737354148757   -0.25396940877347196   -0.24635123145002505
-3.2235737354148757   -0.25396940877347196   -0.24635123145002505
-3.2235737354148757   -0.25396940877347196   -0.24635123145002505
-3.2235737354148757   -0.25396940877347196   -0.24635123145002505
-2.9080484692692115   0.4451455066992456   0.2968738077709965
-2.9080484692692115   0.4451455066992456   0.2968738077709965
-2.9080484692692115   0.4451455066992456   0.2968738077709965
-2.9080484692692115   0.4451455066992456   0.2968738077709965
-4.026137006824367   -0.3555143059250263   -0.3461929024205982
-4.026137006824367   -0.3555143059250263   -0.3461929024205982
-4.026137006824367   -0.3555143059250263   -0.3461929024205982
-4.026137006824367   -0.3555143059250263   -0.3461929024205982
-3.4411198186923153   0.02187532742618037   0.02592348508436107
-3.4411198186923153   0.02187532742618037   0.02592348508436107
-3.4411198186923153   0.02187532742618037   0.02592348508436107
-3.4411198186923153   0.02187532742618037   0.02592348508436107
-3.7669630826253164   0.27735025416978243   0.31681215847978583
-3.7669630826253164   0.27735025416978243   0.31681215847978583
-3.7669630826253164   0.27735025416978243   0.31681215847978583
-3.7669630826253164   0.27735025416978243   0.31681215847978583
-3.150256492796511   -0.1707531527238162   -0.29826765044240444
-3.150256492796511   -0.1707531527238162   -0.29826765044240444
-3.150256492796511   -0.1707531527238162   -0.29826765044240444
-3.150256492796511   -0.1707531527238162   -0.29826765044240444
-2.8474620946275033   0.5586575521244014   0.25606749263657963
-2.8474620946275033   0.5586575521244014   0.25606749263657963
-2.8474620946275033   0.5586575521244014   0.25606749263657963
-2.8474620946275033   0.5586575521244014   0.25606749263657963
-3.7666813903486838   -0.18961986239898576   -0.4007533291960065
-3.7666813903486838   -0.18961986239898576   -0.4007533291960065
-3.7666813903486838   -0.18961986239898576   -0.4007533291960065
-3.7666813903486838   -0.18961986239898576   -0.4007533291960065
-3.237022787486551   0.13985098540038654   0.120876644129506
-3.237022787486551   0.13985098540038654   0.120876644129506
-3.237022787486551   0.13985098540038654   0.120876644129506
-3.237022787486551   0.13985098540038654   0.120876644129506
-3.1802901653641302   -0.2408540737393401   0.19235307350262798
-3.1802901653641302   -0.2408540737393401   0.19235307350262798
-3.1802901653641302   -0.2408540737393401   0.19235307350262798
-3.1802901653641302   -0.2408540737393401   0.19235307350262798
-2.3251567482076947   -0.3158101984944342   -0.060355332980446735
-2.3251567482076947   -0.3158101984944342   -0.060355332980446735
-2.3251567482076947   -0.3158101984944342   -0.060355332980446735
-2.3251567482076947   -0.3158101984944342   -0.060355332980446735
-2.1507763557686994   0.16077135414685412   0.17929551289459272
-2.1507763557686994   0.16077135414685412   0.17929551289459272
-2.1507763557686994   0.16077135414685412   0.17929551289459272
-2.1507763557686994   0.16077135414685412   0.17929551289459272
-3.22628577967293   -0.33930535440744963   -0.1745755071063183
-3.22628577967293   -0.33930535440744963   -0.1745755071063183
-3.22628577967293   -0.33930535440744963   -0.1745755071063183
-3.22628577967293   -0.33930535440744963   -0.1745755071063183
-2.7128748435853236   -0.1694679451256818   -0.07249122657302733
-2.7128748435853236   -0.1694679451256818   -0.07249122657302733
-2.7128748435853236   -0.1694679451256818   -0.07249122657302733
-2.7128748435853236   -0.1694679451256818   -0.07249122657302733
-3.0970879184650024   -0.031606976721776814   0.16371542124761848
-3.0970879184650024   -0.031606976721776814   0.16371542124761848
-3.0970879184650024   -0.031606976721776814   0.16371542124761848
-3.0970879184650024   -0.031606976721776814   0.16371542124761848
-2.265546569049615   -0.1324993756117911   -0.1012848237513407
-2.265546569049615   -0.1324993756117911   -0.1012848237513407
-2.265546569049615   -0.1324993756117911   -0.1012848237513407
-2.265546569049615   -0.1324993756117911   -0.1012848237513407
-2.0864022637728987   0.3467420419222027   0.14348259824189394
-2.0864022637728987   0.3467420419222027   0.14348259824189394
-2.0864022637728987   0.3467420419222027   0.14348259824189394
-2.0864022637728987   0.3467420419222027   0.14348259824189394
-3.1302829894568034   -0.1602117383032824   -0.20894154816437263
-3.1302829894568034   -0.1602117383032824   -0.20894154816437263
-3.1302829894568034   -0.1602117383032824   -0.20894154816437263
-3.1302829894568034   -0.1602117383032824   -0.20894154816437263
-2.620082335069653   0.010142278532043192   0.00795908613024962
-2.620082335069653   0.010142278532043192   0.00795908613024962
-2.620082335069653   0.010142278532043192   0.00795908613024962
-2.620082335069653   0.010142278532043192   0.00795908613024962
-2.9935152645798486   0.1662999914132045   0.14838534650385274
-2.9935152645798486   0.1662999914132045   0.14838534650385274
-2.9935152645798486   0.1662999914132045   0.14838534650385274
-2.9935152645798486   0.1662999914132045   0.14838534650385274
-2.206512332025665   0.03688796882989154   -0.14721366992964133
-2.206512332025665   0.03688796882989154   -0.14721366992964133
-2.206512332025665   0.03688796882989154   -0.14721366992964133
-2.206512332025665   0.03688796882989154   -0.14721366992964133
-2.022244345353099   0.5483343755262137   0.10937396983902309
-2.022244345353099   0.5483343755262137   0.10937396983902309
-2.022244345353099   0.5483343755262137   0.10937396983902309
-2.022244345353099   0.5483343755262137   0.10937396983902309
-3.050822366352083   0.03512823395575104   -0.2372045478176055
-3.050822366352083   0.03512823395575104   -0.2372045478176055
-3.050822366352083   0.03512823395575104   -0.2372045478176055
-3.050822366352083   0.03512823395575104   -0.2372045478176055
-2.5528850733905024   0.18589551460011744   0.08653296760320173
-2.5528850733905024   0.18589551460011744   0.08653296760320173
-2.5528850733905024   0.18589551460011744   0.08653296760320173
-2.5528850733905024   0.18589551460011744   0.08653296760320173
-2.3226730396000494   -0.3970907447797098   0.03334375634300993
-2.3226730396000494   -0.3970907447797098   0.03334375634300993
-2.3226730396000494   -0.3970907447797098   0.03334375634300993
-2.3226730396000494   -0.3970907447797098   0.03334375634300993
-1.3695365409567464   -0.16523629418838212   0.08562715492574893
-1.3695365409567464   -0.16523629418838212   0.08562715492574893
-1.3695365409567464   -0.16523629418838212   0.08562715492574893
-1.3695365409567464   -0.16523629418838212   0.08562715492574893
-1.3213878446003058   -0.002085795174322669   0.011141680891060685
-1.3213878446003058   -0.002085795174322669   0.011141680891060685
-1.3213878446003058   -0.002085795174322669   0.011141680891060685
-1.3213878446003058   -0.002085795174322669   0.011141680891060685
-2.259197467296197   -0.1816977112473186   -0.0203409793487241
-2.259197467296197   -0.1816977112473186   -0.0203409793487241
-2.259197467296197   -0.1816977112473186   -0.0203409793487241
-2.259197467296197   -0.1816977112473186   -0.0203409793487241
-1.821070515009883   -0.17783652403859912   -0.05270182343428985
-1.821070515009883   -0.17783652403859912   -0.05270182343428985
-1.821070515009883   -0.17783652403859912   -0.05270182343428985
-1.821070515009883   -0.17783652403859912   -0.05270182343428985
-2.2566057879245505   -0.1909781489707908   0.0018978552329648457
-2.2566057879245505   -0.1909781489707908   0.0018978552329648457
-2.2566057879245505   -0.1909781489707908   0.0018978552329648457
-2.2566057879245505   -0.1909781489707908   0.0018978552329648457
-1.3096391538510748   0.021535012670024223   0.04626432679286789
-1.3096391538510748   0.021535012670024223   0.04626432679286789
-1.3096391538510748   0.021535012670024223   0.04626432679286789
-1.3096391538510748   0.021535012670024223   0.04626432679286789
-1.25154799146843   0.20586567107785714   -0.018048878637215826
-1.25154799146843   0.20586567107785714   -0.018048878637215826
-1.25154799146843   0.20586567107785714   -0.018048878637215826
-1.25154799146843   0.20586567107785714   -0.018048878637215826
-2.1947163932647653   0.007727421813968682   -0.059073429109218784
-2.1947163932647653   0.007727421813968682   -0.059073429109218784
-2.1947163932647653   0.007727421813968682   -0.059073429109218784
-2.1947163932647653   0.007727421813968682   -0.059073429109218784
-1.747447816272535   0.009256120284224012   0.02525391139531573
-1.747447816272535   0.009256120284224012   0.02525391139531573
-1.747447816272535   0.009256120284224012   0.02525391139531573
-1.747447816272535   0.009256120284224012   0.02525391139531573
-2.1871799328665067   0.016346931220759697   -0.030010636524749168
-2.1871799328665067   0.016346931220759697   -0.030010636524749168
-2.1871799328665067   0.016346931220759697   -0.030010636524749168
-2.1871799328665067   0.016346931220759697   -0.030010636524749168
-1.2461204849973595   0.21021012854041188   0.004744196255591471
-1.2461204849973595   0.21021012854041188   0.004744196255591471
-1.2461204849973595   0.21021012854041188   0.004744196255591471
-1.2461204849973595   0.21021012854041188   0.004744196255591471
-1.1855947094992663   0.4156957191516963   -0.0514289999280958
-1.1855947094992663   0.4156957191516963   -0.0514289999280958
-1.1855947094992663   0.4156957191516963   -0.0514289999280958
-1.1855947094992663   0.4156957191516963   -0.0514289999280958
-2.1341398788238304   0.19862287588902905   -0.10039219787744685
-2.1341398788238304   0.19862287588902905   -0.10039219787744685
-2.1341398788238304   0.19862287588902905   -0.10039219787744685
-2.1341398788238304   0.19862287588902905   -0.10039219787744685
-1.6777577162383406   0.1970165836365313   0.10007916443738704
-1.6777577162383406   0.1970165836365313   0.10007916443738704
-1.6777577162383406   0.1970165836365313   0.10007916443738704
-1.6777577162383406   0.1970165836365313   0.10007916443738704
-1.4857484776105678   -0.5327962798796975   -0.1278725426520667
-1.4857484776105678   -0.5327962798796975   -0.1278725426520667
-1.4857484776105678   -0.5327962798796975   -0.1278725426520667
-1.4857484776105678   -0.5327962798796975   -0.1278725426520667
-0.43887863483175754   -0.005320045405017355   0.22465810543768164
-0.43887863483175754   -0.005320045405017355   0.22465810543768164
-0.43887863483175754   -0.005320045405017355   0.22465810543768164
-0.43887863483175754   -0.005320045405017355   0.22465810543768164
-0.5014526068184053   -0.1556721385119359   -0.1635014534558149
-0.5014526068184053   -0.1556721385119359   -0.1635014534558149
-0.5014526068184053   -0.1556721385119359   -0.1635014534558149
-0.5014526068184053   -0.1556721385119359   -0.1635014534558149
-1.3016478449680111   -0.020413557569143093   0.12816944144734377
-1.3016478449680111   -0.020413557569143093   0.12816944144734377
-1.3016478449680111   -0.020413557569143093   0.12816944144734377
-1.3016478449680111   -0.020413557569143093   0.12816944144734377
-0.9319809241834225   -0.1707293539452323   -0.03800813060004502
-0.9319809241834225   -0.1707293539452323   -0.03800813060004502
-0.9319809241834225   -0.1707293539452323   -0.03800813060004502
-0.9319809241834225   -0.1707293539452323   -0.03800813060004502
-1.423441618886324   -0.3396768728141728   -0.1615361128992037
-1.423441618886324   -0.3396768728141728   -0.1615361128992037
-1.423441618886324   -0.3396768728141728   -0.1615361128992037
-1.423441618886324   -0.3396768728141728   -0.1615361128992037
-0.3635781895543479   0.17967182007885674   0.19052667427367984
-0.3635781895543479   0.17967182007885674   0.19052667427367984
-0.3635781895543479   0.17967182007885674   0.19052667427367984
-0.3635781895543479   0.17967182007885674   0.19052667427367984
-0.3997254372871313   0.04105184962875369   -0.18403113299166363
-0.3997254372871313   0.04105184962875369   -0.18403113299166363
-0.3997254372871313   0.04105184962875369   -0.18403113299166363
-0.3997254372871313   0.04105184962875369   -0.18403113299166363
-1.2420914697574594   0.149693783264922   0.08540561773057051
-1.2420914697574594   0.149693783264922   0.08540561773057051
-1.2420914697574594   0.149693783264922   0.08540561773057051
-1.2420914697574594   0.149693783264922   0.08540561773057051
-0.8538402196346476   0.003381632472104712   0.04138736561550334
-0.8538402196346476   0.003381632472104712   0.04138736561550334
-0.8538402196346476   0.003381632472104712   0.04138736561550334
-0.8538402196346476   0.003381632472104712   0.04138736561550334
-1.3600253994445235   -0.1542633047436341   -0.20030694269621027
-1.3600253994445235   -0.1542633047436341   -0.20030694269621027
-1.3600253994445235   -0.1542633047436341   -0.20030694269621027
-1.3600253994445235   -0.1542633047436341   -0.20030694269621027
-0.26682651401882673   0.35997393121854754   0.16154140176006535
-0.26682651401882673   0.35997393121854754   0.16154140176006535
-0.26682651401882673   0.35997393121854754   0.16154140176006535
-0.26682651401882673   0.35997393121854754   0.16154140176006535
-0.31364216878060336   0.26095503118837815   -0.20606472767918396
-0.31364216878060336   0.26095503118837815   -0.20606472767918396
-0.31364216878060336   0.26095503118837815   -0.20606472767918396
-0.31364216878060336   0.26095503118837815   -0.20606472767918396
-1.1811266437272514   0.3424217577351202   0.044185290348554784
-1.1811266437272514   0.3424217577351202   0.044185290348554784
-1.1811266437272514   0.3424217577351202   0.044185290348554784
-1.1811266437272514   0.3424217577351202   0.044185290348554784
-0.7727566429731342   0.18519540246537539   0.12090382339268335
-0.7727566429731342   0.18519540246537539   0.12090382339268335
-0.7727566429731342   0.18519540246537539   0.12090382339268335
-0.7727566429731342   0.18519540246537539   0.12090382339268335
-0.6528802978895569   -0.573348076073911   -0.2773221791824372
-0.6528802978895569   -0.573348076073911   -0.2773221791824372
-0.6528802978895569   -0.573348076073911   -0.2773221791824372
-0.6528802978895569   -0.573348076073911   -0.2773221791824372
0.2708401185090322   0.17270916218778268   0.34151036384141
0.2708401185090322   0.17270916218778268   0.34151036384141
0.2708401185090322   0.17270916218778268   0.34151036384141
0.2708401185090322   0.17270916218778268   0.34151036384141
0.2735194494522971   -0.2793593586327016   -0.3669432050128718
0.2735194494522971   -0.2793593586327016   -0.3669432050128718
0.2735194494522971   -0.2793593586327016   -0.3669432050128718
0.2735194494522971   -0.2793593586327016   -0.3669432050128718
-0.3464596774020327   0.17632095759123795   0.27947009752287466
-0.3464596774020327   0.17632095759123795   0.27947009752287466
-0.3464596774020327   0.17632095759123795   0.27947009752287466
-0.3464596774020327   0.17632095759123795   0.27947009752287466
-0.12284563232426093   -0.12066142119665745   -0.06572515594364473
-0.12284563232426093   -0.12066142119665745   -0.06572515594364473
-0.12284563232426093   -0.12066142119665745   -0.06572515594364473
-0.12284563232426093   -0.12066142119665745   -0.06572515594364473
-0.5898451601888877   -0.44239242610199725   -0.3187439327181651
-0.5898451601888877   -0.44239242610199725   -0.3187439327181651
-0.5898451601888877   -0.44239242610199725   -0.3187439327181651
-0.5898451601888877   -0.44239242610199725   -0.3187439327181651
0.5341125715977277   0.3565616644191093   0.30010138266247083
0.5341125715977277   0.3565616644191093   0.30010138266247083
0.5341125715977277   0.3565616644191093   0.30010138266247083
0.5341125715977277   0.3565616644191093   0.30010138266247083
0.46764461120318657   -0.16658810630267978   -0.43562495421293335
0.46764461120318657   -0.16658810630267978   -0.43562495421293335
0.46764461120318657   -0.16658810630267978   -0.43562495421293335
0.46764461120318657   -0.16658810630267978   -0.43562495421293335
-0.27470261772750815   0.25813949150993876   0.22399532292526725
-0.27470261772750815   0.25813949150993876   0.22399532292526725
-0.27470261772750815   0.25813949150993876   0.22399532292526725
-0.27470261772750815   0.25813949150993876   0.22399532292526725
0.03743514437806114   -0.004784200923945275   0.02048019429680148
0.03743514437806114   -0.004784200923945275   0.02048019429680148
0.03743514437806114   -0.004784200923945275   0.02048019429680148
0.03743514437806114   -0.004784200923945275   0.02048019429680148
-0.5147326834221296   -0.34961806432728054   -0.36839744971062094
-0.5147326834221296   -0.34961806432728054   -0.36839744971062094
-0.5147326834221296   -0.34961806432728054   -0.36839744971062094
-0.5147326834221296   -0.34961806432728054   -0.36839744971062094
0.724871843042376   0.45836661567911247   0.22555648300125158
0.724871843042376   0.45836661567911247   0.22555648300125158
0.724871843042376   0.45836661567911247   0.22555648300125158
0.724871843042376   0.45836661567911247   0.22555648300125158
0.7390709152674758   0.0544331011016373   -0.46625532140113435
0.7390709152674758   0.0544331011016373   -0.46625532140113435
0.7390709152674758   0.0544331011016373   -0.46625532140113435
0.7390709152674758   0.0544331011016373   -0.46625532140113435
-0.2076147210511965   0.4030321400386221   0.1819954021176063
-0.2076147210511965   0.4030321400386221   0.1819954021176063
-0.2076147210511965   0.4030321400386221   0.1819954021176063
-0.2076147210511965   0.4030321400386221   0.1819954021176063
0.18077224198473235   0.11724019414376907   0.10450739189191131
0.18077224198473235   0.11724019414376907   0.10450739189191131
0.18077224198473235   0.11724019414376907   0.10450739189191131
0.18077224198473235   0.11724019414376907   0.10450739189191131
-1.4210942000530802   0.07707512894646634   0.39002431127779646
-1.4210942000530802   0.07707512894646634   0.39002431127779646
-1.4210942000530802   0.07707512894646634   0.39002431127779646
-1.4210942000530802   0.07707512894646634   0.39002431127779646
-1.668711078626222   -0.5094993186508564   -0.23083122259896535
-1.668711078626222   -0.5094993186508564   -0.23083122259896535
-1.668711078626222   -0.5094993186508564   -0.23083122259896535
-1.668711078626222   -0.5094993186508564   -0.23083122259896535
-1.3322341076504864   0.23748744031806496   0.31959338624327016
-1.3322341076504864   0.23748744031806496   0.31959338624327016
-1.3322341076504864   0.23748744031806496   0.31959338624327016
-1.3322341076504864   0.23748744031806496   0.31959338624327016
-1.379401983262051   -0.3378083881801316   -0.2970121035121989
-1.379401983262051   -0.3378083881801316   -0.2970121035121989
-1.379401983262051   -0.3378083881801316   -0.2970121035121989
-1.379401983262051   -0.3378083881801316   -0.2970121035121989
-1.4130318077710047   -0.10880492977336262   -0.1057367613051984
-1.4130318077710047   -0.10880492977336262   -0.1057367613051984
-1.4130318077710047   -0.10880492977336262   -0.1057367613051984
-1.4130318077710047   -0.10880492977336262   -0.1057367613051984
-1.1221107208237642   0.2882671704454801   0.36336865005362373
-1.1221107208237642   0.2882671704454801   0.36336865005362373
-1.1221107208237642   0.2882671704454801   0.36336865005362373
-1.1221107208237642   0.2882671704454801   0.36336865005362373
-1.5735445151354086   -0.37260726335418204   -0.27686394750909343
-1.5735445151354086   -0.37260726335418204   -0.27686394750909343
-1.5735445151354086   -0.37260726335418204   -0.27686394750909343
-1.5735445151354086   -0.37260726335418204   -0.27686394750909343
-1.2274115813382174   0.32729622487533694   0.2691343260950684
-1.2274115813382174   0.32729622487533694   0.2691343260950684
-1.2274115813382174   0.32729622487533694   0.2691343260950684
-1.2274115813382174   0.32729622487533694   0.2691343260950684
-1.1565615979444075   -0.23631281375869412   -0.3703291227876262
-1.1565615979444075   -0.23631281375869412   -0.3703291227876262
-1.1565615979444075   -0.23631281375869412   -0.3703291227876262
-1.1565615979444075   -0.23631281375869412   -0.3703291227876262
-1.2485992495172975   0.006084494162948262   -0.021106825951141328
-1.2485992495172975   0.006084494162948262   -0.021106825951141328
-1.2485992495172975   0.006084494162948262   -0.021106825951141328
-1.2485992495172975   0.006084494162948262   -0.021106825951141328
-0.8976317347952929   0.3975223373372937   0.2904850418619276
-0.8976317347952929   0.3975223373372937   0.2904850418619276
-0.8976317347952929   0.3975223373372937   0.2904850418619276
-0.8976317347952929   0.3975223373372937   0.2904850418619276
-1.4712257818421781   -0.2914232635754972   -0.3312171879738708
-1.4712257818421781   -0.2914232635754972   -0.3312171879738708
-1.4712257818421781   -0.2914232635754972   -0.3312171879738708
-1.4712257818421781   -0.2914232635754972   -0.3312171879738708
-1.1313657124024896   0.46408975652675655   0.23247908748651114
-1.1313657124024896   0.46408975652675655   0.23247908748651114
-1.1313657124024896   0.46408975652675655   0.23247908748651114
-1.1313657124024896   0.46408975652675655   0.23247908748651114
-0.8591838930757797   -0.04334682054618044   -0.4172934171231073
-0.8591838930757797   -0.04334682054618044   -0.4172934171231073
-0.8591838930757797   -0.04334682054618044   -0.4172934171231073
-0.8591838930757797   -0.04334682054618044   -0.4172934171231073
-1.0504859961403061   0.12586540560541465   0.06968019977402524
-1.0504859961403061   0.12586540560541465   0.06968019977402524
-1.0504859961403061   0.12586540560541465   0.06968019977402524
-1.0504859961403061   0.12586540560541465   0.06968019977402524
-1.4952069289033423   -0.09359260547045065   0.22078281283499593
-1.4952069289033423   -0.09359260547045065   0.22078281283499593
-1.4952069289033423   -0.09359260547045065   0.22078281283499593
-1.4952069289033423   -0.09359260547045065   0.22078281283499593
-1.8422174544648344   -0.4155005865365015   -0.09021582464093912
-1.8422174544648344   -0.4155005865365015   -0.09021582464093912
-1.8422174544648344   -0.4155005865365015   -0.09021582464093912
-1.8422174544648344   -0.4155005865365015   -0.09021582464093912
-1.6404137151936107   0.04243252351448412   0.1482418180241537
-1.6404137151936107   0.04243252351448412   0.1482418180241537
-1.6404137151936107   0.04243252351448412   0.1482418180241537
-1.6404137151936107   0.04243252351448412   0.1482418180241537
-1.5107410177147635   -0.19843031422795854   -0.13702340953209105
-1.5107410177147635   -0.19843031422795854   -0.13702340953209105
-1.5107410177147635   -0.19843031422795854   -0.13702340953209105
-1.5107410177147635   -0.19843031422795854   -0.13702340953209105
-1.623075556802434   -0.153653075993906   -0.07490890030359473
-1.623075556802434   -0.153653075993906   -0.07490890030359473
-1.623075556802434   -0.153653075993906   -0.07490890030359473
-1.623075556802434   -0.153653075993906   -0.07490890030359473
-1.3846046643097072   0.10249298228291587   0.19273506098228627
-1.3846046643097072   0.10249298228291587   0.19273506098228627
-1.3846046643097072   0.10249298228291587   0.19273506098228627
-1.3846046643097072   0.10249298228291587   0.19273506098228627
-1.7540498310734658   -0.245990535471176   -0.13151570238947605
-1.7540498310734658   -0.245990535471176   -0.13151570238947605
-1.7540498310734658   -0.245990535471176   -0.13151570238947605
-1.7540498310734658   -0.245990535471176   -0.13151570238947605
-1.546730656266701   0.22091946328451323   0.11316212658450295
-1.546730656266701   0.22091946328451323   0.11316212658450295
-1.546730656266701   0.22091946328451323   0.11316212658450295
-1.546730656266701   0.22091946328451323   0.11316212658450295
-1.3859211666711977   -0.026082958790873245   -0.17003441690359258
-1.3859211666711977   -0.026082958790873245   -0.17003441690359258
-1.3859211666711977   -0.026082958790873245   -0.17003441690359258
-1.3859211666711977   -0.026082958790873245   -0.17003441690359258
-1.5113842674416256   0.013182722622692045   0.0032969448372218574
-1.5113842674416256   0.013182722622692045   0.0032969448372218574
-1.5113842674416256   0.013182722622692045   0.0032969448372218574
-1.5113842674416256   0.013182722622692045   0.0032969448372218574
-1.2536731439573912   0.2916025733369646   0.17352016453757246
-1.2536731439573912   0.2916025733369646   0.17352016453757246
-1.2536731439573912   0.2916025733369646   0.17352016453757246
-1.2536731439573912   0.2916025733369646   0.17352016453757246
-1.665660218862699   -0.08344760872550577   -0.17711861438549953
-1.665660218862699   -0.08344760872550577   -0.17711861438549953
-1.665660218862699   -0.08344760872550577   -0.17711861438549953
-1.665660218862699   -0.08344760872550577   -0.17711861438549953
-1.452617551800826   0.4181746301035345   0.07982261837005508
-1.452617551800826   0.4181746301035345   0.07982261837005508
-1.452617551800826   0.4181746301035345   0.07982261837005508
-1.452617551800826   0.4181746301035345   0.07982261837005508
-1.277960448548771   0.1648955265682679   -0.20130036328643633
-1.277960448548771   0.1648955265682679   -0.20130036328643633
-1.277960448548771   0.1648955265682679   -0.20130036328643633
-1.277960448548771   0.1648955265682679   -0.20130036328643633
-1.4058173901634805   0.1851424070534785   0.08277548539102517
-1.4058173901634805   0.1851424070534785   0.08277548539102517
-1.4058173901634805   0.1851424070534785   0.08277548539102517
-1.4058173901634805   0.1851424070534785   0.08277548539102517
-1.7791425137610004   -0.251959384388387   0.06161767673010153
-1.7791425137610004   -0.251959384388387   0.06161767673010153
-1.7791425137610004   -0.251959384388387   0.06161767673010153
-1.7791425137610004   -0.251959384388387   0.06161767673010153
-2.015885775299606   -0.26073629793783354   0.05475010562582562
-2.015885775299606   -0.26073629793783354   0.05475010562582562
-2.015885775299606   -0.26073629793783354   0.05475010562582562
-2.015885775299606   -0.26073629793783354   0.05475010562582562
-1.9405204824482758   -0.1177068680363969   -0.019063748142159956
-1.9405204824482758   -0.1177068680363969   -0.019063748142159956
-1.9405204824482758   -0.1177068680363969   -0.019063748142159956
-1.9405204824482758   -0.1177068680363969   -0.019063748142159956
-1.6822518771560715   -0.03616156366816009   0.0176450953944787
-1.6822518771560715   -0.03616156366816009   0.0176450953944787
-1.6822518771560715   -0.03616156366816009   0.0176450953944787
-1.6822518771560715   -0.03616156366816009   0.0176450953944787
-1.8572275858351937   -0.15718516312063024   -0.049548315577069346
-1.8572275858351937   -0.15718516312063024   -0.049548315577069346
-1.8572275858351937   -0.15718516312063024   -0.049548315577069346
-1.8572275858351937   -0.15718516312063024   -0.049548315577069346
-1.683794441872973   -0.05649564055378725   0.030266348695585463
-1.683794441872973   -0.05649564055378725   0.030266348695585463
-1.683794441872973   -0.05649564055378725   0.030266348695585463
-1.683794441872973   -0.05649564055378725   0.030266348695585463
-1.9272121524553247   -0.08560702587471936   0.015378059660935611
-1.9272121524553247   -0.08560702587471936   0.015378059660935611
-1.9272121524553247   -0.08560702587471936   0.015378059660935611
-1.9272121524553247   -0.08560702587471936   0.015378059660935611
-1.8421981358897366   0.08034881737608779   -0.04848470867365176
-1.8421981358897366   0.08034881737608779   -0.04848470867365176
-1.8421981358897366   0.08034881737608779   -0.04848470867365176
-1.8421981358897366   0.08034881737608779   -0.04848470867365176
-1.5888874274979987   0.1438190402438932   -0.020521306531365746
-1.5888874274979987   0.1438190402438932   -0.020521306531365746
-1.5888874274979987   0.1438190402438932   -0.020521306531365746
-1.5888874274979987   0.1438190402438932   -0.020521306531365746
-1.7545710095552973   0.019982478684409   0.027594905536812
-1.7545710095552973   0.019982478684409   0.027594905536812
-1.7545710095552973   0.019982478684409   0.027594905536812
-1.7545710095552973   0.019982478684409   0.027594905536812
-1.5858309188788091   0.14086271489557706   -0.0022824380871330485
-1.5858309188788091   0.14086271489557706   -0.0022824380871330485
-1.5858309188788091   0.14086271489557706   -0.0022824380871330485
-1.5858309188788091   0.14086271489557706   -0.0022824380871330485
-1.8350046315065496   0.09355515572677553   -0.02572352510840331
-1.8350046315065496   0.09355515572677553   -0.02572352510840331
-1.8350046315065496   0.09355515572677553   -0.02572352510840331
-1.8350046315065496   0.09355515572677553   -0.02572352510840331
-1.7480617791883886   0.2795622059723363   -0.08177364709622947
-1.7480617791883886   0.2795622059723363   -0.08177364709622947
-1.7480617791883886   0.2795622059723363   -0.08177364709622947
-1.7480617791883886   0.2795622059723363   -0.08177364709622947
-1.4997789116059186   0.3245360671976571   -0.06234561774951389
-1.4997789116059186   0.3245360671976571   -0.06234561774951389
-1.4997789116059186   0.3245360671976571   -0.06234561774951389
-1.4997789116059186   0.3245360671976571   -0.06234561774951389
-1.6565916526695013   0.19746209449190943   0.10113672347973854
-1.6565916526695013   0.19746209449190943   0.10113672347973854
-1.6565916526695013   0.19746209449190943   0.10113672347973854
-1.6565916526695013   0.19746209449190943   0.10113672347973854
-2.0746245458111647   -0.3977807147186482   -0.10189933015118802
-2.0746245458111647   -0.3977807147186482   -0.10189933015118802
-2.0746245458111647   -0.3977807147186482   -0.10189933015118802
-2.0746245458111647   -0.3977807147186482   -0.10189933015118802
-2.203467750890796   -0.10922211739445564   0.19346225806163006
-2.203467750890796   -0.10922211739445564   0.19346225806163006
-2.203467750890796   -0.10922211739445564   0.19346225806163006
-2.203467750890796   -0.10922211739445564   0.19346225806163006
-2.2379437144037726   -0.27096333335930445   -0.18828356806757873
-2.2379437144037726   -0.27096333335930445   -0.18828356806757873
-2.2379437144037726   -0.27096333335930445   -0.18828356806757873
-2.2379437144037726   -0.27096333335930445   -0.18828356806757873
-1.8566985595154368   0.11967015842951001   0.16266884005612825
-1.8566985595154368   0.11967015842951001   0.16266884005612825
-1.8566985595154368   0.11967015842951001   0.16266884005612825
-1.8566985595154368   0.11967015842951001   0.16266884005612825
-2.0846315379855507   -0.1538216046678132   -0.031074942953957504
-2.0846315379855507   -0.1538216046678132   -0.031074942953957504
-2.0846315379855507   -0.1538216046678132   -0.031074942953957504
-2.0846315379855507   -0.1538216046678132   -0.031074942953957504
-1.9818050440795005   -0.2089313087898945   -0.13426211554480094
-1.9818050440795005   -0.2089313087898945   -0.13426211554480094
-1.9818050440795005   -0.2089313087898945   -0.13426211554480094
-1.9818050440795005   -0.2089313087898945   -0.13426211554480094
-2.1004964436006563   0.06997892009914969   0.15801053248954622
-2.1004964436006563   0.06997892009914969   0.15801053248954622
-2.1004964436006563   0.06997892009914969   0.15801053248954622
-2.1004964436006563   0.06997892009914969   0.15801053248954622
-2.10955040857609   -0.08312453620232357   -0.21122704078690463
-2.10955040857609   -0.08312453620232357   -0.21122704078690463
-2.10955040857609   -0.08312453620232357   -0.21122704078690463
-2.10955040857609   -0.08312453620232357   -0.21122704078690463
-1.7680139242943866   0.28203838017592203   0.12074678650324841
-1.7680139242943866   0.28203838017592203   0.12074678650324841
-1.7680139242943866   0.28203838017592203   0.12074678650324841
-1.7680139242943866   0.28203838017592203   0.12074678650324841
-1.9683164802178579   0.016679104526345745   0.04850162566870056
-1.9683164802178579   0.016679104526345745   0.04850162566870056
-1.9683164802178579   0.016679104526345745   0.04850162566870056
-1.9683164802178579   0.016679104526345745   0.04850162566870056
-1.8892573914732178   -0.031255798722787775   -0.1721763704922201
-1.8892573914732178   -0.031255798722787775   -0.1721763704922201
-1.8892573914732178   -0.031255798722787775   -0.1721763704922201
-1.8892573914732178   -0.031255798722787775   -0.1721763704922201
-1.9758340486095456   0.24264253548411852   0.13158768735939
-1.9758340486095456   0.24264253548411852   0.13158768735939
-1.9758340486095456   0.24264253548411852   0.13158768735939
-1.9758340486095456   0.24264253548411852   0.13158768735939
-1.9971282597426334   0.1240433643090123   -0.231705060766603
-1.9971282597426334   0.1240433643090123   -0.231705060766603
-1.9971282597426334   0.1240433643090123   -0.231705060766603
-1.9971282597426334   0.1240433643090123   -0.231705060766603
-1.6790801217200255   0.46328875042864426   0.07940809578927835
-1.6790801217200255   0.46328875042864426   0.07940809578927835
-1.6790801217200255   0.46328875042864426   0.07940809578927835
-1.6790801217200255   0.46328875042864426   0.07940809578927835
-1.8690941769907905   0.1861859947083786   0.12469867136838905
-1.8690941769907905   0.1861859947083786   0.12469867136838905
-1.8690941769907905   0.1861859947083786   0.12469867136838905
-1.8690941769907905   0.1861859947083786   0.12469867136838905
-2.365979502470603   -0.4738504651856699   -0.2544681520462179
-2.365979502470603   -0.4738504651856699   -0.2544681520462179
-2.365979502470603   -0.4738504651856699   -0.2544681520462179
-2.365979502470603   -0.4738504651856699   -0.2544681520462179
-2.60233782673092   0.039899618034059836   0.3467151583058286
-2.60233782673092   0.039899618034059836   0.3467151583058286
-2.60233782673092   0.039899618034059836   0.3467151583058286
-2.60233782673092   0.039899618034059836   0.3467151583058286
-2.565160552253084   -0.39099953899295536   -0.33843151054716386
-2.565160552253084   -0.39099953899295536   -0.33843151054716386
-2.565160552253084   -0.39099953899295536   -0.33843151054716386
-2.565160552253084   -0.39099953899295536   -0.33843151054716386
-2.0242640937373357   0.2983364907783943   0.3108147111268891
-2.0242640937373357   0.2983364907783943   0.3108147111268891
-2.0242640937373357   0.2983364907783943   0.3108147111268891
-2.0242640937373357   0.2983364907783943   0.3108147111268891
-2.2939905837958765   -0.10067858721589162   -0.016511631663425536
-2.2939905837958765   -0.10067858721589162   -0.016511631663425536
-2.2939905837958765   -0.10067858721589162   -0.016511631663425536
-2.2939905837958765   -0.10067858721589162   -0.016511631663425536
-2.2687084763160272   -0.32219746991148057   -0.2908732410767235
-2.2687084763160272   -0.32219746991148057   -0.2908732410767235
-2.2687084763160272   -0.32219746991148057   -0.2908732410767235
-2.2687084763160272   -0.32219746991148057   -0.2908732410767235
-2.307663682908109   0.2425869084631772   0.3154663887215765
-2.307663682908109   0.2425869084631772   0.3154663887215765
-2.307663682908109   0.2425869084631772   0.3154663887215765
-2.307663682908109   0.2425869084631772   0.3154663887215765
-2.344360198670426   -0.2812210313736401   -0.4031497105497097
-2.344360198670426   -0.2812210313736401   -0.4031497105497097
-2.344360198670426   -0.2812210313736401   -0.4031497105497097
-2.344360198670426   -0.2812210313736401   -0.4031497105497097
-1.9246884501946597   0.37565155647250564   0.2543066584454168
-1.9246884501946597   0.37565155647250564   0.2543066584454168
-1.9246884501946597   0.37565155647250564   0.2543066584454168
-1.9246884501946597   0.37565155647250564   0.2543066584454168
-2.1435414246596554   0.013901391104579108   0.05998867200722269
-2.1435414246596554   0.013901391104579108   0.05998867200722269
-2.1435414246596554   0.013901391104579108   0.05998867200722269
-2.1435414246596554   0.013901391104579108   0.05998867200722269
-2.164313195534014   -0.23184565916015842   -0.3363198526187133
-2.164313195534014   -0.23184565916015842   -0.3363198526187133
-2.164313195534014   -0.23184565916015842   -0.3363198526187133
-2.164313195534014   -0.23184565916015842   -0.3363198526187133
-2.0910689931577116   0.33994264443233924   0.24214264120788154
-2.0910689931577116   0.33994264443233924   0.24214264120788154
-2.0910689931577116   0.33994264443233924   0.24214264120788154
-2.0910689931577116   0.33994264443233924   0.24214264120788154
-2.055261393827256   -0.09096351296019434   -0.4403361901005392
-2.055261393827256   -0.09096351296019434   -0.4403361901005392
-2.055261393827256   -0.09096351296019434   -0.4403361901005392
-2.055261393827256   -0.09096351296019434   -0.4403361901005392
-1.8353806300656437   0.4916054899633232   0.20947096196401135
-1.8353806300656437   0.4916054899633232   0.20947096196401135
-1.8353806300656437   0.4916054899633232   0.20947096196401135
-1.8353806300656437   0.4916054899633232   0.20947096196401135
-1.9397615304184364   0.12865506134688348   0.1482950132159904
-1.9397615304184364   0.12865506134688348   0.1482950132159904
-1.9397615304184364   0.12865506134688348   0.1482950132159904
-1.9397615304184364   0.12865506134688348   0.1482950132159904
1.4290642588073978   0.23194849777417095   0.3786325220925514
1.4290642588073978   0.23194849777417095   0.3786325220925514
1.4290642588073978   0.23194849777417095   0.3786325220925514
1.4290642588073978   0.23194849777417095   0.3786325220925514
-0.04058250328225027   -0.6094311806246734   -0.2508596585250326
-0.04058250328225027   -0.6094311806246734   -0.2508596585250326
-0.04058250328225027   -0.6094311806246734   -0.2508596585250326
-0.04058250328225027   -0.6094311806246734   -0.2508596585250326
0.3197797722427148   0.11998306862943754   0.29276342503088076
0.3197797722427148   0.11998306862943754   0.29276342503088076
0.3197797722427148   0.11998306862943754   0.29276342503088076
0.3197797722427148   0.11998306862943754   0.29276342503088076
1.4936550103413933   -0.21655054558123632   -0.3135571531522311
1.4936550103413933   -0.21655054558123632   -0.3135571531522311
1.4936550103413933   -0.21655054558123632   -0.3135571531522311
1.4936550103413933   -0.21655054558123632   -0.3135571531522311
0.7286388193727659   -0.11957056610505062   -0.17977144836602607
0.7286388193727659   -0.11957056610505062   -0.17977144836602607
0.7286388193727659   -0.11957056610505062   -0.17977144836602607
0.7286388193727659   -0.11957056610505062   -0.17977144836602607
1.7512295525222465   0.4160611184277677   0.34170389374300003
1.7512295525222465   0.4160611184277677   0.34170389374300003
1.7512295525222465   0.4160611184277677   0.34170389374300003
1.7512295525222465   0.4160611184277677   0.34170389374300003
0.07789351244670834   -0.49694031299473007   -0.2997444923250149
0.07789351244670834   -0.49694031299473007   -0.2997444923250149
0.07789351244670834   -0.49694031299473007   -0.2997444923250149
0.07789351244670834   -0.49694031299473007   -0.2997444923250149
0.4523380064248996   0.2084372224660967   0.24452145396702088
0.4523380064248996   0.2084372224660967   0.24452145396702088
0.4523380064248996   0.2084372224660967   0.24452145396702088
0.4523380064248996   0.2084372224660967   0.24452145396702088
1.745750482935487   -0.11658513680587929   -0.39272796999222237
1.745750482935487   -0.11658513680587929   -0.39272796999222237
1.745750482935487   -0.11658513680587929   -0.39272796999222237
1.745750482935487   -0.11658513680587929   -0.39272796999222237
0.9559430001860751   -0.009099378868590496   -0.08397746646337273
0.9559430001860751   -0.009099378868590496   -0.08397746646337273
0.9559430001860751   -0.009099378868590496   -0.08397746646337273
0.9559430001860751   -0.009099378868590496   -0.08397746646337273
2.006314020324847   0.5241908754020127   0.2693137047466536
2.006314020324847   0.5241908754020127   0.2693137047466536
2.006314020324847   0.5241908754020127   0.2693137047466536
2.006314020324847   0.5241908754020127   0.2693137047466536
0.20718992800449787   -0.4169233307728373   -0.35585838489602295
0.20718992800449787   -0.4169233307728373   -0.35585838489602295
0.20718992800449787   -0.4169233307728373   -0.35585838489602295
0.20718992800449787   -0.4169233307728373   -0.35585838489602295
0.5810569409799017   0.3704841995319863   0.21162084921204494
0.5810569409799017   0.3704841995319863   0.21162084921204494
0.5810569409799017   0.3704841995319863   0.21162084921204494
0.5810569409799017   0.3704841995319863   0.21162084921204494
2.0802044223977645   0.10726890118573112   -0.43326468471138446
2.0802044223977645   0.10726890118573112   -0.43326468471138446
2.0802044223977645   0.10726890118573112   -0.43326468471138446
2.0802044223977645   0.10726890118573112   -0.43326468471138446
1.1476587671910432   0.11444133473304169   0.006821655802071794
1.1476587671910432   0.11444133473304169   0.006821655802071794
1.1476587671910432   0.11444133473304169   0.006821655802071794
1.1476587671910432   0.11444133473304169   0.006821655802071794
0.1949165512033033   0.06117522181743343   0.2560292114605976
0.1949165512033033   0.06117522181743343   0.2560292114605976
0.1949165512033033   0.06117522181743343   0.2560292114605976
0.1949165512033033   0.06117522181743343   0.2560292114605976
-1.3729235752686322   -0.5169705801574045   -0.11499562311454241
-1.3729235752686322   -0.5169705801574045   -0.11499562311454241
-1.3729235752686322   -0.5169705801574045   -0.11499562311454241
-1.3729235752686322   -0.5169705801574045   -0.11499562311454241
-1.1448455953974657   -0.07434876558548409   0.1174889113627381
-1.1448455953974657   -0.07434876558548409   0.1174889113627381
-1.1448455953974657   -0.07434876558548409   0.1174889113627381
-1.1448455953974657   -0.07434876558548409   0.1174889113627381
0.20651582547627498   -0.06168290293626307   -0.09189033723564859
0.20651582547627498   -0.06168290293626307   -0.09189033723564859
0.20651582547627498   -0.06168290293626307   -0.09189033723564859
0.20651582547627498   -0.06168290293626307   -0.09189033723564859
-0.540276493240066   -0.13471059945881514   -0.08667227199404771
-0.540276493240066   -0.13471059945881514   -0.08667227199404771
-0.540276493240066   -0.13471059945881514   -0.08667227199404771
-0.540276493240066   -0.13471059945881514   -0.08667227199404771
0.33122524262579534   0.24280199071809122   0.22717185485759894
0.33122524262579534   0.24280199071809122   0.22717185485759894
0.33122524262579534   0.24280199071809122   0.22717185485759894
0.33122524262579534   0.24280199071809122   0.22717185485759894
-1.2581824662343302   -0.3674611129272234   -0.15608309547984472
-1.2581824662343302   -0.3674611129272234   -0.15608309547984472
-1.2581824662343302   -0.3674611129272234   -0.15608309547984472
-1.2581824662343302   -0.3674611129272234   -0.15608309547984472
-1.0238869736238072   0.09695183170652244   0.08310534253599536
-1.0238869736238072   0.09695183170652244   0.08310534253599536
-1.0238869736238072   0.09695183170652244   0.08310534253599536
-1.0238869736238072   0.09695183170652244   0.08310534253599536
0.3571355622129797   0.10121206262194414   -0.12426560724842572
0.3571355622129797   0.10121206262194414   -0.12426560724842572
0.3571355622129797   0.10121206262194414   -0.12426560724842572
0.3571355622129797   0.10121206262194414   -0.12426560724842572
-0.412118934598361   0.016657115422832797   -0.010296633926570355
-0.412118934598361   0.016657115422832797   -0.010296633926570355
-0.412118934598361   0.016657115422832797   -0.010296633926570355
-0.412118934598361   0.016657115422832797   -0.010296633926570355
0.48705718432968237   0.42319208998452296   0.2033624759725084
0.48705718432968237   0.42319208998452296   0.2033624759725084
0.48705718432968237   0.42319208998452296   0.2033624759725084
0.48705718432968237   0.42319208998452296   0.2033624759725084
-1.1428839450251507   -0.21410354494069728   -0.20082413782350245
-1.1428839450251507   -0.21410354494069728   -0.20082413782350245
-1.1428839450251507   -0.21410354494069728   -0.20082413782350245
-1.1428839450251507   -0.21410354494069728   -0.20082413782350245
-0.9022495774199857   0.29036289643842855   0.05032561493582696
-0.9022495774199857   0.29036289643842855   0.05032561493582696
-0.9022495774199857   0.29036289643842855   0.05032561493582696
-0.9022495774199857   0.29036289643842855   0.05032561493582696
0.48999756419035156   0.28560029691716077   -0.15879213212084958
0.48999756419035156   0.28560029691716077   -0.15879213212084958
0.48999756419035156   0.28560029691716077   -0.15879213212084958
0.48999756419035156   0.28560029691716077   -0.15879213212084958
-0.2707148462046081   0.18345821921740962   0.07100877579873888
-0.2707148462046081   0.18345821921740962   0.07100877579873888
-0.2707148462046081   0.18345821921740962   0.07100877579873888
-0.2707148462046081   0.18345821921740962   0.07100877579873888
-1.2481396441390933   -0.09978866862978619   0.09174212100554914
-1.2481396441390933   -0.09978866862978619   0.09174212100554914
-1.2481396441390933   -0.09978866862978619   0.09174212100554914
-1.2481396441390933   -0.09978866862978619   0.09174212100554914
-2.6813703376782607   -0.36558194262146293   0.024266448741696922
-2.6813703376782607   -0.36558194262146293   0.024266448741696922
-2.6813703376782607   -0.36558194262146293   0.024266448741696922
-2.6813703376782607   -0.36558194262146293   0.024266448741696922
-2.5751284507959302   -0.22839180359604383   -0.05062953060508121
-2.5751284507959302   -0.22839180359604383   -0.05062953060508121
-2.5751284507959302   -0.22839180359604383   -0.05062953060508121
-2.5751284507959302   -0.22839180359604383   -0.05062953060508121
-1.1229749651353933   0.09508756845337185   0.05740572863426066
-1.1229749651353933   0.09508756845337185   0.05740572863426066
-1.1229749651353933   0.09508756845337185   0.05740572863426066
-1.1229749651353933   0.09508756845337185   0.05740572863426066
-1.9097023584076862   -0.13732989732080225   -0.05023394866081349
-1.9097023584076862   -0.13732989732080225   -0.05023394866081349
-1.9097023584076862   -0.13732989732080225   -0.05023394866081349
-1.9097023584076862   -0.13732989732080225   -0.05023394866081349
-1.1246228707244623   0.08390497697310267   0.0603487921691834
-1.1246228707244623   0.08390497697310267   0.0603487921691834
-1.1246228707244623   0.08390497697310267   0.0603487921691834
-1.1246228707244623   0.08390497697310267   0.0603487921691834
-2.5637689738011176   -0.2074976407100313   -0.014726308517030468
-2.5637689738011176   -0.2074976407100313   -0.014726308517030468
-2.5637689738011176   -0.2074976407100313   -0.014726308517030468
-2.5637689738011176   -0.2074976407100313   -0.014726308517030468
-2.4480178508525805   -0.0398282480098594   -0.07962732444554665
-2.4480178508525805   -0.0398282480098594   -0.07962732444554665
-2.4480178508525805   -0.0398282480098594   -0.07962732444554665
-2.4480178508525805   -0.0398282480098594   -0.07962732444554665
-1.0031989711468463   0.2625761337535312   0.020921052873806023
-1.0031989711468463   0.2625761337535312   0.020921052873806023
-1.0031989711468463   0.2625761337535312   0.020921052873806023
-1.0031989711468463   0.2625761337535312   0.020921052873806023
-1.7785224344448731   0.02840748691705186   0.026630341509656485
-1.7785224344448731   0.02840748691705186   0.026630341509656485
-1.7785224344448731   0.02840748691705186   0.026630341509656485
-1.7785224344448731   0.02840748691705186   0.026630341509656485
-1.0003305265853755   0.27100213634969134   0.026837273085001584
-1.0003305265853755   0.27100213634969134   0.026837273085001584
-1.0003305265853755   0.27100213634969134   0.026837273085001584
-1.0003305265853755   0.27100213634969134   0.026837273085001584
-2.44315795829963   -0.04052591349160117   -0.05463019619907178
-2.44315795829963   -0.04052591349160117   -0.05463019619907178
-2.44315795829963   -0.04052591349160117   -0.05463019619907178
-2.44315795829963   -0.04052591349160117   -0.05463019619907178
-2.3260565007460934   0.14918821551999173   -0.11280728699766579
-2.3260565007460934   0.14918821551999173   -0.11280728699766579
-2.3260565007460934   0.14918821551999173   -0.11280728699766579
-2.3260565007460934   0.14918821551999173   -0.11280728699766579
-0.8884774360635421   0.4305594543329425   -0.021010236176452757
-0.8884774360635421   0.4305594543329425   -0.021010236176452757
-0.8884774360635421   0.4305594543329425   -0.021010236176452757
-0.8884774360635421   0.4305594543329425   -0.021010236176452757
-1.6541061549712743   0.19365919927384873   0.09847494668168838
-1.6541061549712743   0.19365919927384873   0.09847494668168838
-1.6541061549712743   0.19365919927384873   0.09847494668168838
-1.6541061549712743   0.19365919927384873   0.09847494668168838
-2.680437626156821   -0.2588657760954133   -0.07778616017713327
-2.680437626156821   -0.2588657760954133   -0.07778616017713327
-2.680437626156821   -0.2588657760954133   -0.07778616017713327
-2.680437626156821   -0.2588657760954133   -0.07778616017713327
-3.973790569563941   -0.22338432431672417   0.1611912596505054
-3.973790569563941   -0.22338432431672417   0.1611912596505054
-3.973790569563941   -0.22338432431672417   0.1611912596505054
-3.973790569563941   -0.22338432431672417   0.1611912596505054
-3.9730429586641853   -0.3790147514732263   -0.2144113103088049
-3.9730429586641853   -0.3790147514732263   -0.2144113103088049
-3.9730429586641853   -0.3790147514732263   -0.2144113103088049
-3.9730429586641853   -0.3790147514732263   -0.2144113103088049
-2.431268030961509   0.24406455530136906   0.1962162096696137
-2.431268030961509   0.24406455530136906   0.1962162096696137
-2.431268030961509   0.24406455530136906   0.1962162096696137
-2.431268030961509   0.24406455530136906   0.1962162096696137
-3.246478439389487   -0.13820456232169887   -0.020969374886534026
-3.246478439389487   -0.13820456232169887   -0.020969374886534026
-3.246478439389487   -0.13820456232169887   -0.020969374886534026
-3.246478439389487   -0.13820456232169887   -0.020969374886534026
-2.5557996494929243   -0.07429941092868941   -0.10807791675738138
-2.5557996494929243   -0.07429941092868941   -0.10807791675738138
-2.5557996494929243   -0.07429941092868941   -0.10807791675738138
-2.5557996494929243   -0.07429941092868941   -0.10807791675738138
-3.840540346710601   -0.0526797918209887   0.12176678980691677
-3.840540346710601   -0.0526797918209887   0.12176678980691677
-3.840540346710601   -0.0526797918209887   0.12176678980691677
-3.840540346710601   -0.0526797918209887   0.12176678980691677
-3.814228598952608   -0.19906275893386127   -0.2385442343874463
-3.814228598952608   -0.19906275893386127   -0.2385442343874463
-3.814228598952608   -0.19906275893386127   -0.2385442343874463
-3.814228598952608   -0.19906275893386127   -0.2385442343874463
-2.3135882933102603   0.3965690496108748   0.15612316564532228
-2.3135882933102603   0.3965690496108748   0.15612316564532228
-2.3135882933102603   0.3965690496108748   0.15612316564532228
-2.3135882933102603   0.3965690496108748   0.15612316564532228
-3.089645495435477   0.028804142347517936   0.058146742998039874
-3.089645495435477   0.028804142347517936   0.058146742998039874
-3.089645495435477   0.028804142347517936   0.058146742998039874
-3.089645495435477   0.028804142347517936   0.058146742998039874
-2.434013546573413   0.09566857350629321   -0.1451026245658694
-2.434013546573413   0.09566857350629321   -0.1451026245658694
-2.434013546573413   0.09566857350629321   -0.1451026245658694
-2.434013546573413   0.09566857350629321   -0.1451026245658694
-3.684826022174633   0.1108150406855416   0.0985908498830286
-3.684826022174633   0.1108150406855416   0.0985908498830286
-3.684826022174633   0.1108150406855416   0.0985908498830286
-3.684826022174633   0.1108150406855416   0.0985908498830286
-3.672087698503772   -0.002534056280433905   -0.25669836097236576
-3.672087698503772   -0.002534056280433905   -0.25669836097236576
-3.672087698503772   -0.002534056280433905   -0.25669836097236576
-3.672087698503772   -0.002534056280433905   -0.25669836097236576
-2.197116140411602   0.5653328167649394   0.11574991342984192
-2.197116140411602   0.5653328167649394   0.11574991342984192
-2.197116140411602   0.5653328167649394   0.11574991342984192
-2.197116140411602   0.5653328167649394   0.11574991342984192
-2.9715024857741636   0.18486695129547748   0.12914708904657163
-2.9715024857741636   0.18486695129547748   0.12914708904657163
-2.9715024857741636   0.18486695129547748   0.12914708904657163
-2.9715024857741636   0.18486695129547748   0.12914708904657163
-4.0828842897458415   -0.37257086612102897   -0.23509079945469363
-4.0828842897458415   -0.37257086612102897   -0.23509079945469363
-4.0828842897458415   -0.37257086612102897   -0.23509079945469363
-4.0828842897458415   -0.37257086612102897   -0.23509079945469363
-5.444854929310059   -0.09302164980707195   0.3471888433584063
-5.444854929310059   -0.09302164980707195   0.3471888433584063
-5.444854929310059   -0.09302164980707195   0.3471888433584063
-5.444854929310059   -0.09302164980707195   0.3471888433584063
-5.36603475870321   -0.4947723070617147   -0.3129586131077813
-5.36603475870321   -0.4947723070617147   -0.3129586131077813
-5.36603475870321   -0.4947723070617147   -0.3129586131077813
-5.36603475870321   -0.4947723070617147   -0.3129586131077813
-3.7035480189691783   0.4117766683835007   0.3422719683095029
-3.7035480189691783   0.4117766683835007   0.3422719683095029
-3.7035480189691783   0.4117766683835007   0.3422719683095029
-3.7035480189691783   0.4117766683835007   0.3422719683095029
-4.449123236534913   -0.07862120047789722   0.03598125586019696
-4.449123236534913   -0.07862120047789722   0.03598125586019696
-4.449123236534913   -0.07862120047789722   0.03598125586019696
-4.449123236534913   -0.07862120047789722   0.03598125586019696
-3.947858494650221   -0.2017050666433331   -0.2657986750688631
-3.947858494650221   -0.2017050666433331   -0.2657986750688631
-3.947858494650221   -0.2017050666433331   -0.2657986750688631
-3.947858494650221   -0.2017050666433331   -0.2657986750688631
-5.1145304041830935   0.12590330680418038   0.3238875456268163
-5.1145304041830935   0.12590330680418038   0.3238875456268163
-5.1145304041830935   0.12590330680418038   0.3238875456268163
-5.1145304041830935   0.12590330680418038   0.3238875456268163
-5.115820274101103   -0.38788812733312283   -0.3722599366762822
-5.115820274101103   -0.38788812733312283   -0.3722599366762822
-5.115820274101103   -0.38788812733312283   -0.3722599366762822
-5.115820274101103   -0.38788812733312283   -0.3722599366762822
-3.573894101326011   0.4820279146363433   0.28203758017529507
-3.573894101326011   0.4820279146363433   0.28203758017529507
-3.573894101326011   0.4820279146363433   0.28203758017529507
-3.573894101326011   0.4820279146363433   0.28203758017529507
-4.30573701273634   0.03338777525985037   0.10000927767776019
-4.30573701273634   0.03338777525985037   0.10000927767776019
-4.30573701273634   0.03338777525985037   0.10000927767776019
-4.30573701273634   0.03338777525985037   0.10000927767776019
-3.8107985823184882   -0.11376931972623727   -0.3066875904244696
-3.8107985823184882   -0.11376931972623727   -0.3066875904244696
-3.8107985823184882   -0.11376931972623727   -0.3066875904244696
-3.8107985823184882   -0.11376931972623727   -0.3066875904244696
-4.870077658069789   0.216747242068293   0.25181777407882194
-4.870077658069789   0.216747242068293   0.25181777407882194
-4.870077658069789   0.216747242068293   0.25181777407882194
-4.870077658069789   0.216747242068293   0.25181777407882194
-4.8082691848053365   -0.22783708185316598   -0.4148533423787414
-4.8082691848053365   -0.22783708185316598   -0.4148533423787414
-4.8082691848053365   -0.22783708185316598   -0.4148533423787414
-4.8082691848053365   -0.22783708185316598   -0.4148533423787414
-3.459731362975684   0.5675854056682774   0.23496385471936554
-3.459731362975684   0.5675854056682774   0.23496385471936554
-3.459731362975684   0.5675854056682774   0.23496385471936554
-3.459731362975684   0.5675854056682774   0.23496385471936554
-4.041139512713687   0.13857593430202875   0.18987505256063048
-4.041139512713687   0.13857593430202875   0.18987505256063048
-4.041139512713687   0.13857593430202875   0.18987505256063048
-4.041139512713687   0.13857593430202875   0.18987505256063048
4.349249628705282   0.3946682847971321   0.3798055365962172
4.349249628705282   0.3946682847971321   0.3798055365962172
4.349249628705282   0.3946682847971321   0.3798055365962172
4.349249628705282   0.3946682847971321   0.3798055365962172
1.5959331142641817   -0.728087395368786   -0.2501310669265037
1.5959331142641817   -0.728087395368786   -0.2501310669265037
1.5959331142641817   -0.728087395368786   -0.2501310669265037
1.5959331142641817   -0.728087395368786   -0.2501310669265037
1.9748381867529419   -0.0028961839032211056   0.27353147882629625
1.9748381867529419   -0.0028961839032211056   0.27353147882629625
1.9748381867529419   -0.0028961839032211056   0.27353147882629625
1.9748381867529419   -0.0028961839032211056   0.27353147882629625
4.430580257833128   -0.1048087922392158   -0.3191582060619597
4.430580257833128   -0.1048087922392158   -0.3191582060619597
4.430580257833128   -0.1048087922392158   -0.3191582060619597
4.430580257833128   -0.1048087922392158   -0.3191582060619597
2.8976846690033593   -0.13293011671846566   -0.28096709349751425
2.8976846690033593   -0.13293011671846566   -0.28096709349751425
2.8976846690033593   -0.13293011671846566   -0.28096709349751425
2.8976846690033593   -0.13293011671846566   -0.28096709349751425
4.6917676315934065   0.5518144861663744   0.3301553843338091
4.6917676315934065   0.5518144861663744   0.3301553843338091
4.6917676315934065   0.5518144861663744   0.3301553843338091
4.6917676315934065   0.5518144861663744   0.3301553843338091
1.7320224736666852   -0.6411478016347902   -0.30229546887338893
1.7320224736666852   -0.6411478016347902   -0.30229546887338893
1.7320224736666852   -0.6411478016347902   -0.30229546887338893
1.7320224736666852   -0.6411478016347902   -0.30229546887338893
2.125405280286115   0.08304229315734707   0.22575438247328183
2.125405280286115   0.08304229315734707   0.22575438247328183
2.125405280286115   0.08304229315734707   0.22575438247328183
2.125405280286115   0.08304229315734707   0.22575438247328183
4.70359650891147   -0.007047138290723343   -0.40259941916965575
4.70359650891147   -0.007047138290723343   -0.40259941916965575
4.70359650891147   -0.007047138290723343   -0.40259941916965575
4.70359650891147   -0.007047138290723343   -0.40259941916965575
3.1822424174827493   -0.027182741435714086   -0.16983707953184687
3.1822424174827493   -0.027182741435714086   -0.16983707953184687
3.1822424174827493   -0.027182741435714086   -0.16983707953184687
3.1822424174827493   -0.027182741435714086   -0.16983707953184687
4.967820636886554   0.6572244203881499   0.25424966202685717
4.967820636886554   0.6572244203881499   0.25424966202685717
4.967820636886554   0.6572244203881499   0.25424966202685717
4.967820636886554   0.6572244203881499   0.25424966202685717
1.8808330605070982   -0.5615773573254643   -0.35248706593898865
1.8808330605070982   -0.5615773573254643   -0.35248706593898865
1.8808330605070982   -0.5615773573254643   -0.35248706593898865
1.8808330605070982   -0.5615773573254643   -0.35248706593898865
2.2757386034459426   0.27216237250730296   0.19566849084829713
2.2757386034459426   0.27216237250730296   0.19566849084829713
2.2757386034459426   0.27216237250730296   0.19566849084829713
2.2757386034459426   0.27216237250730296   0.19566849084829713
5.061837083771131   0.24798578793820136   -0.4344738177306865
5.061837083771131   0.24798578793820136   -0.4344738177306865
5.061837083771131   0.24798578793820136   -0.4344738177306865
5.061837083771131   0.24798578793820136   -0.4344738177306865
3.359241238999273   0.10119306618478785   -0.0733887189515349
3.359241238999273   0.10119306618478785   -0.0733887189515349
3.359241238999273   0.10119306618478785   -0.0733887189515349
3.359241238999273   0.10119306618478785   -0.0733887189515349
1.89612876796347   0.22032581196008805   0.30243399424106376
1.89612876796347   0.22032581196008805   0.30243399424106376
1.89612876796347   0.22032581196008805   0.30243399424106376
1.89612876796347   0.22032581196008805   0.30243399424106376
-0.9181785660633063   -0.6791340200478699   -0.13083354984414078
-0.9181785660633063   -0.6791340200478699   -0.13083354984414078
-0.9181785660633063   -0.6791340200478699   -0.13083354984414078
-0.9181785660633063   -0.6791340200478699   -0.13083354984414078
-0.6568599384125837   -0.19756015021799528   0.09209919024454913
-0.6568599384125837   -0.19756015021799528   0.09209919024454913
-0.6568599384125837   -0.19756015021799528   0.09209919024454913
-0.6568599384125837   -0.19756015021799528   0.09209919024454913
1.912928750668376   0.0018354792268192033   -0.04074736472654385
1.912928750668376   0.0018354792268192033   -0.04074736472654385
1.912928750668376   0.0018354792268192033   -0.04074736472654385
1.912928750668376   0.0018354792268192033   -0.04074736472654385
0.5335964042877183   -0.14466441393567342   -0.12012627340059549
0.5335964042877183   -0.14466441393567342   -0.12012627340059549
0.5335964042877183   -0.14466441393567342   -0.12012627340059549
0.5335964042877183   -0.14466441393567342   -0.12012627340059549
2.0506392717426416   0.3795399981153786   0.27010072175619354
2.0506392717426416   0.3795399981153786   0.27010072175619354
2.0506392717426416   0.3795399981153786   0.27010072175619354
2.0506392717426416   0.3795399981153786   0.27010072175619354
-0.7835978040702588   -0.5642920136899694   -0.17485827457185193
-0.7835978040702588   -0.5642920136899694   -0.17485827457185193
-0.7835978040702588   -0.5642920136899694   -0.17485827457185193
-0.7835978040702588   -0.5642920136899694   -0.17485827457185193
-0.5165149336313112   -0.03699623788748765   0.05834338604870623
-0.5165149336313112   -0.03699623788748765   0.05834338604870623
-0.5165149336313112   -0.03699623788748765   0.05834338604870623
-0.5165149336313112   -0.03699623788748765   0.05834338604870623
2.0777274922211646   0.14611053345117953   -0.07570279814529901
2.0777274922211646   0.14611053345117953   -0.07570279814529901
2.0777274922211646   0.14611053345117953   -0.07570279814529901
2.0777274922211646   0.14611053345117953   -0.07570279814529901
0.6693357304225392   -0.017672285467595222   -0.04782920273016512
0.6693357304225392   -0.017672285467595222   -0.04782920273016512
0.6693357304225392   -0.017672285467595222   -0.04782920273016512
0.6693357304225392   -0.017672285467595222   -0.04782920273016512
2.220919485535177   0.546746257592714   0.23962144428322613
2.220919485535177   0.546746257592714   0.23962144428322613
2.220919485535177   0.546746257592714   0.23962144428322613
2.220919485535177   0.546746257592714   0.23962144428322613
-0.6486939005561604   -0.42661893563985936   -0.21292875082316817
-0.6486939005561604   -0.42661893563985936   -0.21292875082316817
-0.6486939005561604   -0.42661893563985936   -0.21292875082316817
-0.6486939005561604   -0.42661893563985936   -0.21292875082316817
-0.3779999174831906   0.14870198160544587   0.024713772994118192
-0.3779999174831906   0.14870198160544587   0.024713772994118192
-0.3779999174831906   0.14870198160544587   0.024713772994118192
-0.3779999174831906   0.14870198160544587   0.024713772994118192
2.224100286841018   0.3176311912817403   -0.10799191095076378
2.224100286841018   0.3176311912817403   -0.10799191095076378
2.224100286841018   0.3176311912817403   -0.10799191095076378
2.224100286841018   0.3176311912817403   -0.10799191095076378
0.8363634556336439   0.1378007269217542   0.036494392290418544
0.8363634556336439   0.1378007269217542   0.036494392290418544
0.8363634556336439   0.1378007269217542   0.036494392290418544
0.8363634556336439   0.1378007269217542   0.036494392290418544
-0.7210883792230692   0.04726486015259984   0.12821850415657413
-0.7210883792230692   0.04726486015259984   0.12821850415657413
-0.7210883792230692   0.04726486015259984   0.12821850415657413
-0.7210883792230692   0.04726486015259984   0.12821850415657413
-3.382251932656544   -0.5989647297297452   -0.01685018555217199
-3.382251932656544   -0.5989647297297452   -0.01685018555217199
-3.382251932656544   -0.5989647297297452   -0.01685018555217199
-3.382251932656544   -0.5989647297297452   -0.01685018555217199
-3.2155315247579423   -0.3508278846124794   -0.07961497707244589
-3.2155315247579423   -0.3508278846124794   -0.07961497707244589
-3.2155315247579423   -0.3508278846124794   -0.07961497707244589
-3.2155315247579423   -0.3508278846124794   -0.07961497707244589
-0.6014202388030807   0.08616051538049233   0.0855770226935768
-0.6014202388030807   0.08616051538049233   0.0855770226935768
-0.6014202388030807   0.08616051538049233   0.0855770226935768
-0.6014202388030807   0.08616051538049233   0.0855770226935768
-1.9835943703743224   -0.18450394101339695   -0.07490211217482462
-1.9835943703743224   -0.18450394101339695   -0.07490211217482462
-1.9835943703743224   -0.18450394101339695   -0.07490211217482462
-1.9835943703743224   -0.18450394101339695   -0.07490211217482462
-0.5738399859904196   0.21280098248582446   0.09683781965155006
-0.5738399859904196   0.21280098248582446   0.09683781965155006
-0.5738399859904196   0.21280098248582446   0.09683781965155006
-0.5738399859904196   0.21280098248582446   0.09683781965155006
-3.235870921645726   -0.4702274957929338   -0.06191235033090843
-3.235870921645726   -0.4702274957929338   -0.06191235033090843
-3.235870921645726   -0.4702274957929338   -0.06191235033090843
-3.235870921645726   -0.4702274957929338   -0.06191235033090843
-3.0609083174591474   -0.17466757906772523   -0.1075881649201752
-3.0609083174591474   -0.17466757906772523   -0.1075881649201752
-3.0609083174591474   -0.17466757906772523   -0.1075881649201752
-3.0609083174591474   -0.17466757906772523   -0.1075881649201752
-0.46478497992804957   0.23186185306910684   0.048135063608405124
-0.46478497992804957   0.23186185306910684   0.048135063608405124
-0.46478497992804957   0.23186185306910684   0.048135063608405124
-0.46478497992804957   0.23186185306910684   0.048135063608405124
-1.827685876903517   -0.03707291052059031   -0.0012006667173223573
-1.827685876903517   -0.03707291052059031   -0.0012006667173223573
-1.827685876903517   -0.03707291052059031   -0.0012006667173223573
-1.827685876903517   -0.03707291052059031   -0.0012006667173223573
-0.4315367709656679   0.38497662959407486   0.06126133189534548
-0.4315367709656679   0.38497662959407486   0.06126133189534548
-0.4315367709656679   0.38497662959407486   0.06126133189534548
-0.4315367709656679   0.38497662959407486   0.06126133189534548
-3.087412506894374   -0.32103833606549703   -0.09373835509853526
-3.087412506894374   -0.32103833606549703   -0.09373835509853526
-3.087412506894374   -0.32103833606549703   -0.09373835509853526
-3.087412506894374   -0.32103833606549703   -0.09373835509853526
-2.917013748485486   0.0008281299752704863   -0.14113054554286858
-2.917013748485486   0.0008281299752704863   -0.14113054554286858
-2.917013748485486   0.0008281299752704863   -0.14113054554286858
-2.917013748485486   0.0008281299752704863   -0.14113054554286858
-0.33424575316287786   0.3807515920147233   0.011434984186404887
-0.33424575316287786   0.3807515920147233   0.011434984186404887
-0.33424575316287786   0.3807515920147233   0.011434984186404887
-0.33424575316287786   0.3807515920147233   0.011434984186404887
-1.6843942637542293   0.1097843002693425   0.06896833321937523
-1.6843942637542293   0.1097843002693425   0.06896833321937523
-1.6843942637542293   0.1097843002693425   0.06896833321937523
-1.6843942637542293   0.1097843002693425   0.06896833321937523
-3.2954342655369615   -0.13024719281518682   -0.051479386868787946
-3.2954342655369615   -0.13024719281518682   -0.051479386868787946
-3.2954342655369615   -0.13024719281518682   -0.051479386868787946
-3.2954342655369615   -0.13024719281518682   -0.051479386868787946
-5.78708215026271   -0.4840442104853141   0.11367062855666452
-5.78708215026271   -0.4840442104853141   0.11367062855666452
-5.78708215026271   -0.4840442104853141   0.11367062855666452
-5.78708215026271   -0.4840442104853141   0.11367062855666452
-5.704426223117746   -0.4977730482324828   -0.23981361584340746
-5.704426223117746   -0.4977730482324828   -0.23981361584340746
-5.704426223117746   -0.4977730482324828   -0.23981361584340746
-5.704426223117746   -0.4977730482324828   -0.23981361584340746
-3.0415778523083397   0.22353993674974915   0.21578556381336778
-3.0415778523083397   0.22353993674974915   0.21578556381336778
-3.0415778523083397   0.22353993674974915   0.21578556381336778
-3.0415778523083397   0.22353993674974915   0.21578556381336778
-4.426282846192011   -0.1938759559195491   -0.026015767010426794
-4.426282846192011   -0.1938759559195491   -0.026015767010426794
-4.426282846192011   -0.1938759559195491   -0.026015767010426794
-4.426282846192011   -0.1938759559195491   -0.026015767010426794
-3.1353249654830293   0.04843992783423012   -0.07784999314456045
-3.1353249654830293   0.04843992783423012   -0.07784999314456045
-3.1353249654830293   0.04843992783423012   -0.07784999314456045
-3.1353249654830293   0.04843992783423012   -0.07784999314456045
-5.610562020426333   -0.32255594980023194   0.054290299181456336
-5.610562020426333   -0.32255594980023194   0.054290299181456336
-5.610562020426333   -0.32255594980023194   0.054290299181456336
-5.610562020426333   -0.32255594980023194   0.054290299181456336
-5.502694722717732   -0.3255234320893189   -0.2652328134481755
-5.502694722717732   -0.3255234320893189   -0.2652328134481755
-5.502694722717732   -0.3255234320893189   -0.2652328134481755
-5.502694722717732   -0.3255234320893189   -0.2652328134481755
-2.897466210468491   0.36261724991857236   0.1723375410468398
-2.897466210468491   0.36261724991857236   0.1723375410468398
-2.897466210468491   0.36261724991857236   0.1723375410468398
-2.897466210468491   0.36261724991857236   0.1723375410468398
-4.221399141755723   -0.030841178368134048   0.04777869051723754
-4.221399141755723   -0.030841178368134048   0.04777869051723754
-4.221399141755723   -0.030841178368134048   0.04777869051723754
-4.221399141755723   -0.030841178368134048   0.04777869051723754
-2.9854611170397902   0.20830491946473706   -0.1133246613558361
-2.9854611170397902   0.20830491946473706   -0.1133246613558361
-2.9854611170397902   0.20830491946473706   -0.1133246613558361
-2.9854611170397902   0.20830491946473706   -0.1133246613558361
-5.410306329030947   -0.16681761452004218   0.03800333741646822
-5.410306329030947   -0.16681761452004218   0.03800333741646822
-5.410306329030947   -0.16681761452004218   0.03800333741646822
-5.410306329030947   -0.16681761452004218   0.03800333741646822
-5.322276988549466   -0.1386060477650113   -0.2787835610820486
-5.322276988549466   -0.1386060477650113   -0.2787835610820486
-5.322276988549466   -0.1386060477650113   -0.2787835610820486
-5.322276988549466   -0.1386060477650113   -0.2787835610820486
-2.7578850844256015   0.515805090102946   0.13953581462890474
-2.7578850844256015   0.515805090102946   0.13953581462890474
-2.7578850844256015   0.515805090102946   0.13953581462890474
-2.7578850844256015   0.515805090102946   0.13953581462890474
-4.081862571667612   0.10874330467935067   0.11151117795224941
-4.081862571667612   0.10874330467935067   0.11151117795224941
-4.081862571667612   0.10874330467935067   0.11151117795224941
-4.081862571667612   0.10874330467935067   0.11151117795224941
-5.812469980471682   -0.2795374794215244   -0.2177752535519875
-5.812469980471682   -0.2795374794215244   -0.2177752535519875
-5.812469980471682   -0.2795374794215244   -0.2177752535519875
-5.812469980471682   -0.2795374794215244   -0.2177752535519875
-8.278154280368662   -0.2976469456794155   0.37774976365244706
-8.278154280368662   -0.2976469456794155   0.37774976365244706
-8.278154280368662   -0.2976469456794155   0.37774976365244706
-8.278154280368662   -0.2976469456794155   0.37774976365244706
-8.114981348112824   -0.5964695970784111   -0.2875260298564112
-8.114981348112824   -0.5964695970784111   -0.2875260298564112
-8.114981348112824   -0.5964695970784111   -0.2875260298564112
-8.114981348112824   -0.5964695970784111   -0.2875260298564112
-5.387198421617104   0.4650801058703977   0.38347223755692483
-5.387198421617104   0.4650801058703977   0.38347223755692483
-5.387198421617104   0.4650801058703977   0.38347223755692483
-5.387198421617104   0.4650801058703977   0.38347223755692483
-6.59247050555493   -0.08158489405935931   0.07506746002831854
-6.59247050555493   -0.08158489405935931   0.07506746002831854
-6.59247050555493   -0.08158489405935931   0.07506746002831854
-6.59247050555493   -0.08158489405935931   0.07506746002831854
-5.623109129217128   -0.08899182186882681   -0.2420093727039409
-5.623109129217128   -0.08899182186882681   -0.2420093727039409
-5.623109129217128   -0.08899182186882681   -0.2420093727039409
-5.623109129217128   -0.08899182186882681   -0.2420093727039409
-7.875394067853782   -0.03872109668021517   0.3526618710405387
-7.875394067853782   -0.03872109668021517   0.3526618710405387
-7.875394067853782   -0.03872109668021517   0.3526618710405387
-7.875394067853782   -0.03872109668021517   0.3526618710405387
-7.810760915875499   -0.4894383415865249   -0.33842688638980306
-7.810760915875499   -0.4894383415865249   -0.33842688638980306
-7.810760915875499   -0.4894383415865249   -0.33842688638980306
-7.810760915875499   -0.4894383415865249   -0.33842688638980306
-5.217593798129709   0.5311277031681563   0.3036206742344589
-5.217593798129709   0.5311277031681563   0.3036206742344589
-5.217593798129709   0.5311277031681563   0.3036206742344589
-5.217593798129709   0.5311277031681563   0.3036206742344589
-6.433469864859384   0.03515238218313743   0.13683287420216556
-6.433469864859384   0.03515238218313743   0.13683287420216556
-6.433469864859384   0.03515238218313743   0.13683287420216556
-6.433469864859384   0.03515238218313743   0.13683287420216556
-5.44010600816487   -0.0026537644342299327   -0.2751589083389578
-5.44010600816487   -0.0026537644342299327   -0.2751589083389578
-5.44010600816487   -0.0026537644342299327   -0.2751589083389578
-5.44010600816487   -0.0026537644342299327   -0.2751589083389578
-7.584629544857056   0.047962286999123416   0.25482934011664254
-7.584629544857056   0.047962286999123416   0.25482934011664254
-7.584629544857056   0.047962286999123416   0.25482934011664254
-7.584629544857056   0.047962286999123416   0.25482934011664254
-7.478869647301234   -0.3603052464343026   -0.38535112146798334
-7.478869647301234   -0.3603052464343026   -0.38535112146798334
-7.478869647301234   -0.3603052464343026   -0.38535112146798334
-7.478869647301234   -0.3603052464343026   -0.38535112146798334
-5.068238930912583   0.5941836161610055   0.2586170631763507
-5.068238930912583   0.5941836161610055   0.2586170631763507
-5.068238930912583   0.5941836161610055   0.2586170631763507
-5.068238930912583   0.5941836161610055   0.2586170631763507
-6.099545904740853   0.1324518955118168   0.22959205866146143
-6.099545904740853   0.1324518955118168   0.22959205866146143
-6.099545904740853   0.1324518955118168   0.22959205866146143
-6.099545904740853   0.1324518955118168   0.22959205866146143
7.329647747379749   0.5468803694778315   0.39099312419077087
7.329647747379749   0.5468803694778315   0.39099312419077087
7.329647747379749   0.5468803694778315   0.39099312419077087
7.329647747379749   0.5468803694778315   0.39099312419077087
3.237674549567291   -0.8682930156952164   -0.1785206529274061
3.237674549567291   -0.8682930156952164   -0.1785206529274061
3.237674549567291   -0.8682930156952164   -0.1785206529274061
3.237674549567291   -0.8682930156952164   -0.1785206529274061
3.613995364165188   -0.15049412222387604   0.2690000376826794
3.613995364165188   -0.15049412222387604   0.2690000376826794
3.613995364165188   -0.15049412222387604   0.2690000376826794
3.613995364165188   -0.15049412222387604   0.2690000376826794
7.412736311200863   -0.01872092800714542   -0.28061136523820784
7.412736311200863   -0.01872092800714542   -0.28061136523820784
7.412736311200863   -0.01872092800714542   -0.28061136523820784
7.412736311200863   -0.01872092800714542   -0.28061136523820784
5.082076090763097   -0.15614221965466046   -0.3993397955197074
5.082076090763097   -0.15614221965466046   -0.3993397955197074
5.082076090763097   -0.15614221965466046   -0.3993397955197074
5.082076090763097   -0.15614221965466046   -0.3993397955197074
7.672613495420146   0.6728668517173171   0.32718677613368735
7.672613495420146   0.6728668517173171   0.32718677613368735
7.672613495420146   0.6728668517173171   0.32718677613368735
7.672613495420146   0.6728668517173171   0.32718677613368735
3.3790274611715274   -0.8171726207227175   -0.23916097878673304
3.3790274611715274   -0.8171726207227175   -0.23916097878673304
3.3790274611715274   -0.8171726207227175   -0.23916097878673304
3.3790274611715274   -0.8171726207227175   -0.23916097878673304
3.762020850946881   -0.07130795069561302   0.21767217677048561
3.762020850946881   -0.07130795069561302   0.21767217677048561
3.762020850946881   -0.07130795069561302   0.21767217677048561
3.762020850946881   -0.07130795069561302   0.21767217677048561
7.670126916969165   0.06867920557078411   -0.3511649759274847
7.670126916969165   0.06867920557078411   -0.3511649759274847
7.670126916969165   0.06867920557078411   -0.3511649759274847
7.670126916969165   0.06867920557078411   -0.3511649759274847
5.4044314692343844   -0.06254630087161939   -0.2713128298627249
5.4044314692343844   -0.06254630087161939   -0.2713128298627249
5.4044314692343844   -0.06254630087161939   -0.2713128298627249
5.4044314692343844   -0.06254630087161939   -0.2713128298627249
7.9285587044028825   0.7669998483365565   0.24267331847533163
7.9285587044028825   0.7669998483365565   0.24267331847533163
7.9285587044028825   0.7669998483365565   0.24267331847533163
7.9285587044028825   0.7669998483365565   0.24267331847533163
3.525439508515212   -0.7477781484593358   -0.2887643376241323
3.525439508515212   -0.7477781484593358   -0.2887643376241323
3.525439508515212   -0.7477781484593358   -0.2887643376241323
3.525439508515212   -0.7477781484593358   -0.2887643376241323
3.8959998166294114   0.1398806764647469   0.19083789204351626
3.8959998166294114   0.1398806764647469   0.19083789204351626
3.8959998166294114   0.1398806764647469   0.19083789204351626
3.8959998166294114   0.1398806764647469   0.19083789204351626
7.986377977214683   0.3242298330966502   -0.36793389361300377
7.986377977214683   0.3242298330966502   -0.36793389361300377
7.986377977214683   0.3242298330966502   -0.36793389361300377
7.986377977214683   0.3242298330966502   -0.36793389361300377
5.526677893660452   0.06313521386833743   -0.18239644102583058
5.526677893660452   0.06313521386833743   -0.18239644102583058
5.526677893660452   0.06313521386833743   -0.18239644102583058
5.526677893660452   0.06313521386833743   -0.18239644102583058
3.581977034887593   0.3183363014224221   0.3563624565564202
3.581977034887593   0.3183363014224221   0.3563624565564202
3.581977034887593   0.3183363014224221   0.3563624565564202
3.581977034887593   0.3183363014224221   0.3563624565564202
-0.43389983202328003   -1.0719097405427866   -0.10135268465298908
-0.43389983202328003   -1.0719097405427866   -0.10135268465298908
-0.43389983202328003   -1.0719097405427866   -0.10135268465298908
-0.43389983202328003   -1.0719097405427866   -0.10135268465298908
-0.10887027695464094   -0.37604569891145107   0.09164577220487605
-0.10887027695464094   -0.37604569891145107   0.09164577220487605
-0.10887027695464094   -0.37604569891145107   0.09164577220487605
-0.10887027695464094   -0.37604569891145107   0.09164577220487605
3.5525892266038586   -0.20553804830565814   0.017013275957815988
3.5525892266038586   -0.20553804830565814   0.017013275957815988
3.5525892266038586   -0.20553804830565814   0.017013275957815988
3.5525892266038586   -0.20553804830565814   0.017013275957815988
1.6033417021942784   -0.30106750821381884   -0.19129897957735256
1.6033417021942784   -0.30106750821381884   -0.19129897957735256
1.6033417021942784   -0.30106750821381884   -0.19129897957735256
1.6033417021942784   -0.30106750821381884   -0.19129897957735256
3.7411404230701195   0.4387279405410177   0.31550326944245954
3.7411404230701195   0.4387279405410177   0.31550326944245954
3.7411404230701195   0.4387279405410177   0.31550326944245954
3.7411404230701195   0.4387279405410177   0.31550326944245954
-0.2843887743451431   -1.0072789886823657   -0.15471342497672014
-0.2843887743451431   -1.0072789886823657   -0.15471342497672014
-0.2843887743451431   -1.0072789886823657   -0.15471342497672014
-0.2843887743451431   -1.0072789886823657   -0.15471342497672014
0.04212472547505265   -0.23462555568118987   0.05621952293896623
0.04212472547505265   -0.23462555568118987   0.05621952293896623
0.04212472547505265   -0.23462555568118987   0.05621952293896623
0.04212472547505265   -0.23462555568118987   0.05621952293896623
3.7069745234211458   -0.09894197446794883   -0.029925437085852685
3.7069745234211458   -0.09894197446794883   -0.029925437085852685
3.7069745234211458   -0.09894197446794883   -0.029925437085852685
3.7069745234211458   -0.09894197446794883   -0.029925437085852685
1.7348452483461658   -0.2143189784157123   -0.12418970605098217
1.7348452483461658   -0.2143189784157123   -0.12418970605098217
1.7348452483461658   -0.2143189784157123   -0.12418970605098217
1.7348452483461658   -0.2143189784157123   -0.12418970605098217
3.905655391941199   0.5831200493612823   0.28141688168518075
3.905655391941199   0.5831200493612823   0.28141688168518075
3.905655391941199   0.5831200493612823   0.28141688168518075
3.905655391941199   0.5831200493612823   0.28141688168518075
-0.14888693002562325   -0.9090183664910465   -0.2244459437545719
-0.14888693002562325   -0.9090183664910465   -0.2244459437545719
-0.14888693002562325   -0.9090183664910465   -0.2244459437545719
-0.14888693002562325   -0.9090183664910465   -0.2244459437545719
0.16059634790694174   -0.06939645532863173   0.0203737949316978
0.16059634790694174   -0.06939645532863173   0.0203737949316978
0.16059634790694174   -0.06939645532863173   0.0203737949316978
0.16059634790694174   -0.06939645532863173   0.0203737949316978
3.822727373342922   0.03675623920206206   -0.07239988712631082
3.822727373342922   0.03675623920206206   -0.07239988712631082
3.822727373342922   0.03675623920206206   -0.07239988712631082
3.822727373342922   0.03675623920206206   -0.07239988712631082
1.894951695158075   -0.08472140926041255   -0.05244431942266792
1.894951695158075   -0.08472140926041255   -0.05244431942266792
1.894951695158075   -0.08472140926041255   -0.05244431942266792
1.894951695158075   -0.08472140926041255   -0.05244431942266792
-0.14652909073511308   0.08689011001165599   0.17670117123340304
-0.14652909073511308   0.08689011001165599   0.17670117123340304
-0.14652909073511308   0.08689011001165599   0.17670117123340304
-0.14652909073511308   0.08689011001165599   0.17670117123340304
-4.077538848824294   -1.3474009974001027   -0.0820908901781679
-4.077538848824294   -1.3474009974001027   -0.0820908901781679
-4.077538848824294   -1.3474009974001027   -0.0820908901781679
-4.077538848824294   -1.3474009974001027   -0.0820908901781679
-3.7476171968986036   -0.5773128534044318   -0.08559286313552124
-3.7476171968986036   -0.5773128534044318   -0.08559286313552124
-3.7476171968986036   -0.5773128534044318   -0.08559286313552124
-3.7476171968986036   -0.5773128534044318   -0.08559286313552124
-0.13066155325883932   -0.4725276895300194   0.07917138130245252
-0.13066155325883932   -0.4725276895300194   0.07917138130245252
-0.13066155325883932   -0.4725276895300194   0.07917138130245252
-0.13066155325883932   -0.4725276895300194   0.07917138130245252
-2.0349903704914327   -0.5466624569506152   -0.17115683543146398
-2.0349903704914327   -0.5466624569506152   -0.17115683543146398
-2.0349903704914327   -0.5466624569506152   -0.17115683543146398
-2.0349903704914327   -0.5466624569506152   -0.17115683543146398
0.021135466980342757   0.2222350088267344   0.14339378414160908
0.021135466980342757   0.2222350088267344   0.14339378414160908
0.021135466980342757   0.2222350088267344   0.14339378414160908
0.021135466980342757   0.2222350088267344   0.14339378414160908
-3.8900384615118537   -1.262699796135295   -0.11231224347091046
-3.8900384615118537   -1.262699796135295   -0.11231224347091046
-3.8900384615118537   -1.262699796135295   -0.11231224347091046
-3.8900384615118537   -1.262699796135295   -0.11231224347091046
-3.560418306512646   -0.42025738604019314   -0.11682780535374418
-3.560418306512646   -0.42025738604019314   -0.11682780535374418
-3.560418306512646   -0.42025738604019314   -0.11682780535374418
-3.560418306512646   -0.42025738604019314   -0.11682780535374418
0.01009465847506641   -0.3701628558883042   0.03160648814613405
0.01009465847506641   -0.3701628558883042   0.03160648814613405
0.01009465847506641   -0.3701628558883042   0.03160648814613405
0.01009465847506641   -0.3701628558883042   0.03160648814613405
-1.8532676714039757   -0.4338904126969846   -0.09538152663654506
-1.8532676714039757   -0.4338904126969846   -0.09538152663654506
-1.8532676714039757   -0.4338904126969846   -0.09538152663654506
-1.8532676714039757   -0.4338904126969846   -0.09538152663654506
0.1745970502341998   0.3724186371588535   0.11153695389464338
0.1745970502341998   0.3724186371588535   0.11153695389464338
0.1745970502341998   0.3724186371588535   0.11153695389464338
0.1745970502341998   0.3724186371588535   0.11153695389464338
-3.725186412672287   -1.1631045934878537   -0.19782112870425972
-3.725186412672287   -1.1631045934878537   -0.19782112870425972
-3.725186412672287   -1.1631045934878537   -0.19782112870425972
-3.725186412672287   -1.1631045934878537   -0.19782112870425972
-3.4281792919048675   -0.27068637661293127   -0.15182132021012396
-3.4281792919048675   -0.27068637661293127   -0.15182132021012396
-3.4281792919048675   -0.27068637661293127   -0.15182132021012396
-3.4281792919048675   -0.27068637661293127   -0.15182132021012396
0.10264295285836615   -0.28871111813355205   -0.050078517506275164
0.10264295285836615   -0.28871111813355205   -0.050078517506275164
0.10264295285836615   -0.28871111813355205   -0.050078517506275164
0.10264295285836615   -0.28871111813355205   -0.050078517506275164
-1.7199273209657064   -0.32889169500671755   -0.048191998931738284
-1.7199273209657064   -0.32889169500671755   -0.048191998931738284
-1.7199273209657064   -0.32889169500671755   -0.048191998931738284
-1.7199273209657064   -0.32889169500671755   -0.048191998931738284
-3.8157029567926535   -0.1138041524888801   -0.0065082749312208865
-3.8157029567926535   -0.1138041524888801   -0.0065082749312208865
-3.8157029567926535   -0.1138041524888801   -0.0065082749312208865
-3.8157029567926535   -0.1138041524888801   -0.0065082749312208865
-7.7359933306905315   -1.448618275935312   -0.06657766584142157
-7.7359933306905315   -1.448618275935312   -0.06657766584142157
-7.7359933306905315   -1.448618275935312   -0.06657766584142157
-7.7359933306905315   -1.448618275935312   -0.06657766584142157
-7.380536700573416   -0.7385950349454404   -0.2559304463975022
-7.380536700573416   -0.7385950349454404   -0.2559304463975022
-7.380536700573416   -0.7385950349454404   -0.2559304463975022
-7.380536700573416   -0.7385950349454404   -0.2559304463975022
-3.6793657823535937   -0.49056047200910624   0.16891182819417147
-3.6793657823535937   -0.49056047200910624   0.16891182819417147
-3.6793657823535937   -0.49056047200910624   0.16891182819417147
-3.6793657823535937   -0.49056047200910624   0.16891182819417147
-5.603082740508028   -0.6560498385616039   -0.1207871326596602
-5.603082740508028   -0.6560498385616039   -0.1207871326596602
-5.603082740508028   -0.6560498385616039   -0.1207871326596602
-5.603082740508028   -0.6560498385616039   -0.1207871326596602
-3.608927357432461   0.060851349266997534   -0.030307868476269095
-3.608927357432461   0.060851349266997534   -0.030307868476269095
-3.608927357432461   0.060851349266997534   -0.030307868476269095
-3.608927357432461   0.060851349266997534   -0.030307868476269095
-7.4542881378766905   -1.2933198686036746   -0.06996279925557339
-7.4542881378766905   -1.2933198686036746   -0.06996279925557339
-7.4542881378766905   -1.2933198686036746   -0.06996279925557339
-7.4542881378766905   -1.2933198686036746   -0.06996279925557339
-7.113261513942825   -0.5743302092688234   -0.29660445141556024
-7.113261513942825   -0.5743302092688234   -0.29660445141556024
-7.113261513942825   -0.5743302092688234   -0.29660445141556024
-7.113261513942825   -0.5743302092688234   -0.29660445141556024
-3.497332334521326   -0.36702022715963595   0.14536489572232697
-3.497332334521326   -0.36702022715963595   0.14536489572232697
-3.497332334521326   -0.36702022715963595   0.14536489572232697
-3.497332334521326   -0.36702022715963595   0.14536489572232697
-5.3289348902506015   -0.4984739767171663   -0.0404058125271162
-5.3289348902506015   -0.4984739767171663   -0.0404058125271162
-5.3289348902506015   -0.4984739767171663   -0.0404058125271162
-5.3289348902506015   -0.4984739767171663   -0.0404058125271162
-3.4212250765664263   0.21264513346416591   -0.05376417512701315
-3.4212250765664263   0.21264513346416591   -0.05376417512701315
-3.4212250765664263   0.21264513346416591   -0.05376417512701315
-3.4212250765664263   0.21264513346416591   -0.05376417512701315
-7.202534088859517   -1.1671608868544137   -0.15013664841336988
-7.202534088859517   -1.1671608868544137   -0.15013664841336988
-7.202534088859517   -1.1671608868544137   -0.15013664841336988
-7.202534088859517   -1.1671608868544137   -0.15013664841336988
-6.895864556288632   -0.40088221273088953   -0.30592122767724117
-6.895864556288632   -0.40088221273088953   -0.30592122767724117
-6.895864556288632   -0.40088221273088953   -0.30592122767724117
-6.895864556288632   -0.40088221273088953   -0.30592122767724117
-3.392652020308811   -0.2884816727572919   0.04361033391454773
-3.392652020308811   -0.2884816727572919   0.04361033391454773
-3.392652020308811   -0.2884816727572919   0.04361033391454773
-3.392652020308811   -0.2884816727572919   0.04361033391454773
-5.176244615144881   -0.40230350701196416   -0.01433123409614842
-5.176244615144881   -0.40230350701196416   -0.01433123409614842
-5.176244615144881   -0.40230350701196416   -0.01433123409614842
-5.176244615144881   -0.40230350701196416   -0.01433123409614842
-7.5226351974918355   -0.25981178082599143   -0.1885934949572593
-7.5226351974918355   -0.25981178082599143   -0.1885934949572593
-7.5226351974918355   -0.25981178082599143   -0.1885934949572593
-7.5226351974918355   -0.25981178082599143   -0.1885934949572593
-11.341988707888822   -0.9744922922063162   0.4343024160646055
-11.341988707888822   -0.9744922922063162   0.4343024160646055
-11.341988707888822   -0.9744922922063162   0.4343024160646055
-11.341988707888822   -0.9744922922063162   0.4343024160646055
-10.946246725195662   -0.7736373641583989   -0.2510668090087461
-10.946246725195662   -0.7736373641583989   -0.2510668090087461
-10.946246725195662   -0.7736373641583989   -0.2510668090087461
-10.946246725195662   -0.7736373641583989   -0.2510668090087461
-7.061984166749596   0.20024113803523158   0.39799604974086805
-7.061984166749596   0.20024113803523158   0.39799604974086805
-7.061984166749596   0.20024113803523158   0.39799604974086805
-7.061984166749596   0.20024113803523158   0.39799604974086805
-8.80638291300168   -0.30728415902092476   0.03914543433505446
-8.80638291300168   -0.30728415902092476   0.03914543433505446
-8.80638291300168   -0.30728415902092476   0.03914543433505446
-8.80638291300168   -0.30728415902092476   0.03914543433505446
-7.227718661475015   -0.0215045389855828   -0.2089307468653131
-7.227718661475015   -0.0215045389855828   -0.2089307468653131
-7.227718661475015   -0.0215045389855828   -0.2089307468653131
-7.227718661475015   -0.0215045389855828   -0.2089307468653131
-10.753760298822435   -0.525139755489761   0.4628677141887449
-10.753760298822435   -0.525139755489761   0.4628677141887449
-10.753760298822435   -0.525139755489761   0.4628677141887449
-10.753760298822435   -0.525139755489761   0.4628677141887449
-10.522090603811474   -0.6502942043521649   -0.29899205768538356
-10.522090603811474   -0.6502942043521649   -0.29899205768538356
-10.522090603811474   -0.6502942043521649   -0.29899205768538356
-10.522090603811474   -0.6502942043521649   -0.29899205768538356
-6.797406632668154   0.32355189181842214   0.38478785387055325
-6.797406632668154   0.32355189181842214   0.38478785387055325
-6.797406632668154   0.32355189181842214   0.38478785387055325
-6.797406632668154   0.32355189181842214   0.38478785387055325
-8.553321069424927   -0.12399227485948305   0.17456965684876402
-8.553321069424927   -0.12399227485948305   0.17456965684876402
-8.553321069424927   -0.12399227485948305   0.17456965684876402
-8.553321069424927   -0.12399227485948305   0.17456965684876402
-6.9691521869860935   0.07501190447487915   -0.225399930375543
-6.9691521869860935   0.07501190447487915   -0.225399930375543
-6.9691521869860935   0.07501190447487915   -0.225399930375543
-6.9691521869860935   0.07501190447487915   -0.225399930375543
-10.345114314507038   -0.3965234820221326   0.33211866650666433
-10.345114314507038   -0.3965234820221326   0.33211866650666433
-10.345114314507038   -0.3965234820221326   0.33211866650666433
-10.345114314507038   -0.3965234820221326   0.33211866650666433
-10.083710815802815   -0.5328646330696114   -0.36115229808625593
-10.083710815802815   -0.5328646330696114   -0.36115229808625593
-10.083710815802815   -0.5328646330696114   -0.36115229808625593
-10.083710815802815   -0.5328646330696114   -0.36115229808625593
-6.600333885555203   0.4725952863671985   0.29825462689181204
-6.600333885555203   0.4725952863671985   0.29825462689181204
-6.600333885555203   0.4725952863671985   0.29825462689181204
-6.600333885555203   0.4725952863671985   0.29825462689181204
-8.083474163535241   0.03303127501699299   0.3093590709776566
-8.083474163535241   0.03303127501699299   0.3093590709776566
-8.083474163535241   0.03303127501699299   0.3093590709776566
-8.083474163535241   0.03303127501699299   0.3093590709776566
10.030664200984178   0.5993257550391351   0.36658354932770854
10.030664200984178   0.5993257550391351   0.36658354932770854
10.030664200984178   0.5993257550391351   0.36658354932770854
10.030664200984178   0.5993257550391351   0.36658354932770854
4.7874622252063235   -0.9000885111088184   0.08503325438323317
4.7874622252063235   -0.9000885111088184   0.08503325438323317
4.7874622252063235   -0.9000885111088184   0.08503325438323317
4.7874622252063235   -0.9000885111088184   0.08503325438323317
5.054326361807677   -0.37769477323562395   0.28292935801258634
5.054326361807677   -0.37769477323562395   0.28292935801258634
5.054326361807677   -0.37769477323562395   0.28292935801258634
5.054326361807677   -0.37769477323562395   0.28292935801258634
10.085167146701973   0.0797630030230363   -0.07903455970876161
10.085167146701973   0.0797630030230363   -0.07903455970876161
10.085167146701973   0.0797630030230363   -0.07903455970876161
10.085167146701973   0.0797630030230363   -0.07903455970876161
7.055552124856032   -0.1950625700805717   -0.4708436041824873
7.055552124856032   -0.1950625700805717   -0.4708436041824873
7.055552124856032   -0.1950625700805717   -0.4708436041824873
7.055552124856032   -0.1950625700805717   -0.4708436041824873
10.276670476255923   0.6681976635569282   0.2900474275270992
10.276670476255923   0.6681976635569282   0.2900474275270992
10.276670476255923   0.6681976635569282   0.2900474275270992
10.276670476255923   0.6681976635569282   0.2900474275270992
4.908974397659014   -0.9199780683642276   0.09845283239787894
4.908974397659014   -0.9199780683642276   0.09845283239787894
4.908974397659014   -0.9199780683642276   0.09845283239787894
4.908974397659014   -0.9199780683642276   0.09845283239787894
5.156070147473161   -0.3207945173117621   0.21552317915578773
5.156070147473161   -0.3207945173117621   0.21552317915578773
5.156070147473161   -0.3207945173117621   0.21552317915578773
5.156070147473161   -0.3207945173117621   0.21552317915578773
10.263939828803169   0.14402627763677467   -0.021721105065829582
10.263939828803169   0.14402627763677467   -0.021721105065829582
10.263939828803169   0.14402627763677467   -0.021721105065829582
10.263939828803169   0.14402627763677467   -0.021721105065829582
7.348664787738252   -0.15468790910704477   -0.321073681681819
7.348664787738252   -0.15468790910704477   -0.321073681681819
7.348664787738252   -0.15468790910704477   -0.321073681681819
7.348664787738252   -0.15468790910704477   -0.321073681681819
10.425762927456416   0.7302696133509727   0.2011510524862074
10.425762927456416   0.7302696133509727   0.2011510524862074
10.425762927456416   0.7302696133509727   0.2011510524862074
10.425762927456416   0.7302696133509727   0.2011510524862074
5.026357056281478   -0.8749278455643965   0.12109105145000565
5.026357056281478   -0.8749278455643965   0.12109105145000565
5.026357056281478   -0.8749278455643965   0.12109105145000565
5.026357056281478   -0.8749278455643965   0.12109105145000565
5.305501975254555   -0.09895607446838928   0.19701257052192556
5.305501975254555   -0.09895607446838928   0.19701257052192556
5.305501975254555   -0.09895607446838928   0.19701257052192556
5.305501975254555   -0.09895607446838928   0.19701257052192556
10.449403292670532   0.2901808602205085   -0.0008839667501181481
10.449403292670532   0.2901808602205085   -0.0008839667501181481
10.449403292670532   0.2901808602205085   -0.0008839667501181481
10.449403292670532   0.2901808602205085   -0.0008839667501181481
7.386929388822775   -0.07256272778379458   -0.2391977117694496
7.386929388822775   -0.07256272778379458   -0.2391977117694496
7.386929388822775   -0.07256272778379458   -0.2391977117694496
7.386929388822775   -0.07256272778379458   -0.2391977117694496
5.051288030360114   0.12184426889430156   0.3822295001490589
5.051288030360114   0.12184426889430156   0.3822295001490589
5.051288030360114   0.12184426889430156   0.3822295001490589
5.051288030360114   0.12184426889430156   0.3822295001490589
0.2796833107513036   -1.8009085336801745   0.1876729566586639
0.2796833107513036   -1.8009085336801745   0.1876729566586639
0.2796833107513036   -1.8009085336801745   0.1876729566586639
0.2796833107513036   -1.8009085336801745   0.1876729566586639
0.6285837533385223   -0.7589964604632321   0.17372668843528233
0.6285837533385223   -0.7589964604632321   0.17372668843528233
0.6285837533385223   -0.7589964604632321   0.17372668843528233
0.6285837533385223   -0.7589964604632321   0.17372668843528233
4.9209220219469225   -0.8779416920666481   0.11615457753978387
4.9209220219469225   -0.8779416920666481   0.11615457753978387
4.9209220219469225   -0.8779416920666481   0.11615457753978387
4.9209220219469225   -0.8779416920666481   0.11615457753978387
2.631415324616557   -0.8115786016696334   -0.3030801495257761
2.631415324616557   -0.8115786016696334   -0.3030801495257761
2.631415324616557   -0.8115786016696334   -0.3030801495257761
2.631415324616557   -0.8115786016696334   -0.3030801495257761
5.17281313436518   0.1788648063066165   0.3188036412578673
5.17281313436518   0.1788648063066165   0.3188036412578673
5.17281313436518   0.1788648063066165   0.3188036412578673
5.17281313436518   0.1788648063066165   0.3188036412578673
0.4431642500124815   -1.7493313497442289   0.23696406108607493
0.4431642500124815   -1.7493313497442289   0.23696406108607493
0.4431642500124815   -1.7493313497442289   0.23696406108607493
0.4431642500124815   -1.7493313497442289   0.23696406108607493
0.7692616893972939   -0.655213500785313   0.12642976535117775
0.7692616893972939   -0.655213500785313   0.12642976535117775
0.7692616893972939   -0.655213500785313   0.12642976535117775
0.7692616893972939   -0.655213500785313   0.12642976535117775
5.041156841609967   -0.8239356686107191   0.14409780113877113
5.041156841609967   -0.8239356686107191   0.14409780113877113
5.041156841609967   -0.8239356686107191   0.14409780113877113
5.041156841609967   -0.8239356686107191   0.14409780113877113
2.7515914785676494   -0.7721230411401883   -0.15150491026368063
2.7515914785676494   -0.7721230411401883   -0.15150491026368063
2.7515914785676494   -0.7721230411401883   -0.15150491026368063
2.7515914785676494   -0.7721230411401883   -0.15150491026368063
5.286069238624198   0.27650573292472835   0.26821838467448067
5.286069238624198   0.27650573292472835   0.26821838467448067
5.286069238624198   0.27650573292472835   0.26821838467448067
5.286069238624198   0.27650573292472835   0.26821838467448067
0.5883350884457228   -1.6916691062580975   0.2582523660661219
0.5883350884457228   -1.6916691062580975   0.2582523660661219
0.5883350884457228   -1.6916691062580975   0.2582523660661219
0.5883350884457228   -1.6916691062580975   0.2582523660661219
0.9849141083877021   -0.4994821342900618   0.08422151036829009
0.9849141083877021   -0.4994821342900618   0.08422151036829009
0.9849141083877021   -0.4994821342900618   0.08422151036829009
0.9849141083877021   -0.4994821342900618   0.08422151036829009
5.172965806953577   -0.7416855967905205   0.1770612513392008
5.172965806953577   -0.7416855967905205   0.1770612513392008
5.172965806953577   -0.7416855967905205   0.1770612513392008
5.172965806953577   -0.7416855967905205   0.1770612513392008
2.960827829853705   -0.6760816580434876   0.024725069525665222
2.960827829853705   -0.6760816580434876   0.024725069525665222
2.960827829853705   -0.6760816580434876   0.024725069525665222
2.960827829853705   -0.6760816580434876   0.024725069525665222
0.5815710791341768   -0.34993348399516977   0.24613674888802567
0.5815710791341768   -0.34993348399516977   0.24613674888802567
0.5815710791341768   -0.34993348399516977   0.24613674888802567
0.5815710791341768   -0.34993348399516977   0.24613674888802567
-4.267379346240673   -3.0993761391451433   0.2698633334733209
-4.267379346240673   -3.0993761391451433   0.2698633334733209
-4.267379346240673   -3.0993761391451433   0.2698633334733209
-4.267379346240673   -3.0993761391451433   0.2698633334733209
-3.7147154976924885   -1.2012312070537463   0.019707738117467455
-3.7147154976924885   -1.2012312070537463   0.019707738117467455
-3.7147154976924885   -1.2012312070537463   0.019707738117467455
-3.7147154976924885   -1.2012312070537463   0.019707738117467455
0.3118486902656783   -2.26936068890812   0.10041560151594975
0.3118486902656783   -2.26936068890812   0.10041560151594975
0.3118486902656783   -2.26936068890812   0.10041560151594975
0.3118486902656783   -2.26936068890812   0.10041560151594975
-1.8289116868505069   -1.7425112266012868   -0.36379061050699524
-1.8289116868505069   -1.7425112266012868   -0.36379061050699524
-1.8289116868505069   -1.7425112266012868   -0.36379061050699524
-1.8289116868505069   -1.7425112266012868   -0.36379061050699524
0.7288725842962469   -0.27768355143946505   0.19385793420013797
0.7288725842962469   -0.27768355143946505   0.19385793420013797
0.7288725842962469   -0.27768355143946505   0.19385793420013797
0.7288725842962469   -0.27768355143946505   0.19385793420013797
-4.035870194482923   -3.097039147282262   0.30974219439384076
-4.035870194482923   -3.097039147282262   0.30974219439384076
-4.035870194482923   -3.097039147282262   0.30974219439384076
-4.035870194482923   -3.097039147282262   0.30974219439384076
-3.501603540165804   -1.078375888792276   0.002239522266900343
-3.501603540165804   -1.078375888792276   0.002239522266900343
-3.501603540165804   -1.078375888792276   0.002239522266900343
-3.501603540165804   -1.078375888792276   0.002239522266900343
0.46004419712376343   -2.220897931049125   0.14602673424735213
0.46004419712376343   -2.220897931049125   0.14602673424735213
0.46004419712376343   -2.220897931049125   0.14602673424735213
0.46004419712376343   -2.220897931049125   0.14602673424735213
-1.6133523114486206   -1.684426758840728   -0.13649728684225437
-1.6133523114486206   -1.684426758840728   -0.13649728684225437
-1.6133523114486206   -1.684426758840728   -0.13649728684225437
-1.6133523114486206   -1.684426758840728   -0.13649728684225437
0.8635293822979693   -0.1810718857825826   0.12362661485183933
0.8635293822979693   -0.1810718857825826   0.12362661485183933
0.8635293822979693   -0.1810718857825826   0.12362661485183933
0.8635293822979693   -0.1810718857825826   0.12362661485183933
-3.8182573684235472   -3.0313705771424284   0.37196506932838924
-3.8182573684235472   -3.0313705771424284   0.37196506932838924
-3.8182573684235472   -3.0313705771424284   0.37196506932838924
-3.8182573684235472   -3.0313705771424284   0.37196506932838924
-3.1500107508696216   -0.9367283030282567   -0.03751073825181038
-3.1500107508696216   -0.9367283030282567   -0.03751073825181038
-3.1500107508696216   -0.9367283030282567   -0.03751073825181038
-3.1500107508696216   -0.9367283030282567   -0.03751073825181038
0.691465335718686   -2.083097270032659   0.2005927827658054
0.691465335718686   -2.083097270032659   0.2005927827658054
0.691465335718686   -2.083097270032659   0.2005927827658054
0.691465335718686   -2.083097270032659   0.2005927827658054
-1.3332849707222845   -1.5522580196144102   0.10224637159797767
-1.3332849707222845   -1.5522580196144102   0.10224637159797767
-1.3332849707222845   -1.5522580196144102   0.10224637159797767
-1.3332849707222845   -1.5522580196144102   0.10224637159797767
-3.8030872605520565   -0.6252766701542414   0.11722429292545487
-3.8030872605520565   -0.6252766701542414   0.11722429292545487
-3.8030872605520565   -0.6252766701542414   0.11722429292545487
-3.8030872605520565   -0.6252766701542414   0.11722429292545487
-9.52235827031872   -4.833057502794449   -0.23374070340044917
-9.52235827031872   -4.833057502794449   -0.23374070340044917
-9.52235827031872   -4.833057502794449   -0.23374070340044917
-9.52235827031872   -4.833057502794449   -0.23374070340044917
-8.609170805232731   -1.5631268159753415   -0.2641148687578672
-8.609170805232731   -1.5631268159753415   -0.2641148687578672
-8.609170805232731   -1.5631268159753415   -0.2641148687578672
-8.609170805232731   -1.5631268159753415   -0.2641148687578672
-4.272909564401055   -4.050938600124484   0.07844479764537315
-4.272909564401055   -4.050938600124484   0.07844479764537315
-4.272909564401055   -4.050938600124484   0.07844479764537315
-4.272909564401055   -4.050938600124484   0.07844479764537315
-6.544250284981406   -2.8581456666219607   -0.38150638329970843
-6.544250284981406   -2.8581456666219607   -0.38150638329970843
-6.544250284981406   -2.8581456666219607   -0.38150638329970843
-6.544250284981406   -2.8581456666219607   -0.38150638329970843
-3.5510770802054545   -0.4761261445987789   0.11279476309766964
-3.5510770802054545   -0.4761261445987789   0.11279476309766964
-3.5510770802054545   -0.4761261445987789   0.11279476309766964
-3.5510770802054545   -0.4761261445987789   0.11279476309766964
-9.310615183037463   -5.1175511651101395   -0.2169124086467379
-9.310615183037463   -5.1175511651101395   -0.2169124086467379
-9.310615183037463   -5.1175511651101395   -0.2169124086467379
-9.310615183037463   -5.1175511651101395   -0.2169124086467379
-8.326192338899828   -1.4156261878413494   -0.2688049033077388
-8.326192338899828   -1.4156261878413494   -0.2688049033077388
-8.326192338899828   -1.4156261878413494   -0.2688049033077388
-8.326192338899828   -1.4156261878413494   -0.2688049033077388
-4.066795854534499   -4.020885691840658   0.118787753471843
-4.066795854534499   -4.020885691840658   0.118787753471843
-4.066795854534499   -4.020885691840658   0.118787753471843
-4.066795854534499   -4.020885691840658   0.118787753471843
-6.248418842917319   -2.782980877022931   -0.27060854546354973
-6.248418842917319   -2.782980877022931   -0.27060854546354973
-6.248418842917319   -2.782980877022931   -0.27060854546354973
-6.248418842917319   -2.782980877022931   -0.27060854546354973
-3.3506374261986083   -0.359179486647863   0.03787368995847411
-3.3506374261986083   -0.359179486647863   0.03787368995847411
-3.3506374261986083   -0.359179486647863   0.03787368995847411
-3.3506374261986083   -0.359179486647863   0.03787368995847411
-9.043003284273693   -5.07798491007207   -0.19050090794626984
-9.043003284273693   -5.07798491007207   -0.19050090794626984
-9.043003284273693   -5.07798491007207   -0.19050090794626984
-9.043003284273693   -5.07798491007207   -0.19050090794626984
-7.885417011954758   -1.2566801552101028   -0.304617086703559
-7.885417011954758   -1.2566801552101028   -0.304617086703559
-7.885417011954758   -1.2566801552101028   -0.304617086703559
-7.885417011954758   -1.2566801552101028   -0.304617086703559
-3.620977325504925   -3.6223059231642685   0.29323400870774585
-3.620977325504925   -3.6223059231642685   0.29323400870774585
-3.620977325504925   -3.6223059231642685   0.29323400870774585
-3.620977325504925   -3.6223059231642685   0.29323400870774585
-5.917447508371728   -2.526419027673136   -0.1542764393528323
-5.917447508371728   -2.526419027673136   -0.1542764393528323
-5.917447508371728   -2.526419027673136   -0.1542764393528323
-5.917447508371728   -2.526419027673136   -0.1542764393528323
-8.627390248521303   -0.5306872524894122   -0.06127084471839572
-8.627390248521303   -0.5306872524894122   -0.06127084471839572
-8.627390248521303   -0.5306872524894122   -0.06127084471839572
-8.627390248521303   -0.5306872524894122   -0.06127084471839572
-15.254249457807932   -3.0198111758681474   0.15519357846719384
-15.254249457807932   -3.0198111758681474   0.15519357846719384
-15.254249457807932   -3.0198111758681474   0.15519357846719384
-15.254249457807932   -3.0198111758681474   0.15519357846719384
-14.649451264231962   -1.4617810612104327   -0.3246478490048427
-14.649451264231962   -1.4617810612104327   -0.3246478490048427
-14.649451264231962   -1.4617810612104327   -0.3246478490048427
-14.649451264231962   -1.4617810612104327   -0.3246478490048427
-8.427096506089478   -1.5573277825177487   0.6404575935007335
-8.427096506089478   -1.5573277825177487   0.6404575935007335
-8.427096506089478   -1.5573277825177487   0.6404575935007335
-8.427096506089478   -1.5573277825177487   0.6404575935007335
-11.263326540169913   -1.7539699568835572   0.16506753211478348
-11.263326540169913   -1.7539699568835572   0.16506753211478348
-11.263326540169913   -1.7539699568835572   0.16506753211478348
-11.263326540169913   -1.7539699568835572   0.16506753211478348
-8.267303419351919   -0.12000239458274176   0.002097639253567707
-8.267303419351919   -0.12000239458274176   0.002097639253567707
-8.267303419351919   -0.12000239458274176   0.002097639253567707
-8.267303419351919   -0.12000239458274176   0.002097639253567707
-14.867668898728937   -2.957530996904868   0.0800139142045948
-14.867668898728937   -2.957530996904868   0.0800139142045948
-14.867668898728937   -2.957530996904868   0.0800139142045948
-14.867668898728937   -2.957530996904868   0.0800139142045948
-14.313801022044542   -1.3390698465651147   -0.41192644867074135
-14.313801022044542   -1.3390698465651147   -0.41192644867074135
-14.313801022044542   -1.3390698465651147   -0.41192644867074135
-14.313801022044542   -1.3390698465651147   -0.41192644867074135
-8.135695450471475   -1.4779403499131218   0.7459937009058661
-8.135695450471475   -1.4779403499131218   0.7459937009058661
-8.135695450471475   -1.4779403499131218   0.7459937009058661
-8.135695450471475   -1.4779403499131218   0.7459937009058661
-11.084053022529098   -1.4435625227468076   0.15783953650331803
-11.084053022529098   -1.4435625227468076   0.15783953650331803
-11.084053022529098   -1.4435625227468076   0.15783953650331803
-11.084053022529098   -1.4435625227468076   0.15783953650331803
-8.007596246770204   -0.011444773230233185   -0.08000585727067133
-8.007596246770204   -0.011444773230233185   -0.08000585727067133
-8.007596246770204   -0.011444773230233185   -0.08000585727067133
-8.007596246770204   -0.011444773230233185   -0.08000585727067133
-14.464083069160813   -2.8277482666630256   0.3253417358456838
-14.464083069160813   -2.8277482666630256   0.3253417358456838
-14.464083069160813   -2.8277482666630256   0.3253417358456838
-14.464083069160813   -2.8277482666630256   0.3253417358456838
-13.617051121325607   -1.0822832144330925   -0.45942064133923877
-13.617051121325607   -1.0822832144330925   -0.45942064133923877
-13.617051121325607   -1.0822832144330925   -0.45942064133923877
-13.617051121325607   -1.0822832144330925   -0.45942064133923877
-7.683037089823687   -1.372072453513654   0.8226748222554177
-7.683037089823687   -1.372072453513654   0.8226748222554177
-7.683037089823687   -1.372072453513654   0.8226748222554177
-7.683037089823687   -1.372072453513654   0.8226748222554177
-10.414164337992101   -1.1028858816893592   0.32002348347515325
-10.414164337992101   -1.1028858816893592   0.32002348347515325
-10.414164337992101   -1.1028858816893592   0.32002348347515325
-10.414164337992101   -1.1028858816893592   0.32002348347515325
10.986006176816277   0.35380183070669124   0.15594101185082987
10.986006176816277   0.35380183070669124   0.15594101185082987
10.986006176816277   0.35380183070669124   0.15594101185082987
10.986006176816277   0.35380183070669124   0.15594101185082987
5.618853542930084   -0.29206203217858806   0.11729232852319665
5.618853542930084   -0.29206203217858806   0.11729232852319665
5.618853542930084   -0.29206203217858806   0.11729232852319665
5.618853542930084   -0.29206203217858806   0.11729232852319665
5.396345173575169   -0.7966968441716864   0.22748817744442862
5.396345173575169   -0.7966968441716864   0.22748817744442862
5.396345173575169   -0.7966968441716864   0.22748817744442862
5.396345173575169   -0.7966968441716864   0.22748817744442862
10.905875721586371   0.6149125431717173   0.08581210941830553
10.905875721586371   0.6149125431717173   0.08581210941830553
10.905875721586371   0.6149125431717173   0.08581210941830553
10.905875721586371   0.6149125431717173   0.08581210941830553
7.788254964162807   -0.11222746351866553   -0.2870389657975989
7.788254964162807   -0.11222746351866553   -0.2870389657975989
7.788254964162807   -0.11222746351866553   -0.2870389657975989
7.788254964162807   -0.11222746351866553   -0.2870389657975989
10.843929256540013   0.27126733533670144   0.11972499202152465
10.843929256540013   0.27126733533670144   0.11972499202152465
10.843929256540013   0.27126733533670144   0.11972499202152465
10.843929256540013   0.27126733533670144   0.11972499202152465
5.4399172174844885   -0.4714260574737108   0.12007761029304787
5.4399172174844885   -0.4714260574737108   0.12007761029304787
5.4399172174844885   -0.4714260574737108   0.12007761029304787
5.4399172174844885   -0.4714260574737108   0.12007761029304787
5.254947457402502   -0.8157285041940714   0.18849735718060767
5.254947457402502   -0.8157285041940714   0.18849735718060767
5.254947457402502   -0.8157285041940714   0.18849735718060767
5.254947457402502   -0.8157285041940714   0.18849735718060767
10.776259826788822   0.5875431908078781   0.14685671165588976
10.776259826788822   0.5875431908078781   0.14685671165588976
10.776259826788822   0.5875431908078781   0.14685671165588976
10.776259826788822   0.5875431908078781   0.14685671165588976
7.76276274747297   -0.1549345953895942   -0.3337527935564248
7.76276274747297   -0.1549345953895942   -0.3337527935564248
7.76276274747297   -0.1549345953895942   -0.3337527935564248
7.76276274747297   -0.1549345953895942   -0.3337527935564248
10.684528089095913   0.23969699459022076   0.036044219408900235
10.684528089095913   0.23969699459022076   0.036044219408900235
10.684528089095913   0.23969699459022076   0.036044219408900235
10.684528089095913   0.23969699459022076   0.036044219408900235
5.313889443259419   -0.500672059812463   0.16815084208358755
5.313889443259419   -0.500672059812463   0.16815084208358755
5.313889443259419   -0.500672059812463   0.16815084208358755
5.313889443259419   -0.500672059812463   0.16815084208358755
5.105481020921257   -0.7458817896678693   0.1627250555572669
5.105481020921257   -0.7458817896678693   0.1627250555572669
5.105481020921257   -0.7458817896678693   0.1627250555572669
5.105481020921257   -0.7458817896678693   0.1627250555572669
10.5761881924252   0.5921233733586011   0.20987915644771055
10.5761881924252   0.5921233733586011   0.20987915644771055
10.5761881924252   0.5921233733586011   0.20987915644771055
10.5761881924252   0.5921233733586011   0.20987915644771055
7.4689194797917455   -0.15692801315453364   -0.4519416839504566
7.4689194797917455   -0.15692801315453364   -0.4519416839504566
7.4689194797917455   -0.15692801315453364   -0.4519416839504566
7.4689194797917455   -0.15692801315453364   -0.4519416839504566
5.563446849735058   -0.7267092092843825   0.2749060396538673
5.563446849735058   -0.7267092092843825   0.2749060396538673
5.563446849735058   -0.7267092092843825   0.2749060396538673
5.563446849735058   -0.7267092092843825   0.2749060396538673
1.1032027736288192   -0.6629635609188574   0.061663309973655295
1.1032027736288192   -0.6629635609188574   0.061663309973655295
1.1032027736288192   -0.6629635609188574   0.061663309973655295
1.1032027736288192   -0.6629635609188574   0.061663309973655295
0.7197479983278332   -1.6814936376212215   0.29956887338576044
0.7197479983278332   -1.6814936376212215   0.29956887338576044
0.7197479983278332   -1.6814936376212215   0.29956887338576044
0.7197479983278332   -1.6814936376212215   0.29956887338576044
5.594999294259015   0.21094004288939106   0.21312189380257873
5.594999294259015   0.21094004288939106   0.21312189380257873
5.594999294259015   0.21094004288939106   0.21312189380257873
5.594999294259015   0.21094004288939106   0.21312189380257873
3.1955754072349833   -0.7178726348329901   -0.011812112840785649
3.1955754072349833   -0.7178726348329901   -0.011812112840785649
3.1955754072349833   -0.7178726348329901   -0.011812112840785649
3.1955754072349833   -0.7178726348329901   -0.011812112840785649
5.404456717293731   -0.7584965484434478   0.22984560030897816
5.404456717293731   -0.7584965484434478   0.22984560030897816
5.404456717293731   -0.7584965484434478   0.22984560030897816
5.404456717293731   -0.7584965484434478   0.22984560030897816
0.8622205956704623   -0.7601270259110822   0.0905652483887655
0.8622205956704623   -0.7601270259110822   0.0905652483887655
0.8622205956704623   -0.7601270259110822   0.0905652483887655
0.8622205956704623   -0.7601270259110822   0.0905652483887655
0.5483723326362935   -1.6976434803346576   0.2683432514927516
0.5483723326362935   -1.6976434803346576   0.2683432514927516
0.5483723326362935   -1.6976434803346576   0.2683432514927516
0.5483723326362935   -1.6976434803346576   0.2683432514927516
5.464557007566755   0.16793818666963456   0.25287841713817033
5.464557007566755   0.16793818666963456   0.25287841713817033
5.464557007566755   0.16793818666963456   0.25287841713817033
5.464557007566755   0.16793818666963456   0.25287841713817033
2.963176575967995   -0.7655017126215247   -0.15434365797265243
2.963176575967995   -0.7655017126215247   -0.15434365797265243
2.963176575967995   -0.7655017126215247   -0.15434365797265243
2.963176575967995   -0.7655017126215247   -0.15434365797265243
5.2642759331575   -0.7702076368138537   0.18961886857531862
5.2642759331575   -0.7702076368138537   0.18961886857531862
5.2642759331575   -0.7702076368138537   0.18961886857531862
5.2642759331575   -0.7702076368138537   0.18961886857531862
0.6964580168545804   -0.8116930470421073   0.12282123929163558
0.6964580168545804   -0.8116930470421073   0.12282123929163558
0.6964580168545804   -0.8116930470421073   0.12282123929163558
0.6964580168545804   -0.8116930470421073   0.12282123929163558
0.35650417171668136   -1.6982772638659922   0.21056455119873774
0.35650417171668136   -1.6982772638659922   0.21056455119873774
0.35650417171668136   -1.6982772638659922   0.21056455119873774
0.35650417171668136   -1.6982772638659922   0.21056455119873774
5.316521914456874   0.169363321068269   0.30268441249922473
5.316521914456874   0.169363321068269   0.30268441249922473
5.316521914456874   0.169363321068269   0.30268441249922473
5.316521914456874   0.169363321068269   0.30268441249922473
2.8205207089321895   -0.7608285193704205   -0.27589189507338746
2.8205207089321895   -0.7608285193704205   -0.27589189507338746
2.8205207089321895   -0.7608285193704205   -0.27589189507338746
2.8205207089321895   -0.7608285193704205   -0.27589189507338746
0.857193433312283   -2.07891970036233   0.24757274783443184
0.857193433312283   -2.07891970036233   0.24757274783443184
0.857193433312283   -2.07891970036233   0.24757274783443184
0.857193433312283   -2.07891970036233   0.24757274783443184
-3.236262745318675   -1.0320301155633271   0.006062427595493913
-3.236262745318675   -1.0320301155633271   0.006062427595493913
-3.236262745318675   -1.0320301155633271   0.006062427595493913
-3.236262745318675   -1.0320301155633271   0.006062427595493913
-3.9300171791925322   -3.0691404001672464   0.34338291467852833
-3.9300171791925322   -3.0691404001672464   0.34338291467852833
-3.9300171791925322   -3.0691404001672464   0.34338291467852833
-3.9300171791925322   -3.0691404001672464   0.34338291467852833
0.986185851247246   -0.18382344776626908   0.1340879481278552
0.986185851247246   -0.18382344776626908   0.1340879481278552
0.986185851247246   -0.18382344776626908   0.1340879481278552
0.986185851247246   -0.18382344776626908   0.1340879481278552
-1.3124724414182674   -1.5686564090353259   0.058460251375082595
-1.3124724414182674   -1.5686564090353259   0.058460251375082595
-1.3124724414182674   -1.5686564090353259   0.058460251375082595
-1.3124724414182674   -1.5686564090353259   0.058460251375082595
0.5919210384632447   -2.198034376902898   0.17697481334449372
0.5919210384632447   -2.198034376902898   0.17697481334449372
0.5919210384632447   -2.198034376902898   0.17697481334449372
0.5919210384632447   -2.198034376902898   0.17697481334449372
-3.602804070475935   -1.1219811750980644   0.03228923319230469
-3.602804070475935   -1.1219811750980644   0.03228923319230469
-3.602804070475935   -1.1219811750980644   0.03228923319230469
-3.602804070475935   -1.1219811750980644   0.03228923319230469
-4.169118146104701   -3.1202454789991143   0.27845133772611474
-4.169118146104701   -3.1202454789991143   0.27845133772611474
-4.169118146104701   -3.1202454789991143   0.27845133772611474
-4.169118146104701   -3.1202454789991143   0.27845133772611474
0.8257026003181656   -0.23161328744422344   0.1889643970116779
0.8257026003181656   -0.23161328744422344   0.1889643970116779
0.8257026003181656   -0.23161328744422344   0.1889643970116779
0.8257026003181656   -0.23161328744422344   0.1889643970116779
-1.6110439086049833   -1.6650676714609502   -0.1412293618686914
-1.6110439086049833   -1.6650676714609502   -0.1412293618686914
-1.6110439086049833   -1.6650676714609502   -0.1412293618686914
-1.6110439086049833   -1.6650676714609502   -0.1412293618686914
0.40937126831219406   -2.2375824781278655   0.1132769276654626
0.40937126831219406   -2.2375824781278655   0.1132769276654626
0.40937126831219406   -2.2375824781278655   0.1132769276654626
0.40937126831219406   -2.2375824781278655   0.1132769276654626
-3.8322156778941885   -1.1937051521109383   0.03642335189045777
-3.8322156778941885   -1.1937051521109383   0.03642335189045777
-3.8322156778941885   -1.1937051521109383   0.03642335189045777
-3.8322156778941885   -1.1937051521109383   0.03642335189045777
-4.4277776051240085   -3.0997889450739606   0.23637734840199065
-4.4277776051240085   -3.0997889450739606   0.23637734840199065
-4.4277776051240085   -3.0997889450739606   0.23637734840199065
-4.4277776051240085   -3.0997889450739606   0.23637734840199065
0.6470344790784004   -0.25861359750290314   0.22355242164424347
0.6470344790784004   -0.25861359750290314   0.22355242164424347
0.6470344790784004   -0.25861359750290314   0.22355242164424347
0.6470344790784004   -0.25861359750290314   0.22355242164424347
-1.8529364413397922   -1.702142106590027   -0.3399947102733107
-1.8529364413397922   -1.702142106590027   -0.3399947102733107
-1.8529364413397922   -1.702142106590027   -0.3399947102733107
-1.8529364413397922   -1.702142106590027   -0.3399947102733107
-3.6841389190001594   -3.5597793359380794   0.29443077956283925
-3.6841389190001594   -3.5597793359380794   0.29443077956283925
-3.6841389190001594   -3.5597793359380794   0.29443077956283925
-3.6841389190001594   -3.5597793359380794   0.29443077956283925
-8.181629975813419   -1.285906698448186   -0.19120809025576085
-8.181629975813419   -1.285906698448186   -0.19120809025576085
-8.181629975813419   -1.285906698448186   -0.19120809025576085
-8.181629975813419   -1.285906698448186   -0.19120809025576085
-9.393041210102242   -5.144694840576458   -0.2702047589135551
-9.393041210102242   -5.144694840576458   -0.2702047589135551
-9.393041210102242   -5.144694840576458   -0.2702047589135551
-9.393041210102242   -5.144694840576458   -0.2702047589135551
-3.4213017931555547   -0.29803433037053445   0.11585377506667659
-3.4213017931555547   -0.29803433037053445   0.11585377506667659
-3.4213017931555547   -0.29803433037053445   0.11585377506667659
-3.4213017931555547   -0.29803433037053445   0.11585377506667659
-6.111526429406   -2.474162247170656   -0.2175678625129971
-6.111526429406   -2.474162247170656   -0.2175678625129971
-6.111526429406   -2.474162247170656   -0.2175678625129971
-6.111526429406   -2.474162247170656   -0.2175678625129971
-4.170884531223772   -4.02686783512253   0.09677358947761416
-4.170884531223772   -4.02686783512253   0.09677358947761416
-4.170884531223772   -4.02686783512253   0.09677358947761416
-4.170884531223772   -4.02686783512253   0.09677358947761416
-8.623461283877251   -1.395864147667726   -0.17113582069733835
-8.623461283877251   -1.395864147667726   -0.17113582069733835
-8.623461283877251   -1.395864147667726   -0.17113582069733835
-8.623461283877251   -1.395864147667726   -0.17113582069733835
-9.677004661501128   -5.22918856061645   -0.3125177834407329
-9.677004661501128   -5.22918856061645   -0.3125177834407329
-9.677004661501128   -5.22918856061645   -0.3125177834407329
-9.677004661501128   -5.22918856061645   -0.3125177834407329
-3.6411861165462938   -0.3759525437323765   0.17381855025137052
-3.6411861165462938   -0.3759525437323765   0.17381855025137052
-3.6411861165462938   -0.3759525437323765   0.17381855025137052
-3.6411861165462938   -0.3759525437323765   0.17381855025137052
-6.458049970827236   -2.739270025217544   -0.30389918772439717
-6.458049970827236   -2.739270025217544   -0.30389918772439717
-6.458049970827236   -2.739270025217544   -0.30389918772439717
-6.458049970827236   -2.739270025217544   -0.30389918772439717
-4.414564079051922   -4.106668040533617   0.03764423452447041
-4.414564079051922   -4.106668040533617   0.03764423452447041
-4.414564079051922   -4.106668040533617   0.03764423452447041
-4.414564079051922   -4.106668040533617   0.03764423452447041
-8.90351622797561   -1.498362592795373   -0.17590158363429473
-8.90351622797561   -1.498362592795373   -0.17590158363429473
-8.90351622797561   -1.498362592795373   -0.17590158363429473
-8.90351622797561   -1.498362592795373   -0.17590158363429473
-9.919736160532832   -5.011202700154308   -0.352491041214545
-9.919736160532832   -5.011202700154308   -0.352491041214545
-9.919736160532832   -5.011202700154308   -0.352491041214545
-9.919736160532832   -5.011202700154308   -0.352491041214545
-3.920164226398178   -0.48576614637893906   0.16042144333605646
-3.920164226398178   -0.48576614637893906   0.16042144333605646
-3.920164226398178   -0.48576614637893906   0.16042144333605646
-3.920164226398178   -0.48576614637893906   0.16042144333605646
-6.7761456252337835   -2.830417848788401   -0.38554903548408165
-6.7761456252337835   -2.830417848788401   -0.38554903548408165
-6.7761456252337835   -2.830417848788401   -0.38554903548408165
-6.7761456252337835   -2.830417848788401   -0.38554903548408165
-8.029857116963399   -1.4580179352362297   0.7397674407822499
-8.029857116963399   -1.4580179352362297   0.7397674407822499
-8.029857116963399   -1.4580179352362297   0.7397674407822499
-8.029857116963399   -1.4580179352362297   0.7397674407822499
-14.184847137715025   -1.0666645392321858   -0.25681834841653806
-14.184847137715025   -1.0666645392321858   -0.25681834841653806
-14.184847137715025   -1.0666645392321858   -0.25681834841653806
-14.184847137715025   -1.0666645392321858   -0.25681834841653806
-15.06071033154934   -2.9714263943034993   0.20357836003184193
-15.06071033154934   -2.9714263943034993   0.20357836003184193
-15.06071033154934   -2.9714263943034993   0.20357836003184193
-15.06071033154934   -2.9714263943034993   0.20357836003184193
-8.272962067413182   0.11482440236774094   0.07067171158746888
-8.272962067413182   0.11482440236774094   0.07067171158746888
-8.272962067413182   0.11482440236774094   0.07067171158746888
-8.272962067413182   0.11482440236774094   0.07067171158746888
-10.844716244625166   -1.0441446302280681   0.21904202356753277
-10.844716244625166   -1.0441446302280681   0.21904202356753277
-10.844716244625166   -1.0441446302280681   0.21904202356753277
-10.844716244625166   -1.0441446302280681   0.21904202356753277
-8.492090083287247   -1.5670390081170655   0.6568950427019202
-8.492090083287247   -1.5670390081170655   0.6568950427019202
-8.492090083287247   -1.5670390081170655   0.6568950427019202
-8.492090083287247   -1.5670390081170655   0.6568950427019202
-14.802388296231225   -1.2503689643746339   -0.22586889330636106
-14.802388296231225   -1.2503689643746339   -0.22586889330636106
-14.802388296231225   -1.2503689643746339   -0.22586889330636106
-14.802388296231225   -1.2503689643746339   -0.22586889330636106
-15.435339462977986   -3.0994486379671304   -0.06190372685766743
-15.435339462977986   -3.0994486379671304   -0.06190372685766743
-15.435339462977986   -3.0994486379671304   -0.06190372685766743
-15.435339462977986   -3.0994486379671304   -0.06190372685766743
-8.536872179055207   0.028001031976450985   0.13095503619590343
-8.536872179055207   0.028001031976450985   0.13095503619590343
-8.536872179055207   0.028001031976450985   0.13095503619590343
-8.536872179055207   0.028001031976450985   0.13095503619590343
-11.500489218428733   -1.3800190518312925   0.09126177948548497
-11.500489218428733   -1.3800190518312925   0.09126177948548497
-11.500489218428733   -1.3800190518312925   0.09126177948548497
-11.500489218428733   -1.3800190518312925   0.09126177948548497
-8.789154677732174   -1.6486018504907771   0.5461454252782891
-8.789154677732174   -1.6486018504907771   0.5461454252782891
-8.789154677732174   -1.6486018504907771   0.5461454252782891
-8.789154677732174   -1.6486018504907771   0.5461454252782891
-15.10528536900057   -1.3450741601993723   -0.1660077347380957
-15.10528536900057   -1.3450741601993723   -0.1660077347380957
-15.10528536900057   -1.3450741601993723   -0.1660077347380957
-15.10528536900057   -1.3450741601993723   -0.1660077347380957
-15.7642556721042   -3.1527914173988725   0.0002985851098369352
-15.7642556721042   -3.1527914173988725   0.0002985851098369352
-15.7642556721042   -3.1527914173988725   0.0002985851098369352
-15.7642556721042   -3.1527914173988725   0.0002985851098369352
-8.906862332872121   -0.3520219308423278   0.05269732777701802
-8.906862332872121   -0.3520219308423278   0.05269732777701802
-8.906862332872121   -0.3520219308423278   0.05269732777701802
-8.906862332872121   -0.3520219308423278   0.05269732777701802
-11.64538686340818   -1.669247523562146   0.1444254276842997
-11.64538686340818   -1.669247523562146   0.1444254276842997
-11.64538686340818   -1.669247523562146   0.1444254276842997
-11.64538686340818   -1.669247523562146   0.1444254276842997
9.595447733344548   0.43744493836118203   -0.2117670091921698
9.595447733344548   0.43744493836118203   -0.2117670091921698
9.595447733344548   0.43744493836118203   -0.2117670091921698
9.595447733344548   0.43744493836118203   -0.2117670091921698
4.837506198764767   -0.09260673782831841   0.1055881569416503
4.837506198764767   -0.09260673782831841   0.1055881569416503
4.837506198764767   -0.09260673782831841   0.1055881569416503
4.837506198764767   -0.09260673782831841   0.1055881569416503
4.52568226864744   -0.7154942429992213   -0.18602836849745574
4.52568226864744   -0.7154942429992213   -0.18602836849745574
4.52568226864744   -0.7154942429992213   -0.18602836849745574
4.52568226864744   -0.7154942429992213   -0.18602836849745574
9.483214424860103   0.6947575254657803   0.1235377265377563
9.483214424860103   0.6947575254657803   0.1235377265377563
9.483214424860103   0.6947575254657803   0.1235377265377563
9.483214424860103   0.6947575254657803   0.1235377265377563
6.737697601298661   0.016433030551881167   -0.260387933508866
6.737697601298661   0.016433030551881167   -0.260387933508866
6.737697601298661   0.016433030551881167   -0.260387933508866
6.737697601298661   0.016433030551881167   -0.260387933508866
9.324692384151346   0.23887538624418259   -0.21319033778434426
9.324692384151346   0.23887538624418259   -0.21319033778434426
9.324692384151346   0.23887538624418259   -0.21319033778434426
9.324692384151346   0.23887538624418259   -0.21319033778434426
4.675284239581946   -0.2685321735518649   0.11501941672768567
4.675284239581946   -0.2685321735518649   0.11501941672768567
4.675284239581946   -0.2685321735518649   0.11501941672768567
4.675284239581946   -0.2685321735518649   0.11501941672768567
4.357955963725678   -0.756140427009087   -0.15325751436579238
4.357955963725678   -0.756140427009087   -0.15325751436579238
4.357955963725678   -0.756140427009087   -0.15325751436579238
4.357955963725678   -0.756140427009087   -0.15325751436579238
9.24987311938112   0.6374345081423094   0.1796910342356457
9.24987311938112   0.6374345081423094   0.1796910342356457
9.24987311938112   0.6374345081423094   0.1796910342356457
9.24987311938112   0.6374345081423094   0.1796910342356457
6.644230643076238   -0.06873690598389226   -0.312171438054133
6.644230643076238   -0.06873690598389226   -0.312171438054133
6.644230643076238   -0.06873690598389226   -0.312171438054133
6.644230643076238   -0.06873690598389226   -0.312171438054133
9.090257991675555   0.1873178851867281   -0.16826798133659315
9.090257991675555   0.1873178851867281   -0.16826798133659315
9.090257991675555   0.1873178851867281   -0.16826798133659315
9.090257991675555   0.1873178851867281   -0.16826798133659315
4.505332334942152   -0.31826256054259616   0.14574647525008366
4.505332334942152   -0.31826256054259616   0.14574647525008366
4.505332334942152   -0.31826256054259616   0.14574647525008366
4.505332334942152   -0.31826256054259616   0.14574647525008366
4.195242846850502   -0.7470107709302308   -0.10484621942174949
4.195242846850502   -0.7470107709302308   -0.10484621942174949
4.195242846850502   -0.7470107709302308   -0.10484621942174949
4.195242846850502   -0.7470107709302308   -0.10484621942174949
8.960704774754767   0.5969148597840113   0.23295287003995885
8.960704774754767   0.5969148597840113   0.23295287003995885
8.960704774754767   0.5969148597840113   0.23295287003995885
8.960704774754767   0.5969148597840113   0.23295287003995885
6.312395771587584   -0.12030804306970966   -0.41088240144939214
6.312395771587584   -0.12030804306970966   -0.41088240144939214
6.312395771587584   -0.12030804306970966   -0.41088240144939214
6.312395771587584   -0.12030804306970966   -0.41088240144939214
4.85989914125055   0.08419356409933265   0.04075256744287423
4.85989914125055   0.08419356409933265   0.04075256744287423
4.85989914125055   0.08419356409933265   0.04075256744287423
4.85989914125055   0.08419356409933265   0.04075256744287423
0.48199707200133746   -0.288490091611302   -0.009452643205017916
0.48199707200133746   -0.288490091611302   -0.009452643205017916
0.48199707200133746   -0.288490091611302   -0.009452643205017916
0.48199707200133746   -0.288490091611302   -0.009452643205017916
0.18820348098369727   -0.9487419435422473   -0.17849222508005014
0.18820348098369727   -0.9487419435422473   -0.17849222508005014
0.18820348098369727   -0.9487419435422473   -0.17849222508005014
0.18820348098369727   -0.9487419435422473   -0.17849222508005014
4.866436428712122   0.5602938652749315   0.24195432355177135
4.866436428712122   0.5602938652749315   0.24195432355177135
4.866436428712122   0.5602938652749315   0.24195432355177135
4.866436428712122   0.5602938652749315   0.24195432355177135
2.5514075105995464   -0.1355355932678206   -0.10226488486255697
2.5514075105995464   -0.1355355932678206   -0.10226488486255697
2.5514075105995464   -0.1355355932678206   -0.10226488486255697
2.5514075105995464   -0.1355355932678206   -0.10226488486255697
4.722122874265284   0.008230386207156437   0.0724500303853805
4.722122874265284   0.008230386207156437   0.0724500303853805
4.722122874265284   0.008230386207156437   0.0724500303853805
4.722122874265284   0.008230386207156437   0.0724500303853805
0.33788947790477186   -0.3913060220002315   0.01250183798330698
0.33788947790477186   -0.3913060220002315   0.01250183798330698
0.33788947790477186   -0.3913060220002315   0.01250183798330698
0.33788947790477186   -0.3913060220002315   0.01250183798330698
0.0264899857093851   -0.994960411264343   -0.12354755067410209
0.0264899857093851   -0.994960411264343   -0.12354755067410209
0.0264899857093851   -0.994960411264343   -0.12354755067410209
0.0264899857093851   -0.994960411264343   -0.12354755067410209
4.688849138081244   0.47802424938752186   0.26704368101542253
4.688849138081244   0.47802424938752186   0.26704368101542253
4.688849138081244   0.47802424938752186   0.26704368101542253
4.688849138081244   0.47802424938752186   0.26704368101542253
2.3658015833003505   -0.21103425531377562   -0.14481540627795464
2.3658015833003505   -0.21103425531377562   -0.14481540627795464
2.3658015833003505   -0.21103425531377562   -0.14481540627795464
2.3658015833003505   -0.21103425531377562   -0.14481540627795464
4.552583520868177   -0.04357018769182086   0.10731003202947059
4.552583520868177   -0.04357018769182086   0.10731003202947059
4.552583520868177   -0.04357018769182086   0.10731003202947059
4.552583520868177   -0.04357018769182086   0.10731003202947059
0.16192594740022817   -0.47419562970717644   0.032867476222946584
0.16192594740022817   -0.47419562970717644   0.032867476222946584
0.16192594740022817   -0.47419562970717644   0.032867476222946584
0.16192594740022817   -0.47419562970717644   0.032867476222946584
-0.14727563347943956   -1.0006775492626439   -0.08372239121927266
-0.14727563347943956   -1.0006775492626439   -0.08372239121927266
-0.14727563347943956   -1.0006775492626439   -0.08372239121927266
-0.14727563347943956   -1.0006775492626439   -0.08372239121927266
4.509699438971021   0.4251279684052104   0.29529800184541866
4.509699438971021   0.4251279684052104   0.29529800184541866
4.509699438971021   0.4251279684052104   0.29529800184541866
4.509699438971021   0.4251279684052104   0.29529800184541866
2.2196806999427747   -0.24194354061501444   -0.18171481994973085
2.2196806999427747   -0.24194354061501444   -0.18171481994973085
2.2196806999427747   -0.24194354061501444   -0.18171481994973085
2.2196806999427747   -0.24194354061501444   -0.18171481994973085
0.48721330313093747   -0.28576642268847285   0.013904843520152768
0.48721330313093747   -0.28576642268847285   0.013904843520152768
0.48721330313093747   -0.28576642268847285   0.013904843520152768
0.48721330313093747   -0.28576642268847285   0.013904843520152768
-3.726430210005359   -0.43164172457140626   -0.11752636740167366
-3.726430210005359   -0.43164172457140626   -0.11752636740167366
-3.726430210005359   -0.43164172457140626   -0.11752636740167366
-3.726430210005359   -0.43164172457140626   -0.11752636740167366
-4.05303096595639   -1.2590223328296797   -0.2026896599853164
-4.05303096595639   -1.2590223328296797   -0.2026896599853164
-4.05303096595639   -1.2590223328296797   -0.2026896599853164
-4.05303096595639   -1.2590223328296797   -0.2026896599853164
0.5230897800950081   0.40894450849856656   0.13825281843568993
0.5230897800950081   0.40894450849856656   0.13825281843568993
0.5230897800950081   0.40894450849856656   0.13825281843568993
0.5230897800950081   0.40894450849856656   0.13825281843568993
-1.6974965479488862   -0.3730490547456645   -0.10185090587117299
-1.6974965479488862   -0.3730490547456645   -0.10185090587117299
-1.6974965479488862   -0.3730490547456645   -0.10185090587117299
-1.6974965479488862   -0.3730490547456645   -0.10185090587117299
0.36579710711893837   -0.31880999483897426   0.07954395689288231
0.36579710711893837   -0.31880999483897426   0.07954395689288231
0.36579710711893837   -0.31880999483897426   0.07954395689288231
0.36579710711893837   -0.31880999483897426   0.07954395689288231
-3.883791460968628   -0.5193209974804468   -0.09619347039574061
-3.883791460968628   -0.5193209974804468   -0.09619347039574061
-3.883791460968628   -0.5193209974804468   -0.09619347039574061
-3.883791460968628   -0.5193209974804468   -0.09619347039574061
-4.2427961547514155   -1.3097588620719904   -0.13326472105757659
-4.2427961547514155   -1.3097588620719904   -0.13326472105757659
-4.2427961547514155   -1.3097588620719904   -0.13326472105757659
-4.2427961547514155   -1.3097588620719904   -0.13326472105757659
0.3456470958049308   0.3208025188132487   0.1564750697260348
0.3456470958049308   0.3208025188132487   0.1564750697260348
0.3456470958049308   0.3208025188132487   0.1564750697260348
0.3456470958049308   0.3208025188132487   0.1564750697260348
-1.8543628041340683   -0.4258432609324667   -0.12227870072452415
-1.8543628041340683   -0.4258432609324667   -0.12227870072452415
-1.8543628041340683   -0.4258432609324667   -0.12227870072452415
-1.8543628041340683   -0.4258432609324667   -0.12227870072452415
0.1978021863353459   -0.3728130345040427   0.11086607569540159
0.1978021863353459   -0.3728130345040427   0.11086607569540159
0.1978021863353459   -0.3728130345040427   0.11086607569540159
0.1978021863353459   -0.3728130345040427   0.11086607569540159
-4.09251026918546   -0.613702332658334   -0.0778918226414884
-4.09251026918546   -0.613702332658334   -0.0778918226414884
-4.09251026918546   -0.613702332658334   -0.0778918226414884
-4.09251026918546   -0.613702332658334   -0.0778918226414884
-4.453493240347054   -1.3471331789088306   -0.11851776595969388
-4.453493240347054   -1.3471331789088306   -0.11851776595969388
-4.453493240347054   -1.3471331789088306   -0.11851776595969388
-4.453493240347054   -1.3471331789088306   -0.11851776595969388
0.15373527395147069   0.24548844099833692   0.17516615567429775
0.15373527395147069   0.24548844099833692   0.17516615567429775
0.15373527395147069   0.24548844099833692   0.17516615567429775
0.15373527395147069   0.24548844099833692   0.17516615567429775
-2.058316009753785   -0.489067126711674   -0.17132035803085194
-2.058316009753785   -0.489067126711674   -0.17132035803085194
-2.058316009753785   -0.489067126711674   -0.17132035803085194
-2.058316009753785   -0.489067126711674   -0.17132035803085194
-3.671667903307047   -0.33395331466006545   0.05859675617846889
-3.671667903307047   -0.33395331466006545   0.05859675617846889
-3.671667903307047   -0.33395331466006545   0.05859675617846889
-3.671667903307047   -0.33395331466006545   0.05859675617846889
-7.829098741058079   -0.504899020100515   -0.20813284409492527
-7.829098741058079   -0.504899020100515   -0.20813284409492527
-7.829098741058079   -0.504899020100515   -0.20813284409492527
-7.829098741058079   -0.504899020100515   -0.20813284409492527
-8.200782274404414   -1.3173673163442774   -0.20133067355317824
-8.200782274404414   -1.3173673163442774   -0.20133067355317824
-8.200782274404414   -1.3173673163442774   -0.20133067355317824
-8.200782274404414   -1.3173673163442774   -0.20133067355317824
-3.6908363710390346   0.3111168637215399   0.03814411805018042
-3.6908363710390346   0.3111168637215399   0.03814411805018042
-3.6908363710390346   0.3111168637215399   0.03814411805018042
-3.6908363710390346   0.3111168637215399   0.03814411805018042
-5.799687863419052   -0.43984907147748553   -0.08627178860085957
-5.799687863419052   -0.43984907147748553   -0.08627178860085957
-5.799687863419052   -0.43984907147748553   -0.08627178860085957
-5.799687863419052   -0.43984907147748553   -0.08627178860085957
-3.806236865005345   -0.369783664471531   0.14204217641172945
-3.806236865005345   -0.369783664471531   0.14204217641172945
-3.806236865005345   -0.369783664471531   0.14204217641172945
-3.806236865005345   -0.369783664471531   0.14204217641172945
-8.061802657292503   -0.6128876650056929   -0.21091223933226927
-8.061802657292503   -0.6128876650056929   -0.21091223933226927
-8.061802657292503   -0.6128876650056929   -0.21091223933226927
-8.061802657292503   -0.6128876650056929   -0.21091223933226927
-8.463637311008169   -1.403339720826064   -0.14066614075518966
-8.463637311008169   -1.403339720826064   -0.14066614075518966
-8.463637311008169   -1.403339720826064   -0.14066614075518966
-8.463637311008169   -1.403339720826064   -0.14066614075518966
-3.9018756908671026   0.2146040443094227   0.046974691982538286
-3.9018756908671026   0.2146040443094227   0.046974691982538286
-3.9018756908671026   0.2146040443094227   0.046974691982538286
-3.9018756908671026   0.2146040443094227   0.046974691982538286
-5.966737372558871   -0.4879804350428564   -0.08686554147977846
-5.966737372558871   -0.4879804350428564   -0.08686554147977846
-5.966737372558871   -0.4879804350428564   -0.08686554147977846
-5.966737372558871   -0.4879804350428564   -0.08686554147977846
-4.016010351412185   -0.45625001170210455   0.14715544526862193
-4.016010351412185   -0.45625001170210455   0.14715544526862193
-4.016010351412185   -0.45625001170210455   0.14715544526862193
-4.016010351412185   -0.45625001170210455   0.14715544526862193
-8.333731036843176   -0.7167140511946293   -0.17776043956164916
-8.333731036843176   -0.7167140511946293   -0.17776043956164916
-8.333731036843176   -0.7167140511946293   -0.17776043956164916
-8.333731036843176   -0.7167140511946293   -0.17776043956164916
-8.761339363301236   -1.516296042557063   -0.1510529006517517
-8.761339363301236   -1.516296042557063   -0.1510529006517517
-8.761339363301236   -1.516296042557063   -0.1510529006517517
-8.761339363301236   -1.516296042557063   -0.1510529006517517
-4.12989298651692   0.09581518654848487   0.056535137733586316
-4.12989298651692   0.09581518654848487   0.056535137733586316
-4.12989298651692   0.09581518654848487   0.056535137733586316
-4.12989298651692   0.09581518654848487   0.056535137733586316
-6.26080730051131   -0.6031874077917084   -0.1403320171042066
-6.26080730051131   -0.6031874077917084   -0.1403320171042066
-6.26080730051131   -0.6031874077917084   -0.1403320171042066
-6.26080730051131   -0.6031874077917084   -0.1403320171042066
-7.5616671306347865   0.3618003078761851   0.2623258800448337
-7.5616671306347865   0.3618003078761851   0.2623258800448337
-7.5616671306347865   0.3618003078761851   0.2623258800448337
-7.5616671306347865   0.3618003078761851   0.2623258800448337
-11.728679562919123   -0.5847539656721898   -0.1605296581350285
-11.728679562919123   -0.5847539656721898   -0.1605296581350285
-11.728679562919123   -0.5847539656721898   -0.1605296581350285
-11.728679562919123   -0.5847539656721898   -0.1605296581350285
-12.022218062030593   -0.5951594416248729   0.2700084862418106
-12.022218062030593   -0.5951594416248729   0.2700084862418106
-12.022218062030593   -0.5951594416248729   0.2700084862418106
-12.022218062030593   -0.5951594416248729   0.2700084862418106
-7.862015543477184   0.2407267210810613   -0.06559105634242501
-7.862015543477184   0.2407267210810613   -0.06559105634242501
-7.862015543477184   0.2407267210810613   -0.06559105634242501
-7.862015543477184   0.2407267210810613   -0.06559105634242501
-9.337501974518783   0.008272851349707455   0.23636686448037791
-9.337501974518783   0.008272851349707455   0.23636686448037791
-9.337501974518783   0.008272851349707455   0.23636686448037791
-9.337501974518783   0.008272851349707455   0.23636686448037791
-7.777821935154174   0.2657823564773565   0.33032134987629364
-7.777821935154174   0.2657823564773565   0.33032134987629364
-7.777821935154174   0.2657823564773565   0.33032134987629364
-7.777821935154174   0.2657823564773565   0.33032134987629364
-12.101023243163029   -0.6148266498305999   -0.10435021121464039
-12.101023243163029   -0.6148266498305999   -0.10435021121464039
-12.101023243163029   -0.6148266498305999   -0.10435021121464039
-12.101023243163029   -0.6148266498305999   -0.10435021121464039
-12.393342622880725   -0.6961263095626058   0.3667887723261384
-12.393342622880725   -0.6961263095626058   0.3667887723261384
-12.393342622880725   -0.6961263095626058   0.3667887723261384
-12.393342622880725   -0.6961263095626058   0.3667887723261384
-8.134064855698064   0.17220296748454644   -0.06834655251533361
-8.134064855698064   0.17220296748454644   -0.06834655251533361
-8.134064855698064   0.17220296748454644   -0.06834655251533361
-8.134064855698064   0.17220296748454644   -0.06834655251533361
-9.813702966543426   -0.11017757623639257   0.12713574950124795
-9.813702966543426   -0.11017757623639257   0.12713574950124795
-9.813702966543426   -0.11017757623639257   0.12713574950124795
-9.813702966543426   -0.11017757623639257   0.12713574950124795
-8.057134976027616   0.1628821900059012   0.32562362331556216
-8.057134976027616   0.1628821900059012   0.32562362331556216
-8.057134976027616   0.1628821900059012   0.32562362331556216
-8.057134976027616   0.1628821900059012   0.32562362331556216
-12.484754662974991   -0.7012876925077771   -0.0851100452000243
-12.484754662974991   -0.7012876925077771   -0.0851100452000243
-12.484754662974991   -0.7012876925077771   -0.0851100452000243
-12.484754662974991   -0.7012876925077771   -0.0851100452000243
-12.92027514318814   -1.1012938853833691   0.3197503653875821
-12.92027514318814   -1.1012938853833691   0.3197503653875821
-12.92027514318814   -1.1012938853833691   0.3197503653875821
-12.92027514318814   -1.1012938853833691   0.3197503653875821
-8.447690371740842   -0.0349120742539486   -0.06419191115305256
-8.447690371740842   -0.0349120742539486   -0.06419191115305256
-8.447690371740842   -0.0349120742539486   -0.06419191115305256
-8.447690371740842   -0.0349120742539486   -0.06419191115305256
-10.020510169123805   -0.25861676741959827   0.0300185819856576
-10.020510169123805   -0.25861676741959827   0.0300185819856576
-10.020510169123805   -0.25861676741959827   0.0300185819856576
-10.020510169123805   -0.25861676741959827   0.0300185819856576
7.746769815068036   0.41207063952212697   -0.2802885726093907
7.746769815068036   0.41207063952212697   -0.2802885726093907
7.746769815068036   0.41207063952212697   -0.2802885726093907
7.746769815068036   0.41207063952212697   -0.2802885726093907
3.846857135699585   0.0005232226156367537   0.10271746276527413
3.846857135699585   0.0005232226156367537   0.10271746276527413
3.846857135699585   0.0005232226156367537   0.10271746276527413
3.846857135699585   0.0005232226156367537   0.10271746276527413
3.5114183607121223   -0.5755529638458429   -0.25621865587238046
3.5114183607121223   -0.5755529638458429   -0.25621865587238046
3.5114183607121223   -0.5755529638458429   -0.25621865587238046
3.5114183607121223   -0.5755529638458429   -0.25621865587238046
7.598674860782728   0.62851882549899   0.128673023369912
7.598674860782728   0.62851882549899   0.128673023369912
7.598674860782728   0.62851882549899   0.128673023369912
7.598674860782728   0.62851882549899   0.128673023369912
5.382493854643208   0.047748047519120984   -0.17702367610275593
5.382493854643208   0.047748047519120984   -0.17702367610275593
5.382493854643208   0.047748047519120984   -0.17702367610275593
5.382493854643208   0.047748047519120984   -0.17702367610275593
7.434606268875808   0.2064151056902035   -0.26956621635583466
7.434606268875808   0.2064151056902035   -0.26956621635583466
7.434606268875808   0.2064151056902035   -0.26956621635583466
7.434606268875808   0.2064151056902035   -0.26956621635583466
3.6683687019657407   -0.16056749469035791   0.11354758124015923
3.6683687019657407   -0.16056749469035791   0.11354758124015923
3.6683687019657407   -0.16056749469035791   0.11354758124015923
3.6683687019657407   -0.16056749469035791   0.11354758124015923
3.343603313855195   -0.6242497151577738   -0.22246027673884639
3.343603313855195   -0.6242497151577738   -0.22246027673884639
3.343603313855195   -0.6242497151577738   -0.22246027673884639
3.343603313855195   -0.6242497151577738   -0.22246027673884639
7.347525231694996   0.5617993390136631   0.1753092317308898
7.347525231694996   0.5617993390136631   0.1753092317308898
7.347525231694996   0.5617993390136631   0.1753092317308898
7.347525231694996   0.5617993390136631   0.1753092317308898
5.249601298803669   -0.03954826744029849   -0.23387430143849008
5.249601298803669   -0.03954826744029849   -0.23387430143849008
5.249601298803669   -0.03954826744029849   -0.23387430143849008
5.249601298803669   -0.03954826744029849   -0.23387430143849008
7.187045747426516   0.14656088065396888   -0.21184973125169992
7.187045747426516   0.14656088065396888   -0.21184973125169992
7.187045747426516   0.14656088065396888   -0.21184973125169992
7.187045747426516   0.14656088065396888   -0.21184973125169992
3.497772868266793   -0.21532118665490563   0.13945896681624853
3.497772868266793   -0.21532118665490563   0.13945896681624853
3.497772868266793   -0.21532118665490563   0.13945896681624853
3.497772868266793   -0.21532118665490563   0.13945896681624853
3.190166071109066   -0.6401149042028371   -0.18165724624858176
3.190166071109066   -0.6401149042028371   -0.18165724624858176
3.190166071109066   -0.6401149042028371   -0.18165724624858176
3.190166071109066   -0.6401149042028371   -0.18165724624858176
7.064388745620999   0.5022189373232366   0.21758165329564977
7.064388745620999   0.5022189373232366   0.21758165329564977
7.064388745620999   0.5022189373232366   0.21758165329564977
7.064388745620999   0.5022189373232366   0.21758165329564977
4.944982843399986   -0.10012663964210122   -0.31827154070196617
4.944982843399986   -0.10012663964210122   -0.31827154070196617
4.944982843399986   -0.10012663964210122   -0.31827154070196617
4.944982843399986   -0.10012663964210122   -0.31827154070196617
3.910679244965946   0.4030059316376389   0.019345300075077634
3.910679244965946   0.4030059316376389   0.019345300075077634
3.910679244965946   0.4030059316376389   0.019345300075077634
3.910679244965946   0.4030059316376389   0.019345300075077634
0.1431663296112144   -0.12492138987688504   -0.01476145086966595
0.1431663296112144   -0.12492138987688504   -0.01476145086966595
0.1431663296112144   -0.12492138987688504   -0.01476145086966595
0.1431663296112144   -0.12492138987688504   -0.01476145086966595
-0.10961791334084159   -0.5180452002460982   -0.17368666200041297
-0.10961791334084159   -0.5180452002460982   -0.17368666200041297
-0.10961791334084159   -0.5180452002460982   -0.17368666200041297
-0.10961791334084159   -0.5180452002460982   -0.17368666200041297
3.834176431661165   0.5682850479937169   0.2137336870332061
3.834176431661165   0.5682850479937169   0.2137336870332061
3.834176431661165   0.5682850479937169   0.2137336870332061
3.834176431661165   0.5682850479937169   0.2137336870332061
1.914347222684335   0.08088739440335152   -0.02240193166099208
1.914347222684335   0.08088739440335152   -0.02240193166099208
1.914347222684335   0.08088739440335152   -0.02240193166099208
1.914347222684335   0.08088739440335152   -0.02240193166099208
3.7453820713797032   0.2960845965183493   0.04196233710127992
3.7453820713797032   0.2960845965183493   0.04196233710127992
3.7453820713797032   0.2960845965183493   0.04196233710127992
3.7453820713797032   0.2960845965183493   0.04196233710127992
-0.019280568079234957   -0.24430176379058324   0.004256627852105302
-0.019280568079234957   -0.24430176379058324   0.004256627852105302
-0.019280568079234957   -0.24430176379058324   0.004256627852105302
-0.019280568079234957   -0.24430176379058324   0.004256627852105302
-0.2686045568808878   -0.5968566445028596   -0.14990709347435363
-0.2686045568808878   -0.5968566445028596   -0.14990709347435363
-0.2686045568808878   -0.5968566445028596   -0.14990709347435363
-0.2686045568808878   -0.5968566445028596   -0.14990709347435363
3.6541088029752764   0.4691736277696843   0.23664382593407485
3.6541088029752764   0.4691736277696843   0.23664382593407485
3.6541088029752764   0.4691736277696843   0.23664382593407485
3.6541088029752764   0.4691736277696843   0.23664382593407485
1.7205902433698486   -0.016617041214790185   -0.07787684168325389
1.7205902433698486   -0.016617041214790185   -0.07787684168325389
1.7205902433698486   -0.016617041214790185   -0.07787684168325389
1.7205902433698486   -0.016617041214790185   -0.07787684168325389
3.568599848576774   0.21351682635479152   0.06475585535648559
3.568599848576774   0.21351682635479152   0.06475585535648559
3.568599848576774   0.21351682635479152   0.06475585535648559
3.568599848576774   0.21351682635479152   0.06475585535648559
-0.18293035816746794   -0.34103459877312625   0.022641854363012234
-0.18293035816746794   -0.34103459877312625   0.022641854363012234
-0.18293035816746794   -0.34103459877312625   0.022641854363012234
-0.18293035816746794   -0.34103459877312625   0.022641854363012234
-0.4260486379163202   -0.6448530315845584   -0.11885892121583949
-0.4260486379163202   -0.6448530315845584   -0.11885892121583949
-0.4260486379163202   -0.6448530315845584   -0.11885892121583949
-0.4260486379163202   -0.6448530315845584   -0.11885892121583949
3.4828650975715187   0.38515110987718715   0.2565718719836122
3.4828650975715187   0.38515110987718715   0.2565718719836122
3.4828650975715187   0.38515110987718715   0.2565718719836122
3.4828650975715187   0.38515110987718715   0.2565718719836122
1.5766166226679943   -0.07959261147969504   -0.1189692401096933
1.5766166226679943   -0.07959261147969504   -0.1189692401096933
1.5766166226679943   -0.07959261147969504   -0.1189692401096933
1.5766166226679943   -0.07959261147969504   -0.1189692401096933
0.27039087296363157   0.40876311725486125   0.08767675876067356
0.27039087296363157   0.40876311725486125   0.08767675876067356
0.27039087296363157   0.40876311725486125   0.08767675876067356
0.27039087296363157   0.40876311725486125   0.08767675876067356
-3.4443238186208203   -0.2207669582318822   -0.11879390304864304
-3.4443238186208203   -0.2207669582318822   -0.11879390304864304
-3.4443238186208203   -0.2207669582318822   -0.11879390304864304
-3.4443238186208203   -0.2207669582318822   -0.11879390304864304
-3.6415661006950693   -0.4734190327829727   -0.10890900718192903
-3.6415661006950693   -0.4734190327829727   -0.10890900718192903
-3.6415661006950693   -0.4734190327829727   -0.10890900718192903
-3.6415661006950693   -0.4734190327829727   -0.10890900718192903
0.142371138042259   0.46512467156422654   0.10308872310476529
0.142371138042259   0.46512467156422654   0.10308872310476529
0.142371138042259   0.46512467156422654   0.10308872310476529
0.142371138042259   0.46512467156422654   0.10308872310476529
-1.6662238689537079   0.05304698235264693   0.006044747103868153
-1.6662238689537079   0.05304698235264693   0.006044747103868153
-1.6662238689537079   0.05304698235264693   0.006044747103868153
-1.6662238689537079   0.05304698235264693   0.006044747103868153
0.11521527000796258   0.32183821141126784   0.11059584308624193
0.11521527000796258   0.32183821141126784   0.11059584308624193
0.11521527000796258   0.32183821141126784   0.11059584308624193
0.11521527000796258   0.32183821141126784   0.11059584308624193
-3.610095230018791   -0.3258175699880324   -0.09915611659547931
-3.610095230018791   -0.3258175699880324   -0.09915611659547931
-3.610095230018791   -0.3258175699880324   -0.09915611659547931
-3.610095230018791   -0.3258175699880324   -0.09915611659547931
-3.812226572591873   -0.5600734244335197   -0.09003097811100412
-3.812226572591873   -0.5600734244335197   -0.09003097811100412
-3.812226572591873   -0.5600734244335197   -0.09003097811100412
-3.812226572591873   -0.5600734244335197   -0.09003097811100412
-0.021567337983960364   0.3631356082317891   0.12528674827563469
-0.021567337983960364   0.3631356082317891   0.12528674827563469
-0.021567337983960364   0.3631356082317891   0.12528674827563469
-0.021567337983960364   0.3631356082317891   0.12528674827563469
-1.8296853401022397   -0.0314950778846283   -0.03578895441772638
-1.8296853401022397   -0.0314950778846283   -0.03578895441772638
-1.8296853401022397   -0.0314950778846283   -0.03578895441772638
-1.8296853401022397   -0.0314950778846283   -0.03578895441772638
-0.04480770520842766   0.23821720728536383   0.13400331309972346
-0.04480770520842766   0.23821720728536383   0.13400331309972346
-0.04480770520842766   0.23821720728536383   0.13400331309972346
-0.04480770520842766   0.23821720728536383   0.13400331309972346
-3.785246763418126   -0.43141558153776904   -0.08378977513799013
-3.785246763418126   -0.43141558153776904   -0.08378977513799013
-3.785246763418126   -0.43141558153776904   -0.08378977513799013
-3.785246763418126   -0.43141558153776904   -0.08378977513799013
-3.9817930351773403   -0.6283875352332541   -0.058685416354845615
-3.9817930351773403   -0.6283875352332541   -0.058685416354845615
-3.9817930351773403   -0.6283875352332541   -0.058685416354845615
-3.9817930351773403   -0.6283875352332541   -0.058685416354845615
-0.19138054746495148   0.26705813599858746   0.14257036345785828
-0.19138054746495148   0.26705813599858746   0.14257036345785828
-0.19138054746495148   0.26705813599858746   0.14257036345785828
-0.19138054746495148   0.26705813599858746   0.14257036345785828
-2.0055447271274063   -0.11749360356828464   -0.0814295414507985
-2.0055447271274063   -0.11749360356828464   -0.0814295414507985
-2.0055447271274063   -0.11749360356828464   -0.0814295414507985
-2.0055447271274063   -0.11749360356828464   -0.0814295414507985
-3.2469475747264123   0.48551821135263706   0.1618021468389243
-3.2469475747264123   0.48551821135263706   0.1618021468389243
-3.2469475747264123   0.48551821135263706   0.1618021468389243
-3.2469475747264123   0.48551821135263706   0.1618021468389243
-6.908474486690048   -0.30431694553766886   -0.1951960793727905
-6.908474486690048   -0.30431694553766886   -0.1951960793727905
-6.908474486690048   -0.30431694553766886   -0.1951960793727905
-6.908474486690048   -0.30431694553766886   -0.1951960793727905
-7.062394852530102   -0.37665219652146154   -0.029142701673513238
-7.062394852530102   -0.37665219652146154   -0.029142701673513238
-7.062394852530102   -0.37665219652146154   -0.029142701673513238
-7.062394852530102   -0.37665219652146154   -0.029142701673513238
-3.4562455233909333   0.35108308242674413   -0.006808235870937263
-3.4562455233909333   0.35108308242674413   -0.006808235870937263
-3.4562455233909333   0.35108308242674413   -0.006808235870937263
-3.4562455233909333   0.35108308242674413   -0.006808235870937263
-5.131240107158308   0.055121616262644   0.03716276407129154
-5.131240107158308   0.055121616262644   0.03716276407129154
-5.131240107158308   0.055121616262644   0.03716276407129154
-5.131240107158308   0.055121616262644   0.03716276407129154
-3.4095326764430687   0.39609716274139517   0.18174191855373661
-3.4095326764430687   0.39609716274139517   0.18174191855373661
-3.4095326764430687   0.39609716274139517   0.18174191855373661
-3.4095326764430687   0.39609716274139517   0.18174191855373661
-7.103150152872113   -0.415708730230268   -0.19386266967481924
-7.103150152872113   -0.415708730230268   -0.19386266967481924
-7.103150152872113   -0.415708730230268   -0.19386266967481924
-7.103150152872113   -0.415708730230268   -0.19386266967481924
-7.2726382475721785   -0.47400392740157615   -0.02530260986738092
-7.2726382475721785   -0.47400392740157615   -0.02530260986738092
-7.2726382475721785   -0.47400392740157615   -0.02530260986738092
-7.2726382475721785   -0.47400392740157615   -0.02530260986738092
-3.6288534194789555   0.25375466959166526   0.013006693428430527
-3.6288534194789555   0.25375466959166526   0.013006693428430527
-3.6288534194789555   0.25375466959166526   0.013006693428430527
-3.6288534194789555   0.25375466959166526   0.013006693428430527
-5.279045901765994   -0.022567660559045022   0.0027873336759363654
-5.279045901765994   -0.022567660559045022   0.0027873336759363654
-5.279045901765994   -0.022567660559045022   0.0027873336759363654
-5.279045901765994   -0.022567660559045022   0.0027873336759363654
-3.5777466184773123   0.3120783283304023   0.21021703969789135
-3.5777466184773123   0.3120783283304023   0.21021703969789135
-3.5777466184773123   0.3120783283304023   0.21021703969789135
-3.5777466184773123   0.3120783283304023   0.21021703969789135
-7.311779236583103   -0.5203617741496482   -0.17464970817398917
-7.311779236583103   -0.5203617741496482   -0.17464970817398917
-7.311779236583103   -0.5203617741496482   -0.17464970817398917
-7.311779236583103   -0.5203617741496482   -0.17464970817398917
-7.466360573397714   -0.5780979851052794   0.023436866345313223
-7.466360573397714   -0.5780979851052794   0.023436866345313223
-7.466360573397714   -0.5780979851052794   0.023436866345313223
-7.466360573397714   -0.5780979851052794   0.023436866345313223
-3.8117613552589216   0.1382458543355447   0.0248395936685136
-3.8117613552589216   0.1382458543355447   0.0248395936685136
-3.8117613552589216   0.1382458543355447   0.0248395936685136
-3.8117613552589216   0.1382458543355447   0.0248395936685136
-5.508104534121409   -0.13078838723984232   -0.04313007654801798
-5.508104534121409   -0.13078838723984232   -0.04313007654801798
-5.508104534121409   -0.13078838723984232   -0.04313007654801798
-5.508104534121409   -0.13078838723984232   -0.04313007654801798
-6.661814705598977   0.5062350946065055   0.22755078593830225
-6.661814705598977   0.5062350946065055   0.22755078593830225
-6.661814705598977   0.5062350946065055   0.22755078593830225
-6.661814705598977   0.5062350946065055   0.22755078593830225
-10.193945806580007   -0.4709103866473845   -0.18181450851538955
-10.193945806580007   -0.4709103866473845   -0.18181450851538955
-10.193945806580007   -0.4709103866473845   -0.18181450851538955
-10.193945806580007   -0.4709103866473845   -0.18181450851538955
-10.336811506917075   -0.20224511572762216   0.19434572305429465
-10.336811506917075   -0.20224511572762216   0.19434572305429465
-10.336811506917075   -0.20224511572762216   0.19434572305429465
-10.336811506917075   -0.20224511572762216   0.19434572305429465
-6.960370854751316   0.20753087881371868   -0.1032057881147666
-6.960370854751316   0.20753087881371868   -0.1032057881147666
-6.960370854751316   0.20753087881371868   -0.1032057881147666
-6.960370854751316   0.20753087881371868   -0.1032057881147666
-8.161421217182765   0.10655111805426554   0.18633737322531724
-8.161421217182765   0.10655111805426554   0.18633737322531724
-8.161421217182765   0.10655111805426554   0.18633737322531724
-8.161421217182765   0.10655111805426554   0.18633737322531724
-6.826297118164446   0.5132728101156141   0.2614209635176007
-6.826297118164446   0.5132728101156141   0.2614209635176007
-6.826297118164446   0.5132728101156141   0.2614209635176007
-6.826297118164446   0.5132728101156141   0.2614209635176007
-10.462958182400737   -0.5000599859262522   -0.13857278416520097
-10.462958182400737   -0.5000599859262522   -0.13857278416520097
-10.462958182400737   -0.5000599859262522   -0.13857278416520097
-10.462958182400737   -0.5000599859262522   -0.13857278416520097
-10.597826934701565   -0.2531554809628478   0.26862328425119675
-10.597826934701565   -0.2531554809628478   0.26862328425119675
-10.597826934701565   -0.2531554809628478   0.26862328425119675
-10.597826934701565   -0.2531554809628478   0.26862328425119675
-7.160852403532894   0.15157004724031653   -0.09194736431285244
-7.160852403532894   0.15157004724031653   -0.09194736431285244
-7.160852403532894   0.15157004724031653   -0.09194736431285244
-7.160852403532894   0.15157004724031653   -0.09194736431285244
-8.518008051153943   0.05232096159776467   0.11844268512556816
-8.518008051153943   0.05232096159776467   0.11844268512556816
-8.518008051153943   0.05232096159776467   0.11844268512556816
-8.518008051153943   0.05232096159776467   0.11844268512556816
-7.012803870361226   0.47508128734345245   0.3247840614423573
-7.012803870361226   0.47508128734345245   0.3247840614423573
-7.012803870361226   0.47508128734345245   0.3247840614423573
-7.012803870361226   0.47508128734345245   0.3247840614423573
-10.738273278047823   -0.56906453124054   -0.11769938220220799
-10.738273278047823   -0.56906453124054   -0.11769938220220799
-10.738273278047823   -0.56906453124054   -0.11769938220220799
-10.738273278047823   -0.56906453124054   -0.11769938220220799
-10.951760148140842   -0.4693108000517352   0.26788423625801394
-10.951760148140842   -0.4693108000517352   0.26788423625801394
-10.951760148140842   -0.4693108000517352   0.26788423625801394
-10.951760148140842   -0.4693108000517352   0.26788423625801394
-7.375572838936631   -0.014488643866494622   -0.08623380258806124
-7.375572838936631   -0.014488643866494622   -0.08623380258806124
-7.375572838936631   -0.014488643866494622   -0.08623380258806124
-7.375572838936631   -0.014488643866494622   -0.08623380258806124
-8.625188927254792   -0.024958768201363002   0.09523450563138192
-8.625188927254792   -0.024958768201363002   0.09523450563138192
-8.625188927254792   -0.024958768201363002   0.09523450563138192
-8.625188927254792   -0.024958768201363002   0.09523450563138192
5.844531028189481   0.32285688219880615   -0.2832881318087741
5.844531028189481   0.32285688219880615   -0.2832881318087741
5.844531028189481   0.32285688219880615   -0.2832881318087741
5.844531028189481   0.32285688219880615   -0.2832881318087741
2.7836741329965022   0.05983314732201206   0.10896372395987233
2.7836741329965022   0.05983314732201206   0.10896372395987233
2.7836741329965022   0.05983314732201206   0.10896372395987233
2.7836741329965022   0.05983314732201206   0.10896372395987233
2.4684673775871717   -0.47694823176054335   -0.26845477973244464
2.4684673775871717   -0.47694823176054335   -0.26845477973244464
2.4684673775871717   -0.47694823176054335   -0.26845477973244464
2.4684673775871717   -0.47694823176054335   -0.26845477973244464
5.715477658360704   0.5393583743370568   0.13459960959335185
5.715477658360704   0.5393583743370568   0.13459960959335185
5.715477658360704   0.5393583743370568   0.13459960959335185
5.715477658360704   0.5393583743370568   0.13459960959335185
3.9859705603087363   0.054067057722056666   -0.1177585788903397
3.9859705603087363   0.054067057722056666   -0.1177585788903397
3.9859705603087363   0.054067057722056666   -0.1177585788903397
3.9859705603087363   0.054067057722056666   -0.1177585788903397
5.555343836821142   0.14064649273267493   -0.26735761650007733
5.555343836821142   0.14064649273267493   -0.26735761650007733
5.555343836821142   0.14064649273267493   -0.26735761650007733
5.555343836821142   0.14064649273267493   -0.26735761650007733
2.6254143007744015   -0.081423248508538   0.12075485295168045
2.6254143007744015   -0.081423248508538   0.12075485295168045
2.6254143007744015   -0.081423248508538   0.12075485295168045
2.6254143007744015   -0.081423248508538   0.12075485295168045
2.3210223564734442   -0.5242965835008556   -0.228667505620398
2.3210223564734442   -0.5242965835008556   -0.228667505620398
2.3210223564734442   -0.5242965835008556   -0.228667505620398
2.3210223564734442   -0.5242965835008556   -0.228667505620398
5.486267506443197   0.4718217150063104   0.17650330665196778
5.486267506443197   0.4718217150063104   0.17650330665196778
5.486267506443197   0.4718217150063104   0.17650330665196778
5.486267506443197   0.4718217150063104   0.17650330665196778
3.852661532517134   -0.027678142883635792   -0.16650584160397594
3.852661532517134   -0.027678142883635792   -0.16650584160397594
3.852661532517134   -0.027678142883635792   -0.16650584160397594
3.852661532517134   -0.027678142883635792   -0.16650584160397594
5.32997293652263   0.08049789003679941   -0.21364571798130966
5.32997293652263   0.08049789003679941   -0.21364571798130966
5.32997293652263   0.08049789003679941   -0.21364571798130966
5.32997293652263   0.08049789003679941   -0.21364571798130966
2.473372001376333   -0.13691768354901857   0.14570181894218687
2.473372001376333   -0.13691768354901857   0.14570181894218687
2.473372001376333   -0.13691768354901857   0.14570181894218687
2.473372001376333   -0.13691768354901857   0.14570181894218687
2.1879543393233716   -0.5546587238788648   -0.19037224641723066
2.1879543393233716   -0.5546587238788648   -0.19037224641723066
2.1879543393233716   -0.5546587238788648   -0.19037224641723066
2.1879543393233716   -0.5546587238788648   -0.19037224641723066
5.227959734522408   0.3978347755589525   0.2092317148892854
5.227959734522408   0.3978347755589525   0.2092317148892854
5.227959734522408   0.3978347755589525   0.2092317148892854
5.227959734522408   0.3978347755589525   0.2092317148892854
3.593195445245582   -0.08986967917392064   -0.23793823134815412
3.593195445245582   -0.08986967917392064   -0.23793823134815412
3.593195445245582   -0.08986967917392064   -0.23793823134815412
3.593195445245582   -0.08986967917392064   -0.23793823134815412
2.8284161278993056   0.411318524261547   -0.018811678465596726
2.8284161278993056   0.411318524261547   -0.018811678465596726
2.8284161278993056   0.411318524261547   -0.018811678465596726
2.8284161278993056   0.411318524261547   -0.018811678465596726
-0.1804516666949902   -0.03722940681630159   -0.00030357620937616285
-0.1804516666949902   -0.03722940681630159   -0.00030357620937616285
-0.1804516666949902   -0.03722940681630159   -0.00030357620937616285
-0.1804516666949902   -0.03722940681630159   -0.00030357620937616285
-0.4024680771731586   -0.3558035437813231   -0.1700647630074251
-0.4024680771731586   -0.3558035437813231   -0.1700647630074251
-0.4024680771731586   -0.3558035437813231   -0.1700647630074251
-0.4024680771731586   -0.3558035437813231   -0.1700647630074251
2.7532494966360126   0.4896628471065213   0.18884473664467621
2.7532494966360126   0.4896628471065213   0.18884473664467621
2.7532494966360126   0.4896628471065213   0.18884473664467621
2.7532494966360126   0.4896628471065213   0.18884473664467621
1.2304890356014246   0.12136033240253052   0.008472293654244373
1.2304890356014246   0.12136033240253052   0.008472293654244373
1.2304890356014246   0.12136033240253052   0.008472293654244373
1.2304890356014246   0.12136033240253052   0.008472293654244373
2.6780228565508173   0.29565206019167356   0.006722323133582425
2.6780228565508173   0.29565206019167356   0.006722323133582425
2.6780228565508173   0.29565206019167356   0.006722323133582425
2.6780228565508173   0.29565206019167356   0.006722323133582425
-0.32593191189499454   -0.16048323167350076   0.017295751275572684
-0.32593191189499454   -0.16048323167350076   0.017295751275572684
-0.32593191189499454   -0.16048323167350076   0.017295751275572684
-0.32593191189499454   -0.16048323167350076   0.017295751275572684
-0.5413910916249628   -0.4453293137052219   -0.14037098683997107
-0.5413910916249628   -0.4453293137052219   -0.14037098683997107
-0.5413910916249628   -0.4453293137052219   -0.14037098683997107
-0.5413910916249628   -0.4453293137052219   -0.14037098683997107
2.5895521759912428   0.38318160897580206   0.20650339949191682
2.5895521759912428   0.38318160897580206   0.20650339949191682
2.5895521759912428   0.38318160897580206   0.20650339949191682
2.5895521759912428   0.38318160897580206   0.20650339949191682
1.0596671649210334   0.016199819921415448   -0.04436703763070004
1.0596671649210334   0.016199819921415448   -0.04436703763070004
1.0596671649210334   0.016199819921415448   -0.04436703763070004
1.0596671649210334   0.016199819921415448   -0.04436703763070004
2.516792341575671   0.1996322813173959   0.026253555072484405
2.516792341575671   0.1996322813173959   0.026253555072484405
2.516792341575671   0.1996322813173959   0.026253555072484405
2.516792341575671   0.1996322813173959   0.026253555072484405
-0.4696443867890047   -0.2627931156264261   0.03582633926102376
-0.4696443867890047   -0.2627931156264261   0.03582633926102376
-0.4696443867890047   -0.2627931156264261   0.03582633926102376
-0.4696443867890047   -0.2627931156264261   0.03582633926102376
-0.6785536121077482   -0.5209397726973671   -0.112463831209892
-0.6785536121077482   -0.5209397726973671   -0.112463831209892
-0.6785536121077482   -0.5209397726973671   -0.112463831209892
-0.6785536121077482   -0.5209397726973671   -0.112463831209892
2.438419821711455   0.2843346016044072   0.22296184003989644
2.438419821711455   0.2843346016044072   0.22296184003989644
2.438419821711455   0.2843346016044072   0.22296184003989644
2.438419821711455   0.2843346016044072   0.22296184003989644
0.9280479013666463   -0.06402912347557257   -0.08856031226427222
0.9280479013666463   -0.06402912347557257   -0.08856031226427222
0.9280479013666463   -0.06402912347557257   -0.08856031226427222
0.9280479013666463   -0.06402912347557257   -0.08856031226427222
-0.060648370298315796   0.49335300986157177   0.06813048909612245
-0.060648370298315796   0.49335300986157177   0.06813048909612245
-0.060648370298315796   0.49335300986157177   0.06813048909612245
-0.060648370298315796   0.49335300986157177   0.06813048909612245
-3.0811745142897853   -0.1310391365098601   -0.1022322878931092
-3.0811745142897853   -0.1310391365098601   -0.1022322878931092
-3.0811745142897853   -0.1310391365098601   -0.1022322878931092
-3.0811745142897853   -0.1310391365098601   -0.1022322878931092
-3.224311514274379   -0.2447470975277602   -0.0795874700385303
-3.224311514274379   -0.2447470975277602   -0.0795874700385303
-3.224311514274379   -0.2447470975277602   -0.0795874700385303
-3.224311514274379   -0.2447470975277602   -0.0795874700385303
-0.2017898557335654   0.3955401108858739   0.0819826895233439
-0.2017898557335654   0.3955401108858739   0.0819826895233439
-0.2017898557335654   0.3955401108858739   0.0819826895233439
-0.2017898557335654   0.3955401108858739   0.0819826895233439
-1.6381080928795742   0.12925045320300693   0.03218636561097135
-1.6381080928795742   0.12925045320300693   0.03218636561097135
-1.6381080928795742   0.12925045320300693   0.03218636561097135
-1.6381080928795742   0.12925045320300693   0.03218636561097135
-0.1989366304724292   0.395502632152763   0.0962862945621357
-0.1989366304724292   0.395502632152763   0.0962862945621357
-0.1989366304724292   0.395502632152763   0.0962862945621357
-0.1989366304724292   0.395502632152763   0.0962862945621357
-3.2244603910382286   -0.24200527029736274   -0.08307368108817598
-3.2244603910382286   -0.24200527029736274   -0.08307368108817598
-3.2244603910382286   -0.24200527029736274   -0.08307368108817598
-3.2244603910382286   -0.24200527029736274   -0.08307368108817598
-3.3665948351915804   -0.3416518183243201   -0.05362288729729159
-3.3665948351915804   -0.3416518183243201   -0.05362288729729159
-3.3665948351915804   -0.3416518183243201   -0.05362288729729159
-3.3665948351915804   -0.3416518183243201   -0.05362288729729159
-0.3465866508137908   0.2858837114034627   0.10243819210720458
-0.3465866508137908   0.2858837114034627   0.10243819210720458
-0.3465866508137908   0.2858837114034627   0.10243819210720458
-0.3465866508137908   0.2858837114034627   0.10243819210720458
-1.781853648619963   0.03385371144121235   -0.010774266594351878
-1.781853648619963   0.03385371144121235   -0.010774266594351878
-1.781853648619963   0.03385371144121235   -0.010774266594351878
-1.781853648619963   0.03385371144121235   -0.010774266594351878
-0.34088265392753186   0.2979863108136169   0.11885557712834502
-0.34088265392753186   0.2979863108136169   0.11885557712834502
-0.34088265392753186   0.2979863108136169   0.11885557712834502
-0.34088265392753186   0.2979863108136169   0.11885557712834502
-3.371467339129163   -0.35292292478579806   -0.06671430052372677
-3.371467339129163   -0.35292292478579806   -0.06671430052372677
-3.371467339129163   -0.35292292478579806   -0.06671430052372677
-3.371467339129163   -0.35292292478579806   -0.06671430052372677
-3.507267124854243   -0.4302243733274735   -0.027955605783154466
-3.507267124854243   -0.4302243733274735   -0.027955605783154466
-3.507267124854243   -0.4302243733274735   -0.027955605783154466
-3.507267124854243   -0.4302243733274735   -0.027955605783154466
-0.4919292680378895   0.1798251085879174   0.11989300785411705
-0.4919292680378895   0.1798251085879174   0.11989300785411705
-0.4919292680378895   0.1798251085879174   0.11989300785411705
-0.4919292680378895   0.1798251085879174   0.11989300785411705
-1.9321361470507463   -0.06237489216880199   -0.05857979969489177
-1.9321361470507463   -0.06237489216880199   -0.05857979969489177
-1.9321361470507463   -0.06237489216880199   -0.05857979969489177
-1.9321361470507463   -0.06237489216880199   -0.05857979969489177
-2.8909554160110993   0.5681590815589734   0.14966498543147233
-2.8909554160110993   0.5681590815589734   0.14966498543147233
-2.8909554160110993   0.5681590815589734   0.14966498543147233
-2.8909554160110993   0.5681590815589734   0.14966498543147233
-5.912527869261394   -0.22665608434699158   -0.18489957231261528
-5.912527869261394   -0.22665608434699158   -0.18489957231261528
-5.912527869261394   -0.22665608434699158   -0.18489957231261528
-5.912527869261394   -0.22665608434699158   -0.18489957231261528
-5.9908821713979545   -0.1506723390019169   0.019051304992778628
-5.9908821713979545   -0.1506723390019169   0.019051304992778628
-5.9908821713979545   -0.1506723390019169   0.019051304992778628
-5.9908821713979545   -0.1506723390019169   0.019051304992778628
-3.1076409724646847   0.2836132447569275   -0.024595103274731522
-3.1076409724646847   0.2836132447569275   -0.024595103274731522
-3.1076409724646847   0.2836132447569275   -0.024595103274731522
-3.1076409724646847   0.2836132447569275   -0.024595103274731522
-4.446591260770841   0.1244387757612182   0.05460438549824037
-4.446591260770841   0.1244387757612182   0.05460438549824037
-4.446591260770841   0.1244387757612182   0.05460438549824037
-4.446591260770841   0.1244387757612182   0.05460438549824037
-3.0294605903776333   0.4731547721558994   0.17676527976153866
-3.0294605903776333   0.4731547721558994   0.17676527976153866
-3.0294605903776333   0.4731547721558994   0.17676527976153866
-3.0294605903776333   0.4731547721558994   0.17676527976153866
-6.068262964876499   -0.33941427779238453   -0.17911072360947683
-6.068262964876499   -0.33941427779238453   -0.17911072360947683
-6.068262964876499   -0.33941427779238453   -0.17911072360947683
-6.068262964876499   -0.33941427779238453   -0.17911072360947683
-6.156519690228295   -0.24860300985821748   0.02888456692835739
-6.156519690228295   -0.24860300985821748   0.02888456692835739
-6.156519690228295   -0.24860300985821748   0.02888456692835739
-6.156519690228295   -0.24860300985821748   0.02888456692835739
-3.2518735005515267   0.18207268042505564   -0.0037407128463518846
-3.2518735005515267   0.18207268042505564   -0.0037407128463518846
-3.2518735005515267   0.18207268042505564   -0.0037407128463518846
-3.2518735005515267   0.18207268042505564   -0.0037407128463518846
-4.568657205665404   0.03905670527568894   0.014554041917529792
-4.568657205665404   0.03905670527568894   0.014554041917529792
-4.568657205665404   0.03905670527568894   0.014554041917529792
-4.568657205665404   0.03905670527568894   0.014554041917529792
-3.1704702410039194   0.38324968305361173   0.20209858226312738
-3.1704702410039194   0.38324968305361173   0.20209858226312738
-3.1704702410039194   0.38324968305361173   0.20209858226312738
-3.1704702410039194   0.38324968305361173   0.20209858226312738
-6.23370297945596   -0.4455600421668314   -0.16007484690135385
-6.23370297945596   -0.4455600421668314   -0.16007484690135385
-6.23370297945596   -0.4455600421668314   -0.16007484690135385
-6.23370297945596   -0.4455600421668314   -0.16007484690135385
-6.306909063715555   -0.3538252810870771   0.05963162501203764
-6.306909063715555   -0.3538252810870771   0.05963162501203764
-6.306909063715555   -0.3538252810870771   0.05963162501203764
-6.306909063715555   -0.3538252810870771   0.05963162501203764
-3.4001223729404675   0.0661704189892457   0.011373361469021098
-3.4001223729404675   0.0661704189892457   0.011373361469021098
-3.4001223729404675   0.0661704189892457   0.011373361469021098
-3.4001223729404675   0.0661704189892457   0.011373361469021098
-4.753249814670195   -0.06743990682912815   -0.03606785572849594
-4.753249814670195   -0.06743990682912815   -0.03606785572849594
-4.753249814670195   -0.06743990682912815   -0.03606785572849594
-4.753249814670195   -0.06743990682912815   -0.03606785572849594
-5.685906407853735   0.5094756040639059   0.21207604631478721
-5.685906407853735   0.5094756040639059   0.21207604631478721
-5.685906407853735   0.5094756040639059   0.21207604631478721
-5.685906407853735   0.5094756040639059   0.21207604631478721
-8.599116512386708   -0.39598624756956613   -0.20539403601407374
-8.599116512386708   -0.39598624756956613   -0.20539403601407374
-8.599116512386708   -0.39598624756956613   -0.20539403601407374
-8.599116512386708   -0.39598624756956613   -0.20539403601407374
-8.696799081215111   -0.07995231883200349   0.19580645012066294
-8.696799081215111   -0.07995231883200349   0.19580645012066294
-8.696799081215111   -0.07995231883200349   0.19580645012066294
-8.696799081215111   -0.07995231883200349   0.19580645012066294
-5.96060959053551   0.1407721416676   -0.12103027136451716
-5.96060959053551   0.1407721416676   -0.12103027136451716
-5.96060959053551   0.1407721416676   -0.12103027136451716
-5.96060959053551   0.1407721416676   -0.12103027136451716
-6.91592284451577   0.11575991783635176   0.16849529918766132
-6.91592284451577   0.11575991783635176   0.16849529918766132
-6.91592284451577   0.11575991783635176   0.16849529918766132
-6.91592284451577   0.11575991783635176   0.16849529918766132
-5.813354595569984   0.5073155477491895   0.2487012973815011
-5.813354595569984   0.5073155477491895   0.2487012973815011
-5.813354595569984   0.5073155477491895   0.2487012973815011
-5.813354595569984   0.5073155477491895   0.2487012973815011
-8.841493655569376   -0.44393530430232   -0.1636834361802516
-8.841493655569376   -0.44393530430232   -0.1636834361802516
-8.841493655569376   -0.44393530430232   -0.1636834361802516
-8.841493655569376   -0.44393530430232   -0.1636834361802516
-8.913456080610578   -0.131555508996962   0.2450285315786831
-8.913456080610578   -0.131555508996962   0.2450285315786831
-8.913456080610578   -0.131555508996962   0.2450285315786831
-8.913456080610578   -0.131555508996962   0.2450285315786831
-6.116323269625104   0.08508632423901274   -0.1038226641529183
-6.116323269625104   0.08508632423901274   -0.1038226641529183
-6.116323269625104   0.08508632423901274   -0.1038226641529183
-6.116323269625104   0.08508632423901274   -0.1038226641529183
-7.216622411931201   0.05802490554586437   0.10141714034677451
-7.216622411931201   0.05802490554586437   0.10141714034677451
-7.216622411931201   0.05802490554586437   0.10141714034677451
-7.216622411931201   0.05802490554586437   0.10141714034677451
-5.960109864385351   0.46881180432447356   0.29351888196038856
-5.960109864385351   0.46881180432447356   0.29351888196038856
-5.960109864385351   0.46881180432447356   0.29351888196038856
-5.960109864385351   0.46881180432447356   0.29351888196038856
-9.065523820922495   -0.5111353241545356   -0.1357303548232689
-9.065523820922495   -0.5111353241545356   -0.1357303548232689
-9.065523820922495   -0.5111353241545356   -0.1357303548232689
-9.065523820922495   -0.5111353241545356   -0.1357303548232689
-9.1993511732473   -0.3137687095935069   0.24114420308730006
-9.1993511732473   -0.3137687095935069   0.24114420308730006
-9.1993511732473   -0.3137687095935069   0.24114420308730006
-9.1993511732473   -0.3137687095935069   0.24114420308730006
-6.28056713413855   -0.06845694898792587   -0.0940270592020907
-6.28056713413855   -0.06845694898792587   -0.0940270592020907
-6.28056713413855   -0.06845694898792587   -0.0940270592020907
-6.28056713413855   -0.06845694898792587   -0.0940270592020907
-7.296716002783279   -0.013318088909227033   0.07859202015544586
-7.296716002783279   -0.013318088909227033   0.07859202015544586
-7.296716002783279   -0.013318088909227033   0.07859202015544586
-7.296716002783279   -0.013318088909227033   0.07859202015544586
3.988216467879741   0.22417084253394415   -0.27389013486346175
3.988216467879741   0.22417084253394415   -0.27389013486346175
3.988216467879741   0.22417084253394415   -0.27389013486346175
3.988216467879741   0.22417084253394415   -0.27389013486346175
1.7037583556173659   0.11275632463966123   0.11832208944673074
1.7037583556173659   0.11275632463966123   0.11832208944673074
1.7037583556173659   0.11275632463966123   0.11832208944673074
1.7037583556173659   0.11275632463966123   0.11832208944673074
1.4208650525354   -0.3974968886104421   -0.2550640993188389
1.4208650525354   -0.3974968886104421   -0.2550640993188389
1.4208650525354   -0.3974968886104421   -0.2550640993188389
1.4208650525354   -0.3974968886104421   -0.2550640993188389
3.8924485485590012   0.45579061506846125   0.14366699001083622
3.8924485485590012   0.45579061506846125   0.14366699001083622
3.8924485485590012   0.45579061506846125   0.14366699001083622
3.8924485485590012   0.45579061506846125   0.14366699001083622
2.6055236546613103   0.05799459479304392   -0.0712625345788522
2.6055236546613103   0.05799459479304392   -0.0712625345788522
2.6055236546613103   0.05799459479304392   -0.0712625345788522
2.6055236546613103   0.05799459479304392   -0.0712625345788522
3.734571248133573   0.06522615913611218   -0.25515505618399525
3.734571248133573   0.06522615913611218   -0.25515505618399525
3.734571248133573   0.06522615913611218   -0.25515505618399525
3.734571248133573   0.06522615913611218   -0.25515505618399525
1.575782707683958   -0.009892077955006295   0.1319193657685419
1.575782707683958   -0.009892077955006295   0.1319193657685419
1.575782707683958   -0.009892077955006295   0.1319193657685419
1.575782707683958   -0.009892077955006295   0.1319193657685419
1.3001501377848506   -0.44406779796318385   -0.21682688953715729
1.3001501377848506   -0.44406779796318385   -0.21682688953715729
1.3001501377848506   -0.44406779796318385   -0.21682688953715729
1.3001501377848506   -0.44406779796318385   -0.21682688953715729
3.693980524279094   0.38975581034320983   0.18470684373668078
3.693980524279094   0.38975581034320983   0.18470684373668078
3.693980524279094   0.38975581034320983   0.18470684373668078
3.693980524279094   0.38975581034320983   0.18470684373668078
2.4797403957377715   -0.018569378034017148   -0.11705934242731833
2.4797403957377715   -0.018569378034017148   -0.11705934242731833
2.4797403957377715   -0.018569378034017148   -0.11705934242731833
2.4797403957377715   -0.018569378034017148   -0.11705934242731833
3.5388034275313287   0.005619726634790934   -0.20704255629376123
3.5388034275313287   0.005619726634790934   -0.20704255629376123
3.5388034275313287   0.005619726634790934   -0.20704255629376123
3.5388034275313287   0.005619726634790934   -0.20704255629376123
1.4510076991567624   -0.06425124963062251   0.15764436898985124
1.4510076991567624   -0.06425124963062251   0.15764436898985124
1.4510076991567624   -0.06425124963062251   0.15764436898985124
1.4510076991567624   -0.06425124963062251   0.15764436898985124
1.1921082024183354   -0.48730766111212565   -0.18062893636203406
1.1921082024183354   -0.48730766111212565   -0.18062893636203406
1.1921082024183354   -0.48730766111212565   -0.18062893636203406
1.1921082024183354   -0.48730766111212565   -0.18062893636203406
3.462536526914267   0.3022947496154389   0.2104559053988797
3.462536526914267   0.3022947496154389   0.2104559053988797
3.462536526914267   0.3022947496154389   0.2104559053988797
3.462536526914267   0.3022947496154389   0.2104559053988797
2.2698257802591018   -0.08175620289690633   -0.1794547941721762
2.2698257802591018   -0.08175620289690633   -0.1794547941721762
2.2698257802591018   -0.08175620289690633   -0.1794547941721762
2.2698257802591018   -0.08175620289690633   -0.1794547941721762
1.7137096113503092   0.33152541882070813   -0.050690726069627025
1.7137096113503092   0.33152541882070813   -0.050690726069627025
1.7137096113503092   0.33152541882070813   -0.050690726069627025
1.7137096113503092   0.33152541882070813   -0.050690726069627025
-0.5310471314650006   0.031095371166296   0.016858422452884367
-0.5310471314650006   0.031095371166296   0.016858422452884367
-0.5310471314650006   0.031095371166296   0.016858422452884367
-0.5310471314650006   0.031095371166296   0.016858422452884367
-0.7244294158597945   -0.2749713871431152   -0.15664752210769972
-0.7244294158597945   -0.2749713871431152   -0.15664752210769972
-0.7244294158597945   -0.2749713871431152   -0.15664752210769972
-0.7244294158597945   -0.2749713871431152   -0.15664752210769972
1.6647490718489697   0.3990751173945632   0.1677839912440319
1.6647490718489697   0.3990751173945632   0.1677839912440319
1.6647490718489697   0.3990751173945632   0.1677839912440319
1.6647490718489697   0.3990751173945632   0.1677839912440319
0.5190588768217662   0.1158141192991703   0.019782390372951934
0.5190588768217662   0.1158141192991703   0.019782390372951934
0.5190588768217662   0.1158141192991703   0.019782390372951934
0.5190588768217662   0.1158141192991703   0.019782390372951934
1.5885304565094207   0.2134194151170276   -0.027653383176200978
1.5885304565094207   0.2134194151170276   -0.027653383176200978
1.5885304565094207   0.2134194151170276   -0.027653383176200978
1.5885304565094207   0.2134194151170276   -0.027653383176200978
-0.6492976542707685   -0.09040253861610659   0.034442437310421105
-0.6492976542707685   -0.09040253861610659   0.034442437310421105
-0.6492976542707685   -0.09040253861610659   0.034442437310421105
-0.6492976542707685   -0.09040253861610659   0.034442437310421105
-0.8367542653032802   -0.36868205603725296   -0.12650848427883488
-0.8367542653032802   -0.36868205603725296   -0.12650848427883488
-0.8367542653032802   -0.36868205603725296   -0.12650848427883488
-0.8367542653032802   -0.36868205603725296   -0.12650848427883488
1.5270598479898856   0.29125054508676335   0.18240331843808136
1.5270598479898856   0.29125054508676335   0.18240331843808136
1.5270598479898856   0.29125054508676335   0.18240331843808136
1.5270598479898856   0.29125054508676335   0.18240331843808136
0.38083677627945106   0.01025932785985792   -0.03092932477432382
0.38083677627945106   0.01025932785985792   -0.03092932477432382
0.38083677627945106   0.01025932785985792   -0.03092932477432382
0.38083677627945106   0.01025932785985792   -0.03092932477432382
1.453249375109883   0.11295055727175712   -0.00834905814694796
1.453249375109883   0.11295055727175712   -0.00834905814694796
1.453249375109883   0.11295055727175712   -0.00834905814694796
1.453249375109883   0.11295055727175712   -0.00834905814694796
-0.7657404997605588   -0.19317877555953167   0.05305706295705073
-0.7657404997605588   -0.19317877555953167   0.05305706295705073
-0.7657404997605588   -0.19317877555953167   0.05305706295705073
-0.7657404997605588   -0.19317877555953167   0.05305706295705073
-0.9476266001381264   -0.4571972362814494   -0.09865092753980524
-0.9476266001381264   -0.4571972362814494   -0.09865092753980524
-0.9476266001381264   -0.4571972362814494   -0.09865092753980524
-0.9476266001381264   -0.4571972362814494   -0.09865092753980524
1.4028038224555233   0.18723971594673544   0.19830178676507496
1.4028038224555233   0.18723971594673544   0.19830178676507496
1.4028038224555233   0.18723971594673544   0.19830178676507496
1.4028038224555233   0.18723971594673544   0.19830178676507496
0.2694062444461511   -0.07783572127764743   -0.07586851417560087
0.2694062444461511   -0.07783572127764743   -0.07586851417560087
0.2694062444461511   -0.07783572127764743   -0.07586851417560087
0.2694062444461511   -0.07783572127764743   -0.07586851417560087
-0.44824352731549516   0.4236565677807578   0.038315246585934715
-0.44824352731549516   0.4236565677807578   0.038315246585934715
-0.44824352731549516   0.4236565677807578   0.038315246585934715
-0.44824352731549516   0.4236565677807578   0.038315246585934715
-2.7331494047292075   -0.06651205406071714   -0.08283486377529953
-2.7331494047292075   -0.06651205406071714   -0.08283486377529953
-2.7331494047292075   -0.06651205406071714   -0.08283486377529953
-2.7331494047292075   -0.06651205406071714   -0.08283486377529953
-2.8437973957560034   -0.16142473166683202   -0.06083398321774719
-2.8437973957560034   -0.16142473166683202   -0.06083398321774719
-2.8437973957560034   -0.16142473166683202   -0.06083398321774719
-2.8437973957560034   -0.16142473166683202   -0.06083398321774719
-0.5642489716294876   0.3044036097616463   0.06487970213905703
-0.5642489716294876   0.3044036097616463   0.06487970213905703
-0.5642489716294876   0.3044036097616463   0.06487970213905703
-0.5642489716294876   0.3044036097616463   0.06487970213905703
-1.6433837756760208   0.12319710637227432   0.032283542817764965
-1.6433837756760208   0.12319710637227432   0.032283542817764965
-1.6433837756760208   0.12319710637227432   0.032283542817764965
-1.6433837756760208   0.12319710637227432   0.032283542817764965
-0.5606506144225936   0.3206887006920309   0.06658639724315765
-0.5606506144225936   0.3206887006920309   0.06658639724315765
-0.5606506144225936   0.3206887006920309   0.06658639724315765
-0.5606506144225936   0.3206887006920309   0.06658639724315765
-2.847664659280949   -0.17797872891526523   -0.06361630359403958
-2.847664659280949   -0.17797872891526523   -0.06361630359403958
-2.847664659280949   -0.17797872891526523   -0.06361630359403958
-2.847664659280949   -0.17797872891526523   -0.06361630359403958
-2.9572522030974935   -0.26352420350294764   -0.03393583014114447
-2.9572522030974935   -0.26352420350294764   -0.03393583014114447
-2.9572522030974935   -0.26352420350294764   -0.03393583014114447
-2.9572522030974935   -0.26352420350294764   -0.03393583014114447
-0.6821004014780827   0.19343031934808724   0.08464845946179703
-0.6821004014780827   0.19343031934808724   0.08464845946179703
-0.6821004014780827   0.19343031934808724   0.08464845946179703
-0.6821004014780827   0.19343031934808724   0.08464845946179703
-1.760045065856378   0.023933351485987464   -0.011385497568048242
-1.760045065856378   0.023933351485987464   -0.011385497568048242
-1.760045065856378   0.023933351485987464   -0.011385497568048242
-1.760045065856378   0.023933351485987464   -0.011385497568048242
-0.6760659405753775   0.2176253597453246   0.09062572357810088
-0.6760659405753775   0.2176253597453246   0.09062572357810088
-0.6760659405753775   0.2176253597453246   0.09062572357810088
-0.6760659405753775   0.2176253597453246   0.09062572357810088
-2.9650322309268398   -0.2894648108268236   -0.046895361964000015
-2.9650322309268398   -0.2894648108268236   -0.046895361964000015
-2.9650322309268398   -0.2894648108268236   -0.046895361964000015
-2.9650322309268398   -0.2894648108268236   -0.046895361964000015
-3.06885380474895   -0.3611039604825236   -0.007827800787027689
-3.06885380474895   -0.3611039604825236   -0.007827800787027689
-3.06885380474895   -0.3611039604825236   -0.007827800787027689
-3.06885380474895   -0.3611039604825236   -0.007827800787027689
-0.7989058996636079   0.08557966705248068   0.10217567149884185
-0.7989058996636079   0.08557966705248068   0.10217567149884185
-0.7989058996636079   0.08557966705248068   0.10217567149884185
-0.7989058996636079   0.08557966705248068   0.10217567149884185
-1.8814609606948274   -0.07546194327447403   -0.05868975595577754
-1.8814609606948274   -0.07546194327447403   -0.05868975595577754
-1.8814609606948274   -0.07546194327447403   -0.05868975595577754
-1.8814609606948274   -0.07546194327447403   -0.05868975595577754
-2.577800066225928   0.5022911213822916   0.1251086532980895
-2.577800066225928   0.5022911213822916   0.1251086532980895
-2.577800066225928   0.5022911213822916   0.1251086532980895
-2.577800066225928   0.5022911213822916   0.1251086532980895
-4.894104174994471   -0.1633306842964546   -0.16931790853471773
-4.894104174994471   -0.1633306842964546   -0.16931790853471773
-4.894104174994471   -0.1633306842964546   -0.16931790853471773
-4.894104174994471   -0.1633306842964546   -0.16931790853471773
-4.935843683493756   -0.068702687970706   0.042027944116172444
-4.935843683493756   -0.068702687970706   0.042027944116172444
-4.935843683493756   -0.068702687970706   0.042027944116172444
-4.935843683493756   -0.068702687970706   0.042027944116172444
-2.767059408726579   0.19812139502092774   -0.03669017475844483
-2.767059408726579   0.19812139502092774   -0.03669017475844483
-2.767059408726579   0.19812139502092774   -0.03669017475844483
-2.767059408726579   0.19812139502092774   -0.03669017475844483
-3.771398031448827   0.11830025231996677   0.04702759853517785
-3.771398031448827   0.11830025231996677   0.04702759853517785
-3.771398031448827   0.11830025231996677   0.04702759853517785
-3.771398031448827   0.11830025231996677   0.04702759853517785
-2.6880840833423747   0.40308767722758176   0.1532201699559837
-2.6880840833423747   0.40308767722758176   0.1532201699559837
-2.6880840833423747   0.40308767722758176   0.1532201699559837
-2.6880840833423747   0.40308767722758176   0.1532201699559837
-5.018196358240182   -0.27704631953958125   -0.16139179804714085
-5.018196358240182   -0.27704631953958125   -0.16139179804714085
-5.018196358240182   -0.27704631953958125   -0.16139179804714085
-5.018196358240182   -0.27704631953958125   -0.16139179804714085
-5.069503897472173   -0.1697921534414898   0.054565514741567483
-5.069503897472173   -0.1697921534414898   0.054565514741567483
-5.069503897472173   -0.1697921534414898   0.054565514741567483
-5.069503897472173   -0.1697921534414898   0.054565514741567483
-2.8817098510456045   0.09590110231603544   -0.015649375700712204
-2.8817098510456045   0.09590110231603544   -0.015649375700712204
-2.8817098510456045   0.09590110231603544   -0.015649375700712204
-2.8817098510456045   0.09590110231603544   -0.015649375700712204
-3.8699781911248055   0.02808286852662234   0.0031888609893151454
-3.8699781911248055   0.02808286852662234   0.0031888609893151454
-3.8699781911248055   0.02808286852662234   0.0031888609893151454
-3.8699781911248055   0.02808286852662234   0.0031888609893151454
-2.7999115305863347   0.3092182356414209   0.18002509327028274
-2.7999115305863347   0.3092182356414209   0.18002509327028274
-2.7999115305863347   0.3092182356414209   0.18002509327028274
-2.7999115305863347   0.3092182356414209   0.18002509327028274
-5.151557951653662   -0.3833650204891359   -0.14213188911826585
-5.151557951653662   -0.3833650204891359   -0.14213188911826585
-5.151557951653662   -0.3833650204891359   -0.14213188911826585
-5.151557951653662   -0.3833650204891359   -0.14213188911826585
-5.188656838118864   -0.2772936128961997   0.08258766722019159
-5.188656838118864   -0.2772936128961997   0.08258766722019159
-5.188656838118864   -0.2772936128961997   0.08258766722019159
-5.188656838118864   -0.2772936128961997   0.08258766722019159
-2.998336524662556   -0.017235085243219928   0.0008897244055758868
-2.998336524662556   -0.017235085243219928   0.0008897244055758868
-2.998336524662556   -0.017235085243219928   0.0008897244055758868
-2.998336524662556   -0.017235085243219928   0.0008897244055758868
-4.016918418988166   -0.07616909872007482   -0.04750989873266623
-4.016918418988166   -0.07616909872007482   -0.04750989873266623
-4.016918418988166   -0.07616909872007482   -0.04750989873266623
-4.016918418988166   -0.07616909872007482   -0.04750989873266623
-4.695123540331484   0.46528505845083035   0.19696952203293122
-4.695123540331484   0.46528505845083035   0.19696952203293122
-4.695123540331484   0.46528505845083035   0.19696952203293122
-4.695123540331484   0.46528505845083035   0.19696952203293122
-6.921259305562221   -0.31774385164665775   -0.2214790578551613
-6.921259305562221   -0.31774385164665775   -0.2214790578551613
-6.921259305562221   -0.31774385164665775   -0.2214790578551613
-6.921259305562221   -0.31774385164665775   -0.2214790578551613
-6.989465395668457   -0.001714872622330832   0.1953904623190204
-6.989465395668457   -0.001714872622330832   0.1953904623190204
-6.989465395668457   -0.001714872622330832   0.1953904623190204
-6.989465395668457   -0.001714872622330832   0.1953904623190204
-4.944074329534286   0.06568152377176628   -0.13350949782903815
-4.944074329534286   0.06568152377176628   -0.13350949782903815
-4.944074329534286   0.06568152377176628   -0.13350949782903815
-4.944074329534286   0.06568152377176628   -0.13350949782903815
-5.628792745086254   0.10911265593758657   0.14173443265888086
-5.628792745086254   0.10911265593758657   0.14173443265888086
-5.628792745086254   0.10911265593758657   0.14173443265888086
-5.628792745086254   0.10911265593758657   0.14173443265888086
-4.7951416944220755   0.44453234621996596   0.23230285528387806
-4.7951416944220755   0.44453234621996596   0.23230285528387806
-4.7951416944220755   0.44453234621996596   0.23230285528387806
-4.7951416944220755   0.44453234621996596   0.23230285528387806
-7.141257861627661   -0.3834255259174635   -0.18186121418181073
-7.141257861627661   -0.3834255259174635   -0.18186121418181073
-7.141257861627661   -0.3834255259174635   -0.18186121418181073
-7.141257861627661   -0.3834255259174635   -0.18186121418181073
-7.1780642552673495   -0.05722858240700912   0.2463437882592161
-7.1780642552673495   -0.05722858240700912   0.2463437882592161
-7.1780642552673495   -0.05722858240700912   0.2463437882592161
-7.1780642552673495   -0.05722858240700912   0.2463437882592161
-5.067312988845444   0.009611470578253511   -0.1138835661446263
-5.067312988845444   0.009611470578253511   -0.1138835661446263
-5.067312988845444   0.009611470578253511   -0.1138835661446263
-5.067312988845444   0.009611470578253511   -0.1138835661446263
-5.8817605579476435   0.04517164795797046   0.07320497296611134
-5.8817605579476435   0.04517164795797046   0.07320497296611134
-5.8817605579476435   0.04517164795797046   0.07320497296611134
-5.8817605579476435   0.04517164795797046   0.07320497296611134
-4.911372502919702   0.4016058976859682   0.2738244363764575
-4.911372502919702   0.4016058976859682   0.2738244363764575
-4.911372502919702   0.4016058976859682   0.2738244363764575
-4.911372502919702   0.4016058976859682   0.2738244363764575
-7.336081259734651   -0.4512995280562693   -0.14967028842803437
-7.336081259734651   -0.4512995280562693   -0.14967028842803437
-7.336081259734651   -0.4512995280562693   -0.14967028842803437
-7.336081259734651   -0.4512995280562693   -0.14967028842803437
-7.430378503000412   -0.23011318354319799   0.24750313688341213
-7.430378503000412   -0.23011318354319799   0.24750313688341213
-7.430378503000412   -0.23011318354319799   0.24750313688341213
-7.430378503000412   -0.23011318354319799   0.24750313688341213
-5.196144900447368   -0.13147498544952718   -0.10067127186908675
-5.196144900447368   -0.13147498544952718   -0.10067127186908675
-5.196144900447368   -0.13147498544952718   -0.10067127186908675
-5.196144900447368   -0.13147498544952718   -0.10067127186908675
-5.955253990481484   -0.027429263587355424   0.040248370775503806
-5.955253990481484   -0.027429263587355424   0.040248370775503806
-5.955253990481484   -0.027429263587355424   0.040248370775503806
-5.955253990481484   -0.027429263587355424   0.040248370775503806
2.167485949522042   0.12847989059291737   -0.2667876746916645
2.167485949522042   0.12847989059291737   -0.2667876746916645
2.167485949522042   0.12847989059291737   -0.2667876746916645
2.167485949522042   0.12847989059291737   -0.2667876746916645
0.6221718844296811   0.16159495984895478   0.128273241571151
0.6221718844296811   0.16159495984895478   0.128273241571151
0.6221718844296811   0.16159495984895478   0.128273241571151
0.6221718844296811   0.16159495984895478   0.128273241571151
0.3734327452738631   -0.3237550032299108   -0.23504529819588582
0.3734327452738631   -0.3237550032299108   -0.23504529819588582
0.3734327452738631   -0.3237550032299108   -0.23504529819588582
0.3734327452738631   -0.3237550032299108   -0.23504529819588582
2.1059048682340196   0.374400583327824   0.1543678860483544
2.1059048682340196   0.374400583327824   0.1543678860483544
2.1059048682340196   0.374400583327824   0.1543678860483544
2.1059048682340196   0.374400583327824   0.1543678860483544
1.2399630828067036   0.062267389228784165   -0.02893971718157319
1.2399630828067036   0.062267389228784165   -0.02893971718157319
1.2399630828067036   0.062267389228784165   -0.02893971718157319
1.2399630828067036   0.062267389228784165   -0.02893971718157319
1.9492032726671835   -0.010449783169727278   -0.2442897252882888
1.9492032726671835   -0.010449783169727278   -0.2442897252882888
1.9492032726671835   -0.010449783169727278   -0.2442897252882888
1.9492032726671835   -0.010449783169727278   -0.2442897252882888
0.5252394107211298   0.0562004331480697   0.14403259266247276
0.5252394107211298   0.0562004331480697   0.14403259266247276
0.5252394107211298   0.0562004331480697   0.14403259266247276
0.5252394107211298   0.0562004331480697   0.14403259266247276
0.2794376550496736   -0.369967060503618   -0.19936464126803732
0.2794376550496736   -0.369967060503618   -0.19936464126803732
0.2794376550496736   -0.369967060503618   -0.19936464126803732
0.2794376550496736   -0.369967060503618   -0.19936464126803732
1.9369707186709093   0.31059586500029746   0.19793645024276982
1.9369707186709093   0.31059586500029746   0.19793645024276982
1.9369707186709093   0.31059586500029746   0.19793645024276982
1.9369707186709093   0.31059586500029746   0.19793645024276982
1.1212278533926059   -0.009762610423189433   -0.07590363721001332
1.1212278533926059   -0.009762610423189433   -0.07590363721001332
1.1212278533926059   -0.009762610423189433   -0.07590363721001332
1.1212278533926059   -0.009762610423189433   -0.07590363721001332
1.7812680581450517   -0.06977020759015151   -0.20021077979608293
1.7812680581450517   -0.06977020759015151   -0.20021077979608293
1.7812680581450517   -0.06977020759015151   -0.20021077979608293
1.7812680581450517   -0.06977020759015151   -0.20021077979608293
0.42861564209712355   0.003874338608421707   0.17268389485717675
0.42861564209712355   0.003874338608421707   0.17268389485717675
0.42861564209712355   0.003874338608421707   0.17268389485717675
0.42861564209712355   0.003874338608421707   0.17268389485717675
0.19531590261608445   -0.42642635875250573   -0.16592901214266104
0.19531590261608445   -0.42642635875250573   -0.16592901214266104
0.19531590261608445   -0.42642635875250573   -0.16592901214266104
0.19531590261608445   -0.42642635875250573   -0.16592901214266104
1.727988076109003   0.20803938202434866   0.21945449381842844
1.727988076109003   0.20803938202434866   0.21945449381842844
1.727988076109003   0.20803938202434866   0.21945449381842844
1.727988076109003   0.20803938202434866   0.21945449381842844
0.9589953435526941   -0.07421712858278923   -0.1329854550710508
0.9589953435526941   -0.07421712858278923   -0.1329854550710508
0.9589953435526941   -0.07421712858278923   -0.1329854550710508
0.9589953435526941   -0.07421712858278923   -0.1329854550710508
0.5960403452629696   0.23748606928218435   -0.07827556369564394
0.5960403452629696   0.23748606928218435   -0.07827556369564394
0.5960403452629696   0.23748606928218435   -0.07827556369564394
0.5960403452629696   0.23748606928218435   -0.07827556369564394
-0.9012645130854668   0.07858592280390475   0.03168673709304555
-0.9012645130854668   0.07858592280390475   0.03168673709304555
-0.9012645130854668   0.07858592280390475   0.03168673709304555
-0.9012645130854668   0.07858592280390475   0.03168673709304555
-1.0614077064637475   -0.20708290611751187   -0.13684934800362655
-1.0614077064637475   -0.20708290611751187   -0.13684934800362655
-1.0614077064637475   -0.20708290611751187   -0.13684934800362655
-1.0614077064637475   -0.20708290611751187   -0.13684934800362655
0.5732378209894328   0.2950480335322855   0.1451770436197721
0.5732378209894328   0.2950480335322855   0.1451770436197721
0.5732378209894328   0.2950480335322855   0.1451770436197721
0.5732378209894328   0.2950480335322855   0.1451770436197721
-0.20347528623839573   0.09678862435947544   0.024042998577523553
-0.20347528623839573   0.09678862435947544   0.024042998577523553
-0.20347528623839573   0.09678862435947544   0.024042998577523553
-0.20347528623839573   0.09678862435947544   0.024042998577523553
0.4978002685652234   0.12061335124600708   -0.05757603621500234
0.4978002685652234   0.12061335124600708   -0.05757603621500234
0.4978002685652234   0.12061335124600708   -0.05757603621500234
0.4978002685652234   0.12061335124600708   -0.05757603621500234
-0.9901117389363114   -0.03678980872800794   0.04933739224404905
-0.9901117389363114   -0.03678980872800794   0.04933739224404905
-0.9901117389363114   -0.03678980872800794   0.04933739224404905
-0.9901117389363114   -0.03678980872800794   0.04933739224404905
-1.145521301709195   -0.30113615149112255   -0.1069490147522674
-1.145521301709195   -0.30113615149112255   -0.1069490147522674
-1.145521301709195   -0.30113615149112255   -0.1069490147522674
-1.145521301709195   -0.30113615149112255   -0.1069490147522674
0.4628688595832497   0.18958827090911795   0.15823604998711102
0.4628688595832497   0.18958827090911795   0.15823604998711102
0.4628688595832497   0.18958827090911795   0.15823604998711102
0.4628688595832497   0.18958827090911795   0.15823604998711102
-0.30725082470694254   -0.00437171216850174   -0.024399029235976664
-0.30725082470694254   -0.00437171216850174   -0.024399029235976664
-0.30725082470694254   -0.00437171216850174   -0.024399029235976664
-0.30725082470694254   -0.00437171216850174   -0.024399029235976664
0.3896852701394058   0.019730200470417784   -0.03782382679341206
0.3896852701394058   0.019730200470417784   -0.03782382679341206
0.3896852701394058   0.019730200470417784   -0.03782382679341206
0.3896852701394058   0.019730200470417784   -0.03782382679341206
-1.0776937459855858   -0.13663411477263454   0.06768672714730661
-1.0776937459855858   -0.13663411477263454   0.06768672714730661
-1.0776937459855858   -0.13663411477263454   0.06768672714730661
-1.0776937459855858   -0.13663411477263454   0.06768672714730661
-1.2290110170297677   -0.3947665274794944   -0.07991459088078356
-1.2290110170297677   -0.3947665274794944   -0.07991459088078356
-1.2290110170297677   -0.3947665274794944   -0.07991459088078356
-1.2290110170297677   -0.3947665274794944   -0.07991459088078356
0.36624155009539605   0.0856988814718696   0.17657398502952543
0.36624155009539605   0.0856988814718696   0.17657398502952543
0.36624155009539605   0.0856988814718696   0.17657398502952543
0.36624155009539605   0.0856988814718696   0.17657398502952543
-0.3973485977789017   -0.09534828158197939   -0.07025475842949312
-0.3973485977789017   -0.09534828158197939   -0.07025475842949312
-0.3973485977789017   -0.09534828158197939   -0.07025475842949312
-0.3973485977789017   -0.09534828158197939   -0.07025475842949312
-0.8554840572518383   0.3278524800023627   0.011322459062730161
-0.8554840572518383   0.3278524800023627   0.011322459062730161
-0.8554840572518383   0.3278524800023627   0.011322459062730161
-0.8554840572518383   0.3278524800023627   0.011322459062730161
-2.405257897304574   -0.026879794304434212   -0.0656628821924827
-2.405257897304574   -0.026879794304434212   -0.0656628821924827
-2.405257897304574   -0.026879794304434212   -0.0656628821924827
-2.405257897304574   -0.026879794304434212   -0.0656628821924827
-2.4808988330837702   -0.09970705279561037   -0.0390237491931892
-2.4808988330837702   -0.09970705279561037   -0.0390237491931892
-2.4808988330837702   -0.09970705279561037   -0.0390237491931892
-2.4808988330837702   -0.09970705279561037   -0.0390237491931892
-0.9445805096683044   0.19408114720030306   0.04612258265575769
-0.9445805096683044   0.19408114720030306   0.04612258265575769
-0.9445805096683044   0.19408114720030306   0.04612258265575769
-0.9445805096683044   0.19408114720030306   0.04612258265575769
-1.667640878156199   0.09685228303349946   0.025058010203712067
-1.667640878156199   0.09685228303349946   0.025058010203712067
-1.667640878156199   0.09685228303349946   0.025058010203712067
-1.667640878156199   0.09685228303349946   0.025058010203712067
-0.9399514119473618   0.2241308541353892   0.03921836432540009
-0.9399514119473618   0.2241308541353892   0.03921836432540009
-0.9399514119473618   0.2241308541353892   0.03921836432540009
-0.9399514119473618   0.2241308541353892   0.03921836432540009
-2.489143074121653   -0.13337190304763946   -0.04658010413060604
-2.489143074121653   -0.13337190304763946   -0.04658010413060604
-2.489143074121653   -0.13337190304763946   -0.04658010413060604
-2.489143074121653   -0.13337190304763946   -0.04658010413060604
-2.5646225127928446   -0.20238147969781006   -0.011888424452927704
-2.5646225127928446   -0.20238147969781006   -0.011888424452927704
-2.5646225127928446   -0.20238147969781006   -0.011888424452927704
-2.5646225127928446   -0.20238147969781006   -0.011888424452927704
-1.0333855366789682   0.08712755372218847   0.06546610518555619
-1.0333855366789682   0.08712755372218847   0.06546610518555619
-1.0333855366789682   0.08712755372218847   0.06546610518555619
-1.0333855366789682   0.08712755372218847   0.06546610518555619
-1.755020779503794   -0.0005959047653993355   -0.018414865596084906
-1.755020779503794   -0.0005959047653993355   -0.018414865596084906
-1.755020779503794   -0.0005959047653993355   -0.018414865596084906
-1.755020779503794   -0.0005959047653993355   -0.018414865596084906
-1.0271820689082405   0.12017207793497997   0.0634389198264183
-1.0271820689082405   0.12017207793497997   0.0634389198264183
-1.0271820689082405   0.12017207793497997   0.0634389198264183
-1.0271820689082405   0.12017207793497997   0.0634389198264183
-2.5759700945313275   -0.2405701178783594   -0.030437694964823556
-2.5759700945313275   -0.2405701178783594   -0.030437694964823556
-2.5759700945313275   -0.2405701178783594   -0.030437694964823556
-2.5759700945313275   -0.2405701178783594   -0.030437694964823556
-2.6467826651917847   -0.30156387258671635   0.014334738831033901
-2.6467826651917847   -0.30156387258671635   0.014334738831033901
-2.6467826651917847   -0.30156387258671635   0.014334738831033901
-2.6467826651917847   -0.30156387258671635   0.014334738831033901
-1.120616831824092   -0.015949271055026554   0.08323907872312616
-1.120616831824092   -0.015949271055026554   0.08323907872312616
-1.120616831824092   -0.015949271055026554   0.08323907872312616
-1.120616831824092   -0.015949271055026554   0.08323907872312616
-1.846921767174265   -0.09830048867654223   -0.06559538505437433
-1.846921767174265   -0.09830048867654223   -0.06559538505437433
-1.846921767174265   -0.09830048867654223   -0.06559538505437433
-1.846921767174265   -0.09830048867654223   -0.06559538505437433
-2.2834850798968596   0.4132674987819519   0.10305391175970391
-2.2834850798968596   0.4132674987819519   0.10305391175970391
-2.2834850798968596   0.4132674987819519   0.10305391175970391
-2.2834850798968596   0.4132674987819519   0.10305391175970391
-3.8746602745634755   -0.11291328397946243   -0.15053561000809412
-3.8746602745634755   -0.11291328397946243   -0.15053561000809412
-3.8746602745634755   -0.11291328397946243   -0.15053561000809412
-3.8746602745634755   -0.11291328397946243   -0.15053561000809412
-3.8822078116937773   -0.004609115024926558   0.06480567797972672
-3.8822078116937773   -0.004609115024926558   0.06480567797972672
-3.8822078116937773   -0.004609115024926558   0.06480567797972672
-3.8822078116937773   -0.004609115024926558   0.06480567797972672
-2.442827841757655   0.09952088905327316   -0.04789673441155737
-2.442827841757655   0.09952088905327316   -0.04789673441155737
-2.442827841757655   0.09952088905327316   -0.04789673441155737
-2.442827841757655   0.09952088905327316   -0.04789673441155737
-3.10511361277692   0.098710972644798   0.033229914276391576
-3.10511361277692   0.098710972644798   0.033229914276391576
-3.10511361277692   0.098710972644798   0.033229914276391576
-3.10511361277692   0.098710972644798   0.033229914276391576
-2.364507501383585   0.3121791522863675   0.1310467042257597
-2.364507501383585   0.3121791522863675   0.1310467042257597
-2.364507501383585   0.3121791522863675   0.1310467042257597
-2.364507501383585   0.3121791522863675   0.1310467042257597
-3.9674912107137175   -0.2242304369038458   -0.14198999524108943
-3.9674912107137175   -0.2242304369038458   -0.14198999524108943
-3.9674912107137175   -0.2242304369038458   -0.14198999524108943
-3.9674912107137175   -0.2242304369038458   -0.14198999524108943
-3.9852306293924458   -0.10578234988242241   0.07945414165383971
-3.9852306293924458   -0.10578234988242241   0.07945414165383971
-3.9852306293924458   -0.10578234988242241   0.07945414165383971
-3.9852306293924458   -0.10578234988242241   0.07945414165383971
-2.526991659543973   0.0011331689159200797   -0.027248806822359667
-2.526991659543973   0.0011331689159200797   -0.027248806822359667
-2.526991659543973   0.0011331689159200797   -0.027248806822359667
-2.526991659543973   0.0011331689159200797   -0.027248806822359667
-3.179577744173106   0.007778666434881232   -0.012382878807408099
-3.179577744173106   0.007778666434881232   -0.012382878807408099
-3.179577744173106   0.007778666434881232   -0.012382878807408099
-3.179577744173106   0.007778666434881232   -0.012382878807408099
-2.4465825371663144   0.21770202919034354   0.15822794479153848
-2.4465825371663144   0.21770202919034354   0.15822794479153848
-2.4465825371663144   0.21770202919034354   0.15822794479153848
-2.4465825371663144   0.21770202919034354   0.15822794479153848
-4.069974018853524   -0.3266854772402711   -0.12335967829376451
-4.069974018853524   -0.3266854772402711   -0.12335967829376451
-4.069974018853524   -0.3266854772402711   -0.12335967829376451
-4.069974018853524   -0.3266854772402711   -0.12335967829376451
-4.074331898381712   -0.21105712473054816   0.10777490068784468
-4.074331898381712   -0.21105712473054816   0.10777490068784468
-4.074331898381712   -0.21105712473054816   0.10777490068784468
-4.074331898381712   -0.21105712473054816   0.10777490068784468
-2.6121824528830953   -0.10388494096063322   -0.010343131251631929
-2.6121824528830953   -0.10388494096063322   -0.010343131251631929
-2.6121824528830953   -0.10388494096063322   -0.010343131251631929
-2.6121824528830953   -0.10388494096063322   -0.010343131251631929
-3.2897250615099645   -0.09095628789851662   -0.06196101389162867
-3.2897250615099645   -0.09095628789851662   -0.06196101389162867
-3.2897250615099645   -0.09095628789851662   -0.06196101389162867
-3.2897250615099645   -0.09095628789851662   -0.06196101389162867
-3.7041414163065407   0.4065038476958248   0.18264154960132573
-3.7041414163065407   0.4065038476958248   0.18264154960132573
-3.7041414163065407   0.4065038476958248   0.18264154960132573
-3.7041414163065407   0.4065038476958248   0.18264154960132573
-5.203737092795419   -0.2384312935074956   -0.22999221481727303
-5.203737092795419   -0.2384312935074956   -0.22999221481727303
-5.203737092795419   -0.2384312935074956   -0.22999221481727303
-5.203737092795419   -0.2384312935074956   -0.22999221481727303
-5.242430311112357   0.0711243013487377   0.1920603716338905
-5.242430311112357   0.0711243013487377   0.1920603716338905
-5.242430311112357   0.0711243013487377   0.1920603716338905
-5.242430311112357   0.0711243013487377   0.1920603716338905
-3.9251229633179325   -0.013611420169122201   -0.14076777499691734
-3.9251229633179325   -0.013611420169122201   -0.14076777499691734
-3.9251229633179325   -0.013611420169122201   -0.14076777499691734
-3.9251229633179325   -0.013611420169122201   -0.14076777499691734
-4.325022134845661   0.09855593901640192   0.10392990850838485
-4.325022134845661   0.09855593901640192   0.10392990850838485
-4.325022134845661   0.09855593901640192   0.10392990850838485
-4.325022134845661   0.09855593901640192   0.10392990850838485
-3.7772592973293477   0.36894521394494817   0.21599392083193342
-3.7772592973293477   0.36894521394494817   0.21599392083193342
-3.7772592973293477   0.36894521394494817   0.21599392083193342
-3.7772592973293477   0.36894521394494817   0.21599392083193342
-5.397686678418905   -0.3188250340832661   -0.19427212946666378
-5.397686678418905   -0.3188250340832661   -0.19427212946666378
-5.397686678418905   -0.3188250340832661   -0.19427212946666378
-5.397686678418905   -0.3188250340832661   -0.19427212946666378
-5.402675107465172   0.014399842135488283   0.24542041026127442
-5.402675107465172   0.014399842135488283   0.24542041026127442
-5.402675107465172   0.014399842135488283   0.24542041026127442
-5.402675107465172   0.014399842135488283   0.24542041026127442
-4.017851932833982   -0.06851556095995781   -0.12091916447636622
-4.017851932833982   -0.06851556095995781   -0.12091916447636622
-4.017851932833982   -0.06851556095995781   -0.12091916447636622
-4.017851932833982   -0.06851556095995781   -0.12091916447636622
-4.529003264466209   0.03134621095476775   0.03638487459968415
-4.529003264466209   0.03134621095476775   0.03638487459968415
-4.529003264466209   0.03134621095476775   0.03638487459968415
-4.529003264466209   0.03134621095476775   0.03638487459968415
-3.8636545733612024   0.32452523440795655   0.257026837519646
-3.8636545733612024   0.32452523440795655   0.257026837519646
-3.8636545733612024   0.32452523440795655   0.257026837519646
-3.8636545733612024   0.32452523440795655   0.257026837519646
-5.563903734601516   -0.38567222089596587   -0.16065066238887185
-5.563903734601516   -0.38567222089596587   -0.16065066238887185
-5.563903734601516   -0.38567222089596587   -0.16065066238887185
-5.563903734601516   -0.38567222089596587   -0.16065066238887185
-5.624449952377374   -0.14626933930294306   0.25366201079408623
-5.624449952377374   -0.14626933930294306   0.25366201079408623
-5.624449952377374   -0.14626933930294306   0.25366201079408623
-5.624449952377374   -0.14626933930294306   0.25366201079408623
-4.113479140451901   -0.1935790226902655   -0.1054394117034386
-4.113479140451901   -0.1935790226902655   -0.1054394117034386
-4.113479140451901   -0.1935790226902655   -0.1054394117034386
-4.113479140451901   -0.1935790226902655   -0.1054394117034386
-4.596750391341363   -0.039872083207030284   -0.0040644914020659395
-4.596750391341363   -0.039872083207030284   -0.0040644914020659395
-4.596750391341363   -0.039872083207030284   -0.0040644914020659395
-4.596750391341363   -0.039872083207030284   -0.0040644914020659395
0.35357778758776115   0.029193711267784063   -0.26513890449290517
0.35357778758776115   0.029193711267784063   -0.26513890449290517
0.35357778758776115   0.029193711267784063   -0.26513890449290517
0.35357778758776115   0.029193711267784063   -0.26513890449290517
-0.4536167178309526   0.19969647343608515   0.13613372243731162
-0.4536167178309526   0.19969647343608515   0.13613372243731162
-0.4536167178309526   0.19969647343608515   0.13613372243731162
-0.4536167178309526   0.19969647343608515   0.13613372243731162
-0.6696348644372407   -0.2542316254692992   -0.21325342526587876
-0.6696348644372407   -0.2542316254692992   -0.21325342526587876
-0.6696348644372407   -0.2542316254692992   -0.21325342526587876
-0.6696348644372407   -0.2542316254692992   -0.21325342526587876
0.32084132803151866   0.2777172561314771   0.1674496093049635
0.32084132803151866   0.2777172561314771   0.1674496093049635
0.32084132803151866   0.2777172561314771   0.1674496093049635
0.32084132803151866   0.2777172561314771   0.1674496093049635
-0.11973474130138999   0.06089223386905867   0.02324743404235444
-0.11973474130138999   0.06089223386905867   0.02324743404235444
-0.11973474130138999   0.06089223386905867   0.02324743404235444
-0.11973474130138999   0.06089223386905867   0.02324743404235444
0.16611138493243757   -0.09177355046165064   -0.23670929959731413
0.16611138493243757   -0.09177355046165064   -0.23670929959731413
0.16611138493243757   -0.09177355046165064   -0.23670929959731413
0.16611138493243757   -0.09177355046165064   -0.23670929959731413
-0.5241228053606876   0.10604129710130053   0.15403394754628702
-0.5241228053606876   0.10604129710130053   0.15403394754628702
-0.5241228053606876   0.10604129710130053   0.15403394754628702
-0.5241228053606876   0.10604129710130053   0.15403394754628702
-0.7406431507669907   -0.30061562519662927   -0.1805071313040865
-0.7406431507669907   -0.30061562519662927   -0.1805071313040865
-0.7406431507669907   -0.30061562519662927   -0.1805071313040865
-0.7406431507669907   -0.30061562519662927   -0.1805071313040865
0.17424502817375062   0.21460076430945008   0.22933694394628287
0.17424502817375062   0.21460076430945008   0.22933694394628287
0.17424502817375062   0.21460076430945008   0.22933694394628287
0.17424502817375062   0.21460076430945008   0.22933694394628287
-0.23598128628213558   -0.008558473982426977   -0.03048420776464216
-0.23598128628213558   -0.008558473982426977   -0.03048420776464216
-0.23598128628213558   -0.008558473982426977   -0.03048420776464216
-0.23598128628213558   -0.008558473982426977   -0.03048420776464216
0.01602593874992827   -0.15217660733760835   -0.19498113152577823
0.01602593874992827   -0.15217660733760835   -0.19498113152577823
0.01602593874992827   -0.15217660733760835   -0.19498113152577823
0.01602593874992827   -0.15217660733760835   -0.19498113152577823
-0.5951824458493628   0.05340336194421175   0.19277740614320454
-0.5951824458493628   0.05340336194421175   0.19277740614320454
-0.5951824458493628   0.05340336194421175   0.19277740614320454
-0.5951824458493628   0.05340336194421175   0.19277740614320454
-0.8057008020485545   -0.37247931740580853   -0.14945012517480033
-0.8057008020485545   -0.37247931740580853   -0.14945012517480033
-0.8057008020485545   -0.37247931740580853   -0.14945012517480033
-0.8057008020485545   -0.37247931740580853   -0.14945012517480033
-0.029324775796526287   0.08191857669091712   0.2611654484793943
-0.029324775796526287   0.08191857669091712   0.2611654484793943
-0.029324775796526287   0.08191857669091712   0.2611654484793943
-0.029324775796526287   0.08191857669091712   0.2611654484793943
-0.35957482238369426   -0.07872524387538052   -0.09220136107468832
-0.35957482238369426   -0.07872524387538052   -0.09220136107468832
-0.35957482238369426   -0.07872524387538052   -0.09220136107468832
-0.35957482238369426   -0.07872524387538052   -0.09220136107468832
-0.5164193548068637   0.12798417436648704   -0.10616716337264613
-0.5164193548068637   0.12798417436648704   -0.10616716337264613
-0.5164193548068637   0.12798417436648704   -0.10616716337264613
-0.5164193548068637   0.12798417436648704   -0.10616716337264613
-1.2750830598733955   0.05351709901116458   0.0358067548240663
-1.2750830598733955   0.05351709901116458   0.0358067548240663
-1.2750830598733955   0.05351709901116458   0.0358067548240663
-1.2750830598733955   0.05351709901116458   0.0358067548240663
-1.3862068833353434   -0.14800010454183993   -0.11061894242607871
-1.3862068833353434   -0.14800010454183993   -0.11061894242607871
-1.3862068833353434   -0.14800010454183993   -0.11061894242607871
-1.3862068833353434   -0.14800010454183993   -0.11061894242607871
-0.5303675633637117   0.12333932999077012   0.10551212464169679
-0.5303675633637117   0.12333932999077012   0.10551212464169679
-0.5303675633637117   0.12333932999077012   0.10551212464169679
-0.5303675633637117   0.12333932999077012   0.10551212464169679
-0.9250061589304184   0.03669175543887471   0.019334482641903017
-0.9250061589304184   0.03669175543887471   0.019334482641903017
-0.9250061589304184   0.03669175543887471   0.019334482641903017
-0.9250061589304184   0.03669175543887471   0.019334482641903017
-0.5904004812949273   0.015851947788947357   -0.08716508281255848
-0.5904004812949273   0.015851947788947357   -0.08716508281255848
-0.5904004812949273   0.015851947788947357   -0.08716508281255848
-0.5904004812949273   0.015851947788947357   -0.08716508281255848
-1.333692241914341   -0.04803099885023024   0.05198515898732416
-1.333692241914341   -0.04803099885023024   0.05198515898732416
-1.333692241914341   -0.04803099885023024   0.05198515898732416
-1.333692241914341   -0.04803099885023024   0.05198515898732416
-1.4414142254997548   -0.23919644246824262   -0.08140443181668734
-1.4414142254997548   -0.23919644246824262   -0.08140443181668734
-1.4414142254997548   -0.23919644246824262   -0.08140443181668734
-1.4414142254997548   -0.23919644246824262   -0.08140443181668734
-0.616108894159021   0.022600046810636792   0.11894847972848759
-0.616108894159021   0.022600046810636792   0.11894847972848759
-0.616108894159021   0.022600046810636792   0.11894847972848759
-0.616108894159021   0.022600046810636792   0.11894847972848759
-0.9947652942882341   -0.05463990360955351   -0.026416573957729325
-0.9947652942882341   -0.05463990360955351   -0.026416573957729325
-0.9947652942882341   -0.05463990360955351   -0.026416573957729325
-0.9947652942882341   -0.05463990360955351   -0.026416573957729325
-0.6739225583767423   -0.08243431799183111   -0.0650854765576424
-0.6739225583767423   -0.08243431799183111   -0.0650854765576424
-0.6739225583767423   -0.08243431799183111   -0.0650854765576424
-0.6739225583767423   -0.08243431799183111   -0.0650854765576424
-1.391660304863782   -0.1422218212475218   0.07039055014245545
-1.391660304863782   -0.1422218212475218   0.07039055014245545
-1.391660304863782   -0.1422218212475218   0.07039055014245545
-1.391660304863782   -0.1422218212475218   0.07039055014245545
-1.496985965090808   -0.333364997203274   -0.05551789315986576
-1.496985965090808   -0.333364997203274   -0.05551789315986576
-1.496985965090808   -0.333364997203274   -0.05551789315986576
-1.496985965090808   -0.333364997203274   -0.05551789315986576
-0.6877676031438748   -0.07986929196056142   0.14760584390334752
-0.6877676031438748   -0.07986929196056142   0.14760584390334752
-0.6877676031438748   -0.07986929196056142   0.14760584390334752
-0.6877676031438748   -0.07986929196056142   0.14760584390334752
-1.0646663536876526   -0.14536561578609317   -0.07304946672006479
-1.0646663536876526   -0.14536561578609317   -0.07304946672006479
-1.0646663536876526   -0.14536561578609317   -0.07304946672006479
-1.0646663536876526   -0.14536561578609317   -0.07304946672006479
-1.2522956960603944   0.2145811308024521   -0.01132045790223049
-1.2522956960603944   0.2145811308024521   -0.01132045790223049
-1.2522956960603944   0.2145811308024521   -0.01132045790223049
-1.2522956960603944   0.2145811308024521   -0.01132045790223049
-2.090454462909083   -0.07088003020248496   -0.058627559597130244
-2.090454462909083   -0.07088003020248496   -0.058627559597130244
-2.090454462909083   -0.07088003020248496   -0.058627559597130244
-2.090454462909083   -0.07088003020248496   -0.058627559597130244
-2.112147142333117   -0.051030885761715605   -0.01187094948964601
-2.112147142333117   -0.051030885761715605   -0.01187094948964601
-2.112147142333117   -0.051030885761715605   -0.01187094948964601
-2.112147142333117   -0.051030885761715605   -0.01187094948964601
-1.3292811902955755   0.009788091077936711   0.01622132715298473
-1.3292811902955755   0.009788091077936711   0.01622132715298473
-1.3292811902955755   0.009788091077936711   0.01622132715298473
-1.3292811902955755   0.009788091077936711   0.01622132715298473
-1.6925488207173949   0.024038282594647076   0.006192268533032869
-1.6925488207173949   0.024038282594647076   0.006192268533032869
-1.6925488207173949   0.024038282594647076   0.006192268533032869
-1.6925488207173949   0.024038282594647076   0.006192268533032869
-1.3081782948298026   0.11536821062402813   0.01615568493575803
-1.3081782948298026   0.11536821062402813   0.01615568493575803
-1.3081782948298026   0.11536821062402813   0.01615568493575803
-1.3081782948298026   0.11536821062402813   0.01615568493575803
-2.1404646354896784   -0.16382560299859528   -0.04066369803557231
-2.1404646354896784   -0.16382560299859528   -0.04066369803557231
-2.1404646354896784   -0.16382560299859528   -0.04066369803557231
-2.1404646354896784   -0.16382560299859528   -0.04066369803557231
-2.163868742339734   -0.14899216654168201   0.015350709526969333
-2.163868742339734   -0.14899216654168201   0.015350709526969333
-2.163868742339734   -0.14899216654168201   0.015350709526969333
-2.163868742339734   -0.14899216654168201   0.015350709526969333
-1.3878967153483264   -0.08646982299863373   0.03345649947084644
-1.3878967153483264   -0.08646982299863373   0.03345649947084644
-1.3878967153483264   -0.08646982299863373   0.03345649947084644
-1.3878967153483264   -0.08646982299863373   0.03345649947084644
-1.7486795766143033   -0.06505040131271711   -0.03583789527124012
-1.7486795766143033   -0.06505040131271711   -0.03583789527124012
-1.7486795766143033   -0.06505040131271711   -0.03583789527124012
-1.7486795766143033   -0.06505040131271711   -0.03583789527124012
-1.3660867953475704   0.015584446872129287   0.04045182960386241
-1.3660867953475704   0.015584446872129287   0.04045182960386241
-1.3660867953475704   0.015584446872129287   0.04045182960386241
-1.3660867953475704   0.015584446872129287   0.04045182960386241
-2.1943699453532384   -0.2597377194251786   -0.026409752657088628
-2.1943699453532384   -0.2597377194251786   -0.026409752657088628
-2.1943699453532384   -0.2597377194251786   -0.026409752657088628
-2.1943699453532384   -0.2597377194251786   -0.026409752657088628
-2.214262008945841   -0.24304430529001278   0.041409084669944494
-2.214262008945841   -0.24304430529001278   0.041409084669944494
-2.214262008945841   -0.24304430529001278   0.041409084669944494
-2.214262008945841   -0.24304430529001278   0.041409084669944494
-1.4441129941283743   -0.1773853434083562   0.05286730785737011
-1.4441129941283743   -0.1773853434083562   0.05286730785737011
-1.4441129941283743   -0.1773853434083562   0.05286730785737011
-1.4441129941283743   -0.1773853434083562   0.05286730785737011
-1.8090824294312493   -0.15473522055025338   -0.08149973910510888
-1.8090824294312493   -0.15473522055025338   -0.08149973910510888
-1.8090824294312493   -0.15473522055025338   -0.08149973910510888
-1.8090824294312493   -0.15473522055025338   -0.08149973910510888
-1.984811452981248   0.31242091192210014   0.08628654791749096
-1.984811452981248   0.31242091192210014   0.08628654791749096
-1.984811452981248   0.31242091192210014   0.08628654791749096
-1.984811452981248   0.31242091192210014   0.08628654791749096
-2.8722675119133005   -0.1171710938084648   -0.1318198507194808
-2.8722675119133005   -0.1171710938084648   -0.1318198507194808
-2.8722675119133005   -0.1171710938084648   -0.1318198507194808
-2.8722675119133005   -0.1171710938084648   -0.1318198507194808
-2.833036543073339   0.04909672321834713   0.09019113772949663
-2.833036543073339   0.04909672321834713   0.09019113772949663
-2.833036543073339   0.04909672321834713   0.09019113772949663
-2.833036543073339   0.04909672321834713   0.09019113772949663
-2.1200169187760713   -0.043238893946750345   -0.05901182351938096
-2.1200169187760713   -0.043238893946750345   -0.05901182351938096
-2.1200169187760713   -0.043238893946750345   -0.05901182351938096
-2.1200169187760713   -0.043238893946750345   -0.05901182351938096
-2.444264286571755   0.05070667121618233   0.011290576131077423
-2.444264286571755   0.05070667121618233   0.011290576131077423
-2.444264286571755   0.05070667121618233   0.011290576131077423
-2.444264286571755   0.05070667121618233   0.011290576131077423
-2.0340773348725034   0.2136164814357972   0.11383072061591129
-2.0340773348725034   0.2136164814357972   0.11383072061591129
-2.0340773348725034   0.2136164814357972   0.11383072061591129
-2.0340773348725034   0.2136164814357972   0.11383072061591129
-2.9295052062257585   -0.21828773141305718   -0.12476772340122817
-2.9295052062257585   -0.21828773141305718   -0.12476772340122817
-2.9295052062257585   -0.21828773141305718   -0.12476772340122817
-2.9295052062257585   -0.21828773141305718   -0.12476772340122817
-2.9024397528762504   -0.04722230379651393   0.10642192294787037
-2.9024397528762504   -0.04722230379651393   0.10642192294787037
-2.9024397528762504   -0.04722230379651393   0.10642192294787037
-2.9024397528762504   -0.04722230379651393   0.10642192294787037
-2.171299125417538   -0.1306065808185915   -0.040186791585143516
-2.171299125417538   -0.1306065808185915   -0.040186791585143516
-2.171299125417538   -0.1306065808185915   -0.040186791585143516
-2.171299125417538   -0.1306065808185915   -0.040186791585143516
-2.49146219363578   -0.03517232346510757   -0.03427714686592939
-2.49146219363578   -0.03517232346510757   -0.03427714686592939
-2.49146219363578   -0.03517232346510757   -0.03427714686592939
-2.49146219363578   -0.03517232346510757   -0.03427714686592939
-2.0843639427891283   0.12323748481582703   0.1406450559224535
-2.0843639427891283   0.12323748481582703   0.1406450559224535
-2.0843639427891283   0.12323748481582703   0.1406450559224535
-2.0843639427891283   0.12323748481582703   0.1406450559224535
-2.9976890807966923   -0.3093805147229955   -0.10766650572788673
-2.9976890807966923   -0.3093805147229955   -0.10766650572788673
-2.9976890807966923   -0.3093805147229955   -0.10766650572788673
-2.9976890807966923   -0.3093805147229955   -0.10766650572788673
-2.9588837747669245   -0.1440807144715896   0.13537932307729172
-2.9588837747669245   -0.1440807144715896   0.13537932307729172
-2.9588837747669245   -0.1440807144715896   0.13537932307729172
-2.9588837747669245   -0.1440807144715896   0.13537932307729172
-2.2227402766626825   -0.21990857014194315   -0.024117989062330383
-2.2227402766626825   -0.21990857014194315   -0.024117989062330383
-2.2227402766626825   -0.21990857014194315   -0.024117989062330383
-2.2227402766626825   -0.21990857014194315   -0.024117989062330383
-2.562309782270018   -0.12250661755938641   -0.08087898493730214
-2.562309782270018   -0.12250661755938641   -0.08087898493730214
-2.562309782270018   -0.12250661755938641   -0.08087898493730214
-2.562309782270018   -0.12250661755938641   -0.08087898493730214
-2.720717672865357   0.33826890298695855   0.1704893477248139
-2.720717672865357   0.33826890298695855   0.1704893477248139
-2.720717672865357   0.33826890298695855   0.1704893477248139
-2.720717672865357   0.33826890298695855   0.1704893477248139
-3.4890968881020874   -0.1735324772933573   -0.2217437039940583
-3.4890968881020874   -0.1735324772933573   -0.2217437039940583
-3.4890968881020874   -0.1735324772933573   -0.2217437039940583
-3.4890968881020874   -0.1735324772933573   -0.2217437039940583
-3.4914431264309185   0.1388631975407173   0.18792547666526643
-3.4914431264309185   0.1388631975407173   0.18792547666526643
-3.4914431264309185   0.1388631975407173   0.18792547666526643
-3.4914431264309185   0.1388631975407173   0.18792547666526643
-2.9082004777726804   -0.10079965618266384   -0.13573215636619818
-2.9082004777726804   -0.10079965618266384   -0.13573215636619818
-2.9082004777726804   -0.10079965618266384   -0.13573215636619818
-2.9082004777726804   -0.10079965618266384   -0.13573215636619818
-3.025241216942519   0.08125934965314174   0.05755775954896217
-3.025241216942519   0.08125934965314174   0.05755775954896217
-3.025241216942519   0.08125934965314174   0.05755775954896217
-3.025241216942519   0.08125934965314174   0.05755775954896217
-2.763237610909822   0.2871464247207818   0.20113609704461521
-2.763237610909822   0.2871464247207818   0.20113609704461521
-2.763237610909822   0.2871464247207818   0.20113609704461521
-2.763237610909822   0.2871464247207818   0.20113609704461521
-3.647305408022563   -0.2599822980915404   -0.19254043566069812
-3.647305408022563   -0.2599822980915404   -0.19254043566069812
-3.647305408022563   -0.2599822980915404   -0.19254043566069812
-3.647305408022563   -0.2599822980915404   -0.19254043566069812
-3.617719514509477   0.08415835169436547   0.24231798047074524
-3.617719514509477   0.08415835169436547   0.24231798047074524
-3.617719514509477   0.08415835169436547   0.24231798047074524
-3.617719514509477   0.08415835169436547   0.24231798047074524
-2.968291349788427   -0.1509924663153367   -0.11906589909421844
-2.968291349788427   -0.1509924663153367   -0.11906589909421844
-2.968291349788427   -0.1509924663153367   -0.11906589909421844
-2.968291349788427   -0.1509924663153367   -0.11906589909421844
-3.17513658987526   0.014623539053080559   -0.005367423669414867
-3.17513658987526   0.014623539053080559   -0.005367423669414867
-3.17513658987526   0.014623539053080559   -0.005367423669414867
-3.17513658987526   0.014623539053080559   -0.005367423669414867
-2.8171966187219253   0.24406866061861776   0.24134662930433304
-2.8171966187219253   0.24406866061861776   0.24134662930433304
-2.8171966187219253   0.24406866061861776   0.24134662930433304
-2.8171966187219253   0.24406866061861776   0.24134662930433304
-3.779970605297074   -0.3220591349606342   -0.16271998681218094
-3.779970605297074   -0.3220591349606342   -0.16271998681218094
-3.779970605297074   -0.3220591349606342   -0.16271998681218094
-3.779970605297074   -0.3220591349606342   -0.16271998681218094
-3.804816558439823   -0.05947747973190731   0.25640572107627546
-3.804816558439823   -0.05947747973190731   0.25640572107627546
-3.804816558439823   -0.05947747973190731   0.25640572107627546
-3.804816558439823   -0.05947747973190731   0.25640572107627546
-3.0285977222963423   -0.2544158316318337   -0.10285529740958355
-3.0285977222963423   -0.2544158316318337   -0.10285529740958355
-3.0285977222963423   -0.2544158316318337   -0.10285529740958355
-3.0285977222963423   -0.2544158316318337   -0.10285529740958355
-3.233333513447921   -0.05118420142124869   -0.050249803976787244
-3.233333513447921   -0.05118420142124869   -0.050249803976787244
-3.233333513447921   -0.05118420142124869   -0.050249803976787244
-3.233333513447921   -0.05118420142124869   -0.050249803976787244
-1.540809544769512   -0.10109754139103816   -0.2806435247597457
-1.540809544769512   -0.10109754139103816   -0.2806435247597457
-1.540809544769512   -0.10109754139103816   -0.2806435247597457
-1.540809544769512   -0.10109754139103816   -0.2806435247597457
-1.5030384128335343   0.2163882707816156   0.12660964706114564
-1.5030384128335343   0.2163882707816156   0.12660964706114564
-1.5030384128335343   0.2163882707816156   0.12660964706114564
-1.5030384128335343   0.2163882707816156   0.12660964706114564
-1.6875674895907442   -0.19538914018160514   -0.18967355463818475
-1.6875674895907442   -0.19538914018160514   -0.18967355463818475
-1.6875674895907442   -0.19538914018160514   -0.18967355463818475
-1.6875674895907442   -0.19538914018160514   -0.18967355463818475
-1.5711055738088795   0.1092357879639998   0.19121733827513038
-1.5711055738088795   0.1092357879639998   0.19121733827513038
-1.5711055738088795   0.1092357879639998   0.19121733827513038
-1.5711055738088795   0.1092357879639998   0.19121733827513038
-1.4966458722739988   0.03554239357377542   0.12914531973644358
-1.4966458722739988   0.03554239357377542   0.12914531973644358
-1.4966458722739988   0.03554239357377542   0.12914531973644358
-1.4966458722739988   0.03554239357377542   0.12914531973644358
-1.7203216505869527   -0.2109422608195666   -0.23468499683166083
-1.7203216505869527   -0.2109422608195666   -0.23468499683166083
-1.7203216505869527   -0.2109422608195666   -0.23468499683166083
-1.7203216505869527   -0.2109422608195666   -0.23468499683166083
-1.5571249410087085   0.10601538040590475   0.1611346676844838
-1.5571249410087085   0.10601538040590475   0.1611346676844838
-1.5571249410087085   0.10601538040590475   0.1611346676844838
-1.5571249410087085   0.10601538040590475   0.1611346676844838
-1.742488207528873   -0.24664869800193046   -0.16017713190799623
-1.742488207528873   -0.24664869800193046   -0.16017713190799623
-1.742488207528873   -0.24664869800193046   -0.16017713190799623
-1.742488207528873   -0.24664869800193046   -0.16017713190799623
-1.7142922744734757   0.039210877328681004   0.3543993432178717
-1.7142922744734757   0.039210877328681004   0.3543993432178717
-1.7142922744734757   0.039210877328681004   0.3543993432178717
-1.7142922744734757   0.039210877328681004   0.3543993432178717
-1.6292775795465926   -0.052620928994734584   0.05119396301537138
-1.6292775795465926   -0.052620928994734584   0.05119396301537138
-1.6292775795465926   -0.052620928994734584   0.05119396301537138
-1.6292775795465926   -0.052620928994734584   0.05119396301537138
-1.8854239489292213   -0.27967504187236086   -0.18237310985979985
-1.8854239489292213   -0.27967504187236086   -0.18237310985979985
-1.8854239489292213   -0.27967504187236086   -0.18237310985979985
-1.8854239489292213   -0.27967504187236086   -0.18237310985979985
-1.6154468348993118   0.028146919372929347   0.2002341138649496
-1.6154468348993118   0.028146919372929347   0.2002341138649496
-1.6154468348993118   0.028146919372929347   0.2002341138649496
-1.6154468348993118   0.028146919372929347   0.2002341138649496
-1.7873241778774769   -0.3470632457827125   -0.12574426180780315
-1.7873241778774769   -0.3470632457827125   -0.12574426180780315
-1.7873241778774769   -0.3470632457827125   -0.12574426180780315
-1.7873241778774769   -0.3470632457827125   -0.12574426180780315
-1.9371534434852524   -0.19217783833204818   0.3318443206557163
-1.9371534434852524   -0.19217783833204818   0.3318443206557163
-1.9371534434852524   -0.19217783833204818   0.3318443206557163
-1.9371534434852524   -0.19217783833204818   0.3318443206557163
-1.742843314703177   -0.1569745736929576   -0.07175245624271712
-1.742843314703177   -0.1569745736929576   -0.07175245624271712
-1.742843314703177   -0.1569745736929576   -0.07175245624271712
-1.742843314703177   -0.1569745736929576   -0.07175245624271712
-1.6106282928530549   -0.04978632916710546   -0.14516515308774736
-1.6106282928530549   -0.04978632916710546   -0.14516515308774736
-1.6106282928530549   -0.04978632916710546   -0.14516515308774736
-1.6106282928530549   -0.04978632916710546   -0.14516515308774736
-1.6160341899598394   -0.1978867208270275   -0.008339586711068762
-1.6160341899598394   -0.1978867208270275   -0.008339586711068762
-1.6160341899598394   -0.1978867208270275   -0.008339586711068762
-1.6160341899598394   -0.1978867208270275   -0.008339586711068762
-1.6265596243820382   -0.13129156533040526   -0.0714502909459762
-1.6265596243820382   -0.13129156533040526   -0.0714502909459762
-1.6265596243820382   -0.13129156533040526   -0.0714502909459762
-1.6265596243820382   -0.13129156533040526   -0.0714502909459762
-1.6657213141335836   -0.272189358482333   -0.003642459051653932
-1.6657213141335836   -0.272189358482333   -0.003642459051653932
-1.6657213141335836   -0.272189358482333   -0.003642459051653932
-1.6657213141335836   -0.272189358482333   -0.003642459051653932
-1.6158211452147724   -0.16982362461922137   -0.0068161572262599515
-1.6158211452147724   -0.16982362461922137   -0.0068161572262599515
-1.6158211452147724   -0.16982362461922137   -0.0068161572262599515
-1.6158211452147724   -0.16982362461922137   -0.0068161572262599515
-1.6656275376593899   -0.14990639735775782   -0.12545653780526475
-1.6656275376593899   -0.14990639735775782   -0.12545653780526475
-1.6656275376593899   -0.14990639735775782   -0.12545653780526475
-1.6656275376593899   -0.14990639735775782   -0.12545653780526475
-1.6370238854173738   -0.26394501101614865   0.008881849563058111
-1.6370238854173738   -0.26394501101614865   0.008881849563058111
-1.6370238854173738   -0.26394501101614865   0.008881849563058111
-1.6370238854173738   -0.26394501101614865   0.008881849563058111
-1.6527590562222252   -0.21767091913389885   -0.04575618793098639
-1.6527590562222252   -0.21767091913389885   -0.04575618793098639
-1.6527590562222252   -0.21767091913389885   -0.04575618793098639
-1.6527590562222252   -0.21767091913389885   -0.04575618793098639
-1.724416713926185   -0.3524513324302454   0.035982970533758485
-1.724416713926185   -0.3524513324302454   0.035982970533758485
-1.724416713926185   -0.3524513324302454   0.035982970533758485
-1.724416713926185   -0.3524513324302454   0.035982970533758485
-1.6516122460551053   -0.2394145263771123   -0.046559429955962656
-1.6516122460551053   -0.2394145263771123   -0.046559429955962656
-1.6516122460551053   -0.2394145263771123   -0.046559429955962656
-1.6516122460551053   -0.2394145263771123   -0.046559429955962656
-1.7281463371018322   -0.2421836943988268   -0.0929327833758967
-1.7281463371018322   -0.2421836943988268   -0.0929327833758967
-1.7281463371018322   -0.2421836943988268   -0.0929327833758967
-1.7281463371018322   -0.2421836943988268   -0.0929327833758967
-1.6623080873763396   -0.3412172114951019   0.030044948659630533
-1.6623080873763396   -0.3412172114951019   0.030044948659630533
-1.6623080873763396   -0.3412172114951019   0.030044948659630533
-1.6623080873763396   -0.3412172114951019   0.030044948659630533
-1.6761252822703592   -0.3111183466504153   -0.020281750419437514
-1.6761252822703592   -0.3111183466504153   -0.020281750419437514
-1.6761252822703592   -0.3111183466504153   -0.020281750419437514
-1.6761252822703592   -0.3111183466504153   -0.020281750419437514
-1.7691735726973554   -0.4549282201005582   0.07287373841064337
-1.7691735726973554   -0.4549282201005582   0.07287373841064337
-1.7691735726973554   -0.4549282201005582   0.07287373841064337
-1.7691735726973554   -0.4549282201005582   0.07287373841064337
-1.701430865724723   -0.32399788809442054   -0.09734140402691123
-1.701430865724723   -0.32399788809442054   -0.09734140402691123
-1.701430865724723   -0.32399788809442054   -0.09734140402691123
-1.701430865724723   -0.32399788809442054   -0.09734140402691123
-1.5722498312537878   0.039187921038699114   -0.02649243504650524
-1.5722498312537878   0.039187921038699114   -0.02649243504650524
-1.5722498312537878   0.039187921038699114   -0.02649243504650524
-1.5722498312537878   0.039187921038699114   -0.02649243504650524
-1.7649943925430667   -0.3349079014362669   -0.08422830447570023
-1.7649943925430667   -0.3349079014362669   -0.08422830447570023
-1.7649943925430667   -0.3349079014362669   -0.08422830447570023
-1.7649943925430667   -0.3349079014362669   -0.08422830447570023
-1.6917978579855135   -0.06135786917190794   0.023008193593699752
-1.6917978579855135   -0.06135786917190794   0.023008193593699752
-1.6917978579855135   -0.06135786917190794   0.023008193593699752
-1.6917978579855135   -0.06135786917190794   0.023008193593699752
-1.6695206683326613   -0.36507294817441677   -0.0524741278551108
-1.6695206683326613   -0.36507294817441677   -0.0524741278551108
-1.6695206683326613   -0.36507294817441677   -0.0524741278551108
-1.6695206683326613   -0.36507294817441677   -0.0524741278551108
-1.6734799408901622   -0.1862123162340801   -0.03851065242414526
-1.6734799408901622   -0.1862123162340801   -0.03851065242414526
-1.6734799408901622   -0.1862123162340801   -0.03851065242414526
-1.6734799408901622   -0.1862123162340801   -0.03851065242414526
-1.5953653171278694   -0.046689219766860524   -8.110023870756822e-05
-1.5953653171278694   -0.046689219766860524   -8.110023870756822e-05
-1.5953653171278694   -0.046689219766860524   -8.110023870756822e-05
-1.5953653171278694   -0.046689219766860524   -8.110023870756822e-05
-1.775344881754859   -0.389133270144033   -0.0669515242809329
-1.775344881754859   -0.389133270144033   -0.0669515242809329
-1.775344881754859   -0.389133270144033   -0.0669515242809329
-1.775344881754859   -0.389133270144033   -0.0669515242809329
-1.7103231154738832   -0.1479379766713053   0.04854213123304551
-1.7103231154738832   -0.1479379766713053   0.04854213123304551
-1.7103231154738832   -0.1479379766713053   0.04854213123304551
-1.7103231154738832   -0.1479379766713053   0.04854213123304551
-1.694032967231833   -0.43338808126360007   -0.03640858084932436
-1.694032967231833   -0.43338808126360007   -0.03640858084932436
-1.694032967231833   -0.43338808126360007   -0.03640858084932436
-1.694032967231833   -0.43338808126360007   -0.03640858084932436
-1.6932670655698205   -0.25225765221971774   -0.07258215517340658
-1.6932670655698205   -0.25225765221971774   -0.07258215517340658
-1.6932670655698205   -0.25225765221971774   -0.07258215517340658
-1.6932670655698205   -0.25225765221971774   -0.07258215517340658
-1.6218637065820523   -0.13478716076027314   0.02583680189625269
-1.6218637065820523   -0.13478716076027314   0.02583680189625269
-1.6218637065820523   -0.13478716076027314   0.02583680189625269
-1.6218637065820523   -0.13478716076027314   0.02583680189625269
-1.7929821249311253   -0.4570286459820784   -0.05566224674242365
-1.7929821249311253   -0.4570286459820784   -0.05566224674242365
-1.7929821249311253   -0.4570286459820784   -0.05566224674242365
-1.7929821249311253   -0.4570286459820784   -0.05566224674242365
-1.7252220308450203   -0.22948660155962602   0.07347005381766698
-1.7252220308450203   -0.22948660155962602   0.07347005381766698
-1.7252220308450203   -0.22948660155962602   0.07347005381766698
-1.7252220308450203   -0.22948660155962602   0.07347005381766698
-1.7119761390621653   -0.49917430137530805   -0.011480079653575448
-1.7119761390621653   -0.49917430137530805   -0.011480079653575448
-1.7119761390621653   -0.49917430137530805   -0.011480079653575448
-1.7119761390621653   -0.49917430137530805   -0.011480079653575448
-1.716989065753082   -0.32137939438974883   -0.11003245149752065
-1.716989065753082   -0.32137939438974883   -0.11003245149752065
-1.716989065753082   -0.32137939438974883   -0.11003245149752065
-1.716989065753082   -0.32137939438974883   -0.11003245149752065
-1.629828579916505   0.1741826951491321   0.08251016207170872
-1.629828579916505   0.1741826951491321   0.08251016207170872
-1.629828579916505   0.1741826951491321   0.08251016207170872
-1.629828579916505   0.1741826951491321   0.08251016207170872
-1.9143397584356756   -0.24818365850632806   -0.11683775582273992
-1.9143397584356756   -0.24818365850632806   -0.11683775582273992
-1.9143397584356756   -0.24818365850632806   -0.11683775582273992
-1.9143397584356756   -0.24818365850632806   -0.11683775582273992
-1.8094304686039764   0.0536636626378752   0.11491450923165196
-1.8094304686039764   0.0536636626378752   0.11491450923165196
-1.8094304686039764   0.0536636626378752   0.11491450923165196
-1.8094304686039764   0.0536636626378752   0.11491450923165196
-1.7543945908073717   -0.2801721465384917   -0.07116119314900658
-1.7543945908073717   -0.2801721465384917   -0.07116119314900658
-1.7543945908073717   -0.2801721465384917   -0.07116119314900658
-1.7543945908073717   -0.2801721465384917   -0.07116119314900658
-1.777045759086333   -0.07320204230093552   -0.023015182804709308
-1.777045759086333   -0.07320204230093552   -0.023015182804709308
-1.777045759086333   -0.07320204230093552   -0.023015182804709308
-1.777045759086333   -0.07320204230093552   -0.023015182804709308
-1.6454862464736293   0.0850927346782141   0.10811564730299937
-1.6454862464736293   0.0850927346782141   0.10811564730299937
-1.6454862464736293   0.0850927346782141   0.10811564730299937
-1.6454862464736293   0.0850927346782141   0.10811564730299937
-1.9307786858486142   -0.324041091489726   -0.11412182286393556
-1.9307786858486142   -0.324041091489726   -0.11412182286393556
-1.9307786858486142   -0.324041091489726   -0.11412182286393556
-1.9307786858486142   -0.324041091489726   -0.11412182286393556
-1.842252555213692   -0.030720664420869015   0.13019622019962276
-1.842252555213692   -0.030720664420869015   0.13019622019962276
-1.842252555213692   -0.030720664420869015   0.13019622019962276
-1.842252555213692   -0.030720664420869015   0.13019622019962276
-1.7703920102524369   -0.3430050194828476   -0.056735299848211726
-1.7703920102524369   -0.3430050194828476   -0.056735299848211726
-1.7703920102524369   -0.3430050194828476   -0.056735299848211726
-1.7703920102524369   -0.3430050194828476   -0.056735299848211726
-1.7932208092473982   -0.14469869597814194   -0.06294129481197454
-1.7932208092473982   -0.14469869597814194   -0.06294129481197454
-1.7932208092473982   -0.14469869597814194   -0.06294129481197454
-1.7932208092473982   -0.14469869597814194   -0.06294129481197454
-1.6626870562956624   0.005758401177791972   0.13302604927502065
-1.6626870562956624   0.005758401177791972   0.13302604927502065
-1.6626870562956624   0.005758401177791972   0.13302604927502065
-1.6626870562956624   0.005758401177791972   0.13302604927502065
-1.9607437904194218   -0.39027036633049483   -0.10271025391940108
-1.9607437904194218   -0.39027036633049483   -0.10271025391940108
-1.9607437904194218   -0.39027036633049483   -0.10271025391940108
-1.9607437904194218   -0.39027036633049483   -0.10271025391940108
-1.8637123757151417   -0.11154000468058761   0.15869693729690643
-1.8637123757151417   -0.11154000468058761   0.15869693729690643
-1.8637123757151417   -0.11154000468058761   0.15869693729690643
-1.8637123757151417   -0.11154000468058761   0.15869693729690643
-1.7839668160158695   -0.4060725148610655   -0.043667958735169904
-1.7839668160158695   -0.4060725148610655   -0.043667958735169904
-1.7839668160158695   -0.4060725148610655   -0.043667958735169904
-1.7839668160158695   -0.4060725148610655   -0.043667958735169904
-1.822009461664887   -0.21189728281864081   -0.10155404891167266
-1.822009461664887   -0.21189728281864081   -0.10155404891167266
-1.822009461664887   -0.21189728281864081   -0.10155404891167266
-1.822009461664887   -0.21189728281864081   -0.10155404891167266
-1.7585106640912933   0.24979859982183383   0.16432545757098033
-1.7585106640912933   0.24979859982183383   0.16432545757098033
-1.7585106640912933   0.24979859982183383   0.16432545757098033
-1.7585106640912933   0.24979859982183383   0.16432545757098033
-1.8651063104312358   -0.14850081572217105   -0.169779235580363
-1.8651063104312358   -0.14850081572217105   -0.169779235580363
-1.8651063104312358   -0.14850081572217105   -0.169779235580363
-1.8651063104312358   -0.14850081572217105   -0.169779235580363
-1.8214531312242874   0.18020265934196722   0.18253207470856492
-1.8214531312242874   0.18020265934196722   0.18253207470856492
-1.8214531312242874   0.18020265934196722   0.18253207470856492
-1.8214531312242874   0.18020265934196722   0.18253207470856492
-1.9027574918730101   -0.19431031138894087   -0.10374663308673016
-1.9027574918730101   -0.19431031138894087   -0.10374663308673016
-1.9027574918730101   -0.19431031138894087   -0.10374663308673016
-1.9027574918730101   -0.19431031138894087   -0.10374663308673016
-1.7749581702620059   0.045473834774790556   0.005757974071726041
-1.7749581702620059   0.045473834774790556   0.005757974071726041
-1.7749581702620059   0.045473834774790556   0.005757974071726041
-1.7749581702620059   0.045473834774790556   0.005757974071726041
-1.7666129658721823   0.1926645121469996   0.1900011733814984
-1.7666129658721823   0.1926645121469996   0.1900011733814984
-1.7666129658721823   0.1926645121469996   0.1900011733814984
-1.7666129658721823   0.1926645121469996   0.1900011733814984
-1.9676613509150396   -0.21683585788387164   -0.151470506519355
-1.9676613509150396   -0.21683585788387164   -0.151470506519355
-1.9676613509150396   -0.21683585788387164   -0.151470506519355
-1.9676613509150396   -0.21683585788387164   -0.151470506519355
-1.9017200121731688   0.13317666838758424   0.23520843680500567
-1.9017200121731688   0.13317666838758424   0.23520843680500567
-1.9017200121731688   0.13317666838758424   0.23520843680500567
-1.9017200121731688   0.13317666838758424   0.23520843680500567
-1.9273577127608195   -0.23118401834040164   -0.09486621361651172
-1.9273577127608195   -0.23118401834040164   -0.09486621361651172
-1.9273577127608195   -0.23118401834040164   -0.09486621361651172
-1.9273577127608195   -0.23118401834040164   -0.09486621361651172
-1.86124819958225   -0.01161332519564856   -0.04103211242827491
-1.86124819958225   -0.01161332519564856   -0.04103211242827491
-1.86124819958225   -0.01161332519564856   -0.04103211242827491
-1.86124819958225   -0.01161332519564856   -0.04103211242827491
-1.7856567412890154   0.15486546690319092   0.22758915849888592
-1.7856567412890154   0.15486546690319092   0.22758915849888592
-1.7856567412890154   0.15486546690319092   0.22758915849888592
-1.7856567412890154   0.15486546690319092   0.22758915849888592
-2.0566205092752754   -0.26607234248630585   -0.14004503783157668
-2.0566205092752754   -0.26607234248630585   -0.14004503783157668
-2.0566205092752754   -0.26607234248630585   -0.14004503783157668
-2.0566205092752754   -0.26607234248630585   -0.14004503783157668
-2.0445137520684726   0.013259025063322716   0.25143501583832917
-2.0445137520684726   0.013259025063322716   0.25143501583832917
-2.0445137520684726   0.013259025063322716   0.25143501583832917
-2.0445137520684726   0.013259025063322716   0.25143501583832917
-1.9496985340861992   -0.3002722748769258   -0.08250158436204277
-1.9496985340861992   -0.3002722748769258   -0.08250158436204277
-1.9496985340861992   -0.3002722748769258   -0.08250158436204277
-1.9496985340861992   -0.3002722748769258   -0.08250158436204277
-1.9022479663312146   -0.06394404164318823   -0.08345735520210769
-1.9022479663312146   -0.06394404164318823   -0.08345735520210769
-1.9022479663312146   -0.06394404164318823   -0.08345735520210769
-1.9022479663312146   -0.06394404164318823   -0.08345735520210769
-3.857817418151418   -0.3515457263869147   -0.3582813334635606
-3.857817418151418   -0.3515457263869147   -0.3582813334635606
-3.857817418151418   -0.3515457263869147   -0.3582813334635606
-3.857817418151418   -0.3515457263869147   -0.3582813334635606
-2.4347749488054706   0.21259223312355147   0.0848550624556475
-2.4347749488054706   0.21259223312355147   0.0848550624556475
-2.4347749488054706   0.21259223312355147   0.0848550624556475
-2.4347749488054706   0.21259223312355147   0.0848550624556475
-2.5553113329556942   -0.1575764059836573   -0.1586378723163409
-2.5553113329556942   -0.1575764059836573   -0.1586378723163409
-2.5553113329556942   -0.1575764059836573   -0.1586378723163409
-2.5553113329556942   -0.1575764059836573   -0.1586378723163409
-4.094961195688383   -0.45436970529539716   0.40438293196262803
-4.094961195688383   -0.45436970529539716   0.40438293196262803
-4.094961195688383   -0.45436970529539716   0.40438293196262803
-4.094961195688383   -0.45436970529539716   0.40438293196262803
-2.9761741477294077   -0.1109331937253808   0.3906952498041464
-2.9761741477294077   -0.1109331937253808   0.3906952498041464
-2.9761741477294077   -0.1109331937253808   0.3906952498041464
-2.9761741477294077   -0.1109331937253808   0.3906952498041464
-4.240340640658267   -0.5151929105811126   -0.2616910876010446
-4.240340640658267   -0.5151929105811126   -0.2616910876010446
-4.240340640658267   -0.5151929105811126   -0.2616910876010446
-4.240340640658267   -0.5151929105811126   -0.2616910876010446
-2.5119908592692597   -0.1988121719813863   0.09920026211355885
-2.5119908592692597   -0.1988121719813863   0.09920026211355885
-2.5119908592692597   -0.1988121719813863   0.09920026211355885
-2.5119908592692597   -0.1988121719813863   0.09920026211355885
-2.592087793386856   -0.229833636325036   -0.11302770613733311
-2.592087793386856   -0.229833636325036   -0.11302770613733311
-2.592087793386856   -0.229833636325036   -0.11302770613733311
-2.592087793386856   -0.229833636325036   -0.11302770613733311
-4.221821114982439   -0.6358151873231972   0.011861284967323353
-4.221821114982439   -0.6358151873231972   0.011861284967323353
-4.221821114982439   -0.6358151873231972   0.011861284967323353
-4.221821114982439   -0.6358151873231972   0.011861284967323353
-3.29026959508342   -0.3837237105542661   0.0896119086573683
-3.29026959508342   -0.3837237105542661   0.0896119086573683
-3.29026959508342   -0.3837237105542661   0.0896119086573683
-3.29026959508342   -0.3837237105542661   0.0896119086573683
-4.255339249290585   -0.5818227508813574   -0.2097218230152113
-4.255339249290585   -0.5818227508813574   -0.2097218230152113
-4.255339249290585   -0.5818227508813574   -0.2097218230152113
-4.255339249290585   -0.5818227508813574   -0.2097218230152113
-2.5897276537808454   -0.31498406746900975   -0.016076576963332374
-2.5897276537808454   -0.31498406746900975   -0.016076576963332374
-2.5897276537808454   -0.31498406746900975   -0.016076576963332374
-2.5897276537808454   -0.31498406746900975   -0.016076576963332374
-2.5915808780474148   -0.4057881303161198   -0.08177970470248
-2.5915808780474148   -0.4057881303161198   -0.08177970470248
-2.5915808780474148   -0.4057881303161198   -0.08177970470248
-2.5915808780474148   -0.4057881303161198   -0.08177970470248
-4.318592057824441   -0.9725862379214629   0.06655632227641652
-4.318592057824441   -0.9725862379214629   0.06655632227641652
-4.318592057824441   -0.9725862379214629   0.06655632227641652
-4.318592057824441   -0.9725862379214629   0.06655632227641652
-3.283969082001795   -0.5280571410035328   0.005920934719999708
-3.283969082001795   -0.5280571410035328   0.005920934719999708
-3.283969082001795   -0.5280571410035328   0.005920934719999708
-3.283969082001795   -0.5280571410035328   0.005920934719999708
-2.6294805338073814   -0.4451034984503245   -0.23097713098001116
-2.6294805338073814   -0.4451034984503245   -0.23097713098001116
-2.6294805338073814   -0.4451034984503245   -0.23097713098001116
-2.6294805338073814   -0.4451034984503245   -0.23097713098001116
-1.7968091776636828   -1.1501209879927914   -0.2161614159691342
-1.7968091776636828   -1.1501209879927914   -0.2161614159691342
-1.7968091776636828   -1.1501209879927914   -0.2161614159691342
-1.7968091776636828   -1.1501209879927914   -0.2161614159691342
-1.5788739521990744   -0.2566223263372942   -0.012654660260968939
-1.5788739521990744   -0.2566223263372942   -0.012654660260968939
-1.5788739521990744   -0.2566223263372942   -0.012654660260968939
-1.5788739521990744   -0.2566223263372942   -0.012654660260968939
-2.79136970203204   -1.222936490722792   -0.27356963295893505
-2.79136970203204   -1.222936490722792   -0.27356963295893505
-2.79136970203204   -1.222936490722792   -0.27356963295893505
-2.79136970203204   -1.222936490722792   -0.27356963295893505
-2.173374368720484   -0.8164992026993585   -0.06305898737037856
-2.173374368720484   -0.8164992026993585   -0.06305898737037856
-2.173374368720484   -0.8164992026993585   -0.06305898737037856
-2.173374368720484   -0.8164992026993585   -0.06305898737037856
-2.6264538703397293   -0.49832730913105355   -0.17359965608911127
-2.6264538703397293   -0.49832730913105355   -0.17359965608911127
-2.6264538703397293   -0.49832730913105355   -0.17359965608911127
-2.6264538703397293   -0.49832730913105355   -0.17359965608911127
-1.7544912265807642   -0.9919329506184151   -0.15543040788832746
-1.7544912265807642   -0.9919329506184151   -0.15543040788832746
-1.7544912265807642   -0.9919329506184151   -0.15543040788832746
-1.7544912265807642   -0.9919329506184151   -0.15543040788832746
-1.59458387338123   -0.3329683204096905   0.0035651900915781836
-1.59458387338123   -0.3329683204096905   0.0035651900915781836
-1.59458387338123   -0.3329683204096905   0.0035651900915781836
-1.59458387338123   -0.3329683204096905   0.0035651900915781836
-2.7992226031322316   -1.2167097824387625   -0.1618256087505107
-2.7992226031322316   -1.2167097824387625   -0.1618256087505107
-2.7992226031322316   -1.2167097824387625   -0.1618256087505107
-2.7992226031322316   -1.2167097824387625   -0.1618256087505107
-2.1477110554717176   -0.7654044562877697   -0.06696997227919894
-2.1477110554717176   -0.7654044562877697   -0.06696997227919894
-2.1477110554717176   -0.7654044562877697   -0.06696997227919894
-2.1477110554717176   -0.7654044562877697   -0.06696997227919894
-2.6642034962108503   -0.5735777119253321   -0.12986214465700963
-2.6642034962108503   -0.5735777119253321   -0.12986214465700963
-2.6642034962108503   -0.5735777119253321   -0.12986214465700963
-2.6642034962108503   -0.5735777119253321   -0.12986214465700963
-1.751563468321806   -0.9980608789423114   -0.11624022607868109
-1.751563468321806   -0.9980608789423114   -0.11624022607868109
-1.751563468321806   -0.9980608789423114   -0.11624022607868109
-1.751563468321806   -0.9980608789423114   -0.11624022607868109
-1.5913831456414564   -0.4285939651149807   0.02675458628263177
-1.5913831456414564   -0.4285939651149807   0.02675458628263177
-1.5913831456414564   -0.4285939651149807   0.02675458628263177
-1.5913831456414564   -0.4285939651149807   0.02675458628263177
-2.7898845705567656   -1.2383126256172283   -0.2407736719481601
-2.7898845705567656   -1.2383126256172283   -0.2407736719481601
-2.7898845705567656   -1.2383126256172283   -0.2407736719481601
-2.7898845705567656   -1.2383126256172283   -0.2407736719481601
-2.17760206088977   -0.8238024153374217   -0.12415664360728054
-2.17760206088977   -0.8238024153374217   -0.12415664360728054
-2.17760206088977   -0.8238024153374217   -0.12415664360728054
-2.17760206088977   -0.8238024153374217   -0.12415664360728054
-1.584674876130944   -0.2859337637652906   -0.019677132532941517
-1.584674876130944   -0.2859337637652906   -0.019677132532941517
-1.584674876130944   -0.2859337637652906   -0.019677132532941517
-1.584674876130944   -0.2859337637652906   -0.019677132532941517
-1.3189670324553162   -0.8778354368846891   -0.15156533314205292
-1.3189670324553162   -0.8778354368846891   -0.15156533314205292
-1.3189670324553162   -0.8778354368846891   -0.15156533314205292
-1.3189670324553162   -0.8778354368846891   -0.15156533314205292
-1.1361804626921803   -0.23563215533224213   0.06138963071528125
-1.1361804626921803   -0.23563215533224213   0.06138963071528125
-1.1361804626921803   -0.23563215533224213   0.06138963071528125
-1.1361804626921803   -0.23563215533224213   0.06138963071528125
-1.7500360050958381   -0.9569205560209197   -0.16816669506119203
-1.7500360050958381   -0.9569205560209197   -0.16816669506119203
-1.7500360050958381   -0.9569205560209197   -0.16816669506119203
-1.7500360050958381   -0.9569205560209197   -0.16816669506119203
-1.4409470729125398   -0.5976754159972043   -0.07011758739126754
-1.4409470729125398   -0.5976754159972043   -0.07011758739126754
-1.4409470729125398   -0.5976754159972043   -0.07011758739126754
-1.4409470729125398   -0.5976754159972043   -0.07011758739126754
-1.592131272112434   -0.33851080049363963   0.0029472143285477178
-1.592131272112434   -0.33851080049363963   0.0029472143285477178
-1.592131272112434   -0.33851080049363963   0.0029472143285477178
-1.592131272112434   -0.33851080049363963   0.0029472143285477178
-1.303490944934012   -0.8634476601179499   -0.1473472757081688
-1.303490944934012   -0.8634476601179499   -0.1473472757081688
-1.303490944934012   -0.8634476601179499   -0.1473472757081688
-1.303490944934012   -0.8634476601179499   -0.1473472757081688
-1.1344198394495055   -0.29830386655779245   0.0793993648973863
-1.1344198394495055   -0.29830386655779245   0.0793993648973863
-1.1344198394495055   -0.29830386655779245   0.0793993648973863
-1.1344198394495055   -0.29830386655779245   0.0793993648973863
-1.753377221433713   -0.9721240448710773   -0.15124582570945003
-1.753377221433713   -0.9721240448710773   -0.15124582570945003
-1.753377221433713   -0.9721240448710773   -0.15124582570945003
-1.753377221433713   -0.9721240448710773   -0.15124582570945003
-1.4365222462399405   -0.6215399853557759   -0.09093588459363194
-1.4365222462399405   -0.6215399853557759   -0.09093588459363194
-1.4365222462399405   -0.6215399853557759   -0.09093588459363194
-1.4365222462399405   -0.6215399853557759   -0.09093588459363194
-1.6031563201344108   -0.40198675707587844   0.029721392991861547
-1.6031563201344108   -0.40198675707587844   0.029721392991861547
-1.6031563201344108   -0.40198675707587844   0.029721392991861547
-1.6031563201344108   -0.40198675707587844   0.029721392991861547
-1.2897809805687568   -0.8735813941729405   -0.12212881308372145
-1.2897809805687568   -0.8735813941729405   -0.12212881308372145
-1.2897809805687568   -0.8735813941729405   -0.12212881308372145
-1.2897809805687568   -0.8735813941729405   -0.12212881308372145
-1.1186102088606322   -0.3584182565319461   0.09893421436170141
-1.1186102088606322   -0.3584182565319461   0.09893421436170141
-1.1186102088606322   -0.3584182565319461   0.09893421436170141
-1.1186102088606322   -0.3584182565319461   0.09893421436170141
-1.729899805957293   -0.985106135495192   -0.10931654491635512
-1.729899805957293   -0.985106135495192   -0.10931654491635512
-1.729899805957293   -0.985106135495192   -0.10931654491635512
-1.729899805957293   -0.985106135495192   -0.10931654491635512
-1.4298070359792443   -0.6526215196815764   -0.10506158108256156
-1.4298070359792443   -0.6526215196815764   -0.10506158108256156
-1.4298070359792443   -0.6526215196815764   -0.10506158108256156
-1.4298070359792443   -0.6526215196815764   -0.10506158108256156
-1.0995954208706524   -0.04031315187455023   0.10777043977112594
-1.0995954208706524   -0.04031315187455023   0.10777043977112594
-1.0995954208706524   -0.04031315187455023   0.10777043977112594
-1.0995954208706524   -0.04031315187455023   0.10777043977112594
-1.0293452462525754   -0.46256305944115467   -0.08977866380844683
-1.0293452462525754   -0.46256305944115467   -0.08977866380844683
-1.0293452462525754   -0.46256305944115467   -0.08977866380844683
-1.0293452462525754   -0.46256305944115467   -0.08977866380844683
-0.885450707188378   -0.06712059787426519   0.12515266655313217
-0.885450707188378   -0.06712059787426519   0.12515266655313217
-0.885450707188378   -0.06712059787426519   0.12515266655313217
-0.885450707188378   -0.06712059787426519   0.12515266655313217
-1.2215927268621296   -0.5373170506835236   -0.0639867947831833
-1.2215927268621296   -0.5373170506835236   -0.0639867947831833
-1.2215927268621296   -0.5373170506835236   -0.0639867947831833
-1.2215927268621296   -0.5373170506835236   -0.0639867947831833
-1.0626143215799397   -0.27444185829456047   -0.03791667694310859
-1.0626143215799397   -0.27444185829456047   -0.03791667694310859
-1.0626143215799397   -0.27444185829456047   -0.03791667694310859
-1.0626143215799397   -0.27444185829456047   -0.03791667694310859
-1.0984568652009785   -0.10989772518300187   0.12427318802204941
-1.0984568652009785   -0.10989772518300187   0.12427318802204941
-1.0984568652009785   -0.10989772518300187   0.12427318802204941
-1.0984568652009785   -0.10989772518300187   0.12427318802204941
-1.018481050023457   -0.504434404548715   -0.10268524094781288
-1.018481050023457   -0.504434404548715   -0.10268524094781288
-1.018481050023457   -0.504434404548715   -0.10268524094781288
-1.018481050023457   -0.504434404548715   -0.10268524094781288
-0.8846723547682439   -0.12763801675661474   0.13438005829876
-0.8846723547682439   -0.12763801675661474   0.13438005829876
-0.8846723547682439   -0.12763801675661474   0.13438005829876
-0.8846723547682439   -0.12763801675661474   0.13438005829876
-1.218971324150096   -0.5699234213629685   -0.07173850380038972
-1.218971324150096   -0.5699234213629685   -0.07173850380038972
-1.218971324150096   -0.5699234213629685   -0.07173850380038972
-1.218971324150096   -0.5699234213629685   -0.07173850380038972
-1.0560532729256036   -0.3232245573427852   -0.06417107313495687
-1.0560532729256036   -0.3232245573427852   -0.06417107313495687
-1.0560532729256036   -0.3232245573427852   -0.06417107313495687
-1.0560532729256036   -0.3232245573427852   -0.06417107313495687
-1.0960542795811663   -0.16850479486891085   0.1414280925502017
-1.0960542795811663   -0.16850479486891085   0.1414280925502017
-1.0960542795811663   -0.16850479486891085   0.1414280925502017
-1.0960542795811663   -0.16850479486891085   0.1414280925502017
-1.0135716482577173   -0.5350388921712209   -0.10271553373400051
-1.0135716482577173   -0.5350388921712209   -0.10271553373400051
-1.0135716482577173   -0.5350388921712209   -0.10271553373400051
-1.0135716482577173   -0.5350388921712209   -0.10271553373400051
-0.8748625851074389   -0.1843896508859651   0.15564213023190143
-0.8748625851074389   -0.1843896508859651   0.15564213023190143
-0.8748625851074389   -0.1843896508859651   0.15564213023190143
-0.8748625851074389   -0.1843896508859651   0.15564213023190143
-1.197137198659814   -0.60269601108234   -0.04942298008381382
-1.197137198659814   -0.60269601108234   -0.04942298008381382
-1.197137198659814   -0.60269601108234   -0.04942298008381382
-1.197137198659814   -0.60269601108234   -0.04942298008381382
-1.0505055326109995   -0.36481911977539516   -0.08214848561553434
-1.0505055326109995   -0.36481911977539516   -0.08214848561553434
-1.0505055326109995   -0.36481911977539516   -0.08214848561553434
-1.0505055326109995   -0.36481911977539516   -0.08214848561553434
-0.8614901070457774   0.11963755552323604   0.16729641726115257
-0.8614901070457774   0.11963755552323604   0.16729641726115257
-0.8614901070457774   0.11963755552323604   0.16729641726115257
-0.8614901070457774   0.11963755552323604   0.16729641726115257
-0.5582698284481982   -0.15055148376487346   -0.05452222026597908
-0.5582698284481982   -0.15055148376487346   -0.05452222026597908
-0.5582698284481982   -0.15055148376487346   -0.05452222026597908
-0.5582698284481982   -0.15055148376487346   -0.05452222026597908
-0.48335094988173877   0.1433070037098475   0.16493340041594012
-0.48335094988173877   0.1433070037098475   0.16493340041594012
-0.48335094988173877   0.1433070037098475   0.16493340041594012
-0.48335094988173877   0.1433070037098475   0.16493340041594012
-0.9494777066301024   -0.23400865377836091   -0.02809427475139426
-0.9494777066301024   -0.23400865377836091   -0.02809427475139426
-0.9494777066301024   -0.23400865377836091   -0.02809427475139426
-0.9494777066301024   -0.23400865377836091   -0.02809427475139426
-0.7039385102899322   -0.014439102290792677   -0.03103196609992591
-0.7039385102899322   -0.014439102290792677   -0.03103196609992591
-0.7039385102899322   -0.014439102290792677   -0.03103196609992591
-0.7039385102899322   -0.014439102290792677   -0.03103196609992591
-0.8456655104138519   0.07437418502544699   0.18258386752605077
-0.8456655104138519   0.07437418502544699   0.18258386752605077
-0.8456655104138519   0.07437418502544699   0.18258386752605077
-0.8456655104138519   0.07437418502544699   0.18258386752605077
-0.5880237128584045   -0.16593640185437555   -0.049187008903165345
-0.5880237128584045   -0.16593640185437555   -0.049187008903165345
-0.5880237128584045   -0.16593640185437555   -0.049187008903165345
-0.5880237128584045   -0.16593640185437555   -0.049187008903165345
-0.5031436199219751   0.11415842208528748   0.20763189567308965
-0.5031436199219751   0.11415842208528748   0.20763189567308965
-0.5031436199219751   0.11415842208528748   0.20763189567308965
-0.5031436199219751   0.11415842208528748   0.20763189567308965
-0.9430758410649058   -0.24879839307900306   -0.036476996862161035
-0.9430758410649058   -0.24879839307900306   -0.036476996862161035
-0.9430758410649058   -0.24879839307900306   -0.036476996862161035
-0.9430758410649058   -0.24879839307900306   -0.036476996862161035
-0.7227338955938126   -0.046328354021239   -0.042717913675538476
-0.7227338955938126   -0.046328354021239   -0.042717913675538476
-0.7227338955938126   -0.046328354021239   -0.042717913675538476
-0.7227338955938126   -0.046328354021239   -0.042717913675538476
-0.8342582522058458   0.04847635613726875   0.21033619821686683
-0.8342582522058458   0.04847635613726875   0.21033619821686683
-0.8342582522058458   0.04847635613726875   0.21033619821686683
-0.8342582522058458   0.04847635613726875   0.21033619821686683
-0.6194088271547219   -0.19056394550466085   -0.06897177290063404
-0.6194088271547219   -0.19056394550466085   -0.06897177290063404
-0.6194088271547219   -0.19056394550466085   -0.06897177290063404
-0.6194088271547219   -0.19056394550466085   -0.06897177290063404
-0.576423322521591   0.03408839365800906   0.21602654674802318
-0.576423322521591   0.03408839365800906   0.21602654674802318
-0.576423322521591   0.03408839365800906   0.21602654674802318
-0.576423322521591   0.03408839365800906   0.21602654674802318
-0.9275547260135685   -0.26141987861148663   -0.030788346573224656
-0.9275547260135685   -0.26141987861148663   -0.030788346573224656
-0.9275547260135685   -0.26141987861148663   -0.030788346573224656
-0.9275547260135685   -0.26141987861148663   -0.030788346573224656
-0.7310012605556233   -0.06903395288138243   -0.06231821951254127
-0.7310012605556233   -0.06903395288138243   -0.06231821951254127
-0.7310012605556233   -0.06903395288138243   -0.06231821951254127
-0.7310012605556233   -0.06903395288138243   -0.06231821951254127
-9.027377433221126   -1.2720255741121562   -0.7456314893072676
-9.027377433221126   -1.2720255741121562   -0.7456314893072676
-9.027377433221126   -1.2720255741121562   -0.7456314893072676
-9.027377433221126   -1.2720255741121562   -0.7456314893072676
-3.1231022692253045   -4.838459180864464   -0.5851053713776215
-3.1231022692253045   -4.838459180864464   -0.5851053713776215
-3.1231022692253045   -4.838459180864464   -0.5851053713776215
-3.1231022692253045   -4.838459180864464   -0.5851053713776215
-2.424169947522608   -0.200204707122158   0.004416674663078601
-2.424169947522608   -0.200204707122158   0.004416674663078601
-2.424169947522608   -0.200204707122158   0.004416674663078601
-2.424169947522608   -0.200204707122158   0.004416674663078601
-9.61861619995334   -5.703132266594161   -3.0643496933095005
-9.61861619995334   -5.703132266594161   -3.0643496933095005
-9.61861619995334   -5.703132266594161   -3.0643496933095005
-9.61861619995334   -5.703132266594161   -3.0643496933095005
-5.8975230096525   -2.839443981014621   -0.41346299095990896
-5.8975230096525   -2.839443981014621   -0.41346299095990896
-5.8975230096525   -2.839443981014621   -0.41346299095990896
-5.8975230096525   -2.839443981014621   -0.41346299095990896
-8.387040205281163   -1.596318742429209   -1.0132832441136221
-8.387040205281163   -1.596318742429209   -1.0132832441136221
-8.387040205281163   -1.596318742429209   -1.0132832441136221
-8.387040205281163   -1.596318742429209   -1.0132832441136221
-3.369551685825321   -4.020823974917651   -0.9018727490549694
-3.369551685825321   -4.020823974917651   -0.9018727490549694
-3.369551685825321   -4.020823974917651   -0.9018727490549694
-3.369551685825321   -4.020823974917651   -0.9018727490549694
-2.4703230993479757   -0.269196449469734   0.09345695860014633
-2.4703230993479757   -0.269196449469734   0.09345695860014633
-2.4703230993479757   -0.269196449469734   0.09345695860014633
-2.4703230993479757   -0.269196449469734   0.09345695860014633
-8.999007933484187   -5.078832164120997   -2.815568019521037
-8.999007933484187   -5.078832164120997   -2.815568019521037
-8.999007933484187   -5.078832164120997   -2.815568019521037
-8.999007933484187   -5.078832164120997   -2.815568019521037
-5.5531953087863   -2.5576590699528077   0.22690919289071587
-5.5531953087863   -2.5576590699528077   0.22690919289071587
-5.5531953087863   -2.5576590699528077   0.22690919289071587
-5.5531953087863   -2.5576590699528077   0.22690919289071587
-7.874873007477124   -1.5196191112807895   -0.7541064423259837
-7.874873007477124   -1.5196191112807895   -0.7541064423259837
-7.874873007477124   -1.5196191112807895   -0.7541064423259837
-7.874873007477124   -1.5196191112807895   -0.7541064423259837
-3.276731181046502   -3.510682658001408   -0.6970972413607789
-3.276731181046502   -3.510682658001408   -0.6970972413607789
-3.276731181046502   -3.510682658001408   -0.6970972413607789
-3.276731181046502   -3.510682658001408   -0.6970972413607789
-2.8323388685114614   -0.7176742352055008   -0.1451368534567531
-2.8323388685114614   -0.7176742352055008   -0.1451368534567531
-2.8323388685114614   -0.7176742352055008   -0.1451368534567531
-2.8323388685114614   -0.7176742352055008   -0.1451368534567531
-8.20081426844903   -4.257504457379552   -2.4916637451657166
-8.20081426844903   -4.257504457379552   -2.4916637451657166
-8.20081426844903   -4.257504457379552   -2.4916637451657166
-8.20081426844903   -4.257504457379552   -2.4916637451657166
-5.142213955323174   -2.2153323336310775   0.9494791306030435
-5.142213955323174   -2.2153323336310775   0.9494791306030435
-5.142213955323174   -2.2153323336310775   0.9494791306030435
-5.142213955323174   -2.2153323336310775   0.9494791306030435
-2.325497971883815   -1.2497792306249347   -0.18576383490971812
-2.325497971883815   -1.2497792306249347   -0.18576383490971812
-2.325497971883815   -1.2497792306249347   -0.18576383490971812
-2.325497971883815   -1.2497792306249347   -0.18576383490971812
-1.066617804044062   -1.5035663369141368   -0.2631344415542415
-1.066617804044062   -1.5035663369141368   -0.2631344415542415
-1.066617804044062   -1.5035663369141368   -0.2631344415542415
-1.066617804044062   -1.5035663369141368   -0.2631344415542415
-0.9461719338889747   -0.7941510046099154   0.025160029462381828
-0.9461719338889747   -0.7941510046099154   0.025160029462381828
-0.9461719338889747   -0.7941510046099154   0.025160029462381828
-0.9461719338889747   -0.7941510046099154   0.025160029462381828
-2.8297899317689654   -2.2209474049811506   -0.002940548709691071
-2.8297899317689654   -2.2209474049811506   -0.002940548709691071
-2.8297899317689654   -2.2209474049811506   -0.002940548709691071
-2.8297899317689654   -2.2209474049811506   -0.002940548709691071
-1.5238735827429488   -1.0794080201426888   0.48520856863401773
-1.5238735827429488   -1.0794080201426888   0.48520856863401773
-1.5238735827429488   -1.0794080201426888   0.48520856863401773
-1.5238735827429488   -1.0794080201426888   0.48520856863401773
-2.6412880887455756   -1.162068324323747   -0.11931041425017624
-2.6412880887455756   -1.162068324323747   -0.11931041425017624
-2.6412880887455756   -1.162068324323747   -0.11931041425017624
-2.6412880887455756   -1.162068324323747   -0.11931041425017624
-1.2135935427917781   -1.9319498511467352   -0.1741491685148005
-1.2135935427917781   -1.9319498511467352   -0.1741491685148005
-1.2135935427917781   -1.9319498511467352   -0.1741491685148005
-1.2135935427917781   -1.9319498511467352   -0.1741491685148005
-1.0194006594770948   -0.823318138360849   0.02531066798391965
-1.0194006594770948   -0.823318138360849   0.02531066798391965
-1.0194006594770948   -0.823318138360849   0.02531066798391965
-1.0194006594770948   -0.823318138360849   0.02531066798391965
-2.9639070048572953   -2.1892333337819343   -0.4544256846342203
-2.9639070048572953   -2.1892333337819343   -0.4544256846342203
-2.9639070048572953   -2.1892333337819343   -0.4544256846342203
-2.9639070048572953   -2.1892333337819343   -0.4544256846342203
-1.8121301732415032   -1.3876331056242155   0.22385665485505224
-1.8121301732415032   -1.3876331056242155   0.22385665485505224
-1.8121301732415032   -1.3876331056242155   0.22385665485505224
-1.8121301732415032   -1.3876331056242155   0.22385665485505224
-2.7223153270755023   -1.213419442815632   -0.2222811866915874
-2.7223153270755023   -1.213419442815632   -0.2222811866915874
-2.7223153270755023   -1.213419442815632   -0.2222811866915874
-2.7223153270755023   -1.213419442815632   -0.2222811866915874
-1.2534983378098872   -1.7916380298781556   -0.17685783216273548
-1.2534983378098872   -1.7916380298781556   -0.17685783216273548
-1.2534983378098872   -1.7916380298781556   -0.17685783216273548
-1.2534983378098872   -1.7916380298781556   -0.17685783216273548
-1.1315123153366522   -0.8510489626273031   0.037172387781351984
-1.1315123153366522   -0.8510489626273031   0.037172387781351984
-1.1315123153366522   -0.8510489626273031   0.037172387781351984
-1.1315123153366522   -0.8510489626273031   0.037172387781351984
-3.164224839725921   -2.1248179193651238   -0.39742302536940466
-3.164224839725921   -2.1248179193651238   -0.39742302536940466
-3.164224839725921   -2.1248179193651238   -0.39742302536940466
-3.164224839725921   -2.1248179193651238   -0.39742302536940466
-1.892571486903512   -1.3072802444321354   0.23732816336925644
-1.892571486903512   -1.3072802444321354   0.23732816336925644
-1.892571486903512   -1.3072802444321354   0.23732816336925644
-1.892571486903512   -1.3072802444321354   0.23732816336925644
-0.8510041500012776   -0.7430469128469686   0.054414404592511345
-0.8510041500012776   -0.7430469128469686   0.054414404592511345
-0.8510041500012776   -0.7430469128469686   0.054414404592511345
-0.8510041500012776   -0.7430469128469686   0.054414404592511345
-0.5126244870410706   -0.45553228479366303   -0.1277811321319755
-0.5126244870410706   -0.45553228479366303   -0.1277811321319755
-0.5126244870410706   -0.45553228479366303   -0.1277811321319755
-0.5126244870410706   -0.45553228479366303   -0.1277811321319755
-0.4996388348182615   -0.6621190668757365   0.055443580387147695
-0.4996388348182615   -0.6621190668757365   0.055443580387147695
-0.4996388348182615   -0.6621190668757365   0.055443580387147695
-0.4996388348182615   -0.6621190668757365   0.055443580387147695
-0.9314521803056784   -0.6333367981727505   -0.06205540905828723
-0.9314521803056784   -0.6333367981727505   -0.06205540905828723
-0.9314521803056784   -0.6333367981727505   -0.06205540905828723
-0.9314521803056784   -0.6333367981727505   -0.06205540905828723
-0.5909245923356361   -0.5267149549092462   0.24272423575914392
-0.5909245923356361   -0.5267149549092462   0.24272423575914392
-0.5909245923356361   -0.5267149549092462   0.24272423575914392
-0.5909245923356361   -0.5267149549092462   0.24272423575914392
-0.9302557066321882   -0.7476776042405596   0.05826776537695888
-0.9302557066321882   -0.7476776042405596   0.05826776537695888
-0.9302557066321882   -0.7476776042405596   0.05826776537695888
-0.9302557066321882   -0.7476776042405596   0.05826776537695888
-0.5083868784372468   -0.55532983075343   -0.09508587383011621
-0.5083868784372468   -0.55532983075343   -0.09508587383011621
-0.5083868784372468   -0.55532983075343   -0.09508587383011621
-0.5083868784372468   -0.55532983075343   -0.09508587383011621
-0.5032662293594825   -0.6820575431544539   0.048975690799436866
-0.5032662293594825   -0.6820575431544539   0.048975690799436866
-0.5032662293594825   -0.6820575431544539   0.048975690799436866
-0.5032662293594825   -0.6820575431544539   0.048975690799436866
-0.9860227213112389   -0.7407272879652544   0.10960950841760436
-0.9860227213112389   -0.7407272879652544   0.10960950841760436
-0.9860227213112389   -0.7407272879652544   0.10960950841760436
-0.9860227213112389   -0.7407272879652544   0.10960950841760436
-0.6392543786606255   -0.586228328310868   0.2075627779119129
-0.6392543786606255   -0.586228328310868   0.2075627779119129
-0.6392543786606255   -0.586228328310868   0.2075627779119129
-0.6392543786606255   -0.586228328310868   0.2075627779119129
-0.9990865149097573   -0.7752534066103729   0.07881665907011634
-0.9990865149097573   -0.7752534066103729   0.07881665907011634
-0.9990865149097573   -0.7752534066103729   0.07881665907011634
-0.9990865149097573   -0.7752534066103729   0.07881665907011634
-0.5323313342704616   -0.6896603230188353   -0.08874705389107701
-0.5323313342704616   -0.6896603230188353   -0.08874705389107701
-0.5323313342704616   -0.6896603230188353   -0.08874705389107701
-0.5323313342704616   -0.6896603230188353   -0.08874705389107701
-0.5054653128259452   -0.7046518833601725   0.06852022262739424
-0.5054653128259452   -0.7046518833601725   0.06852022262739424
-0.5054653128259452   -0.7046518833601725   0.06852022262739424
-0.5054653128259452   -0.7046518833601725   0.06852022262739424
-1.1480238367661597   -0.915832380012609   0.0193981980191201
-1.1480238367661597   -0.915832380012609   0.0193981980191201
-1.1480238367661597   -0.915832380012609   0.0193981980191201
-1.1480238367661597   -0.915832380012609   0.0193981980191201
-0.7102870201589205   -0.669910897415094   0.10078771847430842
-0.7102870201589205   -0.669910897415094   0.10078771847430842
-0.7102870201589205   -0.669910897415094   0.10078771847430842
-0.7102870201589205   -0.669910897415094   0.10078771847430842
-0.4263306475907723   -0.2953110424016169   0.14346682272746988
-0.4263306475907723   -0.2953110424016169   0.14346682272746988
-0.4263306475907723   -0.2953110424016169   0.14346682272746988
-0.4263306475907723   -0.2953110424016169   0.14346682272746988
-0.2927185804850441   0.013058864436619452   -0.028290494192047926
-0.2927185804850441   0.013058864436619452   -0.028290494192047926
-0.2927185804850441   0.013058864436619452   -0.028290494192047926
-0.2927185804850441   0.013058864436619452   -0.028290494192047926
-0.2782382734885733   -0.3179768047142279   0.08935998168973895
-0.2782382734885733   -0.3179768047142279   0.08935998168973895
-0.2782382734885733   -0.3179768047142279   0.08935998168973895
-0.2782382734885733   -0.3179768047142279   0.08935998168973895
-0.3908052501168072   -0.04183061266079819   -0.020676950320549656
-0.3908052501168072   -0.04183061266079819   -0.020676950320549656
-0.3908052501168072   -0.04183061266079819   -0.020676950320549656
-0.3908052501168072   -0.04183061266079819   -0.020676950320549656
-0.3212066160223126   -0.15584743185924163   0.07119705733014593
-0.3212066160223126   -0.15584743185924163   0.07119705733014593
-0.3212066160223126   -0.15584743185924163   0.07119705733014593
-0.3212066160223126   -0.15584743185924163   0.07119705733014593
-0.4187154586484411   -0.33696329934337726   0.13490469370385988
-0.4187154586484411   -0.33696329934337726   0.13490469370385988
-0.4187154586484411   -0.33696329934337726   0.13490469370385988
-0.4187154586484411   -0.33696329934337726   0.13490469370385988
-0.24262355494202056   -0.015139608016730026   -0.035403622274995425
-0.24262355494202056   -0.015139608016730026   -0.035403622274995425
-0.24262355494202056   -0.015139608016730026   -0.035403622274995425
-0.24262355494202056   -0.015139608016730026   -0.035403622274995425
-0.2531345442718218   -0.34599393375499   0.08207215436125877
-0.2531345442718218   -0.34599393375499   0.08207215436125877
-0.2531345442718218   -0.34599393375499   0.08207215436125877
-0.2531345442718218   -0.34599393375499   0.08207215436125877
-0.39129547537808146   -0.09385537948367857   0.020627297035666976
-0.39129547537808146   -0.09385537948367857   0.020627297035666976
-0.39129547537808146   -0.09385537948367857   0.020627297035666976
-0.39129547537808146   -0.09385537948367857   0.020627297035666976
-0.29240845264048027   -0.17814263231438585   0.08636576794233805
-0.29240845264048027   -0.17814263231438585   0.08636576794233805
-0.29240845264048027   -0.17814263231438585   0.08636576794233805
-0.29240845264048027   -0.17814263231438585   0.08636576794233805
-0.4188436748505977   -0.364786672254268   0.15381759244364446
-0.4188436748505977   -0.364786672254268   0.15381759244364446
-0.4188436748505977   -0.364786672254268   0.15381759244364446
-0.4188436748505977   -0.364786672254268   0.15381759244364446
-0.22733114736186844   -0.07680744354696854   -0.05809735129699593
-0.22733114736186844   -0.07680744354696854   -0.05809735129699593
-0.22733114736186844   -0.07680744354696854   -0.05809735129699593
-0.22733114736186844   -0.07680744354696854   -0.05809735129699593
-0.20832461270780428   -0.3770630911595106   0.08992903357832377
-0.20832461270780428   -0.3770630911595106   0.08992903357832377
-0.20832461270780428   -0.3770630911595106   0.08992903357832377
-0.20832461270780428   -0.3770630911595106   0.08992903357832377
-0.41749189213138566   -0.22368121366707183   0.027416656407091025
-0.41749189213138566   -0.22368121366707183   0.027416656407091025
-0.41749189213138566   -0.22368121366707183   0.027416656407091025
-0.41749189213138566   -0.22368121366707183   0.027416656407091025
-0.278366886621213   -0.22575216416372085   0.076511530163699
-0.278366886621213   -0.22575216416372085   0.076511530163699
-0.278366886621213   -0.22575216416372085   0.076511530163699
-0.278366886621213   -0.22575216416372085   0.076511530163699
-0.2716886374521017   -0.053622653692162944   0.14354073910144627
-0.2716886374521017   -0.053622653692162944   0.14354073910144627
-0.2716886374521017   -0.053622653692162944   0.14354073910144627
-0.2716886374521017   -0.053622653692162944   0.14354073910144627
-0.043012787047559176   0.03415295398912667   -0.0028942740726896742
-0.043012787047559176   0.03415295398912667   -0.0028942740726896742
-0.043012787047559176   0.03415295398912667   -0.0028942740726896742
-0.043012787047559176   0.03415295398912667   -0.0028942740726896742
0.021355141196518233   -0.016583974145385587   0.08819627558686177
0.021355141196518233   -0.016583974145385587   0.08819627558686177
0.021355141196518233   -0.016583974145385587   0.08819627558686177
0.021355141196518233   -0.016583974145385587   0.08819627558686177
-0.22964292410565873   0.027205883077982274   -0.012845959187898284
-0.22964292410565873   0.027205883077982274   -0.012845959187898284
-0.22964292410565873   0.027205883077982274   -0.012845959187898284
-0.22964292410565873   0.027205883077982274   -0.012845959187898284
-0.13323454108057745   -0.009494553272839996   -0.011638256422276234
-0.13323454108057745   -0.009494553272839996   -0.011638256422276234
-0.13323454108057745   -0.009494553272839996   -0.011638256422276234
-0.13323454108057745   -0.009494553272839996   -0.011638256422276234
-0.21296001196392833   -0.051276135812583425   0.14905062041131917
-0.21296001196392833   -0.051276135812583425   0.14905062041131917
-0.21296001196392833   -0.051276135812583425   0.14905062041131917
-0.21296001196392833   -0.051276135812583425   0.14905062041131917
0.012902287665039364   0.0701281033554316   -0.04078006957134974
0.012902287665039364   0.0701281033554316   -0.04078006957134974
0.012902287665039364   0.0701281033554316   -0.04078006957134974
0.012902287665039364   0.0701281033554316   -0.04078006957134974
0.05504388016164953   -0.020162803590537313   0.10858122935361234
0.05504388016164953   -0.020162803590537313   0.10858122935361234
0.05504388016164953   -0.020162803590537313   0.10858122935361234
0.05504388016164953   -0.020162803590537313   0.10858122935361234
-0.1995651053704091   0.02307452155888249   -0.01914910644555025
-0.1995651053704091   0.02307452155888249   -0.01914910644555025
-0.1995651053704091   0.02307452155888249   -0.01914910644555025
-0.1995651053704091   0.02307452155888249   -0.01914910644555025
-0.0842670745679959   -0.001035929477703765   0.014661067137719797
-0.0842670745679959   -0.001035929477703765   0.014661067137719797
-0.0842670745679959   -0.001035929477703765   0.014661067137719797
-0.0842670745679959   -0.001035929477703765   0.014661067137719797
-0.1798005568650275   -0.05691525444878416   0.15966341208902443
-0.1798005568650275   -0.05691525444878416   0.15966341208902443
-0.1798005568650275   -0.05691525444878416   0.15966341208902443
-0.1798005568650275   -0.05691525444878416   0.15966341208902443
0.04289775491374223   0.06744539567460876   -0.03975759615107023
0.04289775491374223   0.06744539567460876   -0.03975759615107023
0.04289775491374223   0.06744539567460876   -0.03975759615107023
0.04289775491374223   0.06744539567460876   -0.03975759615107023
0.09052135704414357   -0.030647481330505398   0.10499755677396935
0.09052135704414357   -0.030647481330505398   0.10499755677396935
0.09052135704414357   -0.030647481330505398   0.10499755677396935
0.09052135704414357   -0.030647481330505398   0.10499755677396935
-0.14992733815927062   0.026756179923803816   -0.021903864762322277
-0.14992733815927062   0.026756179923803816   -0.021903864762322277
-0.14992733815927062   0.026756179923803816   -0.021903864762322277
-0.14992733815927062   0.026756179923803816   -0.021903864762322277
-0.04010210396174562   0.004949505438227247   0.03840431010560732
-0.04010210396174562   0.004949505438227247   0.03840431010560732
-0.04010210396174562   0.004949505438227247   0.03840431010560732
-0.04010210396174562   0.004949505438227247   0.03840431010560732
              </DataArray>   
             <DataArray type="Float64" NumberOfComponents="3" Name="Displacements" format="ascii">   
0.0   0.0   0.0
-0.025059098602944984   -0.016389991362785607   -0.008391363586627482
0.0   0.0   0.0
0.0   0.0   0.0
-0.025059098602944984   -0.016389991362785607   -0.008391363586627482
-0.015951163018378654   -0.01471986541651128   -0.006164586723497016
0.0   0.0   0.0
-0.015639601982778858   -0.015461498340654616   -0.005163414284888807
0.0   0.0   0.0
0.0   0.0   0.0
-0.015639601982778858   -0.015461498340654616   -0.005163414284888807
0.0   0.0   0.0
0.0   0.0   0.0
-0.015639601982778858   -0.015461498340654616   -0.005163414284888807
-0.026230357070008658   -0.01746359448599805   -0.006735301201199256
-0.025059098602944984   -0.016389991362785607   -0.008391363586627482
0.0   0.0   0.0
-0.015639601982778858   -0.015461498340654616   -0.005163414284888807
-0.025059098602944984   -0.016389991362785607   -0.008391363586627482
0.0   0.0   0.0
0.0   0.0   0.0
-0.026230357070008658   -0.01746359448599805   -0.006735301201199256
0.0   0.0   0.0
0.0   0.0   0.0
-0.026230357070008658   -0.01746359448599805   -0.006735301201199256
-0.015639601982778858   -0.015461498340654616   -0.005163414284888807
0.0   0.0   0.0
-0.01568792706593421   -0.015841076988855757   -0.004163203053185354
0.0   0.0   0.0
0.0   0.0   0.0
-0.01568792706593421   -0.015841076988855757   -0.004163203053185354
0.0   0.0   0.0
0.0   0.0   0.0
-0.01568792706593421   -0.015841076988855757   -0.004163203053185354
-0.027054857108023335   -0.017985438263896692   -0.005147623098821664
-0.026230357070008658   -0.01746359448599805   -0.006735301201199256
0.0   0.0   0.0
-0.01568792706593421   -0.015841076988855757   -0.004163203053185354
-0.026230357070008658   -0.01746359448599805   -0.006735301201199256
0.0   0.0   0.0
0.0   0.0   0.0
-0.027054857108023335   -0.017985438263896692   -0.005147623098821664
0.0   0.0   0.0
0.0   0.0   0.0
-0.027054857108023335   -0.017985438263896692   -0.005147623098821664
-0.01568792706593421   -0.015841076988855757   -0.004163203053185354
0.0   0.0   0.0
-0.015684436728317153   -0.015937948327840498   -0.003128371668078267
0.0   0.0   0.0
0.0   0.0   0.0
-0.015684436728317153   -0.015937948327840498   -0.003128371668078267
0.0   0.0   0.0
0.0   0.0   0.0
-0.015684436728317153   -0.015937948327840498   -0.003128371668078267
-0.028826870796251278   -0.0183789947986027   -0.0033050967130887907
-0.027054857108023335   -0.017985438263896692   -0.005147623098821664
0.0   0.0   0.0
-0.015684436728317153   -0.015937948327840498   -0.003128371668078267
-0.027054857108023335   -0.017985438263896692   -0.005147623098821664
0.0   0.0   0.0
0.0   0.0   0.0
-0.015951163018378654   -0.01471986541651128   -0.006164586723497016
0.0   0.0   0.0
0.0   0.0   0.0
-0.015951163018378654   -0.01471986541651128   -0.006164586723497016
-0.007259367348469576   -0.014106463464399211   -0.004687102225015219
0.0   0.0   0.0
-0.006986068462077405   -0.01458968158068837   -0.004214966552051776
0.0   0.0   0.0
0.0   0.0   0.0
-0.006986068462077405   -0.01458968158068837   -0.004214966552051776
0.0   0.0   0.0
0.0   0.0   0.0
-0.006986068462077405   -0.01458968158068837   -0.004214966552051776
-0.015639601982778858   -0.015461498340654616   -0.005163414284888807
-0.015951163018378654   -0.01471986541651128   -0.006164586723497016
0.0   0.0   0.0
-0.006986068462077405   -0.01458968158068837   -0.004214966552051776
-0.015951163018378654   -0.01471986541651128   -0.006164586723497016
0.0   0.0   0.0
0.0   0.0   0.0
-0.015639601982778858   -0.015461498340654616   -0.005163414284888807
0.0   0.0   0.0
0.0   0.0   0.0
-0.015639601982778858   -0.015461498340654616   -0.005163414284888807
-0.006986068462077405   -0.01458968158068837   -0.004214966552051776
0.0   0.0   0.0
-0.006834299865841917   -0.014773693866254874   -0.00375468665972798
0.0   0.0   0.0
0.0   0.0   0.0
-0.006834299865841917   -0.014773693866254874   -0.00375468665972798
0.0   0.0   0.0
0.0   0.0   0.0
-0.006834299865841917   -0.014773693866254874   -0.00375468665972798
-0.01568792706593421   -0.015841076988855757   -0.004163203053185354
-0.015639601982778858   -0.015461498340654616   -0.005163414284888807
0.0   0.0   0.0
-0.006834299865841917   -0.014773693866254874   -0.00375468665972798
-0.015639601982778858   -0.015461498340654616   -0.005163414284888807
0.0   0.0   0.0
0.0   0.0   0.0
-0.01568792706593421   -0.015841076988855757   -0.004163203053185354
0.0   0.0   0.0
0.0   0.0   0.0
-0.01568792706593421   -0.015841076988855757   -0.004163203053185354
-0.006834299865841917   -0.014773693866254874   -0.00375468665972798
0.0   0.0   0.0
-0.0066967995664917465   -0.014696523883455333   -0.0032783466175224612
0.0   0.0   0.0
0.0   0.0   0.0
-0.0066967995664917465   -0.014696523883455333   -0.0032783466175224612
0.0   0.0   0.0
0.0   0.0   0.0
-0.0066967995664917465   -0.014696523883455333   -0.0032783466175224612
-0.015684436728317153   -0.015937948327840498   -0.003128371668078267
-0.01568792706593421   -0.015841076988855757   -0.004163203053185354
0.0   0.0   0.0
-0.0066967995664917465   -0.014696523883455333   -0.0032783466175224612
-0.01568792706593421   -0.015841076988855757   -0.004163203053185354
0.0   0.0   0.0
0.0   0.0   0.0
-0.007259367348469576   -0.014106463464399211   -0.004687102225015219
0.0   0.0   0.0
0.0   0.0   0.0
-0.007259367348469576   -0.014106463464399211   -0.004687102225015219
0.0009563521447439225   -0.014184397904025077   -0.003744444260893499
0.0   0.0   0.0
0.0011288427985629533   -0.014435406812994767   -0.003810990257504575
0.0   0.0   0.0
0.0   0.0   0.0
0.0011288427985629533   -0.014435406812994767   -0.003810990257504575
0.0   0.0   0.0
0.0   0.0   0.0
0.0011288427985629533   -0.014435406812994767   -0.003810990257504575
-0.006986068462077405   -0.01458968158068837   -0.004214966552051776
-0.007259367348469576   -0.014106463464399211   -0.004687102225015219
0.0   0.0   0.0
0.0011288427985629533   -0.014435406812994767   -0.003810990257504575
-0.007259367348469576   -0.014106463464399211   -0.004687102225015219
0.0   0.0   0.0
0.0   0.0   0.0
-0.006986068462077405   -0.01458968158068837   -0.004214966552051776
0.0   0.0   0.0
0.0   0.0   0.0
-0.006986068462077405   -0.01458968158068837   -0.004214966552051776
0.0011288427985629533   -0.014435406812994767   -0.003810990257504575
0.0   0.0   0.0
0.0012644257606196534   -0.014415078749423741   -0.0038706922463043578
0.0   0.0   0.0
0.0   0.0   0.0
0.0012644257606196534   -0.014415078749423741   -0.0038706922463043578
0.0   0.0   0.0
0.0   0.0   0.0
0.0012644257606196534   -0.014415078749423741   -0.0038706922463043578
-0.006834299865841917   -0.014773693866254874   -0.00375468665972798
-0.006986068462077405   -0.01458968158068837   -0.004214966552051776
0.0   0.0   0.0
0.0012644257606196534   -0.014415078749423741   -0.0038706922463043578
-0.006986068462077405   -0.01458968158068837   -0.004214966552051776
0.0   0.0   0.0
0.0   0.0   0.0
-0.006834299865841917   -0.014773693866254874   -0.00375468665972798
0.0   0.0   0.0
0.0   0.0   0.0
-0.006834299865841917   -0.014773693866254874   -0.00375468665972798
0.0012644257606196534   -0.014415078749423741   -0.0038706922463043578
0.0   0.0   0.0
0.0014482536865086562   -0.01410108006889464   -0.0039315584772167496
0.0   0.0   0.0
0.0   0.0   0.0
0.0014482536865086562   -0.01410108006889464   -0.0039315584772167496
0.0   0.0   0.0
0.0   0.0   0.0
0.0014482536865086562   -0.01410108006889464   -0.0039315584772167496
-0.0066967995664917465   -0.014696523883455333   -0.0032783466175224612
-0.006834299865841917   -0.014773693866254874   -0.00375468665972798
0.0   0.0   0.0
0.0014482536865086562   -0.01410108006889464   -0.0039315584772167496
-0.006834299865841917   -0.014773693866254874   -0.00375468665972798
0.0   0.0   0.0
0.0   0.0   0.0
0.0009563521447439225   -0.014184397904025077   -0.003744444260893499
0.0   0.0   0.0
0.0   0.0   0.0
0.0009563521447439225   -0.014184397904025077   -0.003744444260893499
0.009870802231598147   -0.014879031135590618   -0.003276755390258472
0.0   0.0   0.0
0.009882903913917438   -0.01495978181422131   -0.003910076730177803
0.0   0.0   0.0
0.0   0.0   0.0
0.009882903913917438   -0.01495978181422131   -0.003910076730177803
0.0   0.0   0.0
0.0   0.0   0.0
0.009882903913917438   -0.01495978181422131   -0.003910076730177803
0.0011288427985629533   -0.014435406812994767   -0.003810990257504575
0.0009563521447439225   -0.014184397904025077   -0.003744444260893499
0.0   0.0   0.0
0.009882903913917438   -0.01495978181422131   -0.003910076730177803
0.0009563521447439225   -0.014184397904025077   -0.003744444260893499
0.0   0.0   0.0
0.0   0.0   0.0
0.0011288427985629533   -0.014435406812994767   -0.003810990257504575
0.0   0.0   0.0
0.0   0.0   0.0
0.0011288427985629533   -0.014435406812994767   -0.003810990257504575
0.009882903913917438   -0.01495978181422131   -0.003910076730177803
0.0   0.0   0.0
0.009835879935127523   -0.014746122731782031   -0.004517073548244372
0.0   0.0   0.0
0.0   0.0   0.0
0.009835879935127523   -0.014746122731782031   -0.004517073548244372
0.0   0.0   0.0
0.0   0.0   0.0
0.009835879935127523   -0.014746122731782031   -0.004517073548244372
0.0012644257606196534   -0.014415078749423741   -0.0038706922463043578
0.0011288427985629533   -0.014435406812994767   -0.003810990257504575
0.0   0.0   0.0
0.009835879935127523   -0.014746122731782031   -0.004517073548244372
0.0011288427985629533   -0.014435406812994767   -0.003810990257504575
0.0   0.0   0.0
0.0   0.0   0.0
0.0012644257606196534   -0.014415078749423741   -0.0038706922463043578
0.0   0.0   0.0
0.0   0.0   0.0
0.0012644257606196534   -0.014415078749423741   -0.0038706922463043578
0.009835879935127523   -0.014746122731782031   -0.004517073548244372
0.0   0.0   0.0
0.010021858202436876   -0.014172158594820941   -0.005112067975229481
0.0   0.0   0.0
0.0   0.0   0.0
0.010021858202436876   -0.014172158594820941   -0.005112067975229481
0.0   0.0   0.0
0.0   0.0   0.0
0.010021858202436876   -0.014172158594820941   -0.005112067975229481
0.0014482536865086562   -0.01410108006889464   -0.0039315584772167496
0.0012644257606196534   -0.014415078749423741   -0.0038706922463043578
0.0   0.0   0.0
0.010021858202436876   -0.014172158594820941   -0.005112067975229481
0.0012644257606196534   -0.014415078749423741   -0.0038706922463043578
0.0   0.0   0.0
0.0   0.0   0.0
0.009870802231598147   -0.014879031135590618   -0.003276755390258472
0.0   0.0   0.0
0.0   0.0   0.0
0.009870802231598147   -0.014879031135590618   -0.003276755390258472
0.022255927899279524   -0.0166377232099171   -0.0030880446621386194
0.0   0.0   0.0
0.020894828428883207   -0.016457876127037252   -0.004522309156011343
0.0   0.0   0.0
0.0   0.0   0.0
0.020894828428883207   -0.016457876127037252   -0.004522309156011343
0.0   0.0   0.0
0.0   0.0   0.0
0.020894828428883207   -0.016457876127037252   -0.004522309156011343
0.009882903913917438   -0.01495978181422131   -0.003910076730177803
0.009870802231598147   -0.014879031135590618   -0.003276755390258472
0.0   0.0   0.0
0.020894828428883207   -0.016457876127037252   -0.004522309156011343
0.009870802231598147   -0.014879031135590618   -0.003276755390258472
0.0   0.0   0.0
0.0   0.0   0.0
0.009882903913917438   -0.01495978181422131   -0.003910076730177803
0.0   0.0   0.0
0.0   0.0   0.0
0.009882903913917438   -0.01495978181422131   -0.003910076730177803
0.020894828428883207   -0.016457876127037252   -0.004522309156011343
0.0   0.0   0.0
0.020265049482261457   -0.016115656387795788   -0.00573472061019238
0.0   0.0   0.0
0.0   0.0   0.0
0.020265049482261457   -0.016115656387795788   -0.00573472061019238
0.0   0.0   0.0
0.0   0.0   0.0
0.020265049482261457   -0.016115656387795788   -0.00573472061019238
0.009835879935127523   -0.014746122731782031   -0.004517073548244372
0.009882903913917438   -0.01495978181422131   -0.003910076730177803
0.0   0.0   0.0
0.020265049482261457   -0.016115656387795788   -0.00573472061019238
0.009882903913917438   -0.01495978181422131   -0.003910076730177803
0.0   0.0   0.0
0.0   0.0   0.0
0.009835879935127523   -0.014746122731782031   -0.004517073548244372
0.0   0.0   0.0
0.0   0.0   0.0
0.009835879935127523   -0.014746122731782031   -0.004517073548244372
0.020265049482261457   -0.016115656387795788   -0.00573472061019238
0.0   0.0   0.0
0.019330768667211205   -0.015238623321581038   -0.0070167373317152155
0.0   0.0   0.0
0.0   0.0   0.0
0.019330768667211205   -0.015238623321581038   -0.0070167373317152155
0.0   0.0   0.0
0.0   0.0   0.0
0.019330768667211205   -0.015238623321581038   -0.0070167373317152155
0.010021858202436876   -0.014172158594820941   -0.005112067975229481
0.009835879935127523   -0.014746122731782031   -0.004517073548244372
0.0   0.0   0.0
0.019330768667211205   -0.015238623321581038   -0.0070167373317152155
0.009835879935127523   -0.014746122731782031   -0.004517073548244372
0.0   0.0   0.0
-0.025059098602944984   -0.016389991362785607   -0.008391363586627482
-0.04684313644832549   -0.04582555877481973   -0.011303517968677776
-0.015951163018378654   -0.01471986541651128   -0.006164586723497016
-0.026230357070008658   -0.01746359448599805   -0.006735301201199256
-0.04684313644832549   -0.04582555877481973   -0.011303517968677776
-0.029899911125124804   -0.044322128031742715   -0.009300212111407847
-0.015951163018378654   -0.01471986541651128   -0.006164586723497016
-0.02994163714487475   -0.04508167788533764   -0.008373221142416985
-0.026230357070008658   -0.01746359448599805   -0.006735301201199256
-0.015639601982778858   -0.015461498340654616   -0.005163414284888807
-0.02994163714487475   -0.04508167788533764   -0.008373221142416985
-0.015951163018378654   -0.01471986541651128   -0.006164586723497016
-0.026230357070008658   -0.01746359448599805   -0.006735301201199256
-0.02994163714487475   -0.04508167788533764   -0.008373221142416985
-0.04825509047549549   -0.04688475786158333   -0.009797270967101522
-0.04684313644832549   -0.04582555877481973   -0.011303517968677776
-0.026230357070008658   -0.01746359448599805   -0.006735301201199256
-0.02994163714487475   -0.04508167788533764   -0.008373221142416985
-0.04684313644832549   -0.04582555877481973   -0.011303517968677776
-0.015951163018378654   -0.01471986541651128   -0.006164586723497016
-0.026230357070008658   -0.01746359448599805   -0.006735301201199256
-0.04825509047549549   -0.04688475786158333   -0.009797270967101522
-0.015639601982778858   -0.015461498340654616   -0.005163414284888807
-0.027054857108023335   -0.017985438263896692   -0.005147623098821664
-0.04825509047549549   -0.04688475786158333   -0.009797270967101522
-0.02994163714487475   -0.04508167788533764   -0.008373221142416985
-0.015639601982778858   -0.015461498340654616   -0.005163414284888807
-0.030066438928904437   -0.04554412051520607   -0.007482004712672769
-0.027054857108023335   -0.017985438263896692   -0.005147623098821664
-0.01568792706593421   -0.015841076988855757   -0.004163203053185354
-0.030066438928904437   -0.04554412051520607   -0.007482004712672769
-0.015639601982778858   -0.015461498340654616   -0.005163414284888807
-0.027054857108023335   -0.017985438263896692   -0.005147623098821664
-0.030066438928904437   -0.04554412051520607   -0.007482004712672769
-0.04923880638855821   -0.04748238707919875   -0.008321823177521302
-0.04825509047549549   -0.04688475786158333   -0.009797270967101522
-0.027054857108023335   -0.017985438263896692   -0.005147623098821664
-0.030066438928904437   -0.04554412051520607   -0.007482004712672769
-0.04825509047549549   -0.04688475786158333   -0.009797270967101522
-0.015639601982778858   -0.015461498340654616   -0.005163414284888807
-0.027054857108023335   -0.017985438263896692   -0.005147623098821664
-0.04923880638855821   -0.04748238707919875   -0.008321823177521302
-0.01568792706593421   -0.015841076988855757   -0.004163203053185354
-0.028826870796251278   -0.0183789947986027   -0.0033050967130887907
-0.04923880638855821   -0.04748238707919875   -0.008321823177521302
-0.030066438928904437   -0.04554412051520607   -0.007482004712672769
-0.01568792706593421   -0.015841076988855757   -0.004163203053185354
-0.029983999200606622   -0.045783125539287595   -0.006647380242806066
-0.028826870796251278   -0.0183789947986027   -0.0033050967130887907
-0.015684436728317153   -0.015937948327840498   -0.003128371668078267
-0.029983999200606622   -0.045783125539287595   -0.006647380242806066
-0.01568792706593421   -0.015841076988855757   -0.004163203053185354
-0.028826870796251278   -0.0183789947986027   -0.0033050967130887907
-0.029983999200606622   -0.045783125539287595   -0.006647380242806066
-0.05040181274257023   -0.047828148705344076   -0.006978517375538816
-0.04923880638855821   -0.04748238707919875   -0.008321823177521302
-0.028826870796251278   -0.0183789947986027   -0.0033050967130887907
-0.029983999200606622   -0.045783125539287595   -0.006647380242806066
-0.04923880638855821   -0.04748238707919875   -0.008321823177521302
-0.01568792706593421   -0.015841076988855757   -0.004163203053185354
-0.015951163018378654   -0.01471986541651128   -0.006164586723497016
-0.029899911125124804   -0.044322128031742715   -0.009300212111407847
-0.007259367348469576   -0.014106463464399211   -0.004687102225015219
-0.015639601982778858   -0.015461498340654616   -0.005163414284888807
-0.029899911125124804   -0.044322128031742715   -0.009300212111407847
-0.013862382189555711   -0.04362260609828714   -0.007932093743874914
-0.007259367348469576   -0.014106463464399211   -0.004687102225015219
-0.013749324569265517   -0.04410657658913594   -0.007457660970899882
-0.015639601982778858   -0.015461498340654616   -0.005163414284888807
-0.006986068462077405   -0.01458968158068837   -0.004214966552051776
-0.013749324569265517   -0.04410657658913594   -0.007457660970899882
-0.007259367348469576   -0.014106463464399211   -0.004687102225015219
-0.015639601982778858   -0.015461498340654616   -0.005163414284888807
-0.013749324569265517   -0.04410657658913594   -0.007457660970899882
-0.02994163714487475   -0.04508167788533764   -0.008373221142416985
-0.029899911125124804   -0.044322128031742715   -0.009300212111407847
-0.015639601982778858   -0.015461498340654616   -0.005163414284888807
-0.013749324569265517   -0.04410657658913594   -0.007457660970899882
-0.029899911125124804   -0.044322128031742715   -0.009300212111407847
-0.007259367348469576   -0.014106463464399211   -0.004687102225015219
-0.015639601982778858   -0.015461498340654616   -0.005163414284888807
-0.02994163714487475   -0.04508167788533764   -0.008373221142416985
-0.006986068462077405   -0.01458968158068837   -0.004214966552051776
-0.01568792706593421   -0.015841076988855757   -0.004163203053185354
-0.02994163714487475   -0.04508167788533764   -0.008373221142416985
-0.013749324569265517   -0.04410657658913594   -0.007457660970899882
-0.006986068462077405   -0.01458968158068837   -0.004214966552051776
-0.013649873681272788   -0.044341083308434934   -0.007027300856832877
-0.01568792706593421   -0.015841076988855757   -0.004163203053185354
-0.006834299865841917   -0.014773693866254874   -0.00375468665972798
-0.013649873681272788   -0.044341083308434934   -0.007027300856832877
-0.006986068462077405   -0.01458968158068837   -0.004214966552051776
-0.01568792706593421   -0.015841076988855757   -0.004163203053185354
-0.013649873681272788   -0.044341083308434934   -0.007027300856832877
-0.030066438928904437   -0.04554412051520607   -0.007482004712672769
-0.02994163714487475   -0.04508167788533764   -0.008373221142416985
-0.01568792706593421   -0.015841076988855757   -0.004163203053185354
-0.013649873681272788   -0.044341083308434934   -0.007027300856832877
-0.02994163714487475   -0.04508167788533764   -0.008373221142416985
-0.006986068462077405   -0.01458968158068837   -0.004214966552051776
-0.01568792706593421   -0.015841076988855757   -0.004163203053185354
-0.030066438928904437   -0.04554412051520607   -0.007482004712672769
-0.006834299865841917   -0.014773693866254874   -0.00375468665972798
-0.015684436728317153   -0.015937948327840498   -0.003128371668078267
-0.030066438928904437   -0.04554412051520607   -0.007482004712672769
-0.013649873681272788   -0.044341083308434934   -0.007027300856832877
-0.006834299865841917   -0.014773693866254874   -0.00375468665972798
-0.0134984132264053   -0.04433498242788622   -0.006652292797583143
-0.015684436728317153   -0.015937948327840498   -0.003128371668078267
-0.0066967995664917465   -0.014696523883455333   -0.0032783466175224612
-0.0134984132264053   -0.04433498242788622   -0.006652292797583143
-0.006834299865841917   -0.014773693866254874   -0.00375468665972798
-0.015684436728317153   -0.015937948327840498   -0.003128371668078267
-0.0134984132264053   -0.04433498242788622   -0.006652292797583143
-0.029983999200606622   -0.045783125539287595   -0.006647380242806066
-0.030066438928904437   -0.04554412051520607   -0.007482004712672769
-0.015684436728317153   -0.015937948327840498   -0.003128371668078267
-0.0134984132264053   -0.04433498242788622   -0.006652292797583143
-0.030066438928904437   -0.04554412051520607   -0.007482004712672769
-0.006834299865841917   -0.014773693866254874   -0.00375468665972798
-0.007259367348469576   -0.014106463464399211   -0.004687102225015219
-0.013862382189555711   -0.04362260609828714   -0.007932093743874914
0.0009563521447439225   -0.014184397904025077   -0.003744444260893499
-0.006986068462077405   -0.01458968158068837   -0.004214966552051776
-0.013862382189555711   -0.04362260609828714   -0.007932093743874914
0.001606834635807068   -0.043643041334456435   -0.007065774641443662
0.0009563521447439225   -0.014184397904025077   -0.003744444260893499
0.0017469353250439976   -0.043873182705222565   -0.007035569595038952
-0.006986068462077405   -0.01458968158068837   -0.004214966552051776
0.0011288427985629533   -0.014435406812994767   -0.003810990257504575
0.0017469353250439976   -0.043873182705222565   -0.007035569595038952
0.0009563521447439225   -0.014184397904025077   -0.003744444260893499
-0.006986068462077405   -0.01458968158068837   -0.004214966552051776
0.0017469353250439976   -0.043873182705222565   -0.007035569595038952
-0.013749324569265517   -0.04410657658913594   -0.007457660970899882
-0.013862382189555711   -0.04362260609828714   -0.007932093743874914
-0.006986068462077405   -0.01458968158068837   -0.004214966552051776
0.0017469353250439976   -0.043873182705222565   -0.007035569595038952
-0.013862382189555711   -0.04362260609828714   -0.007932093743874914
0.0009563521447439225   -0.014184397904025077   -0.003744444260893499
-0.006986068462077405   -0.01458968158068837   -0.004214966552051776
-0.013749324569265517   -0.04410657658913594   -0.007457660970899882
0.0011288427985629533   -0.014435406812994767   -0.003810990257504575
-0.006834299865841917   -0.014773693866254874   -0.00375468665972798
-0.013749324569265517   -0.04410657658913594   -0.007457660970899882
0.0017469353250439976   -0.043873182705222565   -0.007035569595038952
0.0011288427985629533   -0.014435406812994767   -0.003810990257504575
0.0018391266742835233   -0.04385973086922265   -0.007055411206212039
-0.006834299865841917   -0.014773693866254874   -0.00375468665972798
0.0012644257606196534   -0.014415078749423741   -0.0038706922463043578
0.0018391266742835233   -0.04385973086922265   -0.007055411206212039
0.0011288427985629533   -0.014435406812994767   -0.003810990257504575
-0.006834299865841917   -0.014773693866254874   -0.00375468665972798
0.0018391266742835233   -0.04385973086922265   -0.007055411206212039
-0.013649873681272788   -0.044341083308434934   -0.007027300856832877
-0.013749324569265517   -0.04410657658913594   -0.007457660970899882
-0.006834299865841917   -0.014773693866254874   -0.00375468665972798
0.0018391266742835233   -0.04385973086922265   -0.007055411206212039
-0.013749324569265517   -0.04410657658913594   -0.007457660970899882
0.0011288427985629533   -0.014435406812994767   -0.003810990257504575
-0.006834299865841917   -0.014773693866254874   -0.00375468665972798
-0.013649873681272788   -0.044341083308434934   -0.007027300856832877
0.0012644257606196534   -0.014415078749423741   -0.0038706922463043578
-0.0066967995664917465   -0.014696523883455333   -0.0032783466175224612
-0.013649873681272788   -0.044341083308434934   -0.007027300856832877
0.0018391266742835233   -0.04385973086922265   -0.007055411206212039
0.0012644257606196534   -0.014415078749423741   -0.0038706922463043578
0.0019385214616874308   -0.04359522060264689   -0.007126099061531619
-0.0066967995664917465   -0.014696523883455333   -0.0032783466175224612
0.0014482536865086562   -0.01410108006889464   -0.0039315584772167496
0.0019385214616874308   -0.04359522060264689   -0.007126099061531619
0.0012644257606196534   -0.014415078749423741   -0.0038706922463043578
-0.0066967995664917465   -0.014696523883455333   -0.0032783466175224612
0.0019385214616874308   -0.04359522060264689   -0.007126099061531619
-0.0134984132264053   -0.04433498242788622   -0.006652292797583143
-0.013649873681272788   -0.044341083308434934   -0.007027300856832877
-0.0066967995664917465   -0.014696523883455333   -0.0032783466175224612
0.0019385214616874308   -0.04359522060264689   -0.007126099061531619
-0.013649873681272788   -0.044341083308434934   -0.007027300856832877
0.0012644257606196534   -0.014415078749423741   -0.0038706922463043578
0.0009563521447439225   -0.014184397904025077   -0.003744444260893499
0.001606834635807068   -0.043643041334456435   -0.007065774641443662
0.009870802231598147   -0.014879031135590618   -0.003276755390258472
0.0011288427985629533   -0.014435406812994767   -0.003810990257504575
0.001606834635807068   -0.043643041334456435   -0.007065774641443662
0.017996243533439565   -0.044357318645577834   -0.00665952531288106
0.009870802231598147   -0.014879031135590618   -0.003276755390258472
0.01807187296371156   -0.04435710519014988   -0.007087999042978303
0.0011288427985629533   -0.014435406812994767   -0.003810990257504575
0.009882903913917438   -0.01495978181422131   -0.003910076730177803
0.01807187296371156   -0.04435710519014988   -0.007087999042978303
0.009870802231598147   -0.014879031135590618   -0.003276755390258472
0.0011288427985629533   -0.014435406812994767   -0.003810990257504575
0.01807187296371156   -0.04435710519014988   -0.007087999042978303
0.0017469353250439976   -0.043873182705222565   -0.007035569595038952
0.001606834635807068   -0.043643041334456435   -0.007065774641443662
0.0011288427985629533   -0.014435406812994767   -0.003810990257504575
0.01807187296371156   -0.04435710519014988   -0.007087999042978303
0.001606834635807068   -0.043643041334456435   -0.007065774641443662
0.009870802231598147   -0.014879031135590618   -0.003276755390258472
0.0011288427985629533   -0.014435406812994767   -0.003810990257504575
0.0017469353250439976   -0.043873182705222565   -0.007035569595038952
0.009882903913917438   -0.01495978181422131   -0.003910076730177803
0.0012644257606196534   -0.014415078749423741   -0.0038706922463043578
0.0017469353250439976   -0.043873182705222565   -0.007035569595038952
0.01807187296371156   -0.04435710519014988   -0.007087999042978303
0.009882903913917438   -0.01495978181422131   -0.003910076730177803
0.017981138000581924   -0.04411783810098099   -0.007573100547477724
0.0012644257606196534   -0.014415078749423741   -0.0038706922463043578
0.009835879935127523   -0.014746122731782031   -0.004517073548244372
0.017981138000581924   -0.04411783810098099   -0.007573100547477724
0.009882903913917438   -0.01495978181422131   -0.003910076730177803
0.0012644257606196534   -0.014415078749423741   -0.0038706922463043578
0.017981138000581924   -0.04411783810098099   -0.007573100547477724
0.0018391266742835233   -0.04385973086922265   -0.007055411206212039
0.0017469353250439976   -0.043873182705222565   -0.007035569595038952
0.0012644257606196534   -0.014415078749423741   -0.0038706922463043578
0.017981138000581924   -0.04411783810098099   -0.007573100547477724
0.0017469353250439976   -0.043873182705222565   -0.007035569595038952
0.009882903913917438   -0.01495978181422131   -0.003910076730177803
0.0012644257606196534   -0.014415078749423741   -0.0038706922463043578
0.0018391266742835233   -0.04385973086922265   -0.007055411206212039
0.009835879935127523   -0.014746122731782031   -0.004517073548244372
0.0014482536865086562   -0.01410108006889464   -0.0039315584772167496
0.0018391266742835233   -0.04385973086922265   -0.007055411206212039
0.017981138000581924   -0.04411783810098099   -0.007573100547477724
0.009835879935127523   -0.014746122731782031   -0.004517073548244372
0.017926520568847665   -0.04357380824296671   -0.008096906585521375
0.0014482536865086562   -0.01410108006889464   -0.0039315584772167496
0.010021858202436876   -0.014172158594820941   -0.005112067975229481
0.017926520568847665   -0.04357380824296671   -0.008096906585521375
0.009835879935127523   -0.014746122731782031   -0.004517073548244372
0.0014482536865086562   -0.01410108006889464   -0.0039315584772167496
0.017926520568847665   -0.04357380824296671   -0.008096906585521375
0.0019385214616874308   -0.04359522060264689   -0.007126099061531619
0.0018391266742835233   -0.04385973086922265   -0.007055411206212039
0.0014482536865086562   -0.01410108006889464   -0.0039315584772167496
0.017926520568847665   -0.04357380824296671   -0.008096906585521375
0.0018391266742835233   -0.04385973086922265   -0.007055411206212039
0.009835879935127523   -0.014746122731782031   -0.004517073548244372
0.009870802231598147   -0.014879031135590618   -0.003276755390258472
0.017996243533439565   -0.044357318645577834   -0.00665952531288106
0.022255927899279524   -0.0166377232099171   -0.0030880446621386194
0.009882903913917438   -0.01495978181422131   -0.003910076730177803
0.017996243533439565   -0.044357318645577834   -0.00665952531288106
0.03776421674391128   -0.04568626010029015   -0.006546086991845147
0.022255927899279524   -0.0166377232099171   -0.0030880446621386194
0.03698533098999791   -0.04556405500009329   -0.0075090755917199496
0.009882903913917438   -0.01495978181422131   -0.003910076730177803
0.020894828428883207   -0.016457876127037252   -0.004522309156011343
0.03698533098999791   -0.04556405500009329   -0.0075090755917199496
0.022255927899279524   -0.0166377232099171   -0.0030880446621386194
0.009882903913917438   -0.01495978181422131   -0.003910076730177803
0.03698533098999791   -0.04556405500009329   -0.0075090755917199496
0.01807187296371156   -0.04435710519014988   -0.007087999042978303
0.017996243533439565   -0.044357318645577834   -0.00665952531288106
0.009882903913917438   -0.01495978181422131   -0.003910076730177803
0.03698533098999791   -0.04556405500009329   -0.0075090755917199496
0.017996243533439565   -0.044357318645577834   -0.00665952531288106
0.022255927899279524   -0.0166377232099171   -0.0030880446621386194
0.009882903913917438   -0.01495978181422131   -0.003910076730177803
0.01807187296371156   -0.04435710519014988   -0.007087999042978303
0.020894828428883207   -0.016457876127037252   -0.004522309156011343
0.009835879935127523   -0.014746122731782031   -0.004517073548244372
0.01807187296371156   -0.04435710519014988   -0.007087999042978303
0.03698533098999791   -0.04556405500009329   -0.0075090755917199496
0.020894828428883207   -0.016457876127037252   -0.004522309156011343
0.036290157786094415   -0.045194800371269765   -0.00859129780396688
0.009835879935127523   -0.014746122731782031   -0.004517073548244372
0.020265049482261457   -0.016115656387795788   -0.00573472061019238
0.036290157786094415   -0.045194800371269765   -0.00859129780396688
0.020894828428883207   -0.016457876127037252   -0.004522309156011343
0.009835879935127523   -0.014746122731782031   -0.004517073548244372
0.036290157786094415   -0.045194800371269765   -0.00859129780396688
0.017981138000581924   -0.04411783810098099   -0.007573100547477724
0.01807187296371156   -0.04435710519014988   -0.007087999042978303
0.009835879935127523   -0.014746122731782031   -0.004517073548244372
0.036290157786094415   -0.045194800371269765   -0.00859129780396688
0.01807187296371156   -0.04435710519014988   -0.007087999042978303
0.020894828428883207   -0.016457876127037252   -0.004522309156011343
0.009835879935127523   -0.014746122731782031   -0.004517073548244372
0.017981138000581924   -0.04411783810098099   -0.007573100547477724
0.020265049482261457   -0.016115656387795788   -0.00573472061019238
0.010021858202436876   -0.014172158594820941   -0.005112067975229481
0.017981138000581924   -0.04411783810098099   -0.007573100547477724
0.036290157786094415   -0.045194800371269765   -0.00859129780396688
0.020265049482261457   -0.016115656387795788   -0.00573472061019238
0.03525296909679666   -0.044370920666967795   -0.009717170232785233
0.010021858202436876   -0.014172158594820941   -0.005112067975229481
0.019330768667211205   -0.015238623321581038   -0.0070167373317152155
0.03525296909679666   -0.044370920666967795   -0.009717170232785233
0.020265049482261457   -0.016115656387795788   -0.00573472061019238
0.010021858202436876   -0.014172158594820941   -0.005112067975229481
0.03525296909679666   -0.044370920666967795   -0.009717170232785233
0.017926520568847665   -0.04357380824296671   -0.008096906585521375
0.017981138000581924   -0.04411783810098099   -0.007573100547477724
0.010021858202436876   -0.014172158594820941   -0.005112067975229481
0.03525296909679666   -0.044370920666967795   -0.009717170232785233
0.017981138000581924   -0.04411783810098099   -0.007573100547477724
0.020265049482261457   -0.016115656387795788   -0.00573472061019238
-0.04684313644832549   -0.04582555877481973   -0.011303517968677776
-0.0642304044587181   -0.08603990647999898   -0.012869154503335933
-0.029899911125124804   -0.044322128031742715   -0.009300212111407847
-0.04825509047549549   -0.04688475786158333   -0.009797270967101522
-0.0642304044587181   -0.08603990647999898   -0.012869154503335933
-0.041290568499734386   -0.08488935006220256   -0.01124146446865478
-0.029899911125124804   -0.044322128031742715   -0.009300212111407847
-0.04138881236796908   -0.08554596574838992   -0.010521288488013852
-0.04825509047549549   -0.04688475786158333   -0.009797270967101522
-0.02994163714487475   -0.04508167788533764   -0.008373221142416985
-0.04138881236796908   -0.08554596574838992   -0.010521288488013852
-0.029899911125124804   -0.044322128031742715   -0.009300212111407847
-0.04825509047549549   -0.04688475786158333   -0.009797270967101522
-0.04138881236796908   -0.08554596574838992   -0.010521288488013852
-0.06538314262357807   -0.08693684331046296   -0.011743627190779147
-0.0642304044587181   -0.08603990647999898   -0.012869154503335933
-0.04825509047549549   -0.04688475786158333   -0.009797270967101522
-0.04138881236796908   -0.08554596574838992   -0.010521288488013852
-0.0642304044587181   -0.08603990647999898   -0.012869154503335933
-0.029899911125124804   -0.044322128031742715   -0.009300212111407847
-0.04825509047549549   -0.04688475786158333   -0.009797270967101522
-0.06538314262357807   -0.08693684331046296   -0.011743627190779147
-0.02994163714487475   -0.04508167788533764   -0.008373221142416985
-0.04923880638855821   -0.04748238707919875   -0.008321823177521302
-0.06538314262357807   -0.08693684331046296   -0.011743627190779147
-0.04138881236796908   -0.08554596574838992   -0.010521288488013852
-0.02994163714487475   -0.04508167788533764   -0.008373221142416985
-0.04150356176078533   -0.0860023203284284   -0.009852953540351359
-0.04923880638855821   -0.04748238707919875   -0.008321823177521302
-0.030066438928904437   -0.04554412051520607   -0.007482004712672769
-0.04150356176078533   -0.0860023203284284   -0.009852953540351359
-0.02994163714487475   -0.04508167788533764   -0.008373221142416985
-0.04923880638855821   -0.04748238707919875   -0.008321823177521302
-0.04150356176078533   -0.0860023203284284   -0.009852953540351359
-0.06611338097571827   -0.08749861735899427   -0.01069411852317653
-0.06538314262357807   -0.08693684331046296   -0.011743627190779147
-0.04923880638855821   -0.04748238707919875   -0.008321823177521302
-0.04150356176078533   -0.0860023203284284   -0.009852953540351359
-0.06538314262357807   -0.08693684331046296   -0.011743627190779147
-0.02994163714487475   -0.04508167788533764   -0.008373221142416985
-0.04923880638855821   -0.04748238707919875   -0.008321823177521302
-0.06611338097571827   -0.08749861735899427   -0.01069411852317653
-0.030066438928904437   -0.04554412051520607   -0.007482004712672769
-0.05040181274257023   -0.047828148705344076   -0.006978517375538816
-0.06611338097571827   -0.08749861735899427   -0.01069411852317653
-0.04150356176078533   -0.0860023203284284   -0.009852953540351359
-0.030066438928904437   -0.04554412051520607   -0.007482004712672769
-0.041433917920399674   -0.08630165200251853   -0.009225433987011962
-0.05040181274257023   -0.047828148705344076   -0.006978517375538816
-0.029983999200606622   -0.045783125539287595   -0.006647380242806066
-0.041433917920399674   -0.08630165200251853   -0.009225433987011962
-0.030066438928904437   -0.04554412051520607   -0.007482004712672769
-0.05040181274257023   -0.047828148705344076   -0.006978517375538816
-0.041433917920399674   -0.08630165200251853   -0.009225433987011962
-0.06694425033959618   -0.08790116336857745   -0.009727730699655678
-0.06611338097571827   -0.08749861735899427   -0.01069411852317653
-0.05040181274257023   -0.047828148705344076   -0.006978517375538816
-0.041433917920399674   -0.08630165200251853   -0.009225433987011962
-0.06611338097571827   -0.08749861735899427   -0.01069411852317653
-0.030066438928904437   -0.04554412051520607   -0.007482004712672769
-0.029899911125124804   -0.044322128031742715   -0.009300212111407847
-0.041290568499734386   -0.08488935006220256   -0.01124146446865478
-0.013862382189555711   -0.04362260609828714   -0.007932093743874914
-0.02994163714487475   -0.04508167788533764   -0.008373221142416985
-0.041290568499734386   -0.08488935006220256   -0.01124146446865478
-0.01965081291038106   -0.08431632104582455   -0.010110293697380103
-0.013862382189555711   -0.04362260609828714   -0.007932093743874914
-0.0196092722366743   -0.0847367263490346   -0.00970401374316624
-0.02994163714487475   -0.04508167788533764   -0.008373221142416985
-0.013749324569265517   -0.04410657658913594   -0.007457660970899882
-0.0196092722366743   -0.0847367263490346   -0.00970401374316624
-0.013862382189555711   -0.04362260609828714   -0.007932093743874914
-0.02994163714487475   -0.04508167788533764   -0.008373221142416985
-0.0196092722366743   -0.0847367263490346   -0.00970401374316624
-0.04138881236796908   -0.08554596574838992   -0.010521288488013852
-0.041290568499734386   -0.08488935006220256   -0.01124146446865478
-0.02994163714487475   -0.04508167788533764   -0.008373221142416985
-0.0196092722366743   -0.0847367263490346   -0.00970401374316624
-0.041290568499734386   -0.08488935006220256   -0.01124146446865478
-0.013862382189555711   -0.04362260609828714   -0.007932093743874914
-0.02994163714487475   -0.04508167788533764   -0.008373221142416985
-0.04138881236796908   -0.08554596574838992   -0.010521288488013852
-0.013749324569265517   -0.04410657658913594   -0.007457660970899882
-0.030066438928904437   -0.04554412051520607   -0.007482004712672769
-0.04138881236796908   -0.08554596574838992   -0.010521288488013852
-0.0196092722366743   -0.0847367263490346   -0.00970401374316624
-0.013749324569265517   -0.04410657658913594   -0.007457660970899882
-0.019556616709033737   -0.08498343945887152   -0.009347145341299316
-0.030066438928904437   -0.04554412051520607   -0.007482004712672769
-0.013649873681272788   -0.044341083308434934   -0.007027300856832877
-0.019556616709033737   -0.08498343945887152   -0.009347145341299316
-0.013749324569265517   -0.04410657658913594   -0.007457660970899882
-0.030066438928904437   -0.04554412051520607   -0.007482004712672769
-0.019556616709033737   -0.08498343945887152   -0.009347145341299316
-0.04150356176078533   -0.0860023203284284   -0.009852953540351359
-0.04138881236796908   -0.08554596574838992   -0.010521288488013852
-0.030066438928904437   -0.04554412051520607   -0.007482004712672769
-0.019556616709033737   -0.08498343945887152   -0.009347145341299316
-0.04138881236796908   -0.08554596574838992   -0.010521288488013852
-0.013749324569265517   -0.04410657658913594   -0.007457660970899882
-0.030066438928904437   -0.04554412051520607   -0.007482004712672769
-0.04150356176078533   -0.0860023203284284   -0.009852953540351359
-0.013649873681272788   -0.044341083308434934   -0.007027300856832877
-0.029983999200606622   -0.045783125539287595   -0.006647380242806066
-0.04150356176078533   -0.0860023203284284   -0.009852953540351359
-0.019556616709033737   -0.08498343945887152   -0.009347145341299316
-0.013649873681272788   -0.044341083308434934   -0.007027300856832877
-0.019465259204841844   -0.08505998899471875   -0.009039519455582018
-0.029983999200606622   -0.045783125539287595   -0.006647380242806066
-0.0134984132264053   -0.04433498242788622   -0.006652292797583143
-0.019465259204841844   -0.08505998899471875   -0.009039519455582018
-0.013649873681272788   -0.044341083308434934   -0.007027300856832877
-0.029983999200606622   -0.045783125539287595   -0.006647380242806066
-0.019465259204841844   -0.08505998899471875   -0.009039519455582018
-0.041433917920399674   -0.08630165200251853   -0.009225433987011962
-0.04150356176078533   -0.0860023203284284   -0.009852953540351359
-0.029983999200606622   -0.045783125539287595   -0.006647380242806066
-0.019465259204841844   -0.08505998899471875   -0.009039519455582018
-0.04150356176078533   -0.0860023203284284   -0.009852953540351359
-0.013649873681272788   -0.044341083308434934   -0.007027300856832877
-0.013862382189555711   -0.04362260609828714   -0.007932093743874914
-0.01965081291038106   -0.08431632104582455   -0.010110293697380103
0.001606834635807068   -0.043643041334456435   -0.007065774641443662
-0.013749324569265517   -0.04410657658913594   -0.007457660970899882
-0.01965081291038106   -0.08431632104582455   -0.010110293697380103
0.001356660469397081   -0.08428594508617822   -0.00940753106168416
0.001606834635807068   -0.043643041334456435   -0.007065774641443662
0.0014392251404213524   -0.08447402937244872   -0.009313416705200294
-0.013749324569265517   -0.04410657658913594   -0.007457660970899882
0.0017469353250439976   -0.043873182705222565   -0.007035569595038952
0.0014392251404213524   -0.08447402937244872   -0.009313416705200294
0.001606834635807068   -0.043643041334456435   -0.007065774641443662
-0.013749324569265517   -0.04410657658913594   -0.007457660970899882
0.0014392251404213524   -0.08447402937244872   -0.009313416705200294
-0.0196092722366743   -0.0847367263490346   -0.00970401374316624
-0.01965081291038106   -0.08431632104582455   -0.010110293697380103
-0.013749324569265517   -0.04410657658913594   -0.007457660970899882
0.0014392251404213524   -0.08447402937244872   -0.009313416705200294
-0.01965081291038106   -0.08431632104582455   -0.010110293697380103
0.001606834635807068   -0.043643041334456435   -0.007065774641443662
-0.013749324569265517   -0.04410657658913594   -0.007457660970899882
-0.0196092722366743   -0.0847367263490346   -0.00970401374316624
0.0017469353250439976   -0.043873182705222565   -0.007035569595038952
-0.013649873681272788   -0.044341083308434934   -0.007027300856832877
-0.0196092722366743   -0.0847367263490346   -0.00970401374316624
0.0014392251404213524   -0.08447402937244872   -0.009313416705200294
0.0017469353250439976   -0.043873182705222565   -0.007035569595038952
0.0014894200216033276   -0.08448913369173465   -0.00926739752344345
-0.013649873681272788   -0.044341083308434934   -0.007027300856832877
0.0018391266742835233   -0.04385973086922265   -0.007055411206212039
0.0014894200216033276   -0.08448913369173465   -0.00926739752344345
0.0017469353250439976   -0.043873182705222565   -0.007035569595038952
-0.013649873681272788   -0.044341083308434934   -0.007027300856832877
0.0014894200216033276   -0.08448913369173465   -0.00926739752344345
-0.019556616709033737   -0.08498343945887152   -0.009347145341299316
-0.0196092722366743   -0.0847367263490346   -0.00970401374316624
-0.013649873681272788   -0.044341083308434934   -0.007027300856832877
0.0014894200216033276   -0.08448913369173465   -0.00926739752344345
-0.0196092722366743   -0.0847367263490346   -0.00970401374316624
0.0017469353250439976   -0.043873182705222565   -0.007035569595038952
-0.013649873681272788   -0.044341083308434934   -0.007027300856832877
-0.019556616709033737   -0.08498343945887152   -0.009347145341299316
0.0018391266742835233   -0.04385973086922265   -0.007055411206212039
-0.0134984132264053   -0.04433498242788622   -0.006652292797583143
-0.019556616709033737   -0.08498343945887152   -0.009347145341299316
0.0014894200216033276   -0.08448913369173465   -0.00926739752344345
0.0018391266742835233   -0.04385973086922265   -0.007055411206212039
0.001523520756938544   -0.0843286688508451   -0.009272425079313414
-0.0134984132264053   -0.04433498242788622   -0.006652292797583143
0.0019385214616874308   -0.04359522060264689   -0.007126099061531619
0.001523520756938544   -0.0843286688508451   -0.009272425079313414
0.0018391266742835233   -0.04385973086922265   -0.007055411206212039
-0.0134984132264053   -0.04433498242788622   -0.006652292797583143
0.001523520756938544   -0.0843286688508451   -0.009272425079313414
-0.019465259204841844   -0.08505998899471875   -0.009039519455582018
-0.019556616709033737   -0.08498343945887152   -0.009347145341299316
-0.0134984132264053   -0.04433498242788622   -0.006652292797583143
0.001523520756938544   -0.0843286688508451   -0.009272425079313414
-0.019556616709033737   -0.08498343945887152   -0.009347145341299316
0.0018391266742835233   -0.04385973086922265   -0.007055411206212039
0.001606834635807068   -0.043643041334456435   -0.007065774641443662
0.001356660469397081   -0.08428594508617822   -0.00940753106168416
0.017996243533439565   -0.044357318645577834   -0.00665952531288106
0.0017469353250439976   -0.043873182705222565   -0.007035569595038952
0.001356660469397081   -0.08428594508617822   -0.00940753106168416
0.023258593116096023   -0.08476603397106394   -0.00912094868035893
0.017996243533439565   -0.044357318645577834   -0.00665952531288106
0.023328979174235286   -0.08474143962409199   -0.009345543920883478
0.0017469353250439976   -0.043873182705222565   -0.007035569595038952
0.01807187296371156   -0.04435710519014988   -0.007087999042978303
0.023328979174235286   -0.08474143962409199   -0.009345543920883478
0.017996243533439565   -0.044357318645577834   -0.00665952531288106
0.0017469353250439976   -0.043873182705222565   -0.007035569595038952
0.023328979174235286   -0.08474143962409199   -0.009345543920883478
0.0014392251404213524   -0.08447402937244872   -0.009313416705200294
0.001356660469397081   -0.08428594508617822   -0.00940753106168416
0.0017469353250439976   -0.043873182705222565   -0.007035569595038952
0.023328979174235286   -0.08474143962409199   -0.009345543920883478
0.001356660469397081   -0.08428594508617822   -0.00940753106168416
0.017996243533439565   -0.044357318645577834   -0.00665952531288106
0.0017469353250439976   -0.043873182705222565   -0.007035569595038952
0.0014392251404213524   -0.08447402937244872   -0.009313416705200294
0.01807187296371156   -0.04435710519014988   -0.007087999042978303
0.0018391266742835233   -0.04385973086922265   -0.007055411206212039
0.0014392251404213524   -0.08447402937244872   -0.009313416705200294
0.023328979174235286   -0.08474143962409199   -0.009345543920883478
0.01807187296371156   -0.04435710519014988   -0.007087999042978303
0.023261323369775395   -0.0845473268828825   -0.009614700217779269
0.0018391266742835233   -0.04385973086922265   -0.007055411206212039
0.017981138000581924   -0.04411783810098099   -0.007573100547477724
0.023261323369775395   -0.0845473268828825   -0.009614700217779269
0.01807187296371156   -0.04435710519014988   -0.007087999042978303
0.0018391266742835233   -0.04385973086922265   -0.007055411206212039
0.023261323369775395   -0.0845473268828825   -0.009614700217779269
0.0014894200216033276   -0.08448913369173465   -0.00926739752344345
0.0014392251404213524   -0.08447402937244872   -0.009313416705200294
0.0018391266742835233   -0.04385973086922265   -0.007055411206212039
0.023261323369775395   -0.0845473268828825   -0.009614700217779269
0.0014392251404213524   -0.08447402937244872   -0.009313416705200294
0.01807187296371156   -0.04435710519014988   -0.007087999042978303
0.0018391266742835233   -0.04385973086922265   -0.007055411206212039
0.0014894200216033276   -0.08448913369173465   -0.00926739752344345
0.017981138000581924   -0.04411783810098099   -0.007573100547477724
0.0019385214616874308   -0.04359522060264689   -0.007126099061531619
0.0014894200216033276   -0.08448913369173465   -0.00926739752344345
0.023261323369775395   -0.0845473268828825   -0.009614700217779269
0.017981138000581924   -0.04411783810098099   -0.007573100547477724
0.023164789922962357   -0.08414199565860019   -0.009933674002912918
0.0019385214616874308   -0.04359522060264689   -0.007126099061531619
0.017926520568847665   -0.04357380824296671   -0.008096906585521375
0.023164789922962357   -0.08414199565860019   -0.009933674002912918
0.017981138000581924   -0.04411783810098099   -0.007573100547477724
0.0019385214616874308   -0.04359522060264689   -0.007126099061531619
0.023164789922962357   -0.08414199565860019   -0.009933674002912918
0.001523520756938544   -0.0843286688508451   -0.009272425079313414
0.0014894200216033276   -0.08448913369173465   -0.00926739752344345
0.0019385214616874308   -0.04359522060264689   -0.007126099061531619
0.023164789922962357   -0.08414199565860019   -0.009933674002912918
0.0014894200216033276   -0.08448913369173465   -0.00926739752344345
0.017981138000581924   -0.04411783810098099   -0.007573100547477724
0.017996243533439565   -0.044357318645577834   -0.00665952531288106
0.023258593116096023   -0.08476603397106394   -0.00912094868035893
0.03776421674391128   -0.04568626010029015   -0.006546086991845147
0.01807187296371156   -0.04435710519014988   -0.007087999042978303
0.023258593116096023   -0.08476603397106394   -0.00912094868035893
0.04819717024134073   -0.0856384886840199   -0.009120857471148873
0.03776421674391128   -0.04568626010029015   -0.006546086991845147
0.04776555274633553   -0.08549176429940437   -0.009705991189300281
0.01807187296371156   -0.04435710519014988   -0.007087999042978303
0.03698533098999791   -0.04556405500009329   -0.0075090755917199496
0.04776555274633553   -0.08549176429940437   -0.009705991189300281
0.03776421674391128   -0.04568626010029015   -0.006546086991845147
0.01807187296371156   -0.04435710519014988   -0.007087999042978303
0.04776555274633553   -0.08549176429940437   -0.009705991189300281
0.023328979174235286   -0.08474143962409199   -0.009345543920883478
0.023258593116096023   -0.08476603397106394   -0.00912094868035893
0.01807187296371156   -0.04435710519014988   -0.007087999042978303
0.04776555274633553   -0.08549176429940437   -0.009705991189300281
0.023258593116096023   -0.08476603397106394   -0.00912094868035893
0.03776421674391128   -0.04568626010029015   -0.006546086991845147
0.01807187296371156   -0.04435710519014988   -0.007087999042978303
0.023328979174235286   -0.08474143962409199   -0.009345543920883478
0.03698533098999791   -0.04556405500009329   -0.0075090755917199496
0.017981138000581924   -0.04411783810098099   -0.007573100547477724
0.023328979174235286   -0.08474143962409199   -0.009345543920883478
0.04776555274633553   -0.08549176429940437   -0.009705991189300281
0.03698533098999791   -0.04556405500009329   -0.0075090755917199496
0.047336442600150484   -0.08519241837865077   -0.010371473230985596
0.017981138000581924   -0.04411783810098099   -0.007573100547477724
0.036290157786094415   -0.045194800371269765   -0.00859129780396688
0.047336442600150484   -0.08519241837865077   -0.010371473230985596
0.03698533098999791   -0.04556405500009329   -0.0075090755917199496
0.017981138000581924   -0.04411783810098099   -0.007573100547477724
0.047336442600150484   -0.08519241837865077   -0.010371473230985596
0.023261323369775395   -0.0845473268828825   -0.009614700217779269
0.023328979174235286   -0.08474143962409199   -0.009345543920883478
0.017981138000581924   -0.04411783810098099   -0.007573100547477724
0.047336442600150484   -0.08519241837865077   -0.010371473230985596
0.023328979174235286   -0.08474143962409199   -0.009345543920883478
0.03698533098999791   -0.04556405500009329   -0.0075090755917199496
0.017981138000581924   -0.04411783810098099   -0.007573100547477724
0.023261323369775395   -0.0845473268828825   -0.009614700217779269
0.036290157786094415   -0.045194800371269765   -0.00859129780396688
0.017926520568847665   -0.04357380824296671   -0.008096906585521375
0.023261323369775395   -0.0845473268828825   -0.009614700217779269
0.047336442600150484   -0.08519241837865077   -0.010371473230985596
0.036290157786094415   -0.045194800371269765   -0.00859129780396688
0.046582054886345835   -0.08456189895554013   -0.01111738610172336
0.017926520568847665   -0.04357380824296671   -0.008096906585521375
0.03525296909679666   -0.044370920666967795   -0.009717170232785233
0.046582054886345835   -0.08456189895554013   -0.01111738610172336
0.036290157786094415   -0.045194800371269765   -0.00859129780396688
0.017926520568847665   -0.04357380824296671   -0.008096906585521375
0.046582054886345835   -0.08456189895554013   -0.01111738610172336
0.023164789922962357   -0.08414199565860019   -0.009933674002912918
0.023261323369775395   -0.0845473268828825   -0.009614700217779269
0.017926520568847665   -0.04357380824296671   -0.008096906585521375
0.046582054886345835   -0.08456189895554013   -0.01111738610172336
0.023261323369775395   -0.0845473268828825   -0.009614700217779269
0.036290157786094415   -0.045194800371269765   -0.00859129780396688
-0.0642304044587181   -0.08603990647999898   -0.012869154503335933
-0.07675397395021716   -0.13378214201085087   -0.013717090381598468
-0.041290568499734386   -0.08488935006220256   -0.01124146446865478
-0.06538314262357807   -0.08693684331046296   -0.011743627190779147
-0.07675397395021716   -0.13378214201085087   -0.013717090381598468
-0.049806697487499836   -0.1330485789628513   -0.012387428746984898
-0.041290568499734386   -0.08488935006220256   -0.01124146446865478
-0.04987416136957659   -0.13361441423206136   -0.01187118497706539
-0.06538314262357807   -0.08693684331046296   -0.011743627190779147
-0.04138881236796908   -0.08554596574838992   -0.010521288488013852
-0.04987416136957659   -0.13361441423206136   -0.01187118497706539
-0.041290568499734386   -0.08488935006220256   -0.01124146446865478
-0.06538314262357807   -0.08693684331046296   -0.011743627190779147
-0.04987416136957659   -0.13361441423206136   -0.01187118497706539
-0.07753479196967684   -0.13454727374918002   -0.0129678765101359
-0.07675397395021716   -0.13378214201085087   -0.013717090381598468
-0.06538314262357807   -0.08693684331046296   -0.011743627190779147
-0.04987416136957659   -0.13361441423206136   -0.01187118497706539
-0.07675397395021716   -0.13378214201085087   -0.013717090381598468
-0.041290568499734386   -0.08488935006220256   -0.01124146446865478
-0.06538314262357807   -0.08693684331046296   -0.011743627190779147
-0.07753479196967684   -0.13454727374918002   -0.0129678765101359
-0.04138881236796908   -0.08554596574838992   -0.010521288488013852
-0.06611338097571827   -0.08749861735899427   -0.01069411852317653
-0.07753479196967684   -0.13454727374918002   -0.0129678765101359
-0.04987416136957659   -0.13361441423206136   -0.01187118497706539
-0.04138881236796908   -0.08554596574838992   -0.010521288488013852
-0.04992470788835305   -0.13406238291368705   -0.01140625305699179
-0.06611338097571827   -0.08749861735899427   -0.01069411852317653
-0.04150356176078533   -0.0860023203284284   -0.009852953540351359
-0.04992470788835305   -0.13406238291368705   -0.01140625305699179
-0.04138881236796908   -0.08554596574838992   -0.010521288488013852
-0.06611338097571827   -0.08749861735899427   -0.01069411852317653
-0.04992470788835305   -0.13406238291368705   -0.01140625305699179
-0.07798654430539784   -0.13508787454513466   -0.012290234658523688
-0.07753479196967684   -0.13454727374918002   -0.0129678765101359
-0.06611338097571827   -0.08749861735899427   -0.01069411852317653
-0.04992470788835305   -0.13406238291368705   -0.01140625305699179
-0.07753479196967684   -0.13454727374918002   -0.0129678765101359
-0.04138881236796908   -0.08554596574838992   -0.010521288488013852
-0.06611338097571827   -0.08749861735899427   -0.01069411852317653
-0.07798654430539784   -0.13508787454513466   -0.012290234658523688
-0.04150356176078533   -0.0860023203284284   -0.009852953540351359
-0.06694425033959618   -0.08790116336857745   -0.009727730699655678
-0.07798654430539784   -0.13508787454513466   -0.012290234658523688
-0.04992470788835305   -0.13406238291368705   -0.01140625305699179
-0.04150356176078533   -0.0860023203284284   -0.009852953540351359
-0.04982905931656861   -0.13442956708230824   -0.010985859416746098
-0.06694425033959618   -0.08790116336857745   -0.009727730699655678
-0.041433917920399674   -0.08630165200251853   -0.009225433987011962
-0.04982905931656861   -0.13442956708230824   -0.010985859416746098
-0.04150356176078533   -0.0860023203284284   -0.009852953540351359
-0.06694425033959618   -0.08790116336857745   -0.009727730699655678
-0.04982905931656861   -0.13442956708230824   -0.010985859416746098
-0.07845249651444358   -0.13557119585176683   -0.011692628813900074
-0.07798654430539784   -0.13508787454513466   -0.012290234658523688
-0.06694425033959618   -0.08790116336857745   -0.009727730699655678
-0.04982905931656861   -0.13442956708230824   -0.010985859416746098
-0.07798654430539784   -0.13508787454513466   -0.012290234658523688
-0.04150356176078533   -0.0860023203284284   -0.009852953540351359
-0.041290568499734386   -0.08488935006220256   -0.01124146446865478
-0.049806697487499836   -0.1330485789628513   -0.012387428746984898
-0.01965081291038106   -0.08431632104582455   -0.010110293697380103
-0.04138881236796908   -0.08554596574838992   -0.010521288488013852
-0.049806697487499836   -0.1330485789628513   -0.012387428746984898
-0.024538028883387342   -0.1326704164067033   -0.011466482627691123
-0.01965081291038106   -0.08431632104582455   -0.010110293697380103
-0.024498754821996573   -0.1330260034305896   -0.011126496459717646
-0.04138881236796908   -0.08554596574838992   -0.010521288488013852
-0.0196092722366743   -0.0847367263490346   -0.00970401374316624
-0.024498754821996573   -0.1330260034305896   -0.011126496459717646
-0.01965081291038106   -0.08431632104582455   -0.010110293697380103
-0.04138881236796908   -0.08554596574838992   -0.010521288488013852
-0.024498754821996573   -0.1330260034305896   -0.011126496459717646
-0.04987416136957659   -0.13361441423206136   -0.01187118497706539
-0.049806697487499836   -0.1330485789628513   -0.012387428746984898
-0.04138881236796908   -0.08554596574838992   -0.010521288488013852
-0.024498754821996573   -0.1330260034305896   -0.011126496459717646
-0.049806697487499836   -0.1330485789628513   -0.012387428746984898
-0.01965081291038106   -0.08431632104582455   -0.010110293697380103
-0.04138881236796908   -0.08554596574838992   -0.010521288488013852
-0.04987416136957659   -0.13361441423206136   -0.01187118497706539
-0.0196092722366743   -0.0847367263490346   -0.00970401374316624
-0.04150356176078533   -0.0860023203284284   -0.009852953540351359
-0.04987416136957659   -0.13361441423206136   -0.01187118497706539
-0.024498754821996573   -0.1330260034305896   -0.011126496459717646
-0.0196092722366743   -0.0847367263490346   -0.00970401374316624
-0.024442319745063376   -0.13328288541365693   -0.010837088542984999
-0.04150356176078533   -0.0860023203284284   -0.009852953540351359
-0.019556616709033737   -0.08498343945887152   -0.009347145341299316
-0.024442319745063376   -0.13328288541365693   -0.010837088542984999
-0.0196092722366743   -0.0847367263490346   -0.00970401374316624
-0.04150356176078533   -0.0860023203284284   -0.009852953540351359
-0.024442319745063376   -0.13328288541365693   -0.010837088542984999
-0.04992470788835305   -0.13406238291368705   -0.01140625305699179
-0.04987416136957659   -0.13361441423206136   -0.01187118497706539
-0.04150356176078533   -0.0860023203284284   -0.009852953540351359
-0.024442319745063376   -0.13328288541365693   -0.010837088542984999
-0.04987416136957659   -0.13361441423206136   -0.01187118497706539
-0.0196092722366743   -0.0847367263490346   -0.00970401374316624
-0.04150356176078533   -0.0860023203284284   -0.009852953540351359
-0.04992470788835305   -0.13406238291368705   -0.01140625305699179
-0.019556616709033737   -0.08498343945887152   -0.009347145341299316
-0.041433917920399674   -0.08630165200251853   -0.009225433987011962
-0.04992470788835305   -0.13406238291368705   -0.01140625305699179
-0.024442319745063376   -0.13328288541365693   -0.010837088542984999
-0.019556616709033737   -0.08498343945887152   -0.009347145341299316
-0.02435462734478589   -0.13344273833605838   -0.010599069718600782
-0.041433917920399674   -0.08630165200251853   -0.009225433987011962
-0.019465259204841844   -0.08505998899471875   -0.009039519455582018
-0.02435462734478589   -0.13344273833605838   -0.010599069718600782
-0.019556616709033737   -0.08498343945887152   -0.009347145341299316
-0.041433917920399674   -0.08630165200251853   -0.009225433987011962
-0.02435462734478589   -0.13344273833605838   -0.010599069718600782
-0.04982905931656861   -0.13442956708230824   -0.010985859416746098
-0.04992470788835305   -0.13406238291368705   -0.01140625305699179
-0.041433917920399674   -0.08630165200251853   -0.009225433987011962
-0.02435462734478589   -0.13344273833605838   -0.010599069718600782
-0.04992470788835305   -0.13406238291368705   -0.01140625305699179
-0.019556616709033737   -0.08498343945887152   -0.009347145341299316
-0.01965081291038106   -0.08431632104582455   -0.010110293697380103
-0.024538028883387342   -0.1326704164067033   -0.011466482627691123
0.001356660469397081   -0.08428594508617822   -0.00940753106168416
-0.0196092722366743   -0.0847367263490346   -0.00970401374316624
-0.024538028883387342   -0.1326704164067033   -0.011466482627691123
4.626021984530274e-05   -0.13260599049305838   -0.010928620600256256
0.001356660469397081   -0.08428594508617822   -0.00940753106168416
0.00012651833181162334   -0.13275042381479363   -0.010766172774080764
-0.0196092722366743   -0.0847367263490346   -0.00970401374316624
0.0014392251404213524   -0.08447402937244872   -0.009313416705200294
0.00012651833181162334   -0.13275042381479363   -0.010766172774080764
0.001356660469397081   -0.08428594508617822   -0.00940753106168416
-0.0196092722366743   -0.0847367263490346   -0.00970401374316624
0.00012651833181162334   -0.13275042381479363   -0.010766172774080764
-0.024498754821996573   -0.1330260034305896   -0.011126496459717646
-0.024538028883387342   -0.1326704164067033   -0.011466482627691123
-0.0196092722366743   -0.0847367263490346   -0.00970401374316624
0.00012651833181162334   -0.13275042381479363   -0.010766172774080764
-0.024538028883387342   -0.1326704164067033   -0.011466482627691123
0.001356660469397081   -0.08428594508617822   -0.00940753106168416
-0.0196092722366743   -0.0847367263490346   -0.00970401374316624
-0.024498754821996573   -0.1330260034305896   -0.011126496459717646
0.0014392251404213524   -0.08447402937244872   -0.009313416705200294
-0.019556616709033737   -0.08498343945887152   -0.009347145341299316
-0.024498754821996573   -0.1330260034305896   -0.011126496459717646
0.00012651833181162334   -0.13275042381479363   -0.010766172774080764
0.0014392251404213524   -0.08447402937244872   -0.009313416705200294
0.00018154251460464476   -0.13279548077220923   -0.010653635915752791
-0.019556616709033737   -0.08498343945887152   -0.009347145341299316
0.0014894200216033276   -0.08448913369173465   -0.00926739752344345
0.00018154251460464476   -0.13279548077220923   -0.010653635915752791
0.0014392251404213524   -0.08447402937244872   -0.009313416705200294
-0.019556616709033737   -0.08498343945887152   -0.009347145341299316
0.00018154251460464476   -0.13279548077220923   -0.010653635915752791
-0.024442319745063376   -0.13328288541365693   -0.010837088542984999
-0.024498754821996573   -0.1330260034305896   -0.011126496459717646
-0.019556616709033737   -0.08498343945887152   -0.009347145341299316
0.00018154251460464476   -0.13279548077220923   -0.010653635915752791
-0.024498754821996573   -0.1330260034305896   -0.011126496459717646
0.0014392251404213524   -0.08447402937244872   -0.009313416705200294
-0.019556616709033737   -0.08498343945887152   -0.009347145341299316
-0.024442319745063376   -0.13328288541365693   -0.010837088542984999
0.0014894200216033276   -0.08448913369173465   -0.00926739752344345
-0.019465259204841844   -0.08505998899471875   -0.009039519455582018
-0.024442319745063376   -0.13328288541365693   -0.010837088542984999
0.00018154251460464476   -0.13279548077220923   -0.010653635915752791
0.0014894200216033276   -0.08448913369173465   -0.00926739752344345
0.00021365454994122634   -0.1327398049851356   -0.010593240863843828
-0.019465259204841844   -0.08505998899471875   -0.009039519455582018
0.001523520756938544   -0.0843286688508451   -0.009272425079313414
0.00021365454994122634   -0.1327398049851356   -0.010593240863843828
0.0014894200216033276   -0.08448913369173465   -0.00926739752344345
-0.019465259204841844   -0.08505998899471875   -0.009039519455582018
0.00021365454994122634   -0.1327398049851356   -0.010593240863843828
-0.02435462734478589   -0.13344273833605838   -0.010599069718600782
-0.024442319745063376   -0.13328288541365693   -0.010837088542984999
-0.019465259204841844   -0.08505998899471875   -0.009039519455582018
0.00021365454994122634   -0.1327398049851356   -0.010593240863843828
-0.024442319745063376   -0.13328288541365693   -0.010837088542984999
0.0014894200216033276   -0.08448913369173465   -0.00926739752344345
0.001356660469397081   -0.08428594508617822   -0.00940753106168416
4.626021984530274e-05   -0.13260599049305838   -0.010928620600256256
0.023258593116096023   -0.08476603397106394   -0.00912094868035893
0.0014392251404213524   -0.08447402937244872   -0.009313416705200294
4.626021984530274e-05   -0.13260599049305838   -0.010928620600256256
0.025475526362048178   -0.13282868173951828   -0.010771398671556789
0.023258593116096023   -0.08476603397106394   -0.00912094868035893
0.02557480522839672   -0.13277446762375872   -0.010790289427970067
0.0014392251404213524   -0.08447402937244872   -0.009313416705200294
0.023328979174235286   -0.08474143962409199   -0.009345543920883478
0.02557480522839672   -0.13277446762375872   -0.010790289427970067
0.023258593116096023   -0.08476603397106394   -0.00912094868035893
0.0014392251404213524   -0.08447402937244872   -0.009313416705200294
0.02557480522839672   -0.13277446762375872   -0.010790289427970067
0.00012651833181162334   -0.13275042381479363   -0.010766172774080764
4.626021984530274e-05   -0.13260599049305838   -0.010928620600256256
0.0014392251404213524   -0.08447402937244872   -0.009313416705200294
0.02557480522839672   -0.13277446762375872   -0.010790289427970067
4.626021984530274e-05   -0.13260599049305838   -0.010928620600256256
0.023258593116096023   -0.08476603397106394   -0.00912094868035893
0.0014392251404213524   -0.08447402937244872   -0.009313416705200294
0.00012651833181162334   -0.13275042381479363   -0.010766172774080764
0.023328979174235286   -0.08474143962409199   -0.009345543920883478
0.0014894200216033276   -0.08448913369173465   -0.00926739752344345
0.00012651833181162334   -0.13275042381479363   -0.010766172774080764
0.02557480522839672   -0.13277446762375872   -0.010790289427970067
0.023328979174235286   -0.08474143962409199   -0.009345543920883478
0.02557460072541918   -0.1326281982665366   -0.010856423948264523
0.0014894200216033276   -0.08448913369173465   -0.00926739752344345
0.023261323369775395   -0.0845473268828825   -0.009614700217779269
0.02557460072541918   -0.1326281982665366   -0.010856423948264523
0.023328979174235286   -0.08474143962409199   -0.009345543920883478
0.0014894200216033276   -0.08448913369173465   -0.00926739752344345
0.02557460072541918   -0.1326281982665366   -0.010856423948264523
0.00018154251460464476   -0.13279548077220923   -0.010653635915752791
0.00012651833181162334   -0.13275042381479363   -0.010766172774080764
0.0014894200216033276   -0.08448913369173465   -0.00926739752344345
0.02557460072541918   -0.1326281982665366   -0.010856423948264523
0.00012651833181162334   -0.13275042381479363   -0.010766172774080764
0.023328979174235286   -0.08474143962409199   -0.009345543920883478
0.0014894200216033276   -0.08448913369173465   -0.00926739752344345
0.00018154251460464476   -0.13279548077220923   -0.010653635915752791
0.023261323369775395   -0.0845473268828825   -0.009614700217779269
0.001523520756938544   -0.0843286688508451   -0.009272425079313414
0.00018154251460464476   -0.13279548077220923   -0.010653635915752791
0.02557460072541918   -0.1326281982665366   -0.010856423948264523
0.023261323369775395   -0.0845473268828825   -0.009614700217779269
0.025510915239818518   -0.13235298900229425   -0.010971575479572379
0.001523520756938544   -0.0843286688508451   -0.009272425079313414
0.023164789922962357   -0.08414199565860019   -0.009933674002912918
0.025510915239818518   -0.13235298900229425   -0.010971575479572379
0.023261323369775395   -0.0845473268828825   -0.009614700217779269
0.001523520756938544   -0.0843286688508451   -0.009272425079313414
0.025510915239818518   -0.13235298900229425   -0.010971575479572379
0.00021365454994122634   -0.1327398049851356   -0.010593240863843828
0.00018154251460464476   -0.13279548077220923   -0.010653635915752791
0.001523520756938544   -0.0843286688508451   -0.009272425079313414
0.025510915239818518   -0.13235298900229425   -0.010971575479572379
0.00018154251460464476   -0.13279548077220923   -0.010653635915752791
0.023261323369775395   -0.0845473268828825   -0.009614700217779269
0.023258593116096023   -0.08476603397106394   -0.00912094868035893
0.025475526362048178   -0.13282868173951828   -0.010771398671556789
0.04819717024134073   -0.0856384886840199   -0.009120857471148873
0.023328979174235286   -0.08474143962409199   -0.009345543920883478
0.025475526362048178   -0.13282868173951828   -0.010771398671556789
0.053556472223495466   -0.13323925514657783   -0.010910355451568527
0.04819717024134073   -0.0856384886840199   -0.009120857471148873
0.05349467273448089   -0.13305080112996429   -0.011125770777349912
0.023328979174235286   -0.08474143962409199   -0.009345543920883478
0.04776555274633553   -0.08549176429940437   -0.009705991189300281
0.05349467273448089   -0.13305080112996429   -0.011125770777349912
0.04819717024134073   -0.0856384886840199   -0.009120857471148873
0.023328979174235286   -0.08474143962409199   -0.009345543920883478
0.05349467273448089   -0.13305080112996429   -0.011125770777349912
0.02557480522839672   -0.13277446762375872   -0.010790289427970067
0.025475526362048178   -0.13282868173951828   -0.010771398671556789
0.023328979174235286   -0.08474143962409199   -0.009345543920883478
0.05349467273448089   -0.13305080112996429   -0.011125770777349912
0.025475526362048178   -0.13282868173951828   -0.010771398671556789
0.04819717024134073   -0.0856384886840199   -0.009120857471148873
0.023328979174235286   -0.08474143962409199   -0.009345543920883478
0.02557480522839672   -0.13277446762375872   -0.010790289427970067
0.04776555274633553   -0.08549176429940437   -0.009705991189300281
0.023261323369775395   -0.0845473268828825   -0.009614700217779269
0.02557480522839672   -0.13277446762375872   -0.010790289427970067
0.05349467273448089   -0.13305080112996429   -0.011125770777349912
0.04776555274633553   -0.08549176429940437   -0.009705991189300281
0.0533498084373789   -0.13281158205208507   -0.011417782706203288
0.023261323369775395   -0.0845473268828825   -0.009614700217779269
0.047336442600150484   -0.08519241837865077   -0.010371473230985596
0.0533498084373789   -0.13281158205208507   -0.011417782706203288
0.04776555274633553   -0.08549176429940437   -0.009705991189300281
0.023261323369775395   -0.0845473268828825   -0.009614700217779269
0.0533498084373789   -0.13281158205208507   -0.011417782706203288
0.02557460072541918   -0.1326281982665366   -0.010856423948264523
0.02557480522839672   -0.13277446762375872   -0.010790289427970067
0.023261323369775395   -0.0845473268828825   -0.009614700217779269
0.0533498084373789   -0.13281158205208507   -0.011417782706203288
0.02557480522839672   -0.13277446762375872   -0.010790289427970067
0.04776555274633553   -0.08549176429940437   -0.009705991189300281
0.023261323369775395   -0.0845473268828825   -0.009614700217779269
0.02557460072541918   -0.1326281982665366   -0.010856423948264523
0.047336442600150484   -0.08519241837865077   -0.010371473230985596
0.023164789922962357   -0.08414199565860019   -0.009933674002912918
0.02557460072541918   -0.1326281982665366   -0.010856423948264523
0.0533498084373789   -0.13281158205208507   -0.011417782706203288
0.047336442600150484   -0.08519241837865077   -0.010371473230985596
0.05297258880132305   -0.13235312683021472   -0.01178583696101775
0.023164789922962357   -0.08414199565860019   -0.009933674002912918
0.046582054886345835   -0.08456189895554013   -0.01111738610172336
0.05297258880132305   -0.13235312683021472   -0.01178583696101775
0.047336442600150484   -0.08519241837865077   -0.010371473230985596
0.023164789922962357   -0.08414199565860019   -0.009933674002912918
0.05297258880132305   -0.13235312683021472   -0.01178583696101775
0.025510915239818518   -0.13235298900229425   -0.010971575479572379
0.02557460072541918   -0.1326281982665366   -0.010856423948264523
0.023164789922962357   -0.08414199565860019   -0.009933674002912918
0.05297258880132305   -0.13235312683021472   -0.01178583696101775
0.02557460072541918   -0.1326281982665366   -0.010856423948264523
0.047336442600150484   -0.08519241837865077   -0.010371473230985596
-0.07675397395021716   -0.13378214201085087   -0.013717090381598468
-0.08435982324415964   -0.18580556384314398   -0.013960020433118791
-0.049806697487499836   -0.1330485789628513   -0.012387428746984898
-0.07753479196967684   -0.13454727374918002   -0.0129678765101359
-0.08435982324415964   -0.18580556384314398   -0.013960020433118791
-0.055408446542829864   -0.1855052573696088   -0.012898642851144051
-0.049806697487499836   -0.1330485789628513   -0.012387428746984898
-0.055392729580477966   -0.1859888202463479   -0.012581479883117103
-0.07753479196967684   -0.13454727374918002   -0.0129678765101359
-0.04987416136957659   -0.13361441423206136   -0.01187118497706539
-0.055392729580477966   -0.1859888202463479   -0.012581479883117103
-0.049806697487499836   -0.1330485789628513   -0.012387428746984898
-0.07753479196967684   -0.13454727374918002   -0.0129678765101359
-0.055392729580477966   -0.1859888202463479   -0.012581479883117103
-0.08472911939479379   -0.18645526786253114   -0.013572018003496222
-0.08435982324415964   -0.18580556384314398   -0.013960020433118791
-0.07753479196967684   -0.13454727374918002   -0.0129678765101359
-0.055392729580477966   -0.1859888202463479   -0.012581479883117103
-0.08435982324415964   -0.18580556384314398   -0.013960020433118791
-0.049806697487499836   -0.1330485789628513   -0.012387428746984898
-0.07753479196967684   -0.13454727374918002   -0.0129678765101359
-0.08472911939479379   -0.18645526786253114   -0.013572018003496222
-0.04987416136957659   -0.13361441423206136   -0.01187118497706539
-0.07798654430539784   -0.13508787454513466   -0.012290234658523688
-0.08472911939479379   -0.18645526786253114   -0.013572018003496222
-0.055392729580477966   -0.1859888202463479   -0.012581479883117103
-0.04987416136957659   -0.13361441423206136   -0.01187118497706539
-0.055324800348005465   -0.1864342096014395   -0.012316958447670905
-0.07798654430539784   -0.13508787454513466   -0.012290234658523688
-0.04992470788835305   -0.13406238291368705   -0.01140625305699179
-0.055324800348005465   -0.1864342096014395   -0.012316958447670905
-0.04987416136957659   -0.13361441423206136   -0.01187118497706539
-0.07798654430539784   -0.13508787454513466   -0.012290234658523688
-0.055324800348005465   -0.1864342096014395   -0.012316958447670905
-0.08485190749471805   -0.186984335052949   -0.013259805188343524
-0.08472911939479379   -0.18645526786253114   -0.013572018003496222
-0.07798654430539784   -0.13508787454513466   -0.012290234658523688
-0.055324800348005465   -0.1864342096014395   -0.012316958447670905
-0.08472911939479379   -0.18645526786253114   -0.013572018003496222
-0.04987416136957659   -0.13361441423206136   -0.01187118497706539
-0.07798654430539784   -0.13508787454513466   -0.012290234658523688
-0.08485190749471805   -0.186984335052949   -0.013259805188343524
-0.04992470788835305   -0.13406238291368705   -0.01140625305699179
-0.07845249651444358   -0.13557119585176683   -0.011692628813900074
-0.08485190749471805   -0.186984335052949   -0.013259805188343524
-0.055324800348005465   -0.1864342096014395   -0.012316958447670905
-0.04992470788835305   -0.13406238291368705   -0.01140625305699179
-0.05514779978225714   -0.18687531008133576   -0.012101449449636948
-0.07845249651444358   -0.13557119585176683   -0.011692628813900074
-0.04982905931656861   -0.13442956708230824   -0.010985859416746098
-0.05514779978225714   -0.18687531008133576   -0.012101449449636948
-0.04992470788835305   -0.13406238291368705   -0.01140625305699179
-0.07845249651444358   -0.13557119585176683   -0.011692628813900074
-0.05514779978225714   -0.18687531008133576   -0.012101449449636948
-0.08489879819647483   -0.18755785469071026   -0.01302982466928962
-0.08485190749471805   -0.186984335052949   -0.013259805188343524
-0.07845249651444358   -0.13557119585176683   -0.011692628813900074
-0.05514779978225714   -0.18687531008133576   -0.012101449449636948
-0.08485190749471805   -0.186984335052949   -0.013259805188343524
-0.04992470788835305   -0.13406238291368705   -0.01140625305699179
-0.049806697487499836   -0.1330485789628513   -0.012387428746984898
-0.055408446542829864   -0.1855052573696088   -0.012898642851144051
-0.024538028883387342   -0.1326704164067033   -0.011466482627691123
-0.04987416136957659   -0.13361441423206136   -0.01187118497706539
-0.055408446542829864   -0.1855052573696088   -0.012898642851144051
-0.028513158992773763   -0.1853342762200577   -0.012175850627813135
-0.024538028883387342   -0.1326704164067033   -0.011466482627691123
-0.02841887801842235   -0.18562747723968884   -0.011900327626423277
-0.04987416136957659   -0.13361441423206136   -0.01187118497706539
-0.024498754821996573   -0.1330260034305896   -0.011126496459717646
-0.02841887801842235   -0.18562747723968884   -0.011900327626423277
-0.024538028883387342   -0.1326704164067033   -0.011466482627691123
-0.04987416136957659   -0.13361441423206136   -0.01187118497706539
-0.02841887801842235   -0.18562747723968884   -0.011900327626423277
-0.055392729580477966   -0.1859888202463479   -0.012581479883117103
-0.055408446542829864   -0.1855052573696088   -0.012898642851144051
-0.04987416136957659   -0.13361441423206136   -0.01187118497706539
-0.02841887801842235   -0.18562747723968884   -0.011900327626423277
-0.055408446542829864   -0.1855052573696088   -0.012898642851144051
-0.024538028883387342   -0.1326704164067033   -0.011466482627691123
-0.04987416136957659   -0.13361441423206136   -0.01187118497706539
-0.055392729580477966   -0.1859888202463479   -0.012581479883117103
-0.024498754821996573   -0.1330260034305896   -0.011126496459717646
-0.04992470788835305   -0.13406238291368705   -0.01140625305699179
-0.055392729580477966   -0.1859888202463479   -0.012581479883117103
-0.02841887801842235   -0.18562747723968884   -0.011900327626423277
-0.024498754821996573   -0.1330260034305896   -0.011126496459717646
-0.02830176708040916   -0.18589608256692966   -0.011677521757647694
-0.04992470788835305   -0.13406238291368705   -0.01140625305699179
-0.024442319745063376   -0.13328288541365693   -0.010837088542984999
-0.02830176708040916   -0.18589608256692966   -0.011677521757647694
-0.024498754821996573   -0.1330260034305896   -0.011126496459717646
-0.04992470788835305   -0.13406238291368705   -0.01140625305699179
-0.02830176708040916   -0.18589608256692966   -0.011677521757647694
-0.055324800348005465   -0.1864342096014395   -0.012316958447670905
-0.055392729580477966   -0.1859888202463479   -0.012581479883117103
-0.04992470788835305   -0.13406238291368705   -0.01140625305699179
-0.02830176708040916   -0.18589608256692966   -0.011677521757647694
-0.055392729580477966   -0.1859888202463479   -0.012581479883117103
-0.024498754821996573   -0.1330260034305896   -0.011126496459717646
-0.04992470788835305   -0.13406238291368705   -0.01140625305699179
-0.055324800348005465   -0.1864342096014395   -0.012316958447670905
-0.024442319745063376   -0.13328288541365693   -0.010837088542984999
-0.04982905931656861   -0.13442956708230824   -0.010985859416746098
-0.055324800348005465   -0.1864342096014395   -0.012316958447670905
-0.02830176708040916   -0.18589608256692966   -0.011677521757647694
-0.024442319745063376   -0.13328288541365693   -0.010837088542984999
-0.028159902988648337   -0.18614096349109935   -0.011508669459232197
-0.04982905931656861   -0.13442956708230824   -0.010985859416746098
-0.02435462734478589   -0.13344273833605838   -0.010599069718600782
-0.028159902988648337   -0.18614096349109935   -0.011508669459232197
-0.024442319745063376   -0.13328288541365693   -0.010837088542984999
-0.04982905931656861   -0.13442956708230824   -0.010985859416746098
-0.028159902988648337   -0.18614096349109935   -0.011508669459232197
-0.05514779978225714   -0.18687531008133576   -0.012101449449636948
-0.055324800348005465   -0.1864342096014395   -0.012316958447670905
-0.04982905931656861   -0.13442956708230824   -0.010985859416746098
-0.028159902988648337   -0.18614096349109935   -0.011508669459232197
-0.055324800348005465   -0.1864342096014395   -0.012316958447670905
-0.024442319745063376   -0.13328288541365693   -0.010837088542984999
-0.024538028883387342   -0.1326704164067033   -0.011466482627691123
-0.028513158992773763   -0.1853342762200577   -0.012175850627813135
4.626021984530274e-05   -0.13260599049305838   -0.010928620600256256
-0.024498754821996573   -0.1330260034305896   -0.011126496459717646
-0.028513158992773763   -0.1853342762200577   -0.012175850627813135
-0.002345285209667449   -0.1852372314324063   -0.011800367320297524
4.626021984530274e-05   -0.13260599049305838   -0.010928620600256256
-0.0022112891270994217   -0.18533679528412522   -0.01156916489276232
-0.024498754821996573   -0.1330260034305896   -0.011126496459717646
0.00012651833181162334   -0.13275042381479363   -0.010766172774080764
-0.0022112891270994217   -0.18533679528412522   -0.01156916489276232
4.626021984530274e-05   -0.13260599049305838   -0.010928620600256256
-0.024498754821996573   -0.1330260034305896   -0.011126496459717646
-0.0022112891270994217   -0.18533679528412522   -0.01156916489276232
-0.02841887801842235   -0.18562747723968884   -0.011900327626423277
-0.028513158992773763   -0.1853342762200577   -0.012175850627813135
-0.024498754821996573   -0.1330260034305896   -0.011126496459717646
-0.0022112891270994217   -0.18533679528412522   -0.01156916489276232
-0.028513158992773763   -0.1853342762200577   -0.012175850627813135
4.626021984530274e-05   -0.13260599049305838   -0.010928620600256256
-0.024498754821996573   -0.1330260034305896   -0.011126496459717646
-0.02841887801842235   -0.18562747723968884   -0.011900327626423277
0.00012651833181162334   -0.13275042381479363   -0.010766172774080764
-0.024442319745063376   -0.13328288541365693   -0.010837088542984999
-0.02841887801842235   -0.18562747723968884   -0.011900327626423277
-0.0022112891270994217   -0.18533679528412522   -0.01156916489276232
0.00012651833181162334   -0.13275042381479363   -0.010766172774080764
-0.0020960393757779674   -0.18541005565566948   -0.011390198370365926
-0.024442319745063376   -0.13328288541365693   -0.010837088542984999
0.00018154251460464476   -0.13279548077220923   -0.010653635915752791
-0.0020960393757779674   -0.18541005565566948   -0.011390198370365926
0.00012651833181162334   -0.13275042381479363   -0.010766172774080764
-0.024442319745063376   -0.13328288541365693   -0.010837088542984999
-0.0020960393757779674   -0.18541005565566948   -0.011390198370365926
-0.02830176708040916   -0.18589608256692966   -0.011677521757647694
-0.02841887801842235   -0.18562747723968884   -0.011900327626423277
-0.024442319745063376   -0.13328288541365693   -0.010837088542984999
-0.0020960393757779674   -0.18541005565566948   -0.011390198370365926
-0.02841887801842235   -0.18562747723968884   -0.011900327626423277
0.00012651833181162334   -0.13275042381479363   -0.010766172774080764
-0.024442319745063376   -0.13328288541365693   -0.010837088542984999
-0.02830176708040916   -0.18589608256692966   -0.011677521757647694
0.00018154251460464476   -0.13279548077220923   -0.010653635915752791
-0.02435462734478589   -0.13344273833605838   -0.010599069718600782
-0.02830176708040916   -0.18589608256692966   -0.011677521757647694
-0.0020960393757779674   -0.18541005565566948   -0.011390198370365926
0.00018154251460464476   -0.13279548077220923   -0.010653635915752791
-0.0020097519047301243   -0.1854566568219517   -0.011265389025520826
-0.02435462734478589   -0.13344273833605838   -0.010599069718600782
0.00021365454994122634   -0.1327398049851356   -0.010593240863843828
-0.0020097519047301243   -0.1854566568219517   -0.011265389025520826
0.00018154251460464476   -0.13279548077220923   -0.010653635915752791
-0.02435462734478589   -0.13344273833605838   -0.010599069718600782
-0.0020097519047301243   -0.1854566568219517   -0.011265389025520826
-0.028159902988648337   -0.18614096349109935   -0.011508669459232197
-0.02830176708040916   -0.18589608256692966   -0.011677521757647694
-0.02435462734478589   -0.13344273833605838   -0.010599069718600782
-0.0020097519047301243   -0.1854566568219517   -0.011265389025520826
-0.02830176708040916   -0.18589608256692966   -0.011677521757647694
0.00018154251460464476   -0.13279548077220923   -0.010653635915752791
4.626021984530274e-05   -0.13260599049305838   -0.010928620600256256
-0.002345285209667449   -0.1852372314324063   -0.011800367320297524
0.025475526362048178   -0.13282868173951828   -0.010771398671556789
0.00012651833181162334   -0.13275042381479363   -0.010766172774080764
-0.002345285209667449   -0.1852372314324063   -0.011800367320297524
0.024622617798729644   -0.185197453276427   -0.011775222187993609
0.025475526362048178   -0.13282868173951828   -0.010771398671556789
0.024801628747080723   -0.1851096410899892   -0.011590594483938817
0.00012651833181162334   -0.13275042381479363   -0.010766172774080764
0.02557480522839672   -0.13277446762375872   -0.010790289427970067
0.024801628747080723   -0.1851096410899892   -0.011590594483938817
0.025475526362048178   -0.13282868173951828   -0.010771398671556789
0.00012651833181162334   -0.13275042381479363   -0.010766172774080764
0.024801628747080723   -0.1851096410899892   -0.011590594483938817
-0.0022112891270994217   -0.18533679528412522   -0.01156916489276232
-0.002345285209667449   -0.1852372314324063   -0.011800367320297524
0.00012651833181162334   -0.13275042381479363   -0.010766172774080764
0.024801628747080723   -0.1851096410899892   -0.011590594483938817
-0.002345285209667449   -0.1852372314324063   -0.011800367320297524
0.025475526362048178   -0.13282868173951828   -0.010771398671556789
0.00012651833181162334   -0.13275042381479363   -0.010766172774080764
-0.0022112891270994217   -0.18533679528412522   -0.01156916489276232
0.02557480522839672   -0.13277446762375872   -0.010790289427970067
0.00018154251460464476   -0.13279548077220923   -0.010653635915752791
-0.0022112891270994217   -0.18533679528412522   -0.01156916489276232
0.024801628747080723   -0.1851096410899892   -0.011590594483938817
0.02557480522839672   -0.13277446762375872   -0.010790289427970067
0.024918894752601957   -0.18500613591679638   -0.011456726434369454
0.00018154251460464476   -0.13279548077220923   -0.010653635915752791
0.02557460072541918   -0.1326281982665366   -0.010856423948264523
0.024918894752601957   -0.18500613591679638   -0.011456726434369454
0.02557480522839672   -0.13277446762375872   -0.010790289427970067
0.00018154251460464476   -0.13279548077220923   -0.010653635915752791
0.024918894752601957   -0.18500613591679638   -0.011456726434369454
-0.0020960393757779674   -0.18541005565566948   -0.011390198370365926
-0.0022112891270994217   -0.18533679528412522   -0.01156916489276232
0.00018154251460464476   -0.13279548077220923   -0.010653635915752791
0.024918894752601957   -0.18500613591679638   -0.011456726434369454
-0.0022112891270994217   -0.18533679528412522   -0.01156916489276232
0.02557480522839672   -0.13277446762375872   -0.010790289427970067
0.00018154251460464476   -0.13279548077220923   -0.010653635915752791
-0.0020960393757779674   -0.18541005565566948   -0.011390198370365926
0.02557460072541918   -0.1326281982665366   -0.010856423948264523
0.00021365454994122634   -0.1327398049851356   -0.010593240863843828
-0.0020960393757779674   -0.18541005565566948   -0.011390198370365926
0.024918894752601957   -0.18500613591679638   -0.011456726434369454
0.02557460072541918   -0.1326281982665366   -0.010856423948264523
0.024937381265467913   -0.18485261792257623   -0.011372561582590819
0.00021365454994122634   -0.1327398049851356   -0.010593240863843828
0.025510915239818518   -0.13235298900229425   -0.010971575479572379
0.024937381265467913   -0.18485261792257623   -0.011372561582590819
0.02557460072541918   -0.1326281982665366   -0.010856423948264523
0.00021365454994122634   -0.1327398049851356   -0.010593240863843828
0.024937381265467913   -0.18485261792257623   -0.011372561582590819
-0.0020097519047301243   -0.1854566568219517   -0.011265389025520826
-0.0020960393757779674   -0.18541005565566948   -0.011390198370365926
0.00021365454994122634   -0.1327398049851356   -0.010593240863843828
0.024937381265467913   -0.18485261792257623   -0.011372561582590819
-0.0020960393757779674   -0.18541005565566948   -0.011390198370365926
0.02557460072541918   -0.1326281982665366   -0.010856423948264523
0.025475526362048178   -0.13282868173951828   -0.010771398671556789
0.024622617798729644   -0.185197453276427   -0.011775222187993609
0.053556472223495466   -0.13323925514657783   -0.010910355451568527
0.02557480522839672   -0.13277446762375872   -0.010790289427970067
0.024622617798729644   -0.185197453276427   -0.011775222187993609
0.053853285321204286   -0.18514419631630225   -0.01206422107271159
0.053556472223495466   -0.13323925514657783   -0.010910355451568527
0.054206298109359716   -0.18490852567631386   -0.011915339737198018
0.02557480522839672   -0.13277446762375872   -0.010790289427970067
0.05349467273448089   -0.13305080112996429   -0.011125770777349912
0.054206298109359716   -0.18490852567631386   -0.011915339737198018
0.053556472223495466   -0.13323925514657783   -0.010910355451568527
0.02557480522839672   -0.13277446762375872   -0.010790289427970067
0.054206298109359716   -0.18490852567631386   -0.011915339737198018
0.024801628747080723   -0.1851096410899892   -0.011590594483938817
0.024622617798729644   -0.185197453276427   -0.011775222187993609
0.02557480522839672   -0.13277446762375872   -0.010790289427970067
0.054206298109359716   -0.18490852567631386   -0.011915339737198018
0.024622617798729644   -0.185197453276427   -0.011775222187993609
0.053556472223495466   -0.13323925514657783   -0.010910355451568527
0.02557480522839672   -0.13277446762375872   -0.010790289427970067
0.024801628747080723   -0.1851096410899892   -0.011590594483938817
0.05349467273448089   -0.13305080112996429   -0.011125770777349912
0.02557460072541918   -0.1326281982665366   -0.010856423948264523
0.024801628747080723   -0.1851096410899892   -0.011590594483938817
0.054206298109359716   -0.18490852567631386   -0.011915339737198018
0.05349467273448089   -0.13305080112996429   -0.011125770777349912
0.054388831800110886   -0.1847217391495133   -0.0118435102110148
0.02557460072541918   -0.1326281982665366   -0.010856423948264523
0.0533498084373789   -0.13281158205208507   -0.011417782706203288
0.054388831800110886   -0.1847217391495133   -0.0118435102110148
0.05349467273448089   -0.13305080112996429   -0.011125770777349912
0.02557460072541918   -0.1326281982665366   -0.010856423948264523
0.054388831800110886   -0.1847217391495133   -0.0118435102110148
0.024918894752601957   -0.18500613591679638   -0.011456726434369454
0.024801628747080723   -0.1851096410899892   -0.011590594483938817
0.02557460072541918   -0.1326281982665366   -0.010856423948264523
0.054388831800110886   -0.1847217391495133   -0.0118435102110148
0.024801628747080723   -0.1851096410899892   -0.011590594483938817
0.05349467273448089   -0.13305080112996429   -0.011125770777349912
0.02557460072541918   -0.1326281982665366   -0.010856423948264523
0.024918894752601957   -0.18500613591679638   -0.011456726434369454
0.0533498084373789   -0.13281158205208507   -0.011417782706203288
0.025510915239818518   -0.13235298900229425   -0.010971575479572379
0.024918894752601957   -0.18500613591679638   -0.011456726434369454
0.054388831800110886   -0.1847217391495133   -0.0118435102110148
0.0533498084373789   -0.13281158205208507   -0.011417782706203288
0.05442388802274951   -0.1844199437135741   -0.011850042136069598
0.025510915239818518   -0.13235298900229425   -0.010971575479572379
0.05297258880132305   -0.13235312683021472   -0.01178583696101775
0.05442388802274951   -0.1844199437135741   -0.011850042136069598
0.0533498084373789   -0.13281158205208507   -0.011417782706203288
0.025510915239818518   -0.13235298900229425   -0.010971575479572379
0.05442388802274951   -0.1844199437135741   -0.011850042136069598
0.024937381265467913   -0.18485261792257623   -0.011372561582590819
0.024918894752601957   -0.18500613591679638   -0.011456726434369454
0.025510915239818518   -0.13235298900229425   -0.010971575479572379
0.05442388802274951   -0.1844199437135741   -0.011850042136069598
0.024918894752601957   -0.18500613591679638   -0.011456726434369454
0.0533498084373789   -0.13281158205208507   -0.011417782706203288
-0.08435982324415964   -0.18580556384314398   -0.013960020433118791
-0.08703564318779557   -0.23881789572415   -0.013716377847695643
-0.055408446542829864   -0.1855052573696088   -0.012898642851144051
-0.08472911939479379   -0.18645526786253114   -0.013572018003496222
-0.08703564318779557   -0.23881789572415   -0.013716377847695643
-0.05809509843395399   -0.2389552711924247   -0.012929663286891838
-0.055408446542829864   -0.1855052573696088   -0.012898642851144051
-0.05794334843730262   -0.23935458724030495   -0.012809044407706648
-0.08472911939479379   -0.18645526786253114   -0.013572018003496222
-0.055392729580477966   -0.1859888202463479   -0.012581479883117103
-0.05794334843730262   -0.23935458724030495   -0.012809044407706648
-0.055408446542829864   -0.1855052573696088   -0.012898642851144051
-0.08472911939479379   -0.18645526786253114   -0.013572018003496222
-0.05794334843730262   -0.23935458724030495   -0.012809044407706648
-0.08694190717734429   -0.23935190995674457   -0.013689033930866292
-0.08703564318779557   -0.23881789572415   -0.013716377847695643
-0.08472911939479379   -0.18645526786253114   -0.013572018003496222
-0.05794334843730262   -0.23935458724030495   -0.012809044407706648
-0.08703564318779557   -0.23881789572415   -0.013716377847695643
-0.055408446542829864   -0.1855052573696088   -0.012898642851144051
-0.08472911939479379   -0.18645526786253114   -0.013572018003496222
-0.08694190717734429   -0.23935190995674457   -0.013689033930866292
-0.055392729580477966   -0.1859888202463479   -0.012581479883117103
-0.08485190749471805   -0.186984335052949   -0.013259805188343524
-0.08694190717734429   -0.23935190995674457   -0.013689033930866292
-0.05794334843730262   -0.23935458724030495   -0.012809044407706648
-0.055392729580477966   -0.1859888202463479   -0.012581479883117103
-0.057704124891348754   -0.23979613350697093   -0.012742868666723832
-0.08485190749471805   -0.186984335052949   -0.013259805188343524
-0.055324800348005465   -0.1864342096014395   -0.012316958447670905
-0.057704124891348754   -0.23979613350697093   -0.012742868666723832
-0.055392729580477966   -0.1859888202463479   -0.012581479883117103
-0.08485190749471805   -0.186984335052949   -0.013259805188343524
-0.057704124891348754   -0.23979613350697093   -0.012742868666723832
-0.08668094143576953   -0.23986934763812398   -0.013743070586017649
-0.08694190717734429   -0.23935190995674457   -0.013689033930866292
-0.08485190749471805   -0.186984335052949   -0.013259805188343524
-0.057704124891348754   -0.23979613350697093   -0.012742868666723832
-0.08694190717734429   -0.23935190995674457   -0.013689033930866292
-0.055392729580477966   -0.1859888202463479   -0.012581479883117103
-0.08485190749471805   -0.186984335052949   -0.013259805188343524
-0.08668094143576953   -0.23986934763812398   -0.013743070586017649
-0.055324800348005465   -0.1864342096014395   -0.012316958447670905
-0.08489879819647483   -0.18755785469071026   -0.01302982466928962
-0.08668094143576953   -0.23986934763812398   -0.013743070586017649
-0.057704124891348754   -0.23979613350697093   -0.012742868666723832
-0.055324800348005465   -0.1864342096014395   -0.012316958447670905
-0.05739281653350297   -0.24031025089372968   -0.012730317064185748
-0.08489879819647483   -0.18755785469071026   -0.01302982466928962
-0.05514779978225714   -0.18687531008133576   -0.012101449449636948
-0.05739281653350297   -0.24031025089372968   -0.012730317064185748
-0.055324800348005465   -0.1864342096014395   -0.012316958447670905
-0.08489879819647483   -0.18755785469071026   -0.01302982466928962
-0.05739281653350297   -0.24031025089372968   -0.012730317064185748
-0.0862540205384217   -0.2405349314324155   -0.013882521277654113
-0.08668094143576953   -0.23986934763812398   -0.013743070586017649
-0.08489879819647483   -0.18755785469071026   -0.01302982466928962
-0.05739281653350297   -0.24031025089372968   -0.012730317064185748
-0.08668094143576953   -0.23986934763812398   -0.013743070586017649
-0.055324800348005465   -0.1864342096014395   -0.012316958447670905
-0.055408446542829864   -0.1855052573696088   -0.012898642851144051
-0.05809509843395399   -0.2389552711924247   -0.012929663286891838
-0.028513158992773763   -0.1853342762200577   -0.012175850627813135
-0.055392729580477966   -0.1859888202463479   -0.012581479883117103
-0.05809509843395399   -0.2389552711924247   -0.012929663286891838
-0.03158926177056413   -0.23898602800943744   -0.012406515851992985
-0.028513158992773763   -0.1853342762200577   -0.012175850627813135
-0.031384511558177355   -0.23921558804819743   -0.012193719748601155
-0.055392729580477966   -0.1859888202463479   -0.012581479883117103
-0.02841887801842235   -0.18562747723968884   -0.011900327626423277
-0.031384511558177355   -0.23921558804819743   -0.012193719748601155
-0.028513158992773763   -0.1853342762200577   -0.012175850627813135
-0.055392729580477966   -0.1859888202463479   -0.012581479883117103
-0.031384511558177355   -0.23921558804819743   -0.012193719748601155
-0.05794334843730262   -0.23935458724030495   -0.012809044407706648
-0.05809509843395399   -0.2389552711924247   -0.012929663286891838
-0.055392729580477966   -0.1859888202463479   -0.012581479883117103
-0.031384511558177355   -0.23921558804819743   -0.012193719748601155
-0.05809509843395399   -0.2389552711924247   -0.012929663286891838
-0.028513158992773763   -0.1853342762200577   -0.012175850627813135
-0.055392729580477966   -0.1859888202463479   -0.012581479883117103
-0.05794334843730262   -0.23935458724030495   -0.012809044407706648
-0.02841887801842235   -0.18562747723968884   -0.011900327626423277
-0.055324800348005465   -0.1864342096014395   -0.012316958447670905
-0.05794334843730262   -0.23935458724030495   -0.012809044407706648
-0.031384511558177355   -0.23921558804819743   -0.012193719748601155
-0.02841887801842235   -0.18562747723968884   -0.011900327626423277
-0.031152556787547858   -0.23949389871058496   -0.012035597033100889
-0.055324800348005465   -0.1864342096014395   -0.012316958447670905
-0.02830176708040916   -0.18589608256692966   -0.011677521757647694
-0.031152556787547858   -0.23949389871058496   -0.012035597033100889
-0.02841887801842235   -0.18562747723968884   -0.011900327626423277
-0.055324800348005465   -0.1864342096014395   -0.012316958447670905
-0.031152556787547858   -0.23949389871058496   -0.012035597033100889
-0.057704124891348754   -0.23979613350697093   -0.012742868666723832
-0.05794334843730262   -0.23935458724030495   -0.012809044407706648
-0.055324800348005465   -0.1864342096014395   -0.012316958447670905
-0.031152556787547858   -0.23949389871058496   -0.012035597033100889
-0.05794334843730262   -0.23935458724030495   -0.012809044407706648
-0.02841887801842235   -0.18562747723968884   -0.011900327626423277
-0.055324800348005465   -0.1864342096014395   -0.012316958447670905
-0.057704124891348754   -0.23979613350697093   -0.012742868666723832
-0.02830176708040916   -0.18589608256692966   -0.011677521757647694
-0.05514779978225714   -0.18687531008133576   -0.012101449449636948
-0.057704124891348754   -0.23979613350697093   -0.012742868666723832
-0.031152556787547858   -0.23949389871058496   -0.012035597033100889
-0.02830176708040916   -0.18589608256692966   -0.011677521757647694
-0.03090233585348145   -0.23982182578178415   -0.011933887403458875
-0.05514779978225714   -0.18687531008133576   -0.012101449449636948
-0.028159902988648337   -0.18614096349109935   -0.011508669459232197
-0.03090233585348145   -0.23982182578178415   -0.011933887403458875
-0.02830176708040916   -0.18589608256692966   -0.011677521757647694
-0.05514779978225714   -0.18687531008133576   -0.012101449449636948
-0.03090233585348145   -0.23982182578178415   -0.011933887403458875
-0.05739281653350297   -0.24031025089372968   -0.012730317064185748
-0.057704124891348754   -0.23979613350697093   -0.012742868666723832
-0.05514779978225714   -0.18687531008133576   -0.012101449449636948
-0.03090233585348145   -0.23982182578178415   -0.011933887403458875
-0.057704124891348754   -0.23979613350697093   -0.012742868666723832
-0.02830176708040916   -0.18589608256692966   -0.011677521757647694
-0.028513158992773763   -0.1853342762200577   -0.012175850627813135
-0.03158926177056413   -0.23898602800943744   -0.012406515851992985
-0.002345285209667449   -0.1852372314324063   -0.011800367320297524
-0.02841887801842235   -0.18562747723968884   -0.011900327626423277
-0.03158926177056413   -0.23898602800943744   -0.012406515851992985
-0.005834134214680173   -0.2388466384306421   -0.012190775835528647
-0.002345285209667449   -0.1852372314324063   -0.011800367320297524
-0.005591441705213494   -0.2389010016955287   -0.011890378591551431
-0.02841887801842235   -0.18562747723968884   -0.011900327626423277
-0.0022112891270994217   -0.18533679528412522   -0.01156916489276232
-0.005591441705213494   -0.2389010016955287   -0.011890378591551431
-0.002345285209667449   -0.1852372314324063   -0.011800367320297524
-0.02841887801842235   -0.18562747723968884   -0.011900327626423277
-0.005591441705213494   -0.2389010016955287   -0.011890378591551431
-0.031384511558177355   -0.23921558804819743   -0.012193719748601155
-0.03158926177056413   -0.23898602800943744   -0.012406515851992985
-0.02841887801842235   -0.18562747723968884   -0.011900327626423277
-0.005591441705213494   -0.2389010016955287   -0.011890378591551431
-0.03158926177056413   -0.23898602800943744   -0.012406515851992985
-0.002345285209667449   -0.1852372314324063   -0.011800367320297524
-0.02841887801842235   -0.18562747723968884   -0.011900327626423277
-0.031384511558177355   -0.23921558804819743   -0.012193719748601155
-0.0022112891270994217   -0.18533679528412522   -0.01156916489276232
-0.02830176708040916   -0.18589608256692966   -0.011677521757647694
-0.031384511558177355   -0.23921558804819743   -0.012193719748601155
-0.005591441705213494   -0.2389010016955287   -0.011890378591551431
-0.0022112891270994217   -0.18533679528412522   -0.01156916489276232
-0.005362065802686486   -0.23900022296459583   -0.011644240844009062
-0.02830176708040916   -0.18589608256692966   -0.011677521757647694
-0.0020960393757779674   -0.18541005565566948   -0.011390198370365926
-0.005362065802686486   -0.23900022296459583   -0.011644240844009062
-0.0022112891270994217   -0.18533679528412522   -0.01156916489276232
-0.02830176708040916   -0.18589608256692966   -0.011677521757647694
-0.005362065802686486   -0.23900022296459583   -0.011644240844009062
-0.031152556787547858   -0.23949389871058496   -0.012035597033100889
-0.031384511558177355   -0.23921558804819743   -0.012193719748601155
-0.02830176708040916   -0.18589608256692966   -0.011677521757647694
-0.005362065802686486   -0.23900022296459583   -0.011644240844009062
-0.031384511558177355   -0.23921558804819743   -0.012193719748601155
-0.0022112891270994217   -0.18533679528412522   -0.01156916489276232
-0.02830176708040916   -0.18589608256692966   -0.011677521757647694
-0.031152556787547858   -0.23949389871058496   -0.012035597033100889
-0.0020960393757779674   -0.18541005565566948   -0.011390198370365926
-0.028159902988648337   -0.18614096349109935   -0.011508669459232197
-0.031152556787547858   -0.23949389871058496   -0.012035597033100889
-0.005362065802686486   -0.23900022296459583   -0.011644240844009062
-0.0020960393757779674   -0.18541005565566948   -0.011390198370365926
-0.005168090227987381   -0.23914660213542152   -0.011454272428197783
-0.028159902988648337   -0.18614096349109935   -0.011508669459232197
-0.0020097519047301243   -0.1854566568219517   -0.011265389025520826
-0.005168090227987381   -0.23914660213542152   -0.011454272428197783
-0.0020960393757779674   -0.18541005565566948   -0.011390198370365926
-0.028159902988648337   -0.18614096349109935   -0.011508669459232197
-0.005168090227987381   -0.23914660213542152   -0.011454272428197783
-0.03090233585348145   -0.23982182578178415   -0.011933887403458875
-0.031152556787547858   -0.23949389871058496   -0.012035597033100889
-0.028159902988648337   -0.18614096349109935   -0.011508669459232197
-0.005168090227987381   -0.23914660213542152   -0.011454272428197783
-0.031152556787547858   -0.23949389871058496   -0.012035597033100889
-0.0020960393757779674   -0.18541005565566948   -0.011390198370365926
-0.002345285209667449   -0.1852372314324063   -0.011800367320297524
-0.005834134214680173   -0.2388466384306421   -0.012190775835528647
0.024622617798729644   -0.185197453276427   -0.011775222187993609
-0.0022112891270994217   -0.18533679528412522   -0.01156916489276232
-0.005834134214680173   -0.2388466384306421   -0.012190775835528647
0.020699798401160336   -0.23853627201950636   -0.012292456723554536
0.024622617798729644   -0.185197453276427   -0.011775222187993609
0.02100994264439805   -0.23841498462593008   -0.011906119720186644
-0.0022112891270994217   -0.18533679528412522   -0.01156916489276232
0.024801628747080723   -0.1851096410899892   -0.011590594483938817
0.02100994264439805   -0.23841498462593008   -0.011906119720186644
0.024622617798729644   -0.185197453276427   -0.011775222187993609
-0.0022112891270994217   -0.18533679528412522   -0.01156916489276232
0.02100994264439805   -0.23841498462593008   -0.011906119720186644
-0.005591441705213494   -0.2389010016955287   -0.011890378591551431
-0.005834134214680173   -0.2388466384306421   -0.012190775835528647
-0.0022112891270994217   -0.18533679528412522   -0.01156916489276232
0.02100994264439805   -0.23841498462593008   -0.011906119720186644
-0.005834134214680173   -0.2388466384306421   -0.012190775835528647
0.024622617798729644   -0.185197453276427   -0.011775222187993609
-0.0022112891270994217   -0.18533679528412522   -0.01156916489276232
-0.005591441705213494   -0.2389010016955287   -0.011890378591551431
0.024801628747080723   -0.1851096410899892   -0.011590594483938817
-0.0020960393757779674   -0.18541005565566948   -0.011390198370365926
-0.005591441705213494   -0.2389010016955287   -0.011890378591551431
0.02100994264439805   -0.23841498462593008   -0.011906119720186644
0.024801628747080723   -0.1851096410899892   -0.011590594483938817
0.02129578504734004   -0.23835199843342886   -0.011573897083443507
-0.0020960393757779674   -0.18541005565566948   -0.011390198370365926
0.024918894752601957   -0.18500613591679638   -0.011456726434369454
0.02129578504734004   -0.23835199843342886   -0.011573897083443507
0.024801628747080723   -0.1851096410899892   -0.011590594483938817
-0.0020960393757779674   -0.18541005565566948   -0.011390198370365926
0.02129578504734004   -0.23835199843342886   -0.011573897083443507
-0.005362065802686486   -0.23900022296459583   -0.011644240844009062
-0.005591441705213494   -0.2389010016955287   -0.011890378591551431
-0.0020960393757779674   -0.18541005565566948   -0.011390198370365926
0.02129578504734004   -0.23835199843342886   -0.011573897083443507
-0.005591441705213494   -0.2389010016955287   -0.011890378591551431
0.024801628747080723   -0.1851096410899892   -0.011590594483938817
-0.0020960393757779674   -0.18541005565566948   -0.011390198370365926
-0.005362065802686486   -0.23900022296459583   -0.011644240844009062
0.024918894752601957   -0.18500613591679638   -0.011456726434369454
-0.0020097519047301243   -0.1854566568219517   -0.011265389025520826
-0.005362065802686486   -0.23900022296459583   -0.011644240844009062
0.02129578504734004   -0.23835199843342886   -0.011573897083443507
0.024918894752601957   -0.18500613591679638   -0.011456726434369454
0.021446929109193866   -0.23831633023901008   -0.011292256335513898
-0.0020097519047301243   -0.1854566568219517   -0.011265389025520826
0.024937381265467913   -0.18485261792257623   -0.011372561582590819
0.021446929109193866   -0.23831633023901008   -0.011292256335513898
0.024918894752601957   -0.18500613591679638   -0.011456726434369454
-0.0020097519047301243   -0.1854566568219517   -0.011265389025520826
0.021446929109193866   -0.23831633023901008   -0.011292256335513898
-0.005168090227987381   -0.23914660213542152   -0.011454272428197783
-0.005362065802686486   -0.23900022296459583   -0.011644240844009062
-0.0020097519047301243   -0.1854566568219517   -0.011265389025520826
0.021446929109193866   -0.23831633023901008   -0.011292256335513898
-0.005362065802686486   -0.23900022296459583   -0.011644240844009062
0.024918894752601957   -0.18500613591679638   -0.011456726434369454
0.024622617798729644   -0.185197453276427   -0.011775222187993609
0.020699798401160336   -0.23853627201950636   -0.012292456723554536
0.053853285321204286   -0.18514419631630225   -0.01206422107271159
0.024801628747080723   -0.1851096410899892   -0.011590594483938817
0.020699798401160336   -0.23853627201950636   -0.012292456723554536
0.049118902314139096   -0.2380157517173307   -0.01272742512326213
0.053853285321204286   -0.18514419631630225   -0.01206422107271159
0.049931961815463846   -0.2377354513743748   -0.012221416407098878
0.024801628747080723   -0.1851096410899892   -0.011590594483938817
0.054206298109359716   -0.18490852567631386   -0.011915339737198018
0.049931961815463846   -0.2377354513743748   -0.012221416407098878
0.053853285321204286   -0.18514419631630225   -0.01206422107271159
0.024801628747080723   -0.1851096410899892   -0.011590594483938817
0.049931961815463846   -0.2377354513743748   -0.012221416407098878
0.02100994264439805   -0.23841498462593008   -0.011906119720186644
0.020699798401160336   -0.23853627201950636   -0.012292456723554536
0.024801628747080723   -0.1851096410899892   -0.011590594483938817
0.049931961815463846   -0.2377354513743748   -0.012221416407098878
0.020699798401160336   -0.23853627201950636   -0.012292456723554536
0.053853285321204286   -0.18514419631630225   -0.01206422107271159
0.024801628747080723   -0.1851096410899892   -0.011590594483938817
0.02100994264439805   -0.23841498462593008   -0.011906119720186644
0.054206298109359716   -0.18490852567631386   -0.011915339737198018
0.024918894752601957   -0.18500613591679638   -0.011456726434369454
0.02100994264439805   -0.23841498462593008   -0.011906119720186644
0.049931961815463846   -0.2377354513743748   -0.012221416407098878
0.054206298109359716   -0.18490852567631386   -0.011915339737198018
0.050488679767803885   -0.23759963668626738   -0.011792393000967804
0.024918894752601957   -0.18500613591679638   -0.011456726434369454
0.054388831800110886   -0.1847217391495133   -0.0118435102110148
0.050488679767803885   -0.23759963668626738   -0.011792393000967804
0.054206298109359716   -0.18490852567631386   -0.011915339737198018
0.024918894752601957   -0.18500613591679638   -0.011456726434369454
0.050488679767803885   -0.23759963668626738   -0.011792393000967804
0.02129578504734004   -0.23835199843342886   -0.011573897083443507
0.02100994264439805   -0.23841498462593008   -0.011906119720186644
0.024918894752601957   -0.18500613591679638   -0.011456726434369454
0.050488679767803885   -0.23759963668626738   -0.011792393000967804
0.02100994264439805   -0.23841498462593008   -0.011906119720186644
0.054206298109359716   -0.18490852567631386   -0.011915339737198018
0.024918894752601957   -0.18500613591679638   -0.011456726434369454
0.02129578504734004   -0.23835199843342886   -0.011573897083443507
0.054388831800110886   -0.1847217391495133   -0.0118435102110148
0.024937381265467913   -0.18485261792257623   -0.011372561582590819
0.02129578504734004   -0.23835199843342886   -0.011573897083443507
0.050488679767803885   -0.23759963668626738   -0.011792393000967804
0.054388831800110886   -0.1847217391495133   -0.0118435102110148
0.05098042255770516   -0.23745047784651857   -0.011443530862597393
0.024937381265467913   -0.18485261792257623   -0.011372561582590819
0.05442388802274951   -0.1844199437135741   -0.011850042136069598
0.05098042255770516   -0.23745047784651857   -0.011443530862597393
0.054388831800110886   -0.1847217391495133   -0.0118435102110148
0.024937381265467913   -0.18485261792257623   -0.011372561582590819
0.05098042255770516   -0.23745047784651857   -0.011443530862597393
0.021446929109193866   -0.23831633023901008   -0.011292256335513898
0.02129578504734004   -0.23835199843342886   -0.011573897083443507
0.024937381265467913   -0.18485261792257623   -0.011372561582590819
0.05098042255770516   -0.23745047784651857   -0.011443530862597393
0.02129578504734004   -0.23835199843342886   -0.011573897083443507
0.054388831800110886   -0.1847217391495133   -0.0118435102110148
-0.08703564318779557   -0.23881789572415   -0.013716377847695643
-0.08472654768455519   -0.28948564770470475   -0.013107657890951177
-0.05809509843395399   -0.2389552711924247   -0.012929663286891838
-0.08694190717734429   -0.23935190995674457   -0.013689033930866292
-0.08472654768455519   -0.28948564770470475   -0.013107657890951177
-0.05786280927397573   -0.2900698979678813   -0.012632335112875101
-0.05809509843395399   -0.2389552711924247   -0.012929663286891838
-0.057524213325092985   -0.29036852825059295   -0.012703511156304812
-0.08694190717734429   -0.23935190995674457   -0.013689033930866292
-0.05794334843730262   -0.23935458724030495   -0.012809044407706648
-0.057524213325092985   -0.29036852825059295   -0.012703511156304812
-0.05809509843395399   -0.2389552711924247   -0.012929663286891838
-0.08694190717734429   -0.23935190995674457   -0.013689033930866292
-0.057524213325092985   -0.29036852825059295   -0.012703511156304812
-0.08411562351994484   -0.2898887719427989   -0.01344274507946959
-0.08472654768455519   -0.28948564770470475   -0.013107657890951177
-0.08694190717734429   -0.23935190995674457   -0.013689033930866292
-0.057524213325092985   -0.29036852825059295   -0.012703511156304812
-0.08472654768455519   -0.28948564770470475   -0.013107657890951177
-0.05809509843395399   -0.2389552711924247   -0.012929663286891838
-0.08694190717734429   -0.23935190995674457   -0.013689033930866292
-0.08411562351994484   -0.2898887719427989   -0.01344274507946959
-0.05794334843730262   -0.23935458724030495   -0.012809044407706648
-0.08668094143576953   -0.23986934763812398   -0.013743070586017649
-0.08411562351994484   -0.2898887719427989   -0.01344274507946959
-0.057524213325092985   -0.29036852825059295   -0.012703511156304812
-0.05794334843730262   -0.23935458724030495   -0.012809044407706648
-0.0570649972038253   -0.2907925623454511   -0.01283068143440576
-0.08668094143576953   -0.23986934763812398   -0.013743070586017649
-0.057704124891348754   -0.23979613350697093   -0.012742868666723832
-0.0570649972038253   -0.2907925623454511   -0.01283068143440576
-0.05794334843730262   -0.23935458724030495   -0.012809044407706648
-0.08668094143576953   -0.23986934763812398   -0.013743070586017649
-0.0570649972038253   -0.2907925623454511   -0.01283068143440576
-0.08341660732924107   -0.2903821139644675   -0.013865925903508543
-0.08411562351994484   -0.2898887719427989   -0.01344274507946959
-0.08668094143576953   -0.23986934763812398   -0.013743070586017649
-0.0570649972038253   -0.2907925623454511   -0.01283068143440576
-0.08411562351994484   -0.2898887719427989   -0.01344274507946959
-0.05794334843730262   -0.23935458724030495   -0.012809044407706648
-0.08668094143576953   -0.23986934763812398   -0.013743070586017649
-0.08341660732924107   -0.2903821139644675   -0.013865925903508543
-0.057704124891348754   -0.23979613350697093   -0.012742868666723832
-0.0862540205384217   -0.2405349314324155   -0.013882521277654113
-0.08341660732924107   -0.2903821139644675   -0.013865925903508543
-0.0570649972038253   -0.2907925623454511   -0.01283068143440576
-0.057704124891348754   -0.23979613350697093   -0.012742868666723832
-0.05657190499422542   -0.29136781241966214   -0.013015552873947782
-0.0862540205384217   -0.2405349314324155   -0.013882521277654113
-0.05739281653350297   -0.24031025089372968   -0.012730317064185748
-0.05657190499422542   -0.29136781241966214   -0.013015552873947782
-0.057704124891348754   -0.23979613350697093   -0.012742868666723832
-0.0862540205384217   -0.2405349314324155   -0.013882521277654113
-0.05657190499422542   -0.29136781241966214   -0.013015552873947782
-0.08246355485096075   -0.2911323505330704   -0.014378740596929087
-0.08341660732924107   -0.2903821139644675   -0.013865925903508543
-0.0862540205384217   -0.2405349314324155   -0.013882521277654113
-0.05657190499422542   -0.29136781241966214   -0.013015552873947782
-0.08341660732924107   -0.2903821139644675   -0.013865925903508543
-0.057704124891348754   -0.23979613350697093   -0.012742868666723832
-0.05809509843395399   -0.2389552711924247   -0.012929663286891838
-0.05786280927397573   -0.2900698979678813   -0.012632335112875101
-0.03158926177056413   -0.23898602800943744   -0.012406515851992985
-0.05794334843730262   -0.23935458724030495   -0.012809044407706648
-0.05786280927397573   -0.2900698979678813   -0.012632335112875101
-0.033791612185076925   -0.2903024634171542   -0.012327764693132726
-0.03158926177056413   -0.23898602800943744   -0.012406515851992985
-0.03342245082417191   -0.29045821871057637   -0.012172886478780155
-0.05794334843730262   -0.23935458724030495   -0.012809044407706648
-0.031384511558177355   -0.23921558804819743   -0.012193719748601155
-0.03342245082417191   -0.29045821871057637   -0.012172886478780155
-0.03158926177056413   -0.23898602800943744   -0.012406515851992985
-0.05794334843730262   -0.23935458724030495   -0.012809044407706648
-0.03342245082417191   -0.29045821871057637   -0.012172886478780155
-0.057524213325092985   -0.29036852825059295   -0.012703511156304812
-0.05786280927397573   -0.2900698979678813   -0.012632335112875101
-0.05794334843730262   -0.23935458724030495   -0.012809044407706648
-0.03342245082417191   -0.29045821871057637   -0.012172886478780155
-0.05786280927397573   -0.2900698979678813   -0.012632335112875101
-0.03158926177056413   -0.23898602800943744   -0.012406515851992985
-0.05794334843730262   -0.23935458724030495   -0.012809044407706648
-0.057524213325092985   -0.29036852825059295   -0.012703511156304812
-0.031384511558177355   -0.23921558804819743   -0.012193719748601155
-0.057704124891348754   -0.23979613350697093   -0.012742868666723832
-0.057524213325092985   -0.29036852825059295   -0.012703511156304812
-0.03342245082417191   -0.29045821871057637   -0.012172886478780155
-0.031384511558177355   -0.23921558804819743   -0.012193719748601155
-0.03302516881665088   -0.2907346421281765   -0.012073330754190951
-0.057704124891348754   -0.23979613350697093   -0.012742868666723832
-0.031152556787547858   -0.23949389871058496   -0.012035597033100889
-0.03302516881665088   -0.2907346421281765   -0.012073330754190951
-0.031384511558177355   -0.23921558804819743   -0.012193719748601155
-0.057704124891348754   -0.23979613350697093   -0.012742868666723832
-0.03302516881665088   -0.2907346421281765   -0.012073330754190951
-0.0570649972038253   -0.2907925623454511   -0.01283068143440576
-0.057524213325092985   -0.29036852825059295   -0.012703511156304812
-0.057704124891348754   -0.23979613350697093   -0.012742868666723832
-0.03302516881665088   -0.2907346421281765   -0.012073330754190951
-0.057524213325092985   -0.29036852825059295   -0.012703511156304812
-0.031384511558177355   -0.23921558804819743   -0.012193719748601155
-0.057704124891348754   -0.23979613350697093   -0.012742868666723832
-0.0570649972038253   -0.2907925623454511   -0.01283068143440576
-0.031152556787547858   -0.23949389871058496   -0.012035597033100889
-0.05739281653350297   -0.24031025089372968   -0.012730317064185748
-0.0570649972038253   -0.2907925623454511   -0.01283068143440576
-0.03302516881665088   -0.2907346421281765   -0.012073330754190951
-0.031152556787547858   -0.23949389871058496   -0.012035597033100889
-0.0326168010119529   -0.291135276154111   -0.012031768115692915
-0.05739281653350297   -0.24031025089372968   -0.012730317064185748
-0.03090233585348145   -0.23982182578178415   -0.011933887403458875
-0.0326168010119529   -0.291135276154111   -0.012031768115692915
-0.031152556787547858   -0.23949389871058496   -0.012035597033100889
-0.05739281653350297   -0.24031025089372968   -0.012730317064185748
-0.0326168010119529   -0.291135276154111   -0.012031768115692915
-0.05657190499422542   -0.29136781241966214   -0.013015552873947782
-0.0570649972038253   -0.2907925623454511   -0.01283068143440576
-0.05739281653350297   -0.24031025089372968   -0.012730317064185748
-0.0326168010119529   -0.291135276154111   -0.012031768115692915
-0.0570649972038253   -0.2907925623454511   -0.01283068143440576
-0.031152556787547858   -0.23949389871058496   -0.012035597033100889
-0.03158926177056413   -0.23898602800943744   -0.012406515851992985
-0.033791612185076925   -0.2903024634171542   -0.012327764693132726
-0.005834134214680173   -0.2388466384306421   -0.012190775835528647
-0.031384511558177355   -0.23921558804819743   -0.012193719748601155
-0.033791612185076925   -0.2903024634171542   -0.012327764693132726
-0.010450931456557042   -0.29012666253181935   -0.012274945573836318
-0.005834134214680173   -0.2388466384306421   -0.012190775835528647
-0.01004254450372181   -0.2901315034288588   -0.01190176718467163
-0.031384511558177355   -0.23921558804819743   -0.012193719748601155
-0.005591441705213494   -0.2389010016955287   -0.011890378591551431
-0.01004254450372181   -0.2901315034288588   -0.01190176718467163
-0.005834134214680173   -0.2388466384306421   -0.012190775835528647
-0.031384511558177355   -0.23921558804819743   -0.012193719748601155
-0.01004254450372181   -0.2901315034288588   -0.01190176718467163
-0.03342245082417191   -0.29045821871057637   -0.012172886478780155
-0.033791612185076925   -0.2903024634171542   -0.012327764693132726
-0.031384511558177355   -0.23921558804819743   -0.012193719748601155
-0.01004254450372181   -0.2901315034288588   -0.01190176718467163
-0.033791612185076925   -0.2903024634171542   -0.012327764693132726
-0.005834134214680173   -0.2388466384306421   -0.012190775835528647
-0.031384511558177355   -0.23921558804819743   -0.012193719748601155
-0.03342245082417191   -0.29045821871057637   -0.012172886478780155
-0.005591441705213494   -0.2389010016955287   -0.011890378591551431
-0.031152556787547858   -0.23949389871058496   -0.012035597033100889
-0.03342245082417191   -0.29045821871057637   -0.012172886478780155
-0.01004254450372181   -0.2901315034288588   -0.01190176718467163
-0.005591441705213494   -0.2389010016955287   -0.011890378591551431
-0.00964497523088701   -0.2902480360673198   -0.011584024537801666
-0.031152556787547858   -0.23949389871058496   -0.012035597033100889
-0.005362065802686486   -0.23900022296459583   -0.011644240844009062
-0.00964497523088701   -0.2902480360673198   -0.011584024537801666
-0.005591441705213494   -0.2389010016955287   -0.011890378591551431
-0.031152556787547858   -0.23949389871058496   -0.012035597033100889
-0.00964497523088701   -0.2902480360673198   -0.011584024537801666
-0.03302516881665088   -0.2907346421281765   -0.012073330754190951
-0.03342245082417191   -0.29045821871057637   -0.012172886478780155
-0.031152556787547858   -0.23949389871058496   -0.012035597033100889
-0.00964497523088701   -0.2902480360673198   -0.011584024537801666
-0.03342245082417191   -0.29045821871057637   -0.012172886478780155
-0.005591441705213494   -0.2389010016955287   -0.011890378591551431
-0.031152556787547858   -0.23949389871058496   -0.012035597033100889
-0.03302516881665088   -0.2907346421281765   -0.012073330754190951
-0.005362065802686486   -0.23900022296459583   -0.011644240844009062
-0.03090233585348145   -0.23982182578178415   -0.011933887403458875
-0.03302516881665088   -0.2907346421281765   -0.012073330754190951
-0.00964497523088701   -0.2902480360673198   -0.011584024537801666
-0.005362065802686486   -0.23900022296459583   -0.011644240844009062
-0.009290586140444193   -0.2904860284628238   -0.011323655528285074
-0.03090233585348145   -0.23982182578178415   -0.011933887403458875
-0.005168090227987381   -0.23914660213542152   -0.011454272428197783
-0.009290586140444193   -0.2904860284628238   -0.011323655528285074
-0.005362065802686486   -0.23900022296459583   -0.011644240844009062
-0.03090233585348145   -0.23982182578178415   -0.011933887403458875
-0.009290586140444193   -0.2904860284628238   -0.011323655528285074
-0.0326168010119529   -0.291135276154111   -0.012031768115692915
-0.03302516881665088   -0.2907346421281765   -0.012073330754190951
-0.03090233585348145   -0.23982182578178415   -0.011933887403458875
-0.009290586140444193   -0.2904860284628238   -0.011323655528285074
-0.03302516881665088   -0.2907346421281765   -0.012073330754190951
-0.005362065802686486   -0.23900022296459583   -0.011644240844009062
-0.005834134214680173   -0.2388466384306421   -0.012190775835528647
-0.010450931456557042   -0.29012666253181935   -0.012274945573836318
0.020699798401160336   -0.23853627201950636   -0.012292456723554536
-0.005591441705213494   -0.2389010016955287   -0.011890378591551431
-0.010450931456557042   -0.29012666253181935   -0.012274945573836318
0.013700943354109643   -0.28955514076044203   -0.012493685535942621
0.020699798401160336   -0.23853627201950636   -0.012292456723554536
0.014200123304631653   -0.2893989151749085   -0.011904388575738476
-0.005591441705213494   -0.2389010016955287   -0.011890378591551431
0.02100994264439805   -0.23841498462593008   -0.011906119720186644
0.014200123304631653   -0.2893989151749085   -0.011904388575738476
0.020699798401160336   -0.23853627201950636   -0.012292456723554536
-0.005591441705213494   -0.2389010016955287   -0.011890378591551431
0.014200123304631653   -0.2893989151749085   -0.011904388575738476
-0.01004254450372181   -0.2901315034288588   -0.01190176718467163
-0.010450931456557042   -0.29012666253181935   -0.012274945573836318
-0.005591441705213494   -0.2389010016955287   -0.011890378591551431
0.014200123304631653   -0.2893989151749085   -0.011904388575738476
-0.010450931456557042   -0.29012666253181935   -0.012274945573836318
0.020699798401160336   -0.23853627201950636   -0.012292456723554536
-0.005591441705213494   -0.2389010016955287   -0.011890378591551431
-0.01004254450372181   -0.2901315034288588   -0.01190176718467163
0.02100994264439805   -0.23841498462593008   -0.011906119720186644
-0.005362065802686486   -0.23900022296459583   -0.011644240844009062
-0.01004254450372181   -0.2901315034288588   -0.01190176718467163
0.014200123304631653   -0.2893989151749085   -0.011904388575738476
0.02100994264439805   -0.23841498462593008   -0.011906119720186644
0.014711496707607987   -0.2893702317473793   -0.01137411129805106
-0.005362065802686486   -0.23900022296459583   -0.011644240844009062
0.02129578504734004   -0.23835199843342886   -0.011573897083443507
0.014711496707607987   -0.2893702317473793   -0.01137411129805106
0.02100994264439805   -0.23841498462593008   -0.011906119720186644
-0.005362065802686486   -0.23900022296459583   -0.011644240844009062
0.014711496707607987   -0.2893702317473793   -0.01137411129805106
-0.00964497523088701   -0.2902480360673198   -0.011584024537801666
-0.01004254450372181   -0.2901315034288588   -0.01190176718467163
-0.005362065802686486   -0.23900022296459583   -0.011644240844009062
0.014711496707607987   -0.2893702317473793   -0.01137411129805106
-0.01004254450372181   -0.2901315034288588   -0.01190176718467163
0.02100994264439805   -0.23841498462593008   -0.011906119720186644
-0.005362065802686486   -0.23900022296459583   -0.011644240844009062
-0.00964497523088701   -0.2902480360673198   -0.011584024537801666
0.02129578504734004   -0.23835199843342886   -0.011573897083443507
-0.005168090227987381   -0.23914660213542152   -0.011454272428197783
-0.00964497523088701   -0.2902480360673198   -0.011584024537801666
0.014711496707607987   -0.2893702317473793   -0.01137411129805106
0.02129578504734004   -0.23835199843342886   -0.011573897083443507
0.01505074321687371   -0.28944545666547966   -0.01089508123551817
-0.005168090227987381   -0.23914660213542152   -0.011454272428197783
0.021446929109193866   -0.23831633023901008   -0.011292256335513898
0.01505074321687371   -0.28944545666547966   -0.01089508123551817
0.02129578504734004   -0.23835199843342886   -0.011573897083443507
-0.005168090227987381   -0.23914660213542152   -0.011454272428197783
0.01505074321687371   -0.28944545666547966   -0.01089508123551817
-0.009290586140444193   -0.2904860284628238   -0.011323655528285074
-0.00964497523088701   -0.2902480360673198   -0.011584024537801666
-0.005168090227987381   -0.23914660213542152   -0.011454272428197783
0.01505074321687371   -0.28944545666547966   -0.01089508123551817
-0.00964497523088701   -0.2902480360673198   -0.011584024537801666
0.02129578504734004   -0.23835199843342886   -0.011573897083443507
0.020699798401160336   -0.23853627201950636   -0.012292456723554536
0.013700943354109643   -0.28955514076044203   -0.012493685535942621
0.049118902314139096   -0.2380157517173307   -0.01272742512326213
0.02100994264439805   -0.23841498462593008   -0.011906119720186644
0.013700943354109643   -0.28955514076044203   -0.012493685535942621
0.039409205550852276   -0.2885729730211665   -0.013062755292761513
0.049118902314139096   -0.2380157517173307   -0.01272742512326213
0.04073675231958168   -0.28824976477365544   -0.012206003726694472
0.02100994264439805   -0.23841498462593008   -0.011906119720186644
0.049931961815463846   -0.2377354513743748   -0.012221416407098878
0.04073675231958168   -0.28824976477365544   -0.012206003726694472
0.049118902314139096   -0.2380157517173307   -0.01272742512326213
0.02100994264439805   -0.23841498462593008   -0.011906119720186644
0.04073675231958168   -0.28824976477365544   -0.012206003726694472
0.014200123304631653   -0.2893989151749085   -0.011904388575738476
0.013700943354109643   -0.28955514076044203   -0.012493685535942621
0.02100994264439805   -0.23841498462593008   -0.011906119720186644
0.04073675231958168   -0.28824976477365544   -0.012206003726694472
0.013700943354109643   -0.28955514076044203   -0.012493685535942621
0.049118902314139096   -0.2380157517173307   -0.01272742512326213
0.02100994264439805   -0.23841498462593008   -0.011906119720186644
0.014200123304631653   -0.2893989151749085   -0.011904388575738476
0.049931961815463846   -0.2377354513743748   -0.012221416407098878
0.02129578504734004   -0.23835199843342886   -0.011573897083443507
0.014200123304631653   -0.2893989151749085   -0.011904388575738476
0.04073675231958168   -0.28824976477365544   -0.012206003726694472
0.049931961815463846   -0.2377354513743748   -0.012221416407098878
0.04171873160296427   -0.28816132798179644   -0.011427668647128748
0.02129578504734004   -0.23835199843342886   -0.011573897083443507
0.050488679767803885   -0.23759963668626738   -0.011792393000967804
0.04171873160296427   -0.28816132798179644   -0.011427668647128748
0.049931961815463846   -0.2377354513743748   -0.012221416407098878
0.02129578504734004   -0.23835199843342886   -0.011573897083443507
0.04171873160296427   -0.28816132798179644   -0.011427668647128748
0.014711496707607987   -0.2893702317473793   -0.01137411129805106
0.014200123304631653   -0.2893989151749085   -0.011904388575738476
0.02129578504734004   -0.23835199843342886   -0.011573897083443507
0.04171873160296427   -0.28816132798179644   -0.011427668647128748
0.014200123304631653   -0.2893989151749085   -0.011904388575738476
0.049931961815463846   -0.2377354513743748   -0.012221416407098878
0.02129578504734004   -0.23835199843342886   -0.011573897083443507
0.014711496707607987   -0.2893702317473793   -0.01137411129805106
0.050488679767803885   -0.23759963668626738   -0.011792393000967804
0.021446929109193866   -0.23831633023901008   -0.011292256335513898
0.014711496707607987   -0.2893702317473793   -0.01137411129805106
0.04171873160296427   -0.28816132798179644   -0.011427668647128748
0.050488679767803885   -0.23759963668626738   -0.011792393000967804
0.04271234640936779   -0.28816007973192537   -0.010731270615751172
0.021446929109193866   -0.23831633023901008   -0.011292256335513898
0.05098042255770516   -0.23745047784651857   -0.011443530862597393
0.04271234640936779   -0.28816007973192537   -0.010731270615751172
0.050488679767803885   -0.23759963668626738   -0.011792393000967804
0.021446929109193866   -0.23831633023901008   -0.011292256335513898
0.04271234640936779   -0.28816007973192537   -0.010731270615751172
0.01505074321687371   -0.28944545666547966   -0.01089508123551817
0.014711496707607987   -0.2893702317473793   -0.01137411129805106
0.021446929109193866   -0.23831633023901008   -0.011292256335513898
0.04271234640936779   -0.28816007973192537   -0.010731270615751172
0.014711496707607987   -0.2893702317473793   -0.01137411129805106
0.050488679767803885   -0.23759963668626738   -0.011792393000967804
-0.08472654768455519   -0.28948564770470475   -0.013107657890951177
-0.07731602672267072   -0.3343551771932747   -0.012218447807607339
-0.05786280927397573   -0.2900698979678813   -0.012632335112875101
-0.08411562351994484   -0.2898887719427989   -0.01344274507946959
-0.07731602672267072   -0.3343551771932747   -0.012218447807607339
-0.054697479226761526   -0.33541233034327783   -0.012140744435361133
-0.05786280927397573   -0.2900698979678813   -0.012632335112875101
-0.05413073076719842   -0.3355654440271738   -0.01239027341693097
-0.08411562351994484   -0.2898887719427989   -0.01344274507946959
-0.057524213325092985   -0.29036852825059295   -0.012703511156304812
-0.05413073076719842   -0.3355654440271738   -0.01239027341693097
-0.05786280927397573   -0.2900698979678813   -0.012632335112875101
-0.08411562351994484   -0.2898887719427989   -0.01344274507946959
-0.05413073076719842   -0.3355654440271738   -0.01239027341693097
-0.07613793154557494   -0.3345826597134705   -0.012915922777678448
-0.07731602672267072   -0.3343551771932747   -0.012218447807607339
-0.08411562351994484   -0.2898887719427989   -0.01344274507946959
-0.05413073076719842   -0.3355654440271738   -0.01239027341693097
-0.07731602672267072   -0.3343551771932747   -0.012218447807607339
-0.05786280927397573   -0.2900698979678813   -0.012632335112875101
-0.08411562351994484   -0.2898887719427989   -0.01344274507946959
-0.07613793154557494   -0.3345826597134705   -0.012915922777678448
-0.057524213325092985   -0.29036852825059295   -0.012703511156304812
-0.08341660732924107   -0.2903821139644675   -0.013865925903508543
-0.07613793154557494   -0.3345826597134705   -0.012915922777678448
-0.05413073076719842   -0.3355654440271738   -0.01239027341693097
-0.057524213325092985   -0.29036852825059295   -0.012703511156304812
-0.05341897963287126   -0.3359312217008981   -0.012696793089062753
-0.08341660732924107   -0.2903821139644675   -0.013865925903508543
-0.0570649972038253   -0.2907925623454511   -0.01283068143440576
-0.05341897963287126   -0.3359312217008981   -0.012696793089062753
-0.057524213325092985   -0.29036852825059295   -0.012703511156304812
-0.08341660732924107   -0.2903821139644675   -0.013865925903508543
-0.05341897963287126   -0.3359312217008981   -0.012696793089062753
-0.0749616147136871   -0.33501187906177543   -0.013706210936273151
-0.07613793154557494   -0.3345826597134705   -0.012915922777678448
-0.08341660732924107   -0.2903821139644675   -0.013865925903508543
-0.05341897963287126   -0.3359312217008981   -0.012696793089062753
-0.07613793154557494   -0.3345826597134705   -0.012915922777678448
-0.057524213325092985   -0.29036852825059295   -0.012703511156304812
-0.08341660732924107   -0.2903821139644675   -0.013865925903508543
-0.0749616147136871   -0.33501187906177543   -0.013706210936273151
-0.0570649972038253   -0.2907925623454511   -0.01283068143440576
-0.08246355485096075   -0.2911323505330704   -0.014378740596929087
-0.0749616147136871   -0.33501187906177543   -0.013706210936273151
-0.05341897963287126   -0.3359312217008981   -0.012696793089062753
-0.0570649972038253   -0.2907925623454511   -0.01283068143440576
-0.05271647667130171   -0.3365304180009664   -0.013059772009307344
-0.08246355485096075   -0.2911323505330704   -0.014378740596929087
-0.05657190499422542   -0.29136781241966214   -0.013015552873947782
-0.05271647667130171   -0.3365304180009664   -0.013059772009307344
-0.0570649972038253   -0.2907925623454511   -0.01283068143440576
-0.08246355485096075   -0.2911323505330704   -0.014378740596929087
-0.05271647667130171   -0.3365304180009664   -0.013059772009307344
-0.07345448296097909   -0.33581223404484994   -0.014587505631251097
-0.0749616147136871   -0.33501187906177543   -0.013706210936273151
-0.08246355485096075   -0.2911323505330704   -0.014378740596929087
-0.05271647667130171   -0.3365304180009664   -0.013059772009307344
-0.0749616147136871   -0.33501187906177543   -0.013706210936273151
-0.0570649972038253   -0.2907925623454511   -0.01283068143440576
-0.05786280927397573   -0.2900698979678813   -0.012632335112875101
-0.054697479226761526   -0.33541233034327783   -0.012140744435361133
-0.033791612185076925   -0.2903024634171542   -0.012327764693132726
-0.057524213325092985   -0.29036852825059295   -0.012703511156304812
-0.054697479226761526   -0.33541233034327783   -0.012140744435361133
-0.035127628178159793   -0.3359098550042669   -0.012109199568372841
-0.033791612185076925   -0.2903024634171542   -0.012327764693132726
-0.03454571539381483   -0.3359604272052249   -0.011998110659434034
-0.057524213325092985   -0.29036852825059295   -0.012703511156304812
-0.03342245082417191   -0.29045821871057637   -0.012172886478780155
-0.03454571539381483   -0.3359604272052249   -0.011998110659434034
-0.033791612185076925   -0.2903024634171542   -0.012327764693132726
-0.057524213325092985   -0.29036852825059295   -0.012703511156304812
-0.03454571539381483   -0.3359604272052249   -0.011998110659434034
-0.05413073076719842   -0.3355654440271738   -0.01239027341693097
-0.054697479226761526   -0.33541233034327783   -0.012140744435361133
-0.057524213325092985   -0.29036852825059295   -0.012703511156304812
-0.03454571539381483   -0.3359604272052249   -0.011998110659434034
-0.054697479226761526   -0.33541233034327783   -0.012140744435361133
-0.033791612185076925   -0.2903024634171542   -0.012327764693132726
-0.057524213325092985   -0.29036852825059295   -0.012703511156304812
-0.05413073076719842   -0.3355654440271738   -0.01239027341693097
-0.03342245082417191   -0.29045821871057637   -0.012172886478780155
-0.0570649972038253   -0.2907925623454511   -0.01283068143440576
-0.05413073076719842   -0.3355654440271738   -0.01239027341693097
-0.03454571539381483   -0.3359604272052249   -0.011998110659434034
-0.03342245082417191   -0.29045821871057637   -0.012172886478780155
-0.033945282532664225   -0.33620079174192   -0.011942327568161836
-0.0570649972038253   -0.2907925623454511   -0.01283068143440576
-0.03302516881665088   -0.2907346421281765   -0.012073330754190951
-0.033945282532664225   -0.33620079174192   -0.011942327568161836
-0.03342245082417191   -0.29045821871057637   -0.012172886478780155
-0.0570649972038253   -0.2907925623454511   -0.01283068143440576
-0.033945282532664225   -0.33620079174192   -0.011942327568161836
-0.05341897963287126   -0.3359312217008981   -0.012696793089062753
-0.05413073076719842   -0.3355654440271738   -0.01239027341693097
-0.0570649972038253   -0.2907925623454511   -0.01283068143440576
-0.033945282532664225   -0.33620079174192   -0.011942327568161836
-0.05413073076719842   -0.3355654440271738   -0.01239027341693097
-0.03342245082417191   -0.29045821871057637   -0.012172886478780155
-0.0570649972038253   -0.2907925623454511   -0.01283068143440576
-0.05341897963287126   -0.3359312217008981   -0.012696793089062753
-0.03302516881665088   -0.2907346421281765   -0.012073330754190951
-0.05657190499422542   -0.29136781241966214   -0.013015552873947782
-0.05341897963287126   -0.3359312217008981   -0.012696793089062753
-0.033945282532664225   -0.33620079174192   -0.011942327568161836
-0.03302516881665088   -0.2907346421281765   -0.012073330754190951
-0.033345923040933645   -0.33664235137612153   -0.011941070903605867
-0.05657190499422542   -0.29136781241966214   -0.013015552873947782
-0.0326168010119529   -0.291135276154111   -0.012031768115692915
-0.033345923040933645   -0.33664235137612153   -0.011941070903605867
-0.03302516881665088   -0.2907346421281765   -0.012073330754190951
-0.05657190499422542   -0.29136781241966214   -0.013015552873947782
-0.033345923040933645   -0.33664235137612153   -0.011941070903605867
-0.05271647667130171   -0.3365304180009664   -0.013059772009307344
-0.05341897963287126   -0.3359312217008981   -0.012696793089062753
-0.05657190499422542   -0.29136781241966214   -0.013015552873947782
-0.033345923040933645   -0.33664235137612153   -0.011941070903605867
-0.05341897963287126   -0.3359312217008981   -0.012696793089062753
-0.03302516881665088   -0.2907346421281765   -0.012073330754190951
-0.033791612185076925   -0.2903024634171542   -0.012327764693132726
-0.035127628178159793   -0.3359098550042669   -0.012109199568372841
-0.010450931456557042   -0.29012666253181935   -0.012274945573836318
-0.03342245082417191   -0.29045821871057637   -0.012172886478780155
-0.035127628178159793   -0.3359098550042669   -0.012109199568372841
-0.016209039141362982   -0.3358241422545369   -0.012247747501308642
-0.010450931456557042   -0.29012666253181935   -0.012274945573836318
-0.015571595656409016   -0.33575972491695383   -0.011788740936570665
-0.03342245082417191   -0.29045821871057637   -0.012172886478780155
-0.01004254450372181   -0.2901315034288588   -0.01190176718467163
-0.015571595656409016   -0.33575972491695383   -0.011788740936570665
-0.010450931456557042   -0.29012666253181935   -0.012274945573836318
-0.03342245082417191   -0.29045821871057637   -0.012172886478780155
-0.015571595656409016   -0.33575972491695383   -0.011788740936570665
-0.03454571539381483   -0.3359604272052249   -0.011998110659434034
-0.035127628178159793   -0.3359098550042669   -0.012109199568372841
-0.03342245082417191   -0.29045821871057637   -0.012172886478780155
-0.015571595656409016   -0.33575972491695383   -0.011788740936570665
-0.035127628178159793   -0.3359098550042669   -0.012109199568372841
-0.010450931456557042   -0.29012666253181935   -0.012274945573836318
-0.03342245082417191   -0.29045821871057637   -0.012172886478780155
-0.03454571539381483   -0.3359604272052249   -0.011998110659434034
-0.01004254450372181   -0.2901315034288588   -0.01190176718467163
-0.03302516881665088   -0.2907346421281765   -0.012073330754190951
-0.03454571539381483   -0.3359604272052249   -0.011998110659434034
-0.015571595656409016   -0.33575972491695383   -0.011788740936570665
-0.01004254450372181   -0.2901315034288588   -0.01190176718467163
-0.014953203444069993   -0.33586666612036553   -0.0113886777250531
-0.03302516881665088   -0.2907346421281765   -0.012073330754190951
-0.00964497523088701   -0.2902480360673198   -0.011584024537801666
-0.014953203444069993   -0.33586666612036553   -0.0113886777250531
-0.01004254450372181   -0.2901315034288588   -0.01190176718467163
-0.03302516881665088   -0.2907346421281765   -0.012073330754190951
-0.014953203444069993   -0.33586666612036553   -0.0113886777250531
-0.033945282532664225   -0.33620079174192   -0.011942327568161836
-0.03454571539381483   -0.3359604272052249   -0.011998110659434034
-0.03302516881665088   -0.2907346421281765   -0.012073330754190951
-0.014953203444069993   -0.33586666612036553   -0.0113886777250531
-0.03454571539381483   -0.3359604272052249   -0.011998110659434034
-0.01004254450372181   -0.2901315034288588   -0.01190176718467163
-0.03302516881665088   -0.2907346421281765   -0.012073330754190951
-0.033945282532664225   -0.33620079174192   -0.011942327568161836
-0.00964497523088701   -0.2902480360673198   -0.011584024537801666
-0.0326168010119529   -0.291135276154111   -0.012031768115692915
-0.033945282532664225   -0.33620079174192   -0.011942327568161836
-0.014953203444069993   -0.33586666612036553   -0.0113886777250531
-0.00964497523088701   -0.2902480360673198   -0.011584024537801666
-0.014394743853115514   -0.3361702873346268   -0.011042416350793127
-0.0326168010119529   -0.291135276154111   -0.012031768115692915
-0.009290586140444193   -0.2904860284628238   -0.011323655528285074
-0.014394743853115514   -0.3361702873346268   -0.011042416350793127
-0.00964497523088701   -0.2902480360673198   -0.011584024537801666
-0.0326168010119529   -0.291135276154111   -0.012031768115692915
-0.014394743853115514   -0.3361702873346268   -0.011042416350793127
-0.033345923040933645   -0.33664235137612153   -0.011941070903605867
-0.033945282532664225   -0.33620079174192   -0.011942327568161836
-0.0326168010119529   -0.291135276154111   -0.012031768115692915
-0.014394743853115514   -0.3361702873346268   -0.011042416350793127
-0.033945282532664225   -0.33620079174192   -0.011942327568161836
-0.00964497523088701   -0.2902480360673198   -0.011584024537801666
-0.010450931456557042   -0.29012666253181935   -0.012274945573836318
-0.016209039141362982   -0.3358241422545369   -0.012247747501308642
0.013700943354109643   -0.28955514076044203   -0.012493685535942621
-0.01004254450372181   -0.2901315034288588   -0.01190176718467163
-0.016209039141362982   -0.3358241422545369   -0.012247747501308642
0.003607290644079658   -0.3351344198935589   -0.012587524459106407
0.013700943354109643   -0.28955514076044203   -0.012493685535942621
0.004382263074415097   -0.33492364888043574   -0.01178193205586361
-0.01004254450372181   -0.2901315034288588   -0.01190176718467163
0.014200123304631653   -0.2893989151749085   -0.011904388575738476
0.004382263074415097   -0.33492364888043574   -0.01178193205586361
0.013700943354109643   -0.28955514076044203   -0.012493685535942621
-0.01004254450372181   -0.2901315034288588   -0.01190176718467163
0.004382263074415097   -0.33492364888043574   -0.01178193205586361
-0.015571595656409016   -0.33575972491695383   -0.011788740936570665
-0.016209039141362982   -0.3358241422545369   -0.012247747501308642
-0.01004254450372181   -0.2901315034288588   -0.01190176718467163
0.004382263074415097   -0.33492364888043574   -0.01178193205586361
-0.016209039141362982   -0.3358241422545369   -0.012247747501308642
0.013700943354109643   -0.28955514076044203   -0.012493685535942621
-0.01004254450372181   -0.2901315034288588   -0.01190176718467163
-0.015571595656409016   -0.33575972491695383   -0.011788740936570665
0.014200123304631653   -0.2893989151749085   -0.011904388575738476
-0.00964497523088701   -0.2902480360673198   -0.011584024537801666
-0.015571595656409016   -0.33575972491695383   -0.011788740936570665
0.004382263074415097   -0.33492364888043574   -0.01178193205586361
0.014200123304631653   -0.2893989151749085   -0.011904388575738476
0.005198169015717131   -0.334904500413154   -0.01105112293146622
-0.00964497523088701   -0.2902480360673198   -0.011584024537801666
0.014711496707607987   -0.2893702317473793   -0.01137411129805106
0.005198169015717131   -0.334904500413154   -0.01105112293146622
0.014200123304631653   -0.2893989151749085   -0.011904388575738476
-0.00964497523088701   -0.2902480360673198   -0.011584024537801666
0.005198169015717131   -0.334904500413154   -0.01105112293146622
-0.014953203444069993   -0.33586666612036553   -0.0113886777250531
-0.015571595656409016   -0.33575972491695383   -0.011788740936570665
-0.00964497523088701   -0.2902480360673198   -0.011584024537801666
0.005198169015717131   -0.334904500413154   -0.01105112293146622
-0.015571595656409016   -0.33575972491695383   -0.011788740936570665
0.014200123304631653   -0.2893989151749085   -0.011904388575738476
-0.00964497523088701   -0.2902480360673198   -0.011584024537801666
-0.014953203444069993   -0.33586666612036553   -0.0113886777250531
0.014711496707607987   -0.2893702317473793   -0.01137411129805106
-0.009290586140444193   -0.2904860284628238   -0.011323655528285074
-0.014953203444069993   -0.33586666612036553   -0.0113886777250531
0.005198169015717131   -0.334904500413154   -0.01105112293146622
0.014711496707607987   -0.2893702317473793   -0.01137411129805106
0.005794914476979637   -0.33506837043279397   -0.010371836638105404
-0.009290586140444193   -0.2904860284628238   -0.011323655528285074
0.01505074321687371   -0.28944545666547966   -0.01089508123551817
0.005794914476979637   -0.33506837043279397   -0.010371836638105404
0.014711496707607987   -0.2893702317473793   -0.01137411129805106
-0.009290586140444193   -0.2904860284628238   -0.011323655528285074
0.005794914476979637   -0.33506837043279397   -0.010371836638105404
-0.014394743853115514   -0.3361702873346268   -0.011042416350793127
-0.014953203444069993   -0.33586666612036553   -0.0113886777250531
-0.009290586140444193   -0.2904860284628238   -0.011323655528285074
0.005794914476979637   -0.33506837043279397   -0.010371836638105404
-0.014953203444069993   -0.33586666612036553   -0.0113886777250531
0.014711496707607987   -0.2893702317473793   -0.01137411129805106
0.013700943354109643   -0.28955514076044203   -0.012493685535942621
0.003607290644079658   -0.3351344198935589   -0.012587524459106407
0.039409205550852276   -0.2885729730211665   -0.013062755292761513
0.014200123304631653   -0.2893989151749085   -0.011904388575738476
0.003607290644079658   -0.3351344198935589   -0.012587524459106407
0.02475518639190654   -0.33377494926706014   -0.01331783047469228
0.039409205550852276   -0.2885729730211665   -0.013062755292761513
0.02671169538897062   -0.3333697704252953   -0.012085256853454313
0.014200123304631653   -0.2893989151749085   -0.011904388575738476
0.04073675231958168   -0.28824976477365544   -0.012206003726694472
0.02671169538897062   -0.3333697704252953   -0.012085256853454313
0.039409205550852276   -0.2885729730211665   -0.013062755292761513
0.014200123304631653   -0.2893989151749085   -0.011904388575738476
0.02671169538897062   -0.3333697704252953   -0.012085256853454313
0.004382263074415097   -0.33492364888043574   -0.01178193205586361
0.003607290644079658   -0.3351344198935589   -0.012587524459106407
0.014200123304631653   -0.2893989151749085   -0.011904388575738476
0.02671169538897062   -0.3333697704252953   -0.012085256853454313
0.003607290644079658   -0.3351344198935589   -0.012587524459106407
0.039409205550852276   -0.2885729730211665   -0.013062755292761513
0.014200123304631653   -0.2893989151749085   -0.011904388575738476
0.004382263074415097   -0.33492364888043574   -0.01178193205586361
0.04073675231958168   -0.28824976477365544   -0.012206003726694472
0.014711496707607987   -0.2893702317473793   -0.01137411129805106
0.004382263074415097   -0.33492364888043574   -0.01178193205586361
0.02671169538897062   -0.3333697704252953   -0.012085256853454313
0.04073675231958168   -0.28824976477365544   -0.012206003726694472
0.028211332538864934   -0.33329963575455274   -0.010945395308137857
0.014711496707607987   -0.2893702317473793   -0.01137411129805106
0.04171873160296427   -0.28816132798179644   -0.011427668647128748
0.028211332538864934   -0.33329963575455274   -0.010945395308137857
0.04073675231958168   -0.28824976477365544   -0.012206003726694472
0.014711496707607987   -0.2893702317473793   -0.01137411129805106
0.028211332538864934   -0.33329963575455274   -0.010945395308137857
0.005198169015717131   -0.334904500413154   -0.01105112293146622
0.004382263074415097   -0.33492364888043574   -0.01178193205586361
0.014711496707607987   -0.2893702317473793   -0.01137411129805106
0.028211332538864934   -0.33329963575455274   -0.010945395308137857
0.004382263074415097   -0.33492364888043574   -0.01178193205586361
0.04073675231958168   -0.28824976477365544   -0.012206003726694472
0.014711496707607987   -0.2893702317473793   -0.01137411129805106
0.005198169015717131   -0.334904500413154   -0.01105112293146622
0.04171873160296427   -0.28816132798179644   -0.011427668647128748
0.01505074321687371   -0.28944545666547966   -0.01089508123551817
0.005198169015717131   -0.334904500413154   -0.01105112293146622
0.028211332538864934   -0.33329963575455274   -0.010945395308137857
0.04171873160296427   -0.28816132798179644   -0.011427668647128748
0.029762278611274562   -0.3334187859914072   -0.009907608033880948
0.01505074321687371   -0.28944545666547966   -0.01089508123551817
0.04271234640936779   -0.28816007973192537   -0.010731270615751172
0.029762278611274562   -0.3334187859914072   -0.009907608033880948
0.04171873160296427   -0.28816132798179644   -0.011427668647128748
0.01505074321687371   -0.28944545666547966   -0.01089508123551817
0.029762278611274562   -0.3334187859914072   -0.009907608033880948
0.005794914476979637   -0.33506837043279397   -0.010371836638105404
0.005198169015717131   -0.334904500413154   -0.01105112293146622
0.01505074321687371   -0.28944545666547966   -0.01089508123551817
0.029762278611274562   -0.3334187859914072   -0.009907608033880948
0.005198169015717131   -0.334904500413154   -0.01105112293146622
0.04171873160296427   -0.28816132798179644   -0.011427668647128748
-0.07731602672267072   -0.3343551771932747   -0.012218447807607339
-0.06469752310315477   -0.3695918141962251   -0.011081285164261205
-0.054697479226761526   -0.33541233034327783   -0.012140744435361133
-0.07613793154557494   -0.3345826597134705   -0.012915922777678448
-0.06469752310315477   -0.3695918141962251   -0.011081285164261205
-0.048607307348154064   -0.3711608500213381   -0.011552665231708892
-0.054697479226761526   -0.33541233034327783   -0.012140744435361133
-0.047787454828906145   -0.3710787997050115   -0.01193688016675119
-0.07613793154557494   -0.3345826597134705   -0.012915922777678448
-0.05413073076719842   -0.3355654440271738   -0.01239027341693097
-0.047787454828906145   -0.3710787997050115   -0.01193688016675119
-0.054697479226761526   -0.33541233034327783   -0.012140744435361133
-0.07613793154557494   -0.3345826597134705   -0.012915922777678448
-0.047787454828906145   -0.3710787997050115   -0.01193688016675119
-0.0629354531536139   -0.3695468429023263   -0.012117453857946102
-0.06469752310315477   -0.3695918141962251   -0.011081285164261205
-0.07613793154557494   -0.3345826597134705   -0.012915922777678448
-0.047787454828906145   -0.3710787997050115   -0.01193688016675119
-0.06469752310315477   -0.3695918141962251   -0.011081285164261205
-0.054697479226761526   -0.33541233034327783   -0.012140744435361133
-0.07613793154557494   -0.3345826597134705   -0.012915922777678448
-0.0629354531536139   -0.3695468429023263   -0.012117453857946102
-0.05413073076719842   -0.3355654440271738   -0.01239027341693097
-0.0749616147136871   -0.33501187906177543   -0.013706210936273151
-0.0629354531536139   -0.3695468429023263   -0.012117453857946102
-0.047787454828906145   -0.3710787997050115   -0.01193688016675119
-0.05413073076719842   -0.3355654440271738   -0.01239027341693097
-0.04682401849200216   -0.371302472344163   -0.01237947848646644
-0.0749616147136871   -0.33501187906177543   -0.013706210936273151
-0.05341897963287126   -0.3359312217008981   -0.012696793089062753
-0.04682401849200216   -0.371302472344163   -0.01237947848646644
-0.05413073076719842   -0.3355654440271738   -0.01239027341693097
-0.0749616147136871   -0.33501187906177543   -0.013706210936273151
-0.04682401849200216   -0.371302472344163   -0.01237947848646644
-0.06131033543623038   -0.369823553775996   -0.013235784953608925
-0.0629354531536139   -0.3695468429023263   -0.012117453857946102
-0.0749616147136871   -0.33501187906177543   -0.013706210936273151
-0.04682401849200216   -0.371302472344163   -0.01237947848646644
-0.0629354531536139   -0.3695468429023263   -0.012117453857946102
-0.05413073076719842   -0.3355654440271738   -0.01239027341693097
-0.0749616147136871   -0.33501187906177543   -0.013706210936273151
-0.06131033543623038   -0.369823553775996   -0.013235784953608925
-0.05341897963287126   -0.3359312217008981   -0.012696793089062753
-0.07345448296097909   -0.33581223404484994   -0.014587505631251097
-0.06131033543623038   -0.369823553775996   -0.013235784953608925
-0.04682401849200216   -0.371302472344163   -0.01237947848646644
-0.05341897963287126   -0.3359312217008981   -0.012696793089062753
-0.04594994645411484   -0.3718368369538526   -0.01287670852747663
-0.07345448296097909   -0.33581223404484994   -0.014587505631251097
-0.05271647667130171   -0.3365304180009664   -0.013059772009307344
-0.04594994645411484   -0.3718368369538526   -0.01287670852747663
-0.05341897963287126   -0.3359312217008981   -0.012696793089062753
-0.07345448296097909   -0.33581223404484994   -0.014587505631251097
-0.04594994645411484   -0.3718368369538526   -0.01287670852747663
-0.05932883138974593   -0.3705653256637922   -0.014431341759071393
-0.06131033543623038   -0.369823553775996   -0.013235784953608925
-0.07345448296097909   -0.33581223404484994   -0.014587505631251097
-0.04594994645411484   -0.3718368369538526   -0.01287670852747663
-0.06131033543623038   -0.369823553775996   -0.013235784953608925
-0.05341897963287126   -0.3359312217008981   -0.012696793089062753
-0.054697479226761526   -0.33541233034327783   -0.012140744435361133
-0.048607307348154064   -0.3711608500213381   -0.011552665231708892
-0.035127628178159793   -0.3359098550042669   -0.012109199568372841
-0.05413073076719842   -0.3355654440271738   -0.01239027341693097
-0.048607307348154064   -0.3711608500213381   -0.011552665231708892
-0.035479655292972735   -0.37218366900071004   -0.011921365745110182
-0.035127628178159793   -0.3359098550042669   -0.012109199568372841
-0.034637571032707634   -0.3720534907461613   -0.0118036924648627
-0.05413073076719842   -0.3355654440271738   -0.01239027341693097
-0.03454571539381483   -0.3359604272052249   -0.011998110659434034
-0.034637571032707634   -0.3720534907461613   -0.0118036924648627
-0.035127628178159793   -0.3359098550042669   -0.012109199568372841
-0.05413073076719842   -0.3355654440271738   -0.01239027341693097
-0.034637571032707634   -0.3720534907461613   -0.0118036924648627
-0.047787454828906145   -0.3710787997050115   -0.01193688016675119
-0.048607307348154064   -0.3711608500213381   -0.011552665231708892
-0.05413073076719842   -0.3355654440271738   -0.01239027341693097
-0.034637571032707634   -0.3720534907461613   -0.0118036924648627
-0.048607307348154064   -0.3711608500213381   -0.011552665231708892
-0.035127628178159793   -0.3359098550042669   -0.012109199568372841
-0.05413073076719842   -0.3355654440271738   -0.01239027341693097
-0.047787454828906145   -0.3710787997050115   -0.01193688016675119
-0.03454571539381483   -0.3359604272052249   -0.011998110659434034
-0.05341897963287126   -0.3359312217008981   -0.012696793089062753
-0.047787454828906145   -0.3710787997050115   -0.01193688016675119
-0.034637571032707634   -0.3720534907461613   -0.0118036924648627
-0.03454571539381483   -0.3359604272052249   -0.011998110659434034
-0.033807816221668646   -0.3721869442081931   -0.011742667654716186
-0.05341897963287126   -0.3359312217008981   -0.012696793089062753
-0.033945282532664225   -0.33620079174192   -0.011942327568161836
-0.033807816221668646   -0.3721869442081931   -0.011742667654716186
-0.03454571539381483   -0.3359604272052249   -0.011998110659434034
-0.05341897963287126   -0.3359312217008981   -0.012696793089062753
-0.033807816221668646   -0.3721869442081931   -0.011742667654716186
-0.04682401849200216   -0.371302472344163   -0.01237947848646644
-0.047787454828906145   -0.3710787997050115   -0.01193688016675119
-0.05341897963287126   -0.3359312217008981   -0.012696793089062753
-0.033807816221668646   -0.3721869442081931   -0.011742667654716186
-0.047787454828906145   -0.3710787997050115   -0.01193688016675119
-0.03454571539381483   -0.3359604272052249   -0.011998110659434034
-0.05341897963287126   -0.3359312217008981   -0.012696793089062753
-0.04682401849200216   -0.371302472344163   -0.01237947848646644
-0.033945282532664225   -0.33620079174192   -0.011942327568161836
-0.05271647667130171   -0.3365304180009664   -0.013059772009307344
-0.04682401849200216   -0.371302472344163   -0.01237947848646644
-0.033807816221668646   -0.3721869442081931   -0.011742667654716186
-0.033945282532664225   -0.33620079174192   -0.011942327568161836
-0.0330448614155161   -0.3725929951779246   -0.011750244147325867
-0.05271647667130171   -0.3365304180009664   -0.013059772009307344
-0.033345923040933645   -0.33664235137612153   -0.011941070903605867
-0.0330448614155161   -0.3725929951779246   -0.011750244147325867
-0.033945282532664225   -0.33620079174192   -0.011942327568161836
-0.05271647667130171   -0.3365304180009664   -0.013059772009307344
-0.0330448614155161   -0.3725929951779246   -0.011750244147325867
-0.04594994645411484   -0.3718368369538526   -0.01287670852747663
-0.04682401849200216   -0.371302472344163   -0.01237947848646644
-0.05271647667130171   -0.3365304180009664   -0.013059772009307344
-0.0330448614155161   -0.3725929951779246   -0.011750244147325867
-0.04682401849200216   -0.371302472344163   -0.01237947848646644
-0.033945282532664225   -0.33620079174192   -0.011942327568161836
-0.035127628178159793   -0.3359098550042669   -0.012109199568372841
-0.035479655292972735   -0.37218366900071004   -0.011921365745110182
-0.016209039141362982   -0.3358241422545369   -0.012247747501308642
-0.03454571539381483   -0.3359604272052249   -0.011998110659434034
-0.035479655292972735   -0.37218366900071004   -0.011921365745110182
-0.022908050574770463   -0.37273010898261777   -0.012355071856097136
-0.016209039141362982   -0.3358241422545369   -0.012247747501308642
-0.021958585150385353   -0.3725434868470151   -0.01176443753391415
-0.03454571539381483   -0.3359604272052249   -0.011998110659434034
-0.015571595656409016   -0.33575972491695383   -0.011788740936570665
-0.021958585150385353   -0.3725434868470151   -0.01176443753391415
-0.016209039141362982   -0.3358241422545369   -0.012247747501308642
-0.03454571539381483   -0.3359604272052249   -0.011998110659434034
-0.021958585150385353   -0.3725434868470151   -0.01176443753391415
-0.034637571032707634   -0.3720534907461613   -0.0118036924648627
-0.035479655292972735   -0.37218366900071004   -0.011921365745110182
-0.03454571539381483   -0.3359604272052249   -0.011998110659434034
-0.021958585150385353   -0.3725434868470151   -0.01176443753391415
-0.035479655292972735   -0.37218366900071004   -0.011921365745110182
-0.016209039141362982   -0.3358241422545369   -0.012247747501308642
-0.03454571539381483   -0.3359604272052249   -0.011998110659434034
-0.034637571032707634   -0.3720534907461613   -0.0118036924648627
-0.015571595656409016   -0.33575972491695383   -0.011788740936570665
-0.033945282532664225   -0.33620079174192   -0.011942327568161836
-0.034637571032707634   -0.3720534907461613   -0.0118036924648627
-0.021958585150385353   -0.3725434868470151   -0.01176443753391415
-0.015571595656409016   -0.33575972491695383   -0.011788740936570665
-0.021053912398546776   -0.372588184227853   -0.011223662853078745
-0.033945282532664225   -0.33620079174192   -0.011942327568161836
-0.014953203444069993   -0.33586666612036553   -0.0113886777250531
-0.021053912398546776   -0.372588184227853   -0.011223662853078745
-0.015571595656409016   -0.33575972491695383   -0.011788740936570665
-0.033945282532664225   -0.33620079174192   -0.011942327568161836
-0.021053912398546776   -0.372588184227853   -0.011223662853078745
-0.033807816221668646   -0.3721869442081931   -0.011742667654716186
-0.034637571032707634   -0.3720534907461613   -0.0118036924648627
-0.033945282532664225   -0.33620079174192   -0.011942327568161836
-0.021053912398546776   -0.372588184227853   -0.011223662853078745
-0.034637571032707634   -0.3720534907461613   -0.0118036924648627
-0.015571595656409016   -0.33575972491695383   -0.011788740936570665
-0.033945282532664225   -0.33620079174192   -0.011942327568161836
-0.033807816221668646   -0.3721869442081931   -0.011742667654716186
-0.014953203444069993   -0.33586666612036553   -0.0113886777250531
-0.033345923040933645   -0.33664235137612153   -0.011941070903605867
-0.033807816221668646   -0.3721869442081931   -0.011742667654716186
-0.021053912398546776   -0.372588184227853   -0.011223662853078745
-0.014953203444069993   -0.33586666612036553   -0.0113886777250531
-0.020302301719794413   -0.3729101937700136   -0.010764394848056504
-0.033345923040933645   -0.33664235137612153   -0.011941070903605867
-0.014394743853115514   -0.3361702873346268   -0.011042416350793127
-0.020302301719794413   -0.3729101937700136   -0.010764394848056504
-0.014953203444069993   -0.33586666612036553   -0.0113886777250531
-0.033345923040933645   -0.33664235137612153   -0.011941070903605867
-0.020302301719794413   -0.3729101937700136   -0.010764394848056504
-0.0330448614155161   -0.3725929951779246   -0.011750244147325867
-0.033807816221668646   -0.3721869442081931   -0.011742667654716186
-0.033345923040933645   -0.33664235137612153   -0.011941070903605867
-0.020302301719794413   -0.3729101937700136   -0.010764394848056504
-0.033807816221668646   -0.3721869442081931   -0.011742667654716186
-0.014953203444069993   -0.33586666612036553   -0.0113886777250531
-0.016209039141362982   -0.3358241422545369   -0.012247747501308642
-0.022908050574770463   -0.37273010898261777   -0.012355071856097136
0.003607290644079658   -0.3351344198935589   -0.012587524459106407
-0.015571595656409016   -0.33575972491695383   -0.011788740936570665
-0.022908050574770463   -0.37273010898261777   -0.012355071856097136
-0.009525137169233372   -0.3726114913960053   -0.012864259318076466
0.003607290644079658   -0.3351344198935589   -0.012587524459106407
-0.008306131986194145   -0.3723192497599238   -0.01182165351390465
-0.015571595656409016   -0.33575972491695383   -0.011788740936570665
0.004382263074415097   -0.33492364888043574   -0.01178193205586361
-0.008306131986194145   -0.3723192497599238   -0.01182165351390465
0.003607290644079658   -0.3351344198935589   -0.012587524459106407
-0.015571595656409016   -0.33575972491695383   -0.011788740936570665
-0.008306131986194145   -0.3723192497599238   -0.01182165351390465
-0.021958585150385353   -0.3725434868470151   -0.01176443753391415
-0.022908050574770463   -0.37273010898261777   -0.012355071856097136
-0.015571595656409016   -0.33575972491695383   -0.011788740936570665
-0.008306131986194145   -0.3723192497599238   -0.01182165351390465
-0.022908050574770463   -0.37273010898261777   -0.012355071856097136
0.003607290644079658   -0.3351344198935589   -0.012587524459106407
-0.015571595656409016   -0.33575972491695383   -0.011788740936570665
-0.021958585150385353   -0.3725434868470151   -0.01176443753391415
0.004382263074415097   -0.33492364888043574   -0.01178193205586361
-0.014953203444069993   -0.33586666612036553   -0.0113886777250531
-0.021958585150385353   -0.3725434868470151   -0.01176443753391415
-0.008306131986194145   -0.3723192497599238   -0.01182165351390465
0.004382263074415097   -0.33492364888043574   -0.01178193205586361
-0.00706168006874568   -0.37226658713181043   -0.01083251405451684
-0.014953203444069993   -0.33586666612036553   -0.0113886777250531
0.005198169015717131   -0.334904500413154   -0.01105112293146622
-0.00706168006874568   -0.37226658713181043   -0.01083251405451684
0.004382263074415097   -0.33492364888043574   -0.01178193205586361
-0.014953203444069993   -0.33586666612036553   -0.0113886777250531
-0.00706168006874568   -0.37226658713181043   -0.01083251405451684
-0.021053912398546776   -0.372588184227853   -0.011223662853078745
-0.021958585150385353   -0.3725434868470151   -0.01176443753391415
-0.014953203444069993   -0.33586666612036553   -0.0113886777250531
-0.00706168006874568   -0.37226658713181043   -0.01083251405451684
-0.021958585150385353   -0.3725434868470151   -0.01176443753391415
0.004382263074415097   -0.33492364888043574   -0.01178193205586361
-0.014953203444069993   -0.33586666612036553   -0.0113886777250531
-0.021053912398546776   -0.372588184227853   -0.011223662853078745
0.005198169015717131   -0.334904500413154   -0.01105112293146622
-0.014394743853115514   -0.3361702873346268   -0.011042416350793127
-0.021053912398546776   -0.372588184227853   -0.011223662853078745
-0.00706168006874568   -0.37226658713181043   -0.01083251405451684
0.005198169015717131   -0.334904500413154   -0.01105112293146622
-0.006138837940347232   -0.3725059605567399   -0.009935103956325195
-0.014394743853115514   -0.3361702873346268   -0.011042416350793127
0.005794914476979637   -0.33506837043279397   -0.010371836638105404
-0.006138837940347232   -0.3725059605567399   -0.009935103956325195
0.005198169015717131   -0.334904500413154   -0.01105112293146622
-0.014394743853115514   -0.3361702873346268   -0.011042416350793127
-0.006138837940347232   -0.3725059605567399   -0.009935103956325195
-0.020302301719794413   -0.3729101937700136   -0.010764394848056504
-0.021053912398546776   -0.372588184227853   -0.011223662853078745
-0.014394743853115514   -0.3361702873346268   -0.011042416350793127
-0.006138837940347232   -0.3725059605567399   -0.009935103956325195
-0.021053912398546776   -0.372588184227853   -0.011223662853078745
0.005198169015717131   -0.334904500413154   -0.01105112293146622
0.003607290644079658   -0.3351344198935589   -0.012587524459106407
-0.009525137169233372   -0.3726114913960053   -0.012864259318076466
0.02475518639190654   -0.33377494926706014   -0.01331783047469228
0.004382263074415097   -0.33492364888043574   -0.01178193205586361
-0.009525137169233372   -0.3726114913960053   -0.012864259318076466
0.004907216899573497   -0.3713319384283461   -0.013913609396860687
0.02475518639190654   -0.33377494926706014   -0.01331783047469228
0.007734123144160984   -0.3706941203308387   -0.01220713200222957
0.004382263074415097   -0.33492364888043574   -0.01178193205586361
0.02671169538897062   -0.3333697704252953   -0.012085256853454313
0.007734123144160984   -0.3706941203308387   -0.01220713200222957
0.02475518639190654   -0.33377494926706014   -0.01331783047469228
0.004382263074415097   -0.33492364888043574   -0.01178193205586361
0.007734123144160984   -0.3706941203308387   -0.01220713200222957
-0.008306131986194145   -0.3723192497599238   -0.01182165351390465
-0.009525137169233372   -0.3726114913960053   -0.012864259318076466
0.004382263074415097   -0.33492364888043574   -0.01178193205586361
0.007734123144160984   -0.3706941203308387   -0.01220713200222957
-0.009525137169233372   -0.3726114913960053   -0.012864259318076466
0.02475518639190654   -0.33377494926706014   -0.01331783047469228
0.004382263074415097   -0.33492364888043574   -0.01178193205586361
-0.008306131986194145   -0.3723192497599238   -0.01182165351390465
0.02671169538897062   -0.3333697704252953   -0.012085256853454313
0.005198169015717131   -0.334904500413154   -0.01105112293146622
-0.008306131986194145   -0.3723192497599238   -0.01182165351390465
0.007734123144160984   -0.3706941203308387   -0.01220713200222957
0.02671169538897062   -0.3333697704252953   -0.012085256853454313
0.009956503296101744   -0.3705640334417985   -0.01060604382493205
0.005198169015717131   -0.334904500413154   -0.01105112293146622
0.028211332538864934   -0.33329963575455274   -0.010945395308137857
0.009956503296101744   -0.3705640334417985   -0.01060604382493205
0.02671169538897062   -0.3333697704252953   -0.012085256853454313
0.005198169015717131   -0.334904500413154   -0.01105112293146622
0.009956503296101744   -0.3705640334417985   -0.01060604382493205
-0.00706168006874568   -0.37226658713181043   -0.01083251405451684
-0.008306131986194145   -0.3723192497599238   -0.01182165351390465
0.005198169015717131   -0.334904500413154   -0.01105112293146622
0.009956503296101744   -0.3705640334417985   -0.01060604382493205
-0.008306131986194145   -0.3723192497599238   -0.01182165351390465
0.02671169538897062   -0.3333697704252953   -0.012085256853454313
0.005198169015717131   -0.334904500413154   -0.01105112293146622
-0.00706168006874568   -0.37226658713181043   -0.01083251405451684
0.028211332538864934   -0.33329963575455274   -0.010945395308137857
0.005794914476979637   -0.33506837043279397   -0.010371836638105404
-0.00706168006874568   -0.37226658713181043   -0.01083251405451684
0.009956503296101744   -0.3705640334417985   -0.01060604382493205
0.028211332538864934   -0.33329963575455274   -0.010945395308137857
0.012262442163268088   -0.37066884627606866   -0.009145239216090765
0.005794914476979637   -0.33506837043279397   -0.010371836638105404
0.029762278611274562   -0.3334187859914072   -0.009907608033880948
0.012262442163268088   -0.37066884627606866   -0.009145239216090765
0.028211332538864934   -0.33329963575455274   -0.010945395308137857
0.005794914476979637   -0.33506837043279397   -0.010371836638105404
0.012262442163268088   -0.37066884627606866   -0.009145239216090765
-0.006138837940347232   -0.3725059605567399   -0.009935103956325195
-0.00706168006874568   -0.37226658713181043   -0.01083251405451684
0.005794914476979637   -0.33506837043279397   -0.010371836638105404
0.012262442163268088   -0.37066884627606866   -0.009145239216090765
-0.00706168006874568   -0.37226658713181043   -0.01083251405451684
0.028211332538864934   -0.33329963575455274   -0.010945395308137857
-0.06469752310315477   -0.3695918141962251   -0.011081285164261205
-0.047316812254902446   -0.39051164872208705   -0.00974742308863745
-0.048607307348154064   -0.3711608500213381   -0.011552665231708892
-0.0629354531536139   -0.3695468429023263   -0.012117453857946102
-0.047316812254902446   -0.39051164872208705   -0.00974742308863745
-0.03986088813163208   -0.39249884406522495   -0.010945556454060363
-0.048607307348154064   -0.3711608500213381   -0.011552665231708892
-0.03882406358358408   -0.3921033043752632   -0.011353354739358518
-0.0629354531536139   -0.3695468429023263   -0.012117453857946102
-0.047787454828906145   -0.3710787997050115   -0.01193688016675119
-0.03882406358358408   -0.3921033043752632   -0.011353354739358518
-0.048607307348154064   -0.3711608500213381   -0.011552665231708892
-0.0629354531536139   -0.3695468429023263   -0.012117453857946102
-0.03882406358358408   -0.3921033043752632   -0.011353354739358518
-0.045117394040470576   -0.39006641725755054   -0.010991251468881127
-0.047316812254902446   -0.39051164872208705   -0.00974742308863745
-0.0629354531536139   -0.3695468429023263   -0.012117453857946102
-0.03882406358358408   -0.3921033043752632   -0.011353354739358518
-0.047316812254902446   -0.39051164872208705   -0.00974742308863745
-0.048607307348154064   -0.3711608500213381   -0.011552665231708892
-0.0629354531536139   -0.3695468429023263   -0.012117453857946102
-0.045117394040470576   -0.39006641725755054   -0.010991251468881127
-0.047787454828906145   -0.3710787997050115   -0.01193688016675119
-0.06131033543623038   -0.369823553775996   -0.013235784953608925
-0.045117394040470576   -0.39006641725755054   -0.010991251468881127
-0.03882406358358408   -0.3921033043752632   -0.011353354739358518
-0.047787454828906145   -0.3710787997050115   -0.01193688016675119
-0.03767715556778952   -0.39211902884864464   -0.011765219541161274
-0.06131033543623038   -0.369823553775996   -0.013235784953608925
-0.04682401849200216   -0.371302472344163   -0.01237947848646644
-0.03767715556778952   -0.39211902884864464   -0.011765219541161274
-0.047787454828906145   -0.3710787997050115   -0.01193688016675119
-0.06131033543623038   -0.369823553775996   -0.013235784953608925
-0.03767715556778952   -0.39211902884864464   -0.011765219541161274
-0.04321938350285762   -0.3901002117457004   -0.012229952485579489
-0.045117394040470576   -0.39006641725755054   -0.010991251468881127
-0.06131033543623038   -0.369823553775996   -0.013235784953608925
-0.03767715556778952   -0.39211902884864464   -0.011765219541161274
-0.045117394040470576   -0.39006641725755054   -0.010991251468881127
-0.047787454828906145   -0.3710787997050115   -0.01193688016675119
-0.06131033543623038   -0.369823553775996   -0.013235784953608925
-0.04321938350285762   -0.3901002117457004   -0.012229952485579489
-0.04682401849200216   -0.371302472344163   -0.01237947848646644
-0.05932883138974593   -0.3705653256637922   -0.014431341759071393
-0.04321938350285762   -0.3901002117457004   -0.012229952485579489
-0.03767715556778952   -0.39211902884864464   -0.011765219541161274
-0.04682401849200216   -0.371302472344163   -0.01237947848646644
-0.03661091699113986   -0.39254774859153696   -0.012182884317776945
-0.05932883138974593   -0.3705653256637922   -0.014431341759071393
-0.04594994645411484   -0.3718368369538526   -0.01287670852747663
-0.03661091699113986   -0.39254774859153696   -0.012182884317776945
-0.04682401849200216   -0.371302472344163   -0.01237947848646644
-0.05932883138974593   -0.3705653256637922   -0.014431341759071393
-0.03661091699113986   -0.39254774859153696   -0.012182884317776945
-0.04096921316717271   -0.3906401270315049   -0.013495441765513719
-0.04321938350285762   -0.3901002117457004   -0.012229952485579489
-0.05932883138974593   -0.3705653256637922   -0.014431341759071393
-0.03661091699113986   -0.39254774859153696   -0.012182884317776945
-0.04321938350285762   -0.3901002117457004   -0.012229952485579489
-0.04682401849200216   -0.371302472344163   -0.01237947848646644
-0.048607307348154064   -0.3711608500213381   -0.011552665231708892
-0.03986088813163208   -0.39249884406522495   -0.010945556454060363
-0.035479655292972735   -0.37218366900071004   -0.011921365745110182
-0.047787454828906145   -0.3710787997050115   -0.01193688016675119
-0.03986088813163208   -0.39249884406522495   -0.010945556454060363
-0.03441546726089569   -0.39450702051804704   -0.012005432485584694
-0.035479655292972735   -0.37218366900071004   -0.011921365745110182
-0.0333201899236191   -0.39410191604872324   -0.011715728126783493
-0.047787454828906145   -0.3710787997050115   -0.01193688016675119
-0.034637571032707634   -0.3720534907461613   -0.0118036924648627
-0.0333201899236191   -0.39410191604872324   -0.011715728126783493
-0.035479655292972735   -0.37218366900071004   -0.011921365745110182
-0.047787454828906145   -0.3710787997050115   -0.01193688016675119
-0.0333201899236191   -0.39410191604872324   -0.011715728126783493
-0.03882406358358408   -0.3921033043752632   -0.011353354739358518
-0.03986088813163208   -0.39249884406522495   -0.010945556454060363
-0.047787454828906145   -0.3710787997050115   -0.01193688016675119
-0.0333201899236191   -0.39410191604872324   -0.011715728126783493
-0.03986088813163208   -0.39249884406522495   -0.010945556454060363
-0.035479655292972735   -0.37218366900071004   -0.011921365745110182
-0.047787454828906145   -0.3710787997050115   -0.01193688016675119
-0.03882406358358408   -0.3921033043752632   -0.011353354739358518
-0.034637571032707634   -0.3720534907461613   -0.0118036924648627
-0.04682401849200216   -0.371302472344163   -0.01237947848646644
-0.03882406358358408   -0.3921033043752632   -0.011353354739358518
-0.0333201899236191   -0.39410191604872324   -0.011715728126783493
-0.034637571032707634   -0.3720534907461613   -0.0118036924648627
-0.03226184725261543   -0.3940918061601221   -0.011422325605562984
-0.04682401849200216   -0.371302472344163   -0.01237947848646644
-0.033807816221668646   -0.3721869442081931   -0.011742667654716186
-0.03226184725261543   -0.3940918061601221   -0.011422325605562984
-0.034637571032707634   -0.3720534907461613   -0.0118036924648627
-0.04682401849200216   -0.371302472344163   -0.01237947848646644
-0.03226184725261543   -0.3940918061601221   -0.011422325605562984
-0.03767715556778952   -0.39211902884864464   -0.011765219541161274
-0.03882406358358408   -0.3921033043752632   -0.011353354739358518
-0.04682401849200216   -0.371302472344163   -0.01237947848646644
-0.03226184725261543   -0.3940918061601221   -0.011422325605562984
-0.03882406358358408   -0.3921033043752632   -0.011353354739358518
-0.034637571032707634   -0.3720534907461613   -0.0118036924648627
-0.04682401849200216   -0.371302472344163   -0.01237947848646644
-0.03767715556778952   -0.39211902884864464   -0.011765219541161274
-0.033807816221668646   -0.3721869442081931   -0.011742667654716186
-0.04594994645411484   -0.3718368369538526   -0.01287670852747663
-0.03767715556778952   -0.39211902884864464   -0.011765219541161274
-0.03226184725261543   -0.3940918061601221   -0.011422325605562984
-0.033807816221668646   -0.3721869442081931   -0.011742667654716186
-0.031157995279169712   -0.3944682690951932   -0.011140276624627413
-0.04594994645411484   -0.3718368369538526   -0.01287670852747663
-0.0330448614155161   -0.3725929951779246   -0.011750244147325867
-0.031157995279169712   -0.3944682690951932   -0.011140276624627413
-0.033807816221668646   -0.3721869442081931   -0.011742667654716186
-0.04594994645411484   -0.3718368369538526   -0.01287670852747663
-0.031157995279169712   -0.3944682690951932   -0.011140276624627413
-0.03661091699113986   -0.39254774859153696   -0.012182884317776945
-0.03767715556778952   -0.39211902884864464   -0.011765219541161274
-0.04594994645411484   -0.3718368369538526   -0.01287670852747663
-0.031157995279169712   -0.3944682690951932   -0.011140276624627413
-0.03767715556778952   -0.39211902884864464   -0.011765219541161274
-0.033807816221668646   -0.3721869442081931   -0.011742667654716186
-0.035479655292972735   -0.37218366900071004   -0.011921365745110182
-0.03441546726089569   -0.39450702051804704   -0.012005432485584694
-0.022908050574770463   -0.37273010898261777   -0.012355071856097136
-0.034637571032707634   -0.3720534907461613   -0.0118036924648627
-0.03441546726089569   -0.39450702051804704   -0.012005432485584694
-0.029447762209233893   -0.39694504836602407   -0.013170608394006286
-0.022908050574770463   -0.37273010898261777   -0.012355071856097136
-0.028104187277426404   -0.39659500461472796   -0.01214398034303427
-0.034637571032707634   -0.3720534907461613   -0.0118036924648627
-0.021958585150385353   -0.3725434868470151   -0.01176443753391415
-0.028104187277426404   -0.39659500461472796   -0.01214398034303427
-0.022908050574770463   -0.37273010898261777   -0.012355071856097136
-0.034637571032707634   -0.3720534907461613   -0.0118036924648627
-0.028104187277426404   -0.39659500461472796   -0.01214398034303427
-0.0333201899236191   -0.39410191604872324   -0.011715728126783493
-0.03441546726089569   -0.39450702051804704   -0.012005432485584694
-0.034637571032707634   -0.3720534907461613   -0.0118036924648627
-0.028104187277426404   -0.39659500461472796   -0.01214398034303427
-0.03441546726089569   -0.39450702051804704   -0.012005432485584694
-0.022908050574770463   -0.37273010898261777   -0.012355071856097136
-0.034637571032707634   -0.3720534907461613   -0.0118036924648627
-0.0333201899236191   -0.39410191604872324   -0.011715728126783493
-0.021958585150385353   -0.3725434868470151   -0.01176443753391415
-0.033807816221668646   -0.3721869442081931   -0.011742667654716186
-0.0333201899236191   -0.39410191604872324   -0.011715728126783493
-0.028104187277426404   -0.39659500461472796   -0.01214398034303427
-0.021958585150385353   -0.3725434868470151   -0.01176443753391415
-0.02686023089123359   -0.3965746105247759   -0.011121410223630928
-0.033807816221668646   -0.3721869442081931   -0.011742667654716186
-0.021053912398546776   -0.372588184227853   -0.011223662853078745
-0.02686023089123359   -0.3965746105247759   -0.011121410223630928
-0.021958585150385353   -0.3725434868470151   -0.01176443753391415
-0.033807816221668646   -0.3721869442081931   -0.011742667654716186
-0.02686023089123359   -0.3965746105247759   -0.011121410223630928
-0.03226184725261543   -0.3940918061601221   -0.011422325605562984
-0.0333201899236191   -0.39410191604872324   -0.011715728126783493
-0.033807816221668646   -0.3721869442081931   -0.011742667654716186
-0.02686023089123359   -0.3965746105247759   -0.011121410223630928
-0.0333201899236191   -0.39410191604872324   -0.011715728126783493
-0.021958585150385353   -0.3725434868470151   -0.01176443753391415
-0.033807816221668646   -0.3721869442081931   -0.011742667654716186
-0.03226184725261543   -0.3940918061601221   -0.011422325605562984
-0.021053912398546776   -0.372588184227853   -0.011223662853078745
-0.0330448614155161   -0.3725929951779246   -0.011750244147325867
-0.03226184725261543   -0.3940918061601221   -0.011422325605562984
-0.02686023089123359   -0.3965746105247759   -0.011121410223630928
-0.021053912398546776   -0.372588184227853   -0.011223662853078745
-0.025523437660807866   -0.39686562834649664   -0.010095561779319043
-0.0330448614155161   -0.3725929951779246   -0.011750244147325867
-0.020302301719794413   -0.3729101937700136   -0.010764394848056504
-0.025523437660807866   -0.39686562834649664   -0.010095561779319043
-0.021053912398546776   -0.372588184227853   -0.011223662853078745
-0.0330448614155161   -0.3725929951779246   -0.011750244147325867
-0.025523437660807866   -0.39686562834649664   -0.010095561779319043
-0.031157995279169712   -0.3944682690951932   -0.011140276624627413
-0.03226184725261543   -0.3940918061601221   -0.011422325605562984
-0.0330448614155161   -0.3725929951779246   -0.011750244147325867
-0.025523437660807866   -0.39686562834649664   -0.010095561779319043
-0.03226184725261543   -0.3940918061601221   -0.011422325605562984
-0.021053912398546776   -0.372588184227853   -0.011223662853078745
-0.022908050574770463   -0.37273010898261777   -0.012355071856097136
-0.029447762209233893   -0.39694504836602407   -0.013170608394006286
-0.009525137169233372   -0.3726114913960053   -0.012864259318076466
-0.021958585150385353   -0.3725434868470151   -0.01176443753391415
-0.029447762209233893   -0.39694504836602407   -0.013170608394006286
-0.024558703651706388   -0.4   -0.014058060824328915
-0.009525137169233372   -0.3726114913960053   -0.012864259318076466
-0.02287101267221195   -0.4   -0.012504855611595004
-0.021958585150385353   -0.3725434868470151   -0.01176443753391415
-0.008306131986194145   -0.3723192497599238   -0.01182165351390465
-0.02287101267221195   -0.4   -0.012504855611595004
-0.009525137169233372   -0.3726114913960053   -0.012864259318076466
-0.021958585150385353   -0.3725434868470151   -0.01176443753391415
-0.02287101267221195   -0.4   -0.012504855611595004
-0.028104187277426404   -0.39659500461472796   -0.01214398034303427
-0.029447762209233893   -0.39694504836602407   -0.013170608394006286
-0.021958585150385353   -0.3725434868470151   -0.01176443753391415
-0.02287101267221195   -0.4   -0.012504855611595004
-0.029447762209233893   -0.39694504836602407   -0.013170608394006286
-0.009525137169233372   -0.3726114913960053   -0.012864259318076466
-0.021958585150385353   -0.3725434868470151   -0.01176443753391415
-0.028104187277426404   -0.39659500461472796   -0.01214398034303427
-0.008306131986194145   -0.3723192497599238   -0.01182165351390465
-0.021053912398546776   -0.372588184227853   -0.011223662853078745
-0.028104187277426404   -0.39659500461472796   -0.01214398034303427
-0.02287101267221195   -0.4   -0.012504855611595004
-0.008306131986194145   -0.3723192497599238   -0.01182165351390465
-0.02117706190738528   -0.4   -0.010933170770026817
-0.021053912398546776   -0.372588184227853   -0.011223662853078745
-0.00706168006874568   -0.37226658713181043   -0.01083251405451684
-0.02117706190738528   -0.4   -0.010933170770026817
-0.008306131986194145   -0.3723192497599238   -0.01182165351390465
-0.021053912398546776   -0.372588184227853   -0.011223662853078745
-0.02117706190738528   -0.4   -0.010933170770026817
-0.02686023089123359   -0.3965746105247759   -0.011121410223630928
-0.028104187277426404   -0.39659500461472796   -0.01214398034303427
-0.021053912398546776   -0.372588184227853   -0.011223662853078745
-0.02117706190738528   -0.4   -0.010933170770026817
-0.028104187277426404   -0.39659500461472796   -0.01214398034303427
-0.008306131986194145   -0.3723192497599238   -0.01182165351390465
-0.021053912398546776   -0.372588184227853   -0.011223662853078745
-0.02686023089123359   -0.3965746105247759   -0.011121410223630928
-0.00706168006874568   -0.37226658713181043   -0.01083251405451684
-0.020302301719794413   -0.3729101937700136   -0.010764394848056504
-0.02686023089123359   -0.3965746105247759   -0.011121410223630928
-0.02117706190738528   -0.4   -0.010933170770026817
-0.00706168006874568   -0.37226658713181043   -0.01083251405451684
-0.019518974978460356   -0.4   -0.009382112624606982
-0.020302301719794413   -0.3729101937700136   -0.010764394848056504
-0.006138837940347232   -0.3725059605567399   -0.009935103956325195
-0.019518974978460356   -0.4   -0.009382112624606982
-0.00706168006874568   -0.37226658713181043   -0.01083251405451684
-0.020302301719794413   -0.3729101937700136   -0.010764394848056504
-0.019518974978460356   -0.4   -0.009382112624606982
-0.025523437660807866   -0.39686562834649664   -0.010095561779319043
-0.02686023089123359   -0.3965746105247759   -0.011121410223630928
-0.020302301719794413   -0.3729101937700136   -0.010764394848056504
-0.019518974978460356   -0.4   -0.009382112624606982
-0.02686023089123359   -0.3965746105247759   -0.011121410223630928
-0.00706168006874568   -0.37226658713181043   -0.01083251405451684
-0.009525137169233372   -0.3726114913960053   -0.012864259318076466
-0.024558703651706388   -0.4   -0.014058060824328915
0.004907216899573497   -0.3713319384283461   -0.013913609396860687
-0.008306131986194145   -0.3723192497599238   -0.01182165351390465
-0.024558703651706388   -0.4   -0.014058060824328915
-0.02103152150736603   -0.4   -0.015132909547185708
0.004907216899573497   -0.3713319384283461   -0.013913609396860687
-0.017517052619423663   -0.4   -0.012889089932814438
-0.008306131986194145   -0.3723192497599238   -0.01182165351390465
0.007734123144160984   -0.3706941203308387   -0.01220713200222957
-0.017517052619423663   -0.4   -0.012889089932814438
0.004907216899573497   -0.3713319384283461   -0.013913609396860687
-0.008306131986194145   -0.3723192497599238   -0.01182165351390465
-0.017517052619423663   -0.4   -0.012889089932814438
-0.02287101267221195   -0.4   -0.012504855611595004
-0.024558703651706388   -0.4   -0.014058060824328915
-0.008306131986194145   -0.3723192497599238   -0.01182165351390465
-0.017517052619423663   -0.4   -0.012889089932814438
-0.024558703651706388   -0.4   -0.014058060824328915
0.004907216899573497   -0.3713319384283461   -0.013913609396860687
-0.008306131986194145   -0.3723192497599238   -0.01182165351390465
-0.02287101267221195   -0.4   -0.012504855611595004
0.007734123144160984   -0.3706941203308387   -0.01220713200222957
-0.00706168006874568   -0.37226658713181043   -0.01083251405451684
-0.02287101267221195   -0.4   -0.012504855611595004
-0.017517052619423663   -0.4   -0.012889089932814438
0.007734123144160984   -0.3706941203308387   -0.01220713200222957
-0.014714171196826479   -0.4   -0.010742415083973824
-0.00706168006874568   -0.37226658713181043   -0.01083251405451684
0.009956503296101744   -0.3705640334417985   -0.01060604382493205
-0.014714171196826479   -0.4   -0.010742415083973824
0.007734123144160984   -0.3706941203308387   -0.01220713200222957
-0.00706168006874568   -0.37226658713181043   -0.01083251405451684
-0.014714171196826479   -0.4   -0.010742415083973824
-0.02117706190738528   -0.4   -0.010933170770026817
-0.02287101267221195   -0.4   -0.012504855611595004
-0.00706168006874568   -0.37226658713181043   -0.01083251405451684
-0.014714171196826479   -0.4   -0.010742415083973824
-0.02287101267221195   -0.4   -0.012504855611595004
0.007734123144160984   -0.3706941203308387   -0.01220713200222957
-0.00706168006874568   -0.37226658713181043   -0.01083251405451684
-0.02117706190738528   -0.4   -0.010933170770026817
0.009956503296101744   -0.3705640334417985   -0.01060604382493205
-0.006138837940347232   -0.3725059605567399   -0.009935103956325195
-0.02117706190738528   -0.4   -0.010933170770026817
-0.014714171196826479   -0.4   -0.010742415083973824
0.009956503296101744   -0.3705640334417985   -0.01060604382493205
-0.011251180363536055   -0.4   -0.00851408292672385
-0.006138837940347232   -0.3725059605567399   -0.009935103956325195
0.012262442163268088   -0.37066884627606866   -0.009145239216090765
-0.011251180363536055   -0.4   -0.00851408292672385
0.009956503296101744   -0.3705640334417985   -0.01060604382493205
-0.006138837940347232   -0.3725059605567399   -0.009935103956325195
-0.011251180363536055   -0.4   -0.00851408292672385
-0.019518974978460356   -0.4   -0.009382112624606982
-0.02117706190738528   -0.4   -0.010933170770026817
-0.006138837940347232   -0.3725059605567399   -0.009935103956325195
-0.011251180363536055   -0.4   -0.00851408292672385
-0.02117706190738528   -0.4   -0.010933170770026817
0.009956503296101744   -0.3705640334417985   -0.01060604382493205
-0.047316812254902446   -0.39051164872208705   -0.00974742308863745
-0.02808702849464666   -0.3914412252585837   -0.008340222207200277
-0.03986088813163208   -0.39249884406522495   -0.010945556454060363
-0.045117394040470576   -0.39006641725755054   -0.010991251468881127
-0.02808702849464666   -0.3914412252585837   -0.008340222207200277
-0.02987182897322013   -0.3929669756541342   -0.009882526578849332
-0.03986088813163208   -0.39249884406522495   -0.010945556454060363
-0.029088751027187224   -0.3924274641679236   -0.010440869319501335
-0.045117394040470576   -0.39006641725755054   -0.010991251468881127
-0.03882406358358408   -0.3921033043752632   -0.011353354739358518
-0.029088751027187224   -0.3924274641679236   -0.010440869319501335
-0.03986088813163208   -0.39249884406522495   -0.010945556454060363
-0.045117394040470576   -0.39006641725755054   -0.010991251468881127
-0.029088751027187224   -0.3924274641679236   -0.010440869319501335
-0.026096668261197838   -0.39074892174068415   -0.009646668345912475
-0.02808702849464666   -0.3914412252585837   -0.008340222207200277
-0.045117394040470576   -0.39006641725755054   -0.010991251468881127
-0.029088751027187224   -0.3924274641679236   -0.010440869319501335
-0.02808702849464666   -0.3914412252585837   -0.008340222207200277
-0.03986088813163208   -0.39249884406522495   -0.010945556454060363
-0.045117394040470576   -0.39006641725755054   -0.010991251468881127
-0.026096668261197838   -0.39074892174068415   -0.009646668345912475
-0.03882406358358408   -0.3921033043752632   -0.011353354739358518
-0.04321938350285762   -0.3901002117457004   -0.012229952485579489
-0.026096668261197838   -0.39074892174068415   -0.009646668345912475
-0.029088751027187224   -0.3924274641679236   -0.010440869319501335
-0.03882406358358408   -0.3921033043752632   -0.011353354739358518
-0.028171159654706134   -0.3922244225800392   -0.01095536909671518
-0.04321938350285762   -0.3901002117457004   -0.012229952485579489
-0.03767715556778952   -0.39211902884864464   -0.011765219541161274
-0.028171159654706134   -0.3922244225800392   -0.01095536909671518
-0.03882406358358408   -0.3921033043752632   -0.011353354739358518
-0.04321938350285762   -0.3901002117457004   -0.012229952485579489
-0.028171159654706134   -0.3922244225800392   -0.01095536909671518
-0.024439560452864554   -0.39053140478829246   -0.010898672993653023
-0.026096668261197838   -0.39074892174068415   -0.009646668345912475
-0.04321938350285762   -0.3901002117457004   -0.012229952485579489
-0.028171159654706134   -0.3922244225800392   -0.01095536909671518
-0.026096668261197838   -0.39074892174068415   -0.009646668345912475
-0.03882406358358408   -0.3921033043752632   -0.011353354739358518
-0.04321938350285762   -0.3901002117457004   -0.012229952485579489
-0.024439560452864554   -0.39053140478829246   -0.010898672993653023
-0.03767715556778952   -0.39211902884864464   -0.011765219541161274
-0.04096921316717271   -0.3906401270315049   -0.013495441765513719
-0.024439560452864554   -0.39053140478829246   -0.010898672993653023
-0.028171159654706134   -0.3922244225800392   -0.01095536909671518
-0.03767715556778952   -0.39211902884864464   -0.011765219541161274
-0.02738457005166394   -0.39236060948491136   -0.01142326817481047
-0.04096921316717271   -0.3906401270315049   -0.013495441765513719
-0.03661091699113986   -0.39254774859153696   -0.012182884317776945
-0.02738457005166394   -0.39236060948491136   -0.01142326817481047
-0.03767715556778952   -0.39211902884864464   -0.011765219541161274
-0.04096921316717271   -0.3906401270315049   -0.013495441765513719
-0.02738457005166394   -0.39236060948491136   -0.01142326817481047
-0.02256676142430359   -0.39070150337563647   -0.012090535865684263
-0.024439560452864554   -0.39053140478829246   -0.010898672993653023
-0.04096921316717271   -0.3906401270315049   -0.013495441765513719
-0.02738457005166394   -0.39236060948491136   -0.01142326817481047
-0.024439560452864554   -0.39053140478829246   -0.010898672993653023
-0.03767715556778952   -0.39211902884864464   -0.011765219541161274
-0.03986088813163208   -0.39249884406522495   -0.010945556454060363
-0.02987182897322013   -0.3929669756541342   -0.009882526578849332
-0.03441546726089569   -0.39450702051804704   -0.012005432485584694
-0.03882406358358408   -0.3921033043752632   -0.011353354739358518
-0.02987182897322013   -0.3929669756541342   -0.009882526578849332
-0.03225387216581113   -0.39391673195551863   -0.011116654267404158
-0.03441546726089569   -0.39450702051804704   -0.012005432485584694
-0.03156023771306269   -0.3934352566004921   -0.011132192861378445
-0.03882406358358408   -0.3921033043752632   -0.011353354739358518
-0.0333201899236191   -0.39410191604872324   -0.011715728126783493
-0.03156023771306269   -0.3934352566004921   -0.011132192861378445
-0.03441546726089569   -0.39450702051804704   -0.012005432485584694
-0.03882406358358408   -0.3921033043752632   -0.011353354739358518
-0.03156023771306269   -0.3934352566004921   -0.011132192861378445
-0.029088751027187224   -0.3924274641679236   -0.010440869319501335
-0.02987182897322013   -0.3929669756541342   -0.009882526578849332
-0.03882406358358408   -0.3921033043752632   -0.011353354739358518
-0.03156023771306269   -0.3934352566004921   -0.011132192861378445
-0.02987182897322013   -0.3929669756541342   -0.009882526578849332
-0.03441546726089569   -0.39450702051804704   -0.012005432485584694
-0.03882406358358408   -0.3921033043752632   -0.011353354739358518
-0.029088751027187224   -0.3924274641679236   -0.010440869319501335
-0.0333201899236191   -0.39410191604872324   -0.011715728126783493
-0.03767715556778952   -0.39211902884864464   -0.011765219541161274
-0.029088751027187224   -0.3924274641679236   -0.010440869319501335
-0.03156023771306269   -0.3934352566004921   -0.011132192861378445
-0.0333201899236191   -0.39410191604872324   -0.011715728126783493
-0.030787938456847453   -0.3932585733555919   -0.011090881592569912
-0.03767715556778952   -0.39211902884864464   -0.011765219541161274
-0.03226184725261543   -0.3940918061601221   -0.011422325605562984
-0.030787938456847453   -0.3932585733555919   -0.011090881592569912
-0.0333201899236191   -0.39410191604872324   -0.011715728126783493
-0.03767715556778952   -0.39211902884864464   -0.011765219541161274
-0.030787938456847453   -0.3932585733555919   -0.011090881592569912
-0.028171159654706134   -0.3922244225800392   -0.01095536909671518
-0.029088751027187224   -0.3924274641679236   -0.010440869319501335
-0.03767715556778952   -0.39211902884864464   -0.011765219541161274
-0.030787938456847453   -0.3932585733555919   -0.011090881592569912
-0.029088751027187224   -0.3924274641679236   -0.010440869319501335
-0.0333201899236191   -0.39410191604872324   -0.011715728126783493
-0.03767715556778952   -0.39211902884864464   -0.011765219541161274
-0.028171159654706134   -0.3922244225800392   -0.01095536909671518
-0.03226184725261543   -0.3940918061601221   -0.011422325605562984
-0.03661091699113986   -0.39254774859153696   -0.012182884317776945
-0.028171159654706134   -0.3922244225800392   -0.01095536909671518
-0.030787938456847453   -0.3932585733555919   -0.011090881592569912
-0.03226184725261543   -0.3940918061601221   -0.011422325605562984
-0.03000243571335676   -0.39337242356016533   -0.011004975676592796
-0.03661091699113986   -0.39254774859153696   -0.012182884317776945
-0.031157995279169712   -0.3944682690951932   -0.011140276624627413
-0.03000243571335676   -0.39337242356016533   -0.011004975676592796
-0.03226184725261543   -0.3940918061601221   -0.011422325605562984
-0.03661091699113986   -0.39254774859153696   -0.012182884317776945
-0.03000243571335676   -0.39337242356016533   -0.011004975676592796
-0.02738457005166394   -0.39236060948491136   -0.01142326817481047
-0.028171159654706134   -0.3922244225800392   -0.01095536909671518
-0.03661091699113986   -0.39254774859153696   -0.012182884317776945
-0.03000243571335676   -0.39337242356016533   -0.011004975676592796
-0.028171159654706134   -0.3922244225800392   -0.01095536909671518
-0.03226184725261543   -0.3940918061601221   -0.011422325605562984
-0.03441546726089569   -0.39450702051804704   -0.012005432485584694
-0.03225387216581113   -0.39391673195551863   -0.011116654267404158
-0.029447762209233893   -0.39694504836602407   -0.013170608394006286
-0.0333201899236191   -0.39410191604872324   -0.011715728126783493
-0.03225387216581113   -0.39391673195551863   -0.011116654267404158
-0.034803008159278254   -0.3943259086891074   -0.012330279503319679
-0.029447762209233893   -0.39694504836602407   -0.013170608394006286
-0.03408451533766454   -0.39386763632590693   -0.011823965604749659
-0.0333201899236191   -0.39410191604872324   -0.011715728126783493
-0.028104187277426404   -0.39659500461472796   -0.01214398034303427
-0.03408451533766454   -0.39386763632590693   -0.011823965604749659
-0.029447762209233893   -0.39694504836602407   -0.013170608394006286
-0.0333201899236191   -0.39410191604872324   -0.011715728126783493
-0.03408451533766454   -0.39386763632590693   -0.011823965604749659
-0.03156023771306269   -0.3934352566004921   -0.011132192861378445
-0.03225387216581113   -0.39391673195551863   -0.011116654267404158
-0.0333201899236191   -0.39410191604872324   -0.011715728126783493
-0.03408451533766454   -0.39386763632590693   -0.011823965604749659
-0.03225387216581113   -0.39391673195551863   -0.011116654267404158
-0.029447762209233893   -0.39694504836602407   -0.013170608394006286
-0.0333201899236191   -0.39410191604872324   -0.011715728126783493
-0.03156023771306269   -0.3934352566004921   -0.011132192861378445
-0.028104187277426404   -0.39659500461472796   -0.01214398034303427
-0.03226184725261543   -0.3940918061601221   -0.011422325605562984
-0.03156023771306269   -0.3934352566004921   -0.011132192861378445
-0.03408451533766454   -0.39386763632590693   -0.011823965604749659
-0.028104187277426404   -0.39659500461472796   -0.01214398034303427
-0.03322199647047404   -0.3937192235537299   -0.011248437758867972
-0.03226184725261543   -0.3940918061601221   -0.011422325605562984
-0.02686023089123359   -0.3965746105247759   -0.011121410223630928
-0.03322199647047404   -0.3937192235537299   -0.011248437758867972
-0.028104187277426404   -0.39659500461472796   -0.01214398034303427
-0.03226184725261543   -0.3940918061601221   -0.011422325605562984
-0.03322199647047404   -0.3937192235537299   -0.011248437758867972
-0.030787938456847453   -0.3932585733555919   -0.011090881592569912
-0.03156023771306269   -0.3934352566004921   -0.011132192861378445
-0.03226184725261543   -0.3940918061601221   -0.011422325605562984
-0.03322199647047404   -0.3937192235537299   -0.011248437758867972
-0.03156023771306269   -0.3934352566004921   -0.011132192861378445
-0.028104187277426404   -0.39659500461472796   -0.01214398034303427
-0.03226184725261543   -0.3940918061601221   -0.011422325605562984
-0.030787938456847453   -0.3932585733555919   -0.011090881592569912
-0.02686023089123359   -0.3965746105247759   -0.011121410223630928
-0.031157995279169712   -0.3944682690951932   -0.011140276624627413
-0.030787938456847453   -0.3932585733555919   -0.011090881592569912
-0.03322199647047404   -0.3937192235537299   -0.011248437758867972
-0.02686023089123359   -0.3965746105247759   -0.011121410223630928
-0.03233456007386371   -0.3938311489781662   -0.010635005769532588
-0.031157995279169712   -0.3944682690951932   -0.011140276624627413
-0.025523437660807866   -0.39686562834649664   -0.010095561779319043
-0.03233456007386371   -0.3938311489781662   -0.010635005769532588
-0.02686023089123359   -0.3965746105247759   -0.011121410223630928
-0.031157995279169712   -0.3944682690951932   -0.011140276624627413
-0.03233456007386371   -0.3938311489781662   -0.010635005769532588
-0.03000243571335676   -0.39337242356016533   -0.011004975676592796
-0.030787938456847453   -0.3932585733555919   -0.011090881592569912
-0.031157995279169712   -0.3944682690951932   -0.011140276624627413
-0.03233456007386371   -0.3938311489781662   -0.010635005769532588
-0.030787938456847453   -0.3932585733555919   -0.011090881592569912
-0.02686023089123359   -0.3965746105247759   -0.011121410223630928
-0.029447762209233893   -0.39694504836602407   -0.013170608394006286
-0.034803008159278254   -0.3943259086891074   -0.012330279503319679
-0.024558703651706388   -0.4   -0.014058060824328915
-0.028104187277426404   -0.39659500461472796   -0.01214398034303427
-0.034803008159278254   -0.3943259086891074   -0.012330279503319679
-0.03849193159883116   -0.39391390065225335   -0.013480614106517701
-0.024558703651706388   -0.4   -0.014058060824328915
-0.03755309975737843   -0.3934827720786484   -0.01247808216034776
-0.028104187277426404   -0.39659500461472796   -0.01214398034303427
-0.02287101267221195   -0.4   -0.012504855611595004
-0.03755309975737843   -0.3934827720786484   -0.01247808216034776
-0.024558703651706388   -0.4   -0.014058060824328915
-0.028104187277426404   -0.39659500461472796   -0.01214398034303427
-0.03755309975737843   -0.3934827720786484   -0.01247808216034776
-0.03408451533766454   -0.39386763632590693   -0.011823965604749659
-0.034803008159278254   -0.3943259086891074   -0.012330279503319679
-0.028104187277426404   -0.39659500461472796   -0.01214398034303427
-0.03755309975737843   -0.3934827720786484   -0.01247808216034776
-0.034803008159278254   -0.3943259086891074   -0.012330279503319679
-0.024558703651706388   -0.4   -0.014058060824328915
-0.028104187277426404   -0.39659500461472796   -0.01214398034303427
-0.03408451533766454   -0.39386763632590693   -0.011823965604749659
-0.02287101267221195   -0.4   -0.012504855611595004
-0.02686023089123359   -0.3965746105247759   -0.011121410223630928
-0.03408451533766454   -0.39386763632590693   -0.011823965604749659
-0.03755309975737843   -0.3934827720786484   -0.01247808216034776
-0.02287101267221195   -0.4   -0.012504855611595004
-0.036316043166554325   -0.3933826288863872   -0.01139873630309708
-0.02686023089123359   -0.3965746105247759   -0.011121410223630928
-0.02117706190738528   -0.4   -0.010933170770026817
-0.036316043166554325   -0.3933826288863872   -0.01139873630309708
-0.02287101267221195   -0.4   -0.012504855611595004
-0.02686023089123359   -0.3965746105247759   -0.011121410223630928
-0.036316043166554325   -0.3933826288863872   -0.01139873630309708
-0.03322199647047404   -0.3937192235537299   -0.011248437758867972
-0.03408451533766454   -0.39386763632590693   -0.011823965604749659
-0.02686023089123359   -0.3965746105247759   -0.011121410223630928
-0.036316043166554325   -0.3933826288863872   -0.01139873630309708
-0.03408451533766454   -0.39386763632590693   -0.011823965604749659
-0.02287101267221195   -0.4   -0.012504855611595004
-0.02686023089123359   -0.3965746105247759   -0.011121410223630928
-0.03322199647047404   -0.3937192235537299   -0.011248437758867972
-0.02117706190738528   -0.4   -0.010933170770026817
-0.025523437660807866   -0.39686562834649664   -0.010095561779319043
-0.03322199647047404   -0.3937192235537299   -0.011248437758867972
-0.036316043166554325   -0.3933826288863872   -0.01139873630309708
-0.02117706190738528   -0.4   -0.010933170770026817
-0.03514971245594984   -0.3935489768118409   -0.010277137845782647
-0.025523437660807866   -0.39686562834649664   -0.010095561779319043
-0.019518974978460356   -0.4   -0.009382112624606982
-0.03514971245594984   -0.3935489768118409   -0.010277137845782647
-0.02117706190738528   -0.4   -0.010933170770026817
-0.025523437660807866   -0.39686562834649664   -0.010095561779319043
-0.03514971245594984   -0.3935489768118409   -0.010277137845782647
-0.03233456007386371   -0.3938311489781662   -0.010635005769532588
-0.03322199647047404   -0.3937192235537299   -0.011248437758867972
-0.025523437660807866   -0.39686562834649664   -0.010095561779319043
-0.03514971245594984   -0.3935489768118409   -0.010277137845782647
-0.03322199647047404   -0.3937192235537299   -0.011248437758867972
-0.02117706190738528   -0.4   -0.010933170770026817
-0.024558703651706388   -0.4   -0.014058060824328915
-0.03849193159883116   -0.39391390065225335   -0.013480614106517701
-0.02103152150736603   -0.4   -0.015132909547185708
-0.02287101267221195   -0.4   -0.012504855611595004
-0.03849193159883116   -0.39391390065225335   -0.013480614106517701
-0.0456254270907323   -0.39198280324095214   -0.014695155433095759
-0.02103152150736603   -0.4   -0.015132909547185708
-0.04314804329909687   -0.39162204860847216   -0.01304999407445447
-0.02287101267221195   -0.4   -0.012504855611595004
-0.017517052619423663   -0.4   -0.012889089932814438
-0.04314804329909687   -0.39162204860847216   -0.01304999407445447
-0.02103152150736603   -0.4   -0.015132909547185708
-0.02287101267221195   -0.4   -0.012504855611595004
-0.04314804329909687   -0.39162204860847216   -0.01304999407445447
-0.03755309975737843   -0.3934827720786484   -0.01247808216034776
-0.03849193159883116   -0.39391390065225335   -0.013480614106517701
-0.02287101267221195   -0.4   -0.012504855611595004
-0.04314804329909687   -0.39162204860847216   -0.01304999407445447
-0.03849193159883116   -0.39391390065225335   -0.013480614106517701
-0.02103152150736603   -0.4   -0.015132909547185708
-0.02287101267221195   -0.4   -0.012504855611595004
-0.03755309975737843   -0.3934827720786484   -0.01247808216034776
-0.017517052619423663   -0.4   -0.012889089932814438
-0.02117706190738528   -0.4   -0.010933170770026817
-0.03755309975737843   -0.3934827720786484   -0.01247808216034776
-0.04314804329909687   -0.39162204860847216   -0.01304999407445447
-0.017517052619423663   -0.4   -0.012889089932814438
-0.04086800333465873   -0.3915707725677847   -0.011292230494469304
-0.02117706190738528   -0.4   -0.010933170770026817
-0.014714171196826479   -0.4   -0.010742415083973824
-0.04086800333465873   -0.3915707725677847   -0.011292230494469304
-0.017517052619423663   -0.4   -0.012889089932814438
-0.02117706190738528   -0.4   -0.010933170770026817
-0.04086800333465873   -0.3915707725677847   -0.011292230494469304
-0.036316043166554325   -0.3933826288863872   -0.01139873630309708
-0.03755309975737843   -0.3934827720786484   -0.01247808216034776
-0.02117706190738528   -0.4   -0.010933170770026817
-0.04086800333465873   -0.3915707725677847   -0.011292230494469304
-0.03755309975737843   -0.3934827720786484   -0.01247808216034776
-0.017517052619423663   -0.4   -0.012889089932814438
-0.02117706190738528   -0.4   -0.010933170770026817
-0.036316043166554325   -0.3933826288863872   -0.01139873630309708
-0.014714171196826479   -0.4   -0.010742415083973824
-0.019518974978460356   -0.4   -0.009382112624606982
-0.036316043166554325   -0.3933826288863872   -0.01139873630309708
-0.04086800333465873   -0.3915707725677847   -0.011292230494469304
-0.014714171196826479   -0.4   -0.010742415083973824
-0.03798926712262868   -0.39204493680812   -0.009452381159309181
-0.019518974978460356   -0.4   -0.009382112624606982
-0.011251180363536055   -0.4   -0.00851408292672385
-0.03798926712262868   -0.39204493680812   -0.009452381159309181
-0.014714171196826479   -0.4   -0.010742415083973824
-0.019518974978460356   -0.4   -0.009382112624606982
-0.03798926712262868   -0.39204493680812   -0.009452381159309181
-0.03514971245594984   -0.3935489768118409   -0.010277137845782647
-0.036316043166554325   -0.3933826288863872   -0.01139873630309708
-0.019518974978460356   -0.4   -0.009382112624606982
-0.03798926712262868   -0.39204493680812   -0.009452381159309181
-0.036316043166554325   -0.3933826288863872   -0.01139873630309708
-0.014714171196826479   -0.4   -0.010742415083973824
-0.02808702849464666   -0.3914412252585837   -0.008340222207200277
-0.01121368547784322   -0.376451891482201   -0.007213786645272009
-0.02987182897322013   -0.3929669756541342   -0.009882526578849332
-0.026096668261197838   -0.39074892174068415   -0.009646668345912475
-0.01121368547784322   -0.376451891482201   -0.007213786645272009
-0.021329585307244683   -0.37759806703941257   -0.008850726376743794
-0.02987182897322013   -0.3929669756541342   -0.009882526578849332
-0.020774286732228243   -0.37694555962459414   -0.009347423511753003
-0.026096668261197838   -0.39074892174068415   -0.009646668345912475
-0.029088751027187224   -0.3924274641679236   -0.010440869319501335
-0.020774286732228243   -0.37694555962459414   -0.009347423511753003
-0.02987182897322013   -0.3929669756541342   -0.009882526578849332
-0.026096668261197838   -0.39074892174068415   -0.009646668345912475
-0.020774286732228243   -0.37694555962459414   -0.009347423511753003
-0.009631022723283707   -0.37564528446048057   -0.008339850640282268
-0.01121368547784322   -0.376451891482201   -0.007213786645272009
-0.026096668261197838   -0.39074892174068415   -0.009646668345912475
-0.020774286732228243   -0.37694555962459414   -0.009347423511753003
-0.01121368547784322   -0.376451891482201   -0.007213786645272009
-0.02987182897322013   -0.3929669756541342   -0.009882526578849332
-0.026096668261197838   -0.39074892174068415   -0.009646668345912475
-0.009631022723283707   -0.37564528446048057   -0.008339850640282268
-0.029088751027187224   -0.3924274641679236   -0.010440869319501335
-0.024439560452864554   -0.39053140478829246   -0.010898672993653023
-0.009631022723283707   -0.37564528446048057   -0.008339850640282268
-0.020774286732228243   -0.37694555962459414   -0.009347423511753003
-0.029088751027187224   -0.3924274641679236   -0.010440869319501335
-0.020150248785447022   -0.3765799291380685   -0.009798737408383352
-0.024439560452864554   -0.39053140478829246   -0.010898672993653023
-0.028171159654706134   -0.3922244225800392   -0.01095536909671518
-0.020150248785447022   -0.3765799291380685   -0.009798737408383352
-0.029088751027187224   -0.3924274641679236   -0.010440869319501335
-0.024439560452864554   -0.39053140478829246   -0.010898672993653023
-0.020150248785447022   -0.3765799291380685   -0.009798737408383352
-0.008385765380593298   -0.375256453884449   -0.009398608291206319
-0.009631022723283707   -0.37564528446048057   -0.008339850640282268
-0.024439560452864554   -0.39053140478829246   -0.010898672993653023
-0.020150248785447022   -0.3765799291380685   -0.009798737408383352
-0.009631022723283707   -0.37564528446048057   -0.008339850640282268
-0.029088751027187224   -0.3924274641679236   -0.010440869319501335
-0.024439560452864554   -0.39053140478829246   -0.010898672993653023
-0.008385765380593298   -0.375256453884449   -0.009398608291206319
-0.028171159654706134   -0.3922244225800392   -0.01095536909671518
-0.02256676142430359   -0.39070150337563647   -0.012090535865684263
-0.008385765380593298   -0.375256453884449   -0.009398608291206319
-0.020150248785447022   -0.3765799291380685   -0.009798737408383352
-0.028171159654706134   -0.3922244225800392   -0.01095536909671518
-0.019671470679012162   -0.37649101323219647   -0.010206079858106454
-0.02256676142430359   -0.39070150337563647   -0.012090535865684263
-0.02738457005166394   -0.39236060948491136   -0.01142326817481047
-0.019671470679012162   -0.37649101323219647   -0.010206079858106454
-0.028171159654706134   -0.3922244225800392   -0.01095536909671518
-0.02256676142430359   -0.39070150337563647   -0.012090535865684263
-0.019671470679012162   -0.37649101323219647   -0.010206079858106454
-0.007028367027148131   -0.3751745998019757   -0.010387166039656141
-0.008385765380593298   -0.375256453884449   -0.009398608291206319
-0.02256676142430359   -0.39070150337563647   -0.012090535865684263
-0.019671470679012162   -0.37649101323219647   -0.010206079858106454
-0.008385765380593298   -0.375256453884449   -0.009398608291206319
-0.028171159654706134   -0.3922244225800392   -0.01095536909671518
-0.02987182897322013   -0.3929669756541342   -0.009882526578849332
-0.021329585307244683   -0.37759806703941257   -0.008850726376743794
-0.03225387216581113   -0.39391673195551863   -0.011116654267404158
-0.029088751027187224   -0.3924274641679236   -0.010440869319501335
-0.021329585307244683   -0.37759806703941257   -0.008850726376743794
-0.03129700711463693   -0.3780040730224909   -0.0101877153867048
-0.03225387216581113   -0.39391673195551863   -0.011116654267404158
-0.03082940676834863   -0.37743465957354594   -0.010216074656011646
-0.029088751027187224   -0.3924274641679236   -0.010440869319501335
-0.03156023771306269   -0.3934352566004921   -0.011132192861378445
-0.03082940676834863   -0.37743465957354594   -0.010216074656011646
-0.03225387216581113   -0.39391673195551863   -0.011116654267404158
-0.029088751027187224   -0.3924274641679236   -0.010440869319501335
-0.03082940676834863   -0.37743465957354594   -0.010216074656011646
-0.020774286732228243   -0.37694555962459414   -0.009347423511753003
-0.021329585307244683   -0.37759806703941257   -0.008850726376743794
-0.029088751027187224   -0.3924274641679236   -0.010440869319501335
-0.03082940676834863   -0.37743465957354594   -0.010216074656011646
-0.021329585307244683   -0.37759806703941257   -0.008850726376743794
-0.03225387216581113   -0.39391673195551863   -0.011116654267404158
-0.029088751027187224   -0.3924274641679236   -0.010440869319501335
-0.020774286732228243   -0.37694555962459414   -0.009347423511753003
-0.03156023771306269   -0.3934352566004921   -0.011132192861378445
-0.028171159654706134   -0.3922244225800392   -0.01095536909671518
-0.020774286732228243   -0.37694555962459414   -0.009347423511753003
-0.03082940676834863   -0.37743465957354594   -0.010216074656011646
-0.03156023771306269   -0.3934352566004921   -0.011132192861378445
-0.03034590386656994   -0.3771239089766888   -0.010202420270380081
-0.028171159654706134   -0.3922244225800392   -0.01095536909671518
-0.030787938456847453   -0.3932585733555919   -0.011090881592569912
-0.03034590386656994   -0.3771239089766888   -0.010202420270380081
-0.03156023771306269   -0.3934352566004921   -0.011132192861378445
-0.028171159654706134   -0.3922244225800392   -0.01095536909671518
-0.03034590386656994   -0.3771239089766888   -0.010202420270380081
-0.020150248785447022   -0.3765799291380685   -0.009798737408383352
-0.020774286732228243   -0.37694555962459414   -0.009347423511753003
-0.028171159654706134   -0.3922244225800392   -0.01095536909671518
-0.03034590386656994   -0.3771239089766888   -0.010202420270380081
-0.020774286732228243   -0.37694555962459414   -0.009347423511753003
-0.03156023771306269   -0.3934352566004921   -0.011132192861378445
-0.028171159654706134   -0.3922244225800392   -0.01095536909671518
-0.020150248785447022   -0.3765799291380685   -0.009798737408383352
-0.030787938456847453   -0.3932585733555919   -0.011090881592569912
-0.02738457005166394   -0.39236060948491136   -0.01142326817481047
-0.020150248785447022   -0.3765799291380685   -0.009798737408383352
-0.03034590386656994   -0.3771239089766888   -0.010202420270380081
-0.030787938456847453   -0.3932585733555919   -0.011090881592569912
-0.02987945982180739   -0.3770590749139188   -0.01014628280707953
-0.02738457005166394   -0.39236060948491136   -0.01142326817481047
-0.03000243571335676   -0.39337242356016533   -0.011004975676592796
-0.02987945982180739   -0.3770590749139188   -0.01014628280707953
-0.030787938456847453   -0.3932585733555919   -0.011090881592569912
-0.02738457005166394   -0.39236060948491136   -0.01142326817481047
-0.02987945982180739   -0.3770590749139188   -0.01014628280707953
-0.019671470679012162   -0.37649101323219647   -0.010206079858106454
-0.020150248785447022   -0.3765799291380685   -0.009798737408383352
-0.02738457005166394   -0.39236060948491136   -0.01142326817481047
-0.02987945982180739   -0.3770590749139188   -0.01014628280707953
-0.020150248785447022   -0.3765799291380685   -0.009798737408383352
-0.030787938456847453   -0.3932585733555919   -0.011090881592569912
-0.03225387216581113   -0.39391673195551863   -0.011116654267404158
-0.03129700711463693   -0.3780040730224909   -0.0101877153867048
-0.034803008159278254   -0.3943259086891074   -0.012330279503319679
-0.03156023771306269   -0.3934352566004921   -0.011132192861378445
-0.03129700711463693   -0.3780040730224909   -0.0101877153867048
-0.041192754787565775   -0.3776466706293001   -0.01143855325961083
-0.034803008159278254   -0.3943259086891074   -0.012330279503319679
-0.04072884142846557   -0.37714136347235255   -0.011018006722794764
-0.03156023771306269   -0.3934352566004921   -0.011132192861378445
-0.03408451533766454   -0.39386763632590693   -0.011823965604749659
-0.04072884142846557   -0.37714136347235255   -0.011018006722794764
-0.034803008159278254   -0.3943259086891074   -0.012330279503319679
-0.03156023771306269   -0.3934352566004921   -0.011132192861378445
-0.04072884142846557   -0.37714136347235255   -0.011018006722794764
-0.03082940676834863   -0.37743465957354594   -0.010216074656011646
-0.03129700711463693   -0.3780040730224909   -0.0101877153867048
-0.03156023771306269   -0.3934352566004921   -0.011132192861378445
-0.04072884142846557   -0.37714136347235255   -0.011018006722794764
-0.03129700711463693   -0.3780040730224909   -0.0101877153867048
-0.034803008159278254   -0.3943259086891074   -0.012330279503319679
-0.03156023771306269   -0.3934352566004921   -0.011132192861378445
-0.03082940676834863   -0.37743465957354594   -0.010216074656011646
-0.03408451533766454   -0.39386763632590693   -0.011823965604749659
-0.030787938456847453   -0.3932585733555919   -0.011090881592569912
-0.03082940676834863   -0.37743465957354594   -0.010216074656011646
-0.04072884142846557   -0.37714136347235255   -0.011018006722794764
-0.03408451533766454   -0.39386763632590693   -0.011823965604749659
-0.040208200424759366   -0.37689029263141627   -0.010556034389877171
-0.030787938456847453   -0.3932585733555919   -0.011090881592569912
-0.03322199647047404   -0.3937192235537299   -0.011248437758867972
-0.040208200424759366   -0.37689029263141627   -0.010556034389877171
-0.03408451533766454   -0.39386763632590693   -0.011823965604749659
-0.030787938456847453   -0.3932585733555919   -0.011090881592569912
-0.040208200424759366   -0.37689029263141627   -0.010556034389877171
-0.03034590386656994   -0.3771239089766888   -0.010202420270380081
-0.03082940676834863   -0.37743465957354594   -0.010216074656011646
-0.030787938456847453   -0.3932585733555919   -0.011090881592569912
-0.040208200424759366   -0.37689029263141627   -0.010556034389877171
-0.03082940676834863   -0.37743465957354594   -0.010216074656011646
-0.03408451533766454   -0.39386763632590693   -0.011823965604749659
-0.030787938456847453   -0.3932585733555919   -0.011090881592569912
-0.03034590386656994   -0.3771239089766888   -0.010202420270380081
-0.03322199647047404   -0.3937192235537299   -0.011248437758867972
-0.03000243571335676   -0.39337242356016533   -0.011004975676592796
-0.03034590386656994   -0.3771239089766888   -0.010202420270380081
-0.040208200424759366   -0.37689029263141627   -0.010556034389877171
-0.03322199647047404   -0.3937192235537299   -0.011248437758867972
-0.03968502482894029   -0.3768685715693183   -0.010047582860002452
-0.03000243571335676   -0.39337242356016533   -0.011004975676592796
-0.03233456007386371   -0.3938311489781662   -0.010635005769532588
-0.03968502482894029   -0.3768685715693183   -0.010047582860002452
-0.03322199647047404   -0.3937192235537299   -0.011248437758867972
-0.03000243571335676   -0.39337242356016533   -0.011004975676592796
-0.03968502482894029   -0.3768685715693183   -0.010047582860002452
-0.02987945982180739   -0.3770590749139188   -0.01014628280707953
-0.03034590386656994   -0.3771239089766888   -0.010202420270380081
-0.03000243571335676   -0.39337242356016533   -0.011004975676592796
-0.03968502482894029   -0.3768685715693183   -0.010047582860002452
-0.03034590386656994   -0.3771239089766888   -0.010202420270380081
-0.03322199647047404   -0.3937192235537299   -0.011248437758867972
-0.034803008159278254   -0.3943259086891074   -0.012330279503319679
-0.041192754787565775   -0.3776466706293001   -0.01143855325961083
-0.03849193159883116   -0.39391390065225335   -0.013480614106517701
-0.03408451533766454   -0.39386763632590693   -0.011823965604749659
-0.041192754787565775   -0.3776466706293001   -0.01143855325961083
-0.052072306807698664   -0.37647789257601727   -0.012586011838752206
-0.03849193159883116   -0.39391390065225335   -0.013480614106517701
-0.05150547197721043   -0.37603713522395754   -0.011726961951745848
-0.03408451533766454   -0.39386763632590693   -0.011823965604749659
-0.03755309975737843   -0.3934827720786484   -0.01247808216034776
-0.05150547197721043   -0.37603713522395754   -0.011726961951745848
-0.03849193159883116   -0.39391390065225335   -0.013480614106517701
-0.03408451533766454   -0.39386763632590693   -0.011823965604749659
-0.05150547197721043   -0.37603713522395754   -0.011726961951745848
-0.04072884142846557   -0.37714136347235255   -0.011018006722794764
-0.041192754787565775   -0.3776466706293001   -0.01143855325961083
-0.03408451533766454   -0.39386763632590693   -0.011823965604749659
-0.05150547197721043   -0.37603713522395754   -0.011726961951745848
-0.041192754787565775   -0.3776466706293001   -0.01143855325961083
-0.03849193159883116   -0.39391390065225335   -0.013480614106517701
-0.03408451533766454   -0.39386763632590693   -0.011823965604749659
-0.04072884142846557   -0.37714136347235255   -0.011018006722794764
-0.03755309975737843   -0.3934827720786484   -0.01247808216034776
-0.03322199647047404   -0.3937192235537299   -0.011248437758867972
-0.04072884142846557   -0.37714136347235255   -0.011018006722794764
-0.05150547197721043   -0.37603713522395754   -0.011726961951745848
-0.03755309975737843   -0.3934827720786484   -0.01247808216034776
-0.050723880867423424   -0.375845503680088   -0.010829420240834558
-0.03322199647047404   -0.3937192235537299   -0.011248437758867972
-0.036316043166554325   -0.3933826288863872   -0.01139873630309708
-0.050723880867423424   -0.375845503680088   -0.010829420240834558
-0.03755309975737843   -0.3934827720786484   -0.01247808216034776
-0.03322199647047404   -0.3937192235537299   -0.011248437758867972
-0.050723880867423424   -0.375845503680088   -0.010829420240834558
-0.040208200424759366   -0.37689029263141627   -0.010556034389877171
-0.04072884142846557   -0.37714136347235255   -0.011018006722794764
-0.03322199647047404   -0.3937192235537299   -0.011248437758867972
-0.050723880867423424   -0.375845503680088   -0.010829420240834558
-0.04072884142846557   -0.37714136347235255   -0.011018006722794764
-0.03755309975737843   -0.3934827720786484   -0.01247808216034776
-0.03322199647047404   -0.3937192235537299   -0.011248437758867972
-0.040208200424759366   -0.37689029263141627   -0.010556034389877171
-0.036316043166554325   -0.3933826288863872   -0.01139873630309708
-0.03233456007386371   -0.3938311489781662   -0.010635005769532588
-0.040208200424759366   -0.37689029263141627   -0.010556034389877171
-0.050723880867423424   -0.375845503680088   -0.010829420240834558
-0.036316043166554325   -0.3933826288863872   -0.01139873630309708
-0.05003994138644358   -0.375903391262281   -0.009868095989924129
-0.03233456007386371   -0.3938311489781662   -0.010635005769532588
-0.03514971245594984   -0.3935489768118409   -0.010277137845782647
-0.05003994138644358   -0.375903391262281   -0.009868095989924129
-0.036316043166554325   -0.3933826288863872   -0.01139873630309708
-0.03233456007386371   -0.3938311489781662   -0.010635005769532588
-0.05003994138644358   -0.375903391262281   -0.009868095989924129
-0.03968502482894029   -0.3768685715693183   -0.010047582860002452
-0.040208200424759366   -0.37689029263141627   -0.010556034389877171
-0.03233456007386371   -0.3938311489781662   -0.010635005769532588
-0.05003994138644358   -0.375903391262281   -0.009868095989924129
-0.040208200424759366   -0.37689029263141627   -0.010556034389877171
-0.036316043166554325   -0.3933826288863872   -0.01139873630309708
-0.03849193159883116   -0.39391390065225335   -0.013480614106517701
-0.052072306807698664   -0.37647789257601727   -0.012586011838752206
-0.0456254270907323   -0.39198280324095214   -0.014695155433095759
-0.03755309975737843   -0.3934827720786484   -0.01247808216034776
-0.052072306807698664   -0.37647789257601727   -0.012586011838752206
-0.0660841246846505   -0.3745770927047749   -0.013682785741273391
-0.0456254270907323   -0.39198280324095214   -0.014695155433095759
-0.06427381692269052   -0.3741011832369841   -0.012326980648468187
-0.03755309975737843   -0.3934827720786484   -0.01247808216034776
-0.04314804329909687   -0.39162204860847216   -0.01304999407445447
-0.06427381692269052   -0.3741011832369841   -0.012326980648468187
-0.0456254270907323   -0.39198280324095214   -0.014695155433095759
-0.03755309975737843   -0.3934827720786484   -0.01247808216034776
-0.06427381692269052   -0.3741011832369841   -0.012326980648468187
-0.05150547197721043   -0.37603713522395754   -0.011726961951745848
-0.052072306807698664   -0.37647789257601727   -0.012586011838752206
-0.03755309975737843   -0.3934827720786484   -0.01247808216034776
-0.06427381692269052   -0.3741011832369841   -0.012326980648468187
-0.052072306807698664   -0.37647789257601727   -0.012586011838752206
-0.0456254270907323   -0.39198280324095214   -0.014695155433095759
-0.03755309975737843   -0.3934827720786484   -0.01247808216034776
-0.05150547197721043   -0.37603713522395754   -0.011726961951745848
-0.04314804329909687   -0.39162204860847216   -0.01304999407445447
-0.036316043166554325   -0.3933826288863872   -0.01139873630309708
-0.05150547197721043   -0.37603713522395754   -0.011726961951745848
-0.06427381692269052   -0.3741011832369841   -0.012326980648468187
-0.04314804329909687   -0.39162204860847216   -0.01304999407445447
-0.0626479947046825   -0.37392392921104856   -0.01089069103281207
-0.036316043166554325   -0.3933826288863872   -0.01139873630309708
-0.04086800333465873   -0.3915707725677847   -0.011292230494469304
-0.0626479947046825   -0.37392392921104856   -0.01089069103281207
-0.04314804329909687   -0.39162204860847216   -0.01304999407445447
-0.036316043166554325   -0.3933826288863872   -0.01139873630309708
-0.0626479947046825   -0.37392392921104856   -0.01089069103281207
-0.050723880867423424   -0.375845503680088   -0.010829420240834558
-0.05150547197721043   -0.37603713522395754   -0.011726961951745848
-0.036316043166554325   -0.3933826288863872   -0.01139873630309708
-0.0626479947046825   -0.37392392921104856   -0.01089069103281207
-0.05150547197721043   -0.37603713522395754   -0.011726961951745848
-0.04314804329909687   -0.39162204860847216   -0.01304999407445447
-0.036316043166554325   -0.3933826288863872   -0.01139873630309708
-0.050723880867423424   -0.375845503680088   -0.010829420240834558
-0.04086800333465873   -0.3915707725677847   -0.011292230494469304
-0.03514971245594984   -0.3935489768118409   -0.010277137845782647
-0.050723880867423424   -0.375845503680088   -0.010829420240834558
-0.0626479947046825   -0.37392392921104856   -0.01089069103281207
-0.04086800333465873   -0.3915707725677847   -0.011292230494469304
-0.06054044457702621   -0.37413576117501085   -0.00938768842627701
-0.03514971245594984   -0.3935489768118409   -0.010277137845782647
-0.03798926712262868   -0.39204493680812   -0.009452381159309181
-0.06054044457702621   -0.37413576117501085   -0.00938768842627701
-0.04086800333465873   -0.3915707725677847   -0.011292230494469304
-0.03514971245594984   -0.3935489768118409   -0.010277137845782647
-0.06054044457702621   -0.37413576117501085   -0.00938768842627701
-0.05003994138644358   -0.375903391262281   -0.009868095989924129
-0.050723880867423424   -0.375845503680088   -0.010829420240834558
-0.03514971245594984   -0.3935489768118409   -0.010277137845782647
-0.06054044457702621   -0.37413576117501085   -0.00938768842627701
-0.050723880867423424   -0.375845503680088   -0.010829420240834558
-0.04086800333465873   -0.3915707725677847   -0.011292230494469304
-0.01121368547784322   -0.376451891482201   -0.007213786645272009
0.0024266208855586845   -0.34903001559778024   -0.005973529618009164
-0.021329585307244683   -0.37759806703941257   -0.008850726376743794
-0.009631022723283707   -0.37564528446048057   -0.008339850640282268
0.0024266208855586845   -0.34903001559778024   -0.005973529618009164
-0.01456949873723868   -0.3498668265840813   -0.007579449821003483
-0.021329585307244683   -0.37759806703941257   -0.008850726376743794
-0.014276455133896485   -0.34918326691606877   -0.007972122735548695
-0.009631022723283707   -0.37564528446048057   -0.008339850640282268
-0.020774286732228243   -0.37694555962459414   -0.009347423511753003
-0.014276455133896485   -0.34918326691606877   -0.007972122735548695
-0.021329585307244683   -0.37759806703941257   -0.008850726376743794
-0.009631022723283707   -0.37564528446048057   -0.008339850640282268
-0.014276455133896485   -0.34918326691606877   -0.007972122735548695
0.0035266389216084076   -0.34821123431748413   -0.006866795645032974
0.0024266208855586845   -0.34903001559778024   -0.005973529618009164
-0.009631022723283707   -0.37564528446048057   -0.008339850640282268
-0.014276455133896485   -0.34918326691606877   -0.007972122735548695
0.0024266208855586845   -0.34903001559778024   -0.005973529618009164
-0.021329585307244683   -0.37759806703941257   -0.008850726376743794
-0.009631022723283707   -0.37564528446048057   -0.008339850640282268
0.0035266389216084076   -0.34821123431748413   -0.006866795645032974
-0.020774286732228243   -0.37694555962459414   -0.009347423511753003
-0.008385765380593298   -0.375256453884449   -0.009398608291206319
0.0035266389216084076   -0.34821123431748413   -0.006866795645032974
-0.014276455133896485   -0.34918326691606877   -0.007972122735548695
-0.020774286732228243   -0.37694555962459414   -0.009347423511753003
-0.013943631626022078   -0.348732786528392   -0.00831841994415583
-0.008385765380593298   -0.375256453884449   -0.009398608291206319
-0.020150248785447022   -0.3765799291380685   -0.009798737408383352
-0.013943631626022078   -0.348732786528392   -0.00831841994415583
-0.020774286732228243   -0.37694555962459414   -0.009347423511753003
-0.008385765380593298   -0.375256453884449   -0.009398608291206319
-0.013943631626022078   -0.348732786528392   -0.00831841994415583
0.00433526556913475   -0.347733386294818   -0.007695155882024045
0.0035266389216084076   -0.34821123431748413   -0.006866795645032974
-0.008385765380593298   -0.375256453884449   -0.009398608291206319
-0.013943631626022078   -0.348732786528392   -0.00831841994415583
0.0035266389216084076   -0.34821123431748413   -0.006866795645032974
-0.020774286732228243   -0.37694555962459414   -0.009347423511753003
-0.008385765380593298   -0.375256453884449   -0.009398608291206319
0.00433526556913475   -0.347733386294818   -0.007695155882024045
-0.020150248785447022   -0.3765799291380685   -0.009798737408383352
-0.007028367027148131   -0.3751745998019757   -0.010387166039656141
0.00433526556913475   -0.347733386294818   -0.007695155882024045
-0.013943631626022078   -0.348732786528392   -0.00831841994415583
-0.020150248785447022   -0.3765799291380685   -0.009798737408383352
-0.013744756012582201   -0.3485021959697115   -0.008622914272486884
-0.007028367027148131   -0.3751745998019757   -0.010387166039656141
-0.019671470679012162   -0.37649101323219647   -0.010206079858106454
-0.013744756012582201   -0.3485021959697115   -0.008622914272486884
-0.020150248785447022   -0.3765799291380685   -0.009798737408383352
-0.007028367027148131   -0.3751745998019757   -0.010387166039656141
-0.013744756012582201   -0.3485021959697115   -0.008622914272486884
0.005198538675143763   -0.34749070288583156   -0.00845825357536515
0.00433526556913475   -0.347733386294818   -0.007695155882024045
-0.007028367027148131   -0.3751745998019757   -0.010387166039656141
-0.013744756012582201   -0.3485021959697115   -0.008622914272486884
0.00433526556913475   -0.347733386294818   -0.007695155882024045
-0.020150248785447022   -0.3765799291380685   -0.009798737408383352
-0.021329585307244683   -0.37759806703941257   -0.008850726376743794
-0.01456949873723868   -0.3498668265840813   -0.007579449821003483
-0.03129700711463693   -0.3780040730224909   -0.0101877153867048
-0.020774286732228243   -0.37694555962459414   -0.009347423511753003
-0.01456949873723868   -0.3498668265840813   -0.007579449821003483
-0.0309947051751307   -0.35002647573492074   -0.008905305459995641
-0.03129700711463693   -0.3780040730224909   -0.0101877153867048
-0.030778649773457362   -0.34943905876314846   -0.008916147885682643
-0.020774286732228243   -0.37694555962459414   -0.009347423511753003
-0.03082940676834863   -0.37743465957354594   -0.010216074656011646
-0.030778649773457362   -0.34943905876314846   -0.008916147885682643
-0.03129700711463693   -0.3780040730224909   -0.0101877153867048
-0.020774286732228243   -0.37694555962459414   -0.009347423511753003
-0.030778649773457362   -0.34943905876314846   -0.008916147885682643
-0.014276455133896485   -0.34918326691606877   -0.007972122735548695
-0.01456949873723868   -0.3498668265840813   -0.007579449821003483
-0.020774286732228243   -0.37694555962459414   -0.009347423511753003
-0.030778649773457362   -0.34943905876314846   -0.008916147885682643
-0.01456949873723868   -0.3498668265840813   -0.007579449821003483
-0.03129700711463693   -0.3780040730224909   -0.0101877153867048
-0.020774286732228243   -0.37694555962459414   -0.009347423511753003
-0.014276455133896485   -0.34918326691606877   -0.007972122735548695
-0.03082940676834863   -0.37743465957354594   -0.010216074656011646
-0.020150248785447022   -0.3765799291380685   -0.009798737408383352
-0.014276455133896485   -0.34918326691606877   -0.007972122735548695
-0.030778649773457362   -0.34943905876314846   -0.008916147885682643
-0.03082940676834863   -0.37743465957354594   -0.010216074656011646
-0.03055659610912373   -0.34906032387610814   -0.00888259482665669
-0.020150248785447022   -0.3765799291380685   -0.009798737408383352
-0.03034590386656994   -0.3771239089766888   -0.010202420270380081
-0.03055659610912373   -0.34906032387610814   -0.00888259482665669
-0.03082940676834863   -0.37743465957354594   -0.010216074656011646
-0.020150248785447022   -0.3765799291380685   -0.009798737408383352
-0.03055659610912373   -0.34906032387610814   -0.00888259482665669
-0.013943631626022078   -0.348732786528392   -0.00831841994415583
-0.014276455133896485   -0.34918326691606877   -0.007972122735548695
-0.020150248785447022   -0.3765799291380685   -0.009798737408383352
-0.03055659610912373   -0.34906032387610814   -0.00888259482665669
-0.014276455133896485   -0.34918326691606877   -0.007972122735548695
-0.03082940676834863   -0.37743465957354594   -0.010216074656011646
-0.020150248785447022   -0.3765799291380685   -0.009798737408383352
-0.013943631626022078   -0.348732786528392   -0.00831841994415583
-0.03034590386656994   -0.3771239089766888   -0.010202420270380081
-0.019671470679012162   -0.37649101323219647   -0.010206079858106454
-0.013943631626022078   -0.348732786528392   -0.00831841994415583
-0.03055659610912373   -0.34906032387610814   -0.00888259482665669
-0.03034590386656994   -0.3771239089766888   -0.010202420270380081
-0.030362333050351985   -0.34888672206586047   -0.008807544858605377
-0.019671470679012162   -0.37649101323219647   -0.010206079858106454
-0.02987945982180739   -0.3770590749139188   -0.01014628280707953
-0.030362333050351985   -0.34888672206586047   -0.008807544858605377
-0.03034590386656994   -0.3771239089766888   -0.010202420270380081
-0.019671470679012162   -0.37649101323219647   -0.010206079858106454
-0.030362333050351985   -0.34888672206586047   -0.008807544858605377
-0.013744756012582201   -0.3485021959697115   -0.008622914272486884
-0.013943631626022078   -0.348732786528392   -0.00831841994415583
-0.019671470679012162   -0.37649101323219647   -0.010206079858106454
-0.030362333050351985   -0.34888672206586047   -0.008807544858605377
-0.013943631626022078   -0.348732786528392   -0.00831841994415583
-0.03034590386656994   -0.3771239089766888   -0.010202420270380081
-0.03129700711463693   -0.3780040730224909   -0.0101877153867048
-0.0309947051751307   -0.35002647573492074   -0.008905305459995641
-0.041192754787565775   -0.3776466706293001   -0.01143855325961083
-0.03082940676834863   -0.37743465957354594   -0.010216074656011646
-0.0309947051751307   -0.35002647573492074   -0.008905305459995641
-0.04715814638891687   -0.34950507299346983   -0.010102380060929188
-0.041192754787565775   -0.3776466706293001   -0.01143855325961083
-0.046956934171755484   -0.34899803470024937   -0.009740646107853865
-0.03082940676834863   -0.37743465957354594   -0.010216074656011646
-0.04072884142846557   -0.37714136347235255   -0.011018006722794764
-0.046956934171755484   -0.34899803470024937   -0.009740646107853865
-0.041192754787565775   -0.3776466706293001   -0.01143855325961083
-0.03082940676834863   -0.37743465957354594   -0.010216074656011646
-0.046956934171755484   -0.34899803470024937   -0.009740646107853865
-0.030778649773457362   -0.34943905876314846   -0.008916147885682643
-0.0309947051751307   -0.35002647573492074   -0.008905305459995641
-0.03082940676834863   -0.37743465957354594   -0.010216074656011646
-0.046956934171755484   -0.34899803470024937   -0.009740646107853865
-0.0309947051751307   -0.35002647573492074   -0.008905305459995641
-0.041192754787565775   -0.3776466706293001   -0.01143855325961083
-0.03082940676834863   -0.37743465957354594   -0.010216074656011646
-0.030778649773457362   -0.34943905876314846   -0.008916147885682643
-0.04072884142846557   -0.37714136347235255   -0.011018006722794764
-0.03034590386656994   -0.3771239089766888   -0.010202420270380081
-0.030778649773457362   -0.34943905876314846   -0.008916147885682643
-0.046956934171755484   -0.34899803470024937   -0.009740646107853865
-0.04072884142846557   -0.37714136347235255   -0.011018006722794764
-0.04671386419169041   -0.3486973644490691   -0.009335447966861
-0.03034590386656994   -0.3771239089766888   -0.010202420270380081
-0.040208200424759366   -0.37689029263141627   -0.010556034389877171
-0.04671386419169041   -0.3486973644490691   -0.009335447966861
-0.04072884142846557   -0.37714136347235255   -0.011018006722794764
-0.03034590386656994   -0.3771239089766888   -0.010202420270380081
-0.04671386419169041   -0.3486973644490691   -0.009335447966861
-0.03055659610912373   -0.34906032387610814   -0.00888259482665669
-0.030778649773457362   -0.34943905876314846   -0.008916147885682643
-0.03034590386656994   -0.3771239089766888   -0.010202420270380081
-0.04671386419169041   -0.3486973644490691   -0.009335447966861
-0.030778649773457362   -0.34943905876314846   -0.008916147885682643
-0.04072884142846557   -0.37714136347235255   -0.011018006722794764
-0.03034590386656994   -0.3771239089766888   -0.010202420270380081
-0.03055659610912373   -0.34906032387610814   -0.00888259482665669
-0.040208200424759366   -0.37689029263141627   -0.010556034389877171
-0.02987945982180739   -0.3770590749139188   -0.01014628280707953
-0.03055659610912373   -0.34906032387610814   -0.00888259482665669
-0.04671386419169041   -0.3486973644490691   -0.009335447966861
-0.040208200424759366   -0.37689029263141627   -0.010556034389877171
-0.04647721289406349   -0.34859327311942934   -0.008888131892742514
-0.02987945982180739   -0.3770590749139188   -0.01014628280707953
-0.03968502482894029   -0.3768685715693183   -0.010047582860002452
-0.04647721289406349   -0.34859327311942934   -0.008888131892742514
-0.040208200424759366   -0.37689029263141627   -0.010556034389877171
-0.02987945982180739   -0.3770590749139188   -0.01014628280707953
-0.04647721289406349   -0.34859327311942934   -0.008888131892742514
-0.030362333050351985   -0.34888672206586047   -0.008807544858605377
-0.03055659610912373   -0.34906032387610814   -0.00888259482665669
-0.02987945982180739   -0.3770590749139188   -0.01014628280707953
-0.04647721289406349   -0.34859327311942934   -0.008888131892742514
-0.03055659610912373   -0.34906032387610814   -0.00888259482665669
-0.040208200424759366   -0.37689029263141627   -0.010556034389877171
-0.041192754787565775   -0.3776466706293001   -0.01143855325961083
-0.04715814638891687   -0.34950507299346983   -0.010102380060929188
-0.052072306807698664   -0.37647789257601727   -0.012586011838752206
-0.04072884142846557   -0.37714136347235255   -0.011018006722794764
-0.04715814638891687   -0.34950507299346983   -0.010102380060929188
-0.06410158575064556   -0.3483215918969947   -0.01116543186862511
-0.052072306807698664   -0.37647789257601727   -0.012586011838752206
-0.06383981097525124   -0.3478916454766319   -0.010430825150678847
-0.04072884142846557   -0.37714136347235255   -0.011018006722794764
-0.05150547197721043   -0.37603713522395754   -0.011726961951745848
-0.06383981097525124   -0.3478916454766319   -0.010430825150678847
-0.052072306807698664   -0.37647789257601727   -0.012586011838752206
-0.04072884142846557   -0.37714136347235255   -0.011018006722794764
-0.06383981097525124   -0.3478916454766319   -0.010430825150678847
-0.046956934171755484   -0.34899803470024937   -0.009740646107853865
-0.04715814638891687   -0.34950507299346983   -0.010102380060929188
-0.04072884142846557   -0.37714136347235255   -0.011018006722794764
-0.06383981097525124   -0.3478916454766319   -0.010430825150678847
-0.04715814638891687   -0.34950507299346983   -0.010102380060929188
-0.052072306807698664   -0.37647789257601727   -0.012586011838752206
-0.04072884142846557   -0.37714136347235255   -0.011018006722794764
-0.046956934171755484   -0.34899803470024937   -0.009740646107853865
-0.05150547197721043   -0.37603713522395754   -0.011726961951745848
-0.040208200424759366   -0.37689029263141627   -0.010556034389877171
-0.046956934171755484   -0.34899803470024937   -0.009740646107853865
-0.06383981097525124   -0.3478916454766319   -0.010430825150678847
-0.05150547197721043   -0.37603713522395754   -0.011726961951745848
-0.06339663164501773   -0.34766175595281285   -0.009659382802654312
-0.040208200424759366   -0.37689029263141627   -0.010556034389877171
-0.050723880867423424   -0.375845503680088   -0.010829420240834558
-0.06339663164501773   -0.34766175595281285   -0.009659382802654312
-0.05150547197721043   -0.37603713522395754   -0.011726961951745848
-0.040208200424759366   -0.37689029263141627   -0.010556034389877171
-0.06339663164501773   -0.34766175595281285   -0.009659382802654312
-0.04671386419169041   -0.3486973644490691   -0.009335447966861
-0.046956934171755484   -0.34899803470024937   -0.009740646107853865
-0.040208200424759366   -0.37689029263141627   -0.010556034389877171
-0.06339663164501773   -0.34766175595281285   -0.009659382802654312
-0.046956934171755484   -0.34899803470024937   -0.009740646107853865
-0.05150547197721043   -0.37603713522395754   -0.011726961951745848
-0.040208200424759366   -0.37689029263141627   -0.010556034389877171
-0.04671386419169041   -0.3486973644490691   -0.009335447966861
-0.050723880867423424   -0.375845503680088   -0.010829420240834558
-0.03968502482894029   -0.3768685715693183   -0.010047582860002452
-0.04671386419169041   -0.3486973644490691   -0.009335447966861
-0.06339663164501773   -0.34766175595281285   -0.009659382802654312
-0.050723880867423424   -0.375845503680088   -0.010829420240834558
-0.06303539783458088   -0.34764384180495556   -0.00883972526792371
-0.03968502482894029   -0.3768685715693183   -0.010047582860002452
-0.05003994138644358   -0.375903391262281   -0.009868095989924129
-0.06303539783458088   -0.34764384180495556   -0.00883972526792371
-0.050723880867423424   -0.375845503680088   -0.010829420240834558
-0.03968502482894029   -0.3768685715693183   -0.010047582860002452
-0.06303539783458088   -0.34764384180495556   -0.00883972526792371
-0.04647721289406349   -0.34859327311942934   -0.008888131892742514
-0.04671386419169041   -0.3486973644490691   -0.009335447966861
-0.03968502482894029   -0.3768685715693183   -0.010047582860002452
-0.06303539783458088   -0.34764384180495556   -0.00883972526792371
-0.04671386419169041   -0.3486973644490691   -0.009335447966861
-0.050723880867423424   -0.375845503680088   -0.010829420240834558
-0.052072306807698664   -0.37647789257601727   -0.012586011838752206
-0.06410158575064556   -0.3483215918969947   -0.01116543186862511
-0.0660841246846505   -0.3745770927047749   -0.013682785741273391
-0.05150547197721043   -0.37603713522395754   -0.011726961951745848
-0.06410158575064556   -0.3483215918969947   -0.01116543186862511
-0.08386398480399229   -0.34662098234607064   -0.01215337223296305
-0.0660841246846505   -0.3745770927047749   -0.013682785741273391
-0.08253394347460294   -0.3461740699917695   -0.011004281108033668
-0.05150547197721043   -0.37603713522395754   -0.011726961951745848
-0.06427381692269052   -0.3741011832369841   -0.012326980648468187
-0.08253394347460294   -0.3461740699917695   -0.011004281108033668
-0.0660841246846505   -0.3745770927047749   -0.013682785741273391
-0.05150547197721043   -0.37603713522395754   -0.011726961951745848
-0.08253394347460294   -0.3461740699917695   -0.011004281108033668
-0.06383981097525124   -0.3478916454766319   -0.010430825150678847
-0.06410158575064556   -0.3483215918969947   -0.01116543186862511
-0.05150547197721043   -0.37603713522395754   -0.011726961951745848
-0.08253394347460294   -0.3461740699917695   -0.011004281108033668
-0.06410158575064556   -0.3483215918969947   -0.01116543186862511
-0.0660841246846505   -0.3745770927047749   -0.013682785741273391
-0.05150547197721043   -0.37603713522395754   -0.011726961951745848
-0.06383981097525124   -0.3478916454766319   -0.010430825150678847
-0.06427381692269052   -0.3741011832369841   -0.012326980648468187
-0.050723880867423424   -0.375845503680088   -0.010829420240834558
-0.06383981097525124   -0.3478916454766319   -0.010430825150678847
-0.08253394347460294   -0.3461740699917695   -0.011004281108033668
-0.06427381692269052   -0.3741011832369841   -0.012326980648468187
-0.08137753621591794   -0.3459633849272198   -0.00979460451822201
-0.050723880867423424   -0.375845503680088   -0.010829420240834558
-0.0626479947046825   -0.37392392921104856   -0.01089069103281207
-0.08137753621591794   -0.3459633849272198   -0.00979460451822201
-0.06427381692269052   -0.3741011832369841   -0.012326980648468187
-0.050723880867423424   -0.375845503680088   -0.010829420240834558
-0.08137753621591794   -0.3459633849272198   -0.00979460451822201
-0.06339663164501773   -0.34766175595281285   -0.009659382802654312
-0.06383981097525124   -0.3478916454766319   -0.010430825150678847
-0.050723880867423424   -0.375845503680088   -0.010829420240834558
-0.08137753621591794   -0.3459633849272198   -0.00979460451822201
-0.06383981097525124   -0.3478916454766319   -0.010430825150678847
-0.06427381692269052   -0.3741011832369841   -0.012326980648468187
-0.050723880867423424   -0.375845503680088   -0.010829420240834558
-0.06339663164501773   -0.34766175595281285   -0.009659382802654312
-0.0626479947046825   -0.37392392921104856   -0.01089069103281207
-0.05003994138644358   -0.375903391262281   -0.009868095989924129
-0.06339663164501773   -0.34766175595281285   -0.009659382802654312
-0.08137753621591794   -0.3459633849272198   -0.00979460451822201
-0.0626479947046825   -0.37392392921104856   -0.01089069103281207
-0.07981866866780735   -0.3460771923161515   -0.008532079088507368
-0.05003994138644358   -0.375903391262281   -0.009868095989924129
-0.06054044457702621   -0.37413576117501085   -0.00938768842627701
-0.07981866866780735   -0.3460771923161515   -0.008532079088507368
-0.0626479947046825   -0.37392392921104856   -0.01089069103281207
-0.05003994138644358   -0.375903391262281   -0.009868095989924129
-0.07981866866780735   -0.3460771923161515   -0.008532079088507368
-0.06303539783458088   -0.34764384180495556   -0.00883972526792371
-0.06339663164501773   -0.34766175595281285   -0.009659382802654312
-0.05003994138644358   -0.375903391262281   -0.009868095989924129
-0.07981866866780735   -0.3460771923161515   -0.008532079088507368
-0.06339663164501773   -0.34766175595281285   -0.009659382802654312
-0.0626479947046825   -0.37392392921104856   -0.01089069103281207
0.0024266208855586845   -0.34903001559778024   -0.005973529618009164
0.012738665546533006   -0.3119154834552847   -0.004554300248208126
-0.01456949873723868   -0.3498668265840813   -0.007579449821003483
0.0035266389216084076   -0.34821123431748413   -0.006866795645032974
0.012738665546533006   -0.3119154834552847   -0.004554300248208126
-0.009710992096355073   -0.3124653362016479   -0.0060866213693430505
-0.01456949873723868   -0.3498668265840813   -0.007579449821003483
-0.009651812059893359   -0.31178549261319977   -0.006357373861748133
0.0035266389216084076   -0.34821123431748413   -0.006866795645032974
-0.014276455133896485   -0.34918326691606877   -0.007972122735548695
-0.009651812059893359   -0.31178549261319977   -0.006357373861748133
-0.01456949873723868   -0.3498668265840813   -0.007579449821003483
0.0035266389216084076   -0.34821123431748413   -0.006866795645032974
-0.009651812059893359   -0.31178549261319977   -0.006357373861748133
0.013386508288348007   -0.31111695153978586   -0.005211760552652296
0.012738665546533006   -0.3119154834552847   -0.004554300248208126
0.0035266389216084076   -0.34821123431748413   -0.006866795645032974
-0.009651812059893359   -0.31178549261319977   -0.006357373861748133
0.012738665546533006   -0.3119154834552847   -0.004554300248208126
-0.01456949873723868   -0.3498668265840813   -0.007579449821003483
0.0035266389216084076   -0.34821123431748413   -0.006866795645032974
0.013386508288348007   -0.31111695153978586   -0.005211760552652296
-0.014276455133896485   -0.34918326691606877   -0.007972122735548695
0.00433526556913475   -0.347733386294818   -0.007695155882024045
0.013386508288348007   -0.31111695153978586   -0.005211760552652296
-0.009651812059893359   -0.31178549261319977   -0.006357373861748133
-0.014276455133896485   -0.34918326691606877   -0.007972122735548695
-0.009576820364012015   -0.31128878670878196   -0.0065859035186983635
0.00433526556913475   -0.347733386294818   -0.007695155882024045
-0.013943631626022078   -0.348732786528392   -0.00831841994415583
-0.009576820364012015   -0.31128878670878196   -0.0065859035186983635
-0.014276455133896485   -0.34918326691606877   -0.007972122735548695
0.00433526556913475   -0.347733386294818   -0.007695155882024045
-0.009576820364012015   -0.31128878670878196   -0.0065859035186983635
0.013799227586999651   -0.31058836361943987   -0.005809590080118687
0.013386508288348007   -0.31111695153978586   -0.005211760552652296
0.00433526556913475   -0.347733386294818   -0.007695155882024045
-0.009576820364012015   -0.31128878670878196   -0.0065859035186983635
0.013386508288348007   -0.31111695153978586   -0.005211760552652296
-0.014276455133896485   -0.34918326691606877   -0.007972122735548695
0.00433526556913475   -0.347733386294818   -0.007695155882024045
0.013799227586999651   -0.31058836361943987   -0.005809590080118687
-0.013943631626022078   -0.348732786528392   -0.00831841994415583
0.005198538675143763   -0.34749070288583156   -0.00845825357536515
0.013799227586999651   -0.31058836361943987   -0.005809590080118687
-0.009576820364012015   -0.31128878670878196   -0.0065859035186983635
-0.013943631626022078   -0.348732786528392   -0.00831841994415583
-0.009615850476570554   -0.31095954030610956   -0.006775296360054828
0.005198538675143763   -0.34749070288583156   -0.00845825357536515
-0.013744756012582201   -0.3485021959697115   -0.008622914272486884
-0.009615850476570554   -0.31095954030610956   -0.006775296360054828
-0.013943631626022078   -0.348732786528392   -0.00831841994415583
0.005198538675143763   -0.34749070288583156   -0.00845825357536515
-0.009615850476570554   -0.31095954030610956   -0.006775296360054828
0.014220705523964879   -0.31022851184569605   -0.006349005384669326
0.013799227586999651   -0.31058836361943987   -0.005809590080118687
0.005198538675143763   -0.34749070288583156   -0.00845825357536515
-0.009615850476570554   -0.31095954030610956   -0.006775296360054828
0.013799227586999651   -0.31058836361943987   -0.005809590080118687
-0.013943631626022078   -0.348732786528392   -0.00831841994415583
-0.01456949873723868   -0.3498668265840813   -0.007579449821003483
-0.009710992096355073   -0.3124653362016479   -0.0060866213693430505
-0.0309947051751307   -0.35002647573492074   -0.008905305459995641
-0.014276455133896485   -0.34918326691606877   -0.007972122735548695
-0.009710992096355073   -0.3124653362016479   -0.0060866213693430505
-0.03130026183606684   -0.31246647933758653   -0.007353742726526135
-0.0309947051751307   -0.35002647573492074   -0.008905305459995641
-0.03130390492507469   -0.31189018095194493   -0.007328281808685804
-0.014276455133896485   -0.34918326691606877   -0.007972122735548695
-0.030778649773457362   -0.34943905876314846   -0.008916147885682643
-0.03130390492507469   -0.31189018095194493   -0.007328281808685804
-0.0309947051751307   -0.35002647573492074   -0.008905305459995641
-0.014276455133896485   -0.34918326691606877   -0.007972122735548695
-0.03130390492507469   -0.31189018095194493   -0.007328281808685804
-0.009651812059893359   -0.31178549261319977   -0.006357373861748133
-0.009710992096355073   -0.3124653362016479   -0.0060866213693430505
-0.014276455133896485   -0.34918326691606877   -0.007972122735548695
-0.03130390492507469   -0.31189018095194493   -0.007328281808685804
-0.009710992096355073   -0.3124653362016479   -0.0060866213693430505
-0.0309947051751307   -0.35002647573492074   -0.008905305459995641
-0.014276455133896485   -0.34918326691606877   -0.007972122735548695
-0.009651812059893359   -0.31178549261319977   -0.006357373861748133
-0.030778649773457362   -0.34943905876314846   -0.008916147885682643
-0.013943631626022078   -0.348732786528392   -0.00831841994415583
-0.009651812059893359   -0.31178549261319977   -0.006357373861748133
-0.03130390492507469   -0.31189018095194493   -0.007328281808685804
-0.030778649773457362   -0.34943905876314846   -0.008916147885682643
-0.03130615623547695   -0.3114753904255178   -0.007260803139669743
-0.013943631626022078   -0.348732786528392   -0.00831841994415583
-0.03055659610912373   -0.34906032387610814   -0.00888259482665669
-0.03130615623547695   -0.3114753904255178   -0.007260803139669743
-0.030778649773457362   -0.34943905876314846   -0.008916147885682643
-0.013943631626022078   -0.348732786528392   -0.00831841994415583
-0.03130615623547695   -0.3114753904255178   -0.007260803139669743
-0.009576820364012015   -0.31128878670878196   -0.0065859035186983635
-0.009651812059893359   -0.31178549261319977   -0.006357373861748133
-0.013943631626022078   -0.348732786528392   -0.00831841994415583
-0.03130615623547695   -0.3114753904255178   -0.007260803139669743
-0.009651812059893359   -0.31178549261319977   -0.006357373861748133
-0.030778649773457362   -0.34943905876314846   -0.008916147885682643
-0.013943631626022078   -0.348732786528392   -0.00831841994415583
-0.009576820364012015   -0.31128878670878196   -0.0065859035186983635
-0.03055659610912373   -0.34906032387610814   -0.00888259482665669
-0.013744756012582201   -0.3485021959697115   -0.008622914272486884
-0.009576820364012015   -0.31128878670878196   -0.0065859035186983635
-0.03130615623547695   -0.3114753904255178   -0.007260803139669743
-0.03055659610912373   -0.34906032387610814   -0.00888259482665669
-0.03133737349439138   -0.31122237606308395   -0.007153433387170267
-0.013744756012582201   -0.3485021959697115   -0.008622914272486884
-0.030362333050351985   -0.34888672206586047   -0.008807544858605377
-0.03133737349439138   -0.31122237606308395   -0.007153433387170267
-0.03055659610912373   -0.34906032387610814   -0.00888259482665669
-0.013744756012582201   -0.3485021959697115   -0.008622914272486884
-0.03133737349439138   -0.31122237606308395   -0.007153433387170267
-0.009615850476570554   -0.31095954030610956   -0.006775296360054828
-0.009576820364012015   -0.31128878670878196   -0.0065859035186983635
-0.013744756012582201   -0.3485021959697115   -0.008622914272486884
-0.03133737349439138   -0.31122237606308395   -0.007153433387170267
-0.009576820364012015   -0.31128878670878196   -0.0065859035186983635
-0.03055659610912373   -0.34906032387610814   -0.00888259482665669
-0.0309947051751307   -0.35002647573492074   -0.008905305459995641
-0.03130026183606684   -0.31246647933758653   -0.007353742726526135
-0.04715814638891687   -0.34950507299346983   -0.010102380060929188
-0.030778649773457362   -0.34943905876314846   -0.008916147885682643
-0.03130026183606684   -0.31246647933758653   -0.007353742726526135
-0.0525194895504172   -0.31193046284579146   -0.008464765629201587
-0.04715814638891687   -0.34950507299346983   -0.010102380060929188
-0.052538991770273366   -0.3114454796684171   -0.00814662049241312
-0.030778649773457362   -0.34943905876314846   -0.008916147885682643
-0.046956934171755484   -0.34899803470024937   -0.009740646107853865
-0.052538991770273366   -0.3114454796684171   -0.00814662049241312
-0.04715814638891687   -0.34950507299346983   -0.010102380060929188
-0.030778649773457362   -0.34943905876314846   -0.008916147885682643
-0.052538991770273366   -0.3114454796684171   -0.00814662049241312
-0.03130390492507469   -0.31189018095194493   -0.007328281808685804
-0.03130026183606684   -0.31246647933758653   -0.007353742726526135
-0.030778649773457362   -0.34943905876314846   -0.008916147885682643
-0.052538991770273366   -0.3114454796684171   -0.00814662049241312
-0.03130026183606684   -0.31246647933758653   -0.007353742726526135
-0.04715814638891687   -0.34950507299346983   -0.010102380060929188
-0.030778649773457362   -0.34943905876314846   -0.008916147885682643
-0.03130390492507469   -0.31189018095194493   -0.007328281808685804
-0.046956934171755484   -0.34899803470024937   -0.009740646107853865
-0.03055659610912373   -0.34906032387610814   -0.00888259482665669
-0.03130390492507469   -0.31189018095194493   -0.007328281808685804
-0.052538991770273366   -0.3114454796684171   -0.00814662049241312
-0.046956934171755484   -0.34899803470024937   -0.009740646107853865
-0.05252223856283398   -0.3111205705635269   -0.007787245079469102
-0.03055659610912373   -0.34906032387610814   -0.00888259482665669
-0.04671386419169041   -0.3486973644490691   -0.009335447966861
-0.05252223856283398   -0.3111205705635269   -0.007787245079469102
-0.046956934171755484   -0.34899803470024937   -0.009740646107853865
-0.03055659610912373   -0.34906032387610814   -0.00888259482665669
-0.05252223856283398   -0.3111205705635269   -0.007787245079469102
-0.03130615623547695   -0.3114753904255178   -0.007260803139669743
-0.03130390492507469   -0.31189018095194493   -0.007328281808685804
-0.03055659610912373   -0.34906032387610814   -0.00888259482665669
-0.05252223856283398   -0.3111205705635269   -0.007787245079469102
-0.03130390492507469   -0.31189018095194493   -0.007328281808685804
-0.046956934171755484   -0.34899803470024937   -0.009740646107853865
-0.03055659610912373   -0.34906032387610814   -0.00888259482665669
-0.03130615623547695   -0.3114753904255178   -0.007260803139669743
-0.04671386419169041   -0.3486973644490691   -0.009335447966861
-0.030362333050351985   -0.34888672206586047   -0.008807544858605377
-0.03130615623547695   -0.3114753904255178   -0.007260803139669743
-0.05252223856283398   -0.3111205705635269   -0.007787245079469102
-0.04671386419169041   -0.3486973644490691   -0.009335447966861
-0.052511896867618466   -0.31095287179387054   -0.007387855354934788
-0.030362333050351985   -0.34888672206586047   -0.008807544858605377
-0.04647721289406349   -0.34859327311942934   -0.008888131892742514
-0.052511896867618466   -0.31095287179387054   -0.007387855354934788
-0.04671386419169041   -0.3486973644490691   -0.009335447966861
-0.030362333050351985   -0.34888672206586047   -0.008807544858605377
-0.052511896867618466   -0.31095287179387054   -0.007387855354934788
-0.03133737349439138   -0.31122237606308395   -0.007153433387170267
-0.03130615623547695   -0.3114753904255178   -0.007260803139669743
-0.030362333050351985   -0.34888672206586047   -0.008807544858605377
-0.052511896867618466   -0.31095287179387054   -0.007387855354934788
-0.03130615623547695   -0.3114753904255178   -0.007260803139669743
-0.04671386419169041   -0.3486973644490691   -0.009335447966861
-0.04715814638891687   -0.34950507299346983   -0.010102380060929188
-0.0525194895504172   -0.31193046284579146   -0.008464765629201587
-0.06410158575064556   -0.3483215918969947   -0.01116543186862511
-0.046956934171755484   -0.34899803470024937   -0.009740646107853865
-0.0525194895504172   -0.31193046284579146   -0.008464765629201587
-0.07440232203674003   -0.31087799351296336   -0.009421275449695288
-0.06410158575064556   -0.3483215918969947   -0.01116543186862511
-0.07437789925192283   -0.31048075126569114   -0.008807060362293012
-0.046956934171755484   -0.34899803470024937   -0.009740646107853865
-0.06383981097525124   -0.3478916454766319   -0.010430825150678847
-0.07437789925192283   -0.31048075126569114   -0.008807060362293012
-0.06410158575064556   -0.3483215918969947   -0.01116543186862511
-0.046956934171755484   -0.34899803470024937   -0.009740646107853865
-0.07437789925192283   -0.31048075126569114   -0.008807060362293012
-0.052538991770273366   -0.3114454796684171   -0.00814662049241312
-0.0525194895504172   -0.31193046284579146   -0.008464765629201587
-0.046956934171755484   -0.34899803470024937   -0.009740646107853865
-0.07437789925192283   -0.31048075126569114   -0.008807060362293012
-0.0525194895504172   -0.31193046284579146   -0.008464765629201587
-0.06410158575064556   -0.3483215918969947   -0.01116543186862511
-0.046956934171755484   -0.34899803470024937   -0.009740646107853865
-0.052538991770273366   -0.3114454796684171   -0.00814662049241312
-0.06383981097525124   -0.3478916454766319   -0.010430825150678847
-0.04671386419169041   -0.3486973644490691   -0.009335447966861
-0.052538991770273366   -0.3114454796684171   -0.00814662049241312
-0.07437789925192283   -0.31048075126569114   -0.008807060362293012
-0.06383981097525124   -0.3478916454766319   -0.010430825150678847
-0.07419623588820203   -0.31023732442596014   -0.008157811407685062
-0.04671386419169041   -0.3486973644490691   -0.009335447966861
-0.06339663164501773   -0.34766175595281285   -0.009659382802654312
-0.07419623588820203   -0.31023732442596014   -0.008157811407685062
-0.06383981097525124   -0.3478916454766319   -0.010430825150678847
-0.04671386419169041   -0.3486973644490691   -0.009335447966861
-0.07419623588820203   -0.31023732442596014   -0.008157811407685062
-0.05252223856283398   -0.3111205705635269   -0.007787245079469102
-0.052538991770273366   -0.3114454796684171   -0.00814662049241312
-0.04671386419169041   -0.3486973644490691   -0.009335447966861
-0.07419623588820203   -0.31023732442596014   -0.008157811407685062
-0.052538991770273366   -0.3114454796684171   -0.00814662049241312
-0.06383981097525124   -0.3478916454766319   -0.010430825150678847
-0.04671386419169041   -0.3486973644490691   -0.009335447966861
-0.05252223856283398   -0.3111205705635269   -0.007787245079469102
-0.06339663164501773   -0.34766175595281285   -0.009659382802654312
-0.04647721289406349   -0.34859327311942934   -0.008888131892742514
-0.05252223856283398   -0.3111205705635269   -0.007787245079469102
-0.07419623588820203   -0.31023732442596014   -0.008157811407685062
-0.06339663164501773   -0.34766175595281285   -0.009659382802654312
-0.07407439135489985   -0.31016426378544276   -0.007465362787294483
-0.04647721289406349   -0.34859327311942934   -0.008888131892742514
-0.06303539783458088   -0.34764384180495556   -0.00883972526792371
-0.07407439135489985   -0.31016426378544276   -0.007465362787294483
-0.06339663164501773   -0.34766175595281285   -0.009659382802654312
-0.04647721289406349   -0.34859327311942934   -0.008888131892742514
-0.07407439135489985   -0.31016426378544276   -0.007465362787294483
-0.052511896867618466   -0.31095287179387054   -0.007387855354934788
-0.05252223856283398   -0.3111205705635269   -0.007787245079469102
-0.04647721289406349   -0.34859327311942934   -0.008888131892742514
-0.07407439135489985   -0.31016426378544276   -0.007465362787294483
-0.05252223856283398   -0.3111205705635269   -0.007787245079469102
-0.06339663164501773   -0.34766175595281285   -0.009659382802654312
-0.06410158575064556   -0.3483215918969947   -0.01116543186862511
-0.07440232203674003   -0.31087799351296336   -0.009421275449695288
-0.08386398480399229   -0.34662098234607064   -0.01215337223296305
-0.06383981097525124   -0.3478916454766319   -0.010430825150678847
-0.07440232203674003   -0.31087799351296336   -0.009421275449695288
-0.09884426829457531   -0.3094310862386412   -0.010281967848192734
-0.08386398480399229   -0.34662098234607064   -0.01215337223296305
-0.09794025073162213   -0.3090421292366654   -0.009343436331127256
-0.06383981097525124   -0.3478916454766319   -0.010430825150678847
-0.08253394347460294   -0.3461740699917695   -0.011004281108033668
-0.09794025073162213   -0.3090421292366654   -0.009343436331127256
-0.08386398480399229   -0.34662098234607064   -0.01215337223296305
-0.06383981097525124   -0.3478916454766319   -0.010430825150678847
-0.09794025073162213   -0.3090421292366654   -0.009343436331127256
-0.07437789925192283   -0.31048075126569114   -0.008807060362293012
-0.07440232203674003   -0.31087799351296336   -0.009421275449695288
-0.06383981097525124   -0.3478916454766319   -0.010430825150678847
-0.09794025073162213   -0.3090421292366654   -0.009343436331127256
-0.07440232203674003   -0.31087799351296336   -0.009421275449695288
-0.08386398480399229   -0.34662098234607064   -0.01215337223296305
-0.06383981097525124   -0.3478916454766319   -0.010430825150678847
-0.07437789925192283   -0.31048075126569114   -0.008807060362293012
-0.08253394347460294   -0.3461740699917695   -0.011004281108033668
-0.06339663164501773   -0.34766175595281285   -0.009659382802654312
-0.07437789925192283   -0.31048075126569114   -0.008807060362293012
-0.09794025073162213   -0.3090421292366654   -0.009343436331127256
-0.08253394347460294   -0.3461740699917695   -0.011004281108033668
-0.09716578830978179   -0.30882836805388103   -0.008346144013227322
-0.06339663164501773   -0.34766175595281285   -0.009659382802654312
-0.08137753621591794   -0.3459633849272198   -0.00979460451822201
-0.09716578830978179   -0.30882836805388103   -0.008346144013227322
-0.08253394347460294   -0.3461740699917695   -0.011004281108033668
-0.06339663164501773   -0.34766175595281285   -0.009659382802654312
-0.09716578830978179   -0.30882836805388103   -0.008346144013227322
-0.07419623588820203   -0.31023732442596014   -0.008157811407685062
-0.07437789925192283   -0.31048075126569114   -0.008807060362293012
-0.06339663164501773   -0.34766175595281285   -0.009659382802654312
-0.09716578830978179   -0.30882836805388103   -0.008346144013227322
-0.07437789925192283   -0.31048075126569114   -0.008807060362293012
-0.08253394347460294   -0.3461740699917695   -0.011004281108033668
-0.06339663164501773   -0.34766175595281285   -0.009659382802654312
-0.07419623588820203   -0.31023732442596014   -0.008157811407685062
-0.08137753621591794   -0.3459633849272198   -0.00979460451822201
-0.06303539783458088   -0.34764384180495556   -0.00883972526792371
-0.07419623588820203   -0.31023732442596014   -0.008157811407685062
-0.09716578830978179   -0.30882836805388103   -0.008346144013227322
-0.08137753621591794   -0.3459633849272198   -0.00979460451822201
-0.09604627692212904   -0.3088853289200574   -0.007298086607931598
-0.06303539783458088   -0.34764384180495556   -0.00883972526792371
-0.07981866866780735   -0.3460771923161515   -0.008532079088507368
-0.09604627692212904   -0.3088853289200574   -0.007298086607931598
-0.08137753621591794   -0.3459633849272198   -0.00979460451822201
-0.06303539783458088   -0.34764384180495556   -0.00883972526792371
-0.09604627692212904   -0.3088853289200574   -0.007298086607931598
-0.07407439135489985   -0.31016426378544276   -0.007465362787294483
-0.07419623588820203   -0.31023732442596014   -0.008157811407685062
-0.06303539783458088   -0.34764384180495556   -0.00883972526792371
-0.09604627692212904   -0.3088853289200574   -0.007298086607931598
-0.07419623588820203   -0.31023732442596014   -0.008157811407685062
-0.08137753621591794   -0.3459633849272198   -0.00979460451822201
0.012738665546533006   -0.3119154834552847   -0.004554300248208126
0.019802553048910484   -0.2673734465841479   -0.003031760441641647
-0.009710992096355073   -0.3124653362016479   -0.0060866213693430505
0.013386508288348007   -0.31111695153978586   -0.005211760552652296
0.019802553048910484   -0.2673734465841479   -0.003031760441641647
-0.006782471473033358   -0.26764022371952584   -0.004473730517657941
-0.009710992096355073   -0.3124653362016479   -0.0060866213693430505
-0.0069108628547321325   -0.2669767035390144   -0.004618006634621826
0.013386508288348007   -0.31111695153978586   -0.005211760552652296
-0.009651812059893359   -0.31178549261319977   -0.006357373861748133
-0.0069108628547321325   -0.2669767035390144   -0.004618006634621826
-0.009710992096355073   -0.3124653362016479   -0.0060866213693430505
0.013386508288348007   -0.31111695153978586   -0.005211760552652296
-0.0069108628547321325   -0.2669767035390144   -0.004618006634621826
0.02005180339001435   -0.26660416026059164   -0.0034593109968328473
0.019802553048910484   -0.2673734465841479   -0.003031760441641647
0.013386508288348007   -0.31111695153978586   -0.005211760552652296
-0.0069108628547321325   -0.2669767035390144   -0.004618006634621826
0.019802553048910484   -0.2673734465841479   -0.003031760441641647
-0.009710992096355073   -0.3124653362016479   -0.0060866213693430505
0.013386508288348007   -0.31111695153978586   -0.005211760552652296
0.02005180339001435   -0.26660416026059164   -0.0034593109968328473
-0.009651812059893359   -0.31178549261319977   -0.006357373861748133
0.013799227586999651   -0.31058836361943987   -0.005809590080118687
0.02005180339001435   -0.26660416026059164   -0.0034593109968328473
-0.0069108628547321325   -0.2669767035390144   -0.004618006634621826
-0.009651812059893359   -0.31178549261319977   -0.006357373861748133
-0.007046203623225938   -0.2664482445290852   -0.004724755021063079
0.013799227586999651   -0.31058836361943987   -0.005809590080118687
-0.009576820364012015   -0.31128878670878196   -0.0065859035186983635
-0.007046203623225938   -0.2664482445290852   -0.004724755021063079
-0.009651812059893359   -0.31178549261319977   -0.006357373861748133
0.013799227586999651   -0.31058836361943987   -0.005809590080118687
-0.007046203623225938   -0.2664482445290852   -0.004724755021063079
0.02012270460725252   -0.2660390766881736   -0.0038315373944699384
0.02005180339001435   -0.26660416026059164   -0.0034593109968328473
0.013799227586999651   -0.31058836361943987   -0.005809590080118687
-0.007046203623225938   -0.2664482445290852   -0.004724755021063079
0.02005180339001435   -0.26660416026059164   -0.0034593109968328473
-0.009651812059893359   -0.31178549261319977   -0.006357373861748133
0.013799227586999651   -0.31058836361943987   -0.005809590080118687
0.02012270460725252   -0.2660390766881736   -0.0038315373944699384
-0.009576820364012015   -0.31128878670878196   -0.0065859035186983635
0.014220705523964879   -0.31022851184569605   -0.006349005384669326
0.02012270460725252   -0.2660390766881736   -0.0038315373944699384
-0.007046203623225938   -0.2664482445290852   -0.004724755021063079
-0.009576820364012015   -0.31128878670878196   -0.0065859035186983635
-0.007273632239974856   -0.2660385129207365   -0.004795253796631617
0.014220705523964879   -0.31022851184569605   -0.006349005384669326
-0.009615850476570554   -0.31095954030610956   -0.006775296360054828
-0.007273632239974856   -0.2660385129207365   -0.004795253796631617
-0.009576820364012015   -0.31128878670878196   -0.0065859035186983635
0.014220705523964879   -0.31022851184569605   -0.006349005384669326
-0.007273632239974856   -0.2660385129207365   -0.004795253796631617
0.020157077248189985   -0.2655802404081776   -0.004151037011611907
0.02012270460725252   -0.2660390766881736   -0.0038315373944699384
0.014220705523964879   -0.31022851184569605   -0.006349005384669326
-0.007273632239974856   -0.2660385129207365   -0.004795253796631617
0.02012270460725252   -0.2660390766881736   -0.0038315373944699384
-0.009576820364012015   -0.31128878670878196   -0.0065859035186983635
-0.009710992096355073   -0.3124653362016479   -0.0060866213693430505
-0.006782471473033358   -0.26764022371952584   -0.004473730517657941
-0.03130026183606684   -0.31246647933758653   -0.007353742726526135
-0.009651812059893359   -0.31178549261319977   -0.006357373861748133
-0.006782471473033358   -0.26764022371952584   -0.004473730517657941
-0.03225545245477503   -0.26749824515454135   -0.005665171933799377
-0.03130026183606684   -0.31246647933758653   -0.007353742726526135
-0.03243130003816591   -0.2669421786222908   -0.00559635640110643
-0.009651812059893359   -0.31178549261319977   -0.006357373861748133
-0.03130390492507469   -0.31189018095194493   -0.007328281808685804
-0.03243130003816591   -0.2669421786222908   -0.00559635640110643
-0.03130026183606684   -0.31246647933758653   -0.007353742726526135
-0.009651812059893359   -0.31178549261319977   -0.006357373861748133
-0.03243130003816591   -0.2669421786222908   -0.00559635640110643
-0.0069108628547321325   -0.2669767035390144   -0.004618006634621826
-0.006782471473033358   -0.26764022371952584   -0.004473730517657941
-0.009651812059893359   -0.31178549261319977   -0.006357373861748133
-0.03243130003816591   -0.2669421786222908   -0.00559635640110643
-0.006782471473033358   -0.26764022371952584   -0.004473730517657941
-0.03130026183606684   -0.31246647933758653   -0.007353742726526135
-0.009651812059893359   -0.31178549261319977   -0.006357373861748133
-0.0069108628547321325   -0.2669767035390144   -0.004618006634621826
-0.03130390492507469   -0.31189018095194493   -0.007328281808685804
-0.009576820364012015   -0.31128878670878196   -0.0065859035186983635
-0.0069108628547321325   -0.2669767035390144   -0.004618006634621826
-0.03243130003816591   -0.2669421786222908   -0.00559635640110643
-0.03130390492507469   -0.31189018095194493   -0.007328281808685804
-0.03260954167229685   -0.2665019287215221   -0.005488946226849777
-0.009576820364012015   -0.31128878670878196   -0.0065859035186983635
-0.03130615623547695   -0.3114753904255178   -0.007260803139669743
-0.03260954167229685   -0.2665019287215221   -0.005488946226849777
-0.03130390492507469   -0.31189018095194493   -0.007328281808685804
-0.009576820364012015   -0.31128878670878196   -0.0065859035186983635
-0.03260954167229685   -0.2665019287215221   -0.005488946226849777
-0.007046203623225938   -0.2664482445290852   -0.004724755021063079
-0.0069108628547321325   -0.2669767035390144   -0.004618006634621826
-0.009576820364012015   -0.31128878670878196   -0.0065859035186983635
-0.03260954167229685   -0.2665019287215221   -0.005488946226849777
-0.0069108628547321325   -0.2669767035390144   -0.004618006634621826
-0.03130390492507469   -0.31189018095194493   -0.007328281808685804
-0.009576820364012015   -0.31128878670878196   -0.0065859035186983635
-0.007046203623225938   -0.2664482445290852   -0.004724755021063079
-0.03130615623547695   -0.3114753904255178   -0.007260803139669743
-0.009615850476570554   -0.31095954030610956   -0.006775296360054828
-0.007046203623225938   -0.2664482445290852   -0.004724755021063079
-0.03260954167229685   -0.2665019287215221   -0.005488946226849777
-0.03130615623547695   -0.3114753904255178   -0.007260803139669743
-0.03281521265936289   -0.26617948260896696   -0.005344752517767876
-0.009615850476570554   -0.31095954030610956   -0.006775296360054828
-0.03133737349439138   -0.31122237606308395   -0.007153433387170267
-0.03281521265936289   -0.26617948260896696   -0.005344752517767876
-0.03130615623547695   -0.3114753904255178   -0.007260803139669743
-0.009615850476570554   -0.31095954030610956   -0.006775296360054828
-0.03281521265936289   -0.26617948260896696   -0.005344752517767876
-0.007273632239974856   -0.2660385129207365   -0.004795253796631617
-0.007046203623225938   -0.2664482445290852   -0.004724755021063079
-0.009615850476570554   -0.31095954030610956   -0.006775296360054828
-0.03281521265936289   -0.26617948260896696   -0.005344752517767876
-0.007046203623225938   -0.2664482445290852   -0.004724755021063079
-0.03130615623547695   -0.3114753904255178   -0.007260803139669743
-0.03130026183606684   -0.31246647933758653   -0.007353742726526135
-0.03225545245477503   -0.26749824515454135   -0.005665171933799377
-0.0525194895504172   -0.31193046284579146   -0.008464765629201587
-0.03130390492507469   -0.31189018095194493   -0.007328281808685804
-0.03225545245477503   -0.26749824515454135   -0.005665171933799377
-0.05729560266201086   -0.26697172416552345   -0.006686494196379746
-0.0525194895504172   -0.31193046284579146   -0.008464765629201587
-0.05748483214620814   -0.266513615939966   -0.0064055180903828755
-0.03130390492507469   -0.31189018095194493   -0.007328281808685804
-0.052538991770273366   -0.3114454796684171   -0.00814662049241312
-0.05748483214620814   -0.266513615939966   -0.0064055180903828755
-0.0525194895504172   -0.31193046284579146   -0.008464765629201587
-0.03130390492507469   -0.31189018095194493   -0.007328281808685804
-0.05748483214620814   -0.266513615939966   -0.0064055180903828755
-0.03243130003816591   -0.2669421786222908   -0.00559635640110643
-0.03225545245477503   -0.26749824515454135   -0.005665171933799377
-0.03130390492507469   -0.31189018095194493   -0.007328281808685804
-0.05748483214620814   -0.266513615939966   -0.0064055180903828755
-0.03225545245477503   -0.26749824515454135   -0.005665171933799377
-0.0525194895504172   -0.31193046284579146   -0.008464765629201587
-0.03130390492507469   -0.31189018095194493   -0.007328281808685804
-0.03243130003816591   -0.2669421786222908   -0.00559635640110643
-0.052538991770273366   -0.3114454796684171   -0.00814662049241312
-0.03130615623547695   -0.3114753904255178   -0.007260803139669743
-0.03243130003816591   -0.2669421786222908   -0.00559635640110643
-0.05748483214620814   -0.266513615939966   -0.0064055180903828755
-0.052538991770273366   -0.3114454796684171   -0.00814662049241312
-0.057641956224262735   -0.26617021065676805   -0.006086606209319741
-0.03130615623547695   -0.3114753904255178   -0.007260803139669743
-0.05252223856283398   -0.3111205705635269   -0.007787245079469102
-0.057641956224262735   -0.26617021065676805   -0.006086606209319741
-0.052538991770273366   -0.3114454796684171   -0.00814662049241312
-0.03130615623547695   -0.3114753904255178   -0.007260803139669743
-0.057641956224262735   -0.26617021065676805   -0.006086606209319741
-0.03260954167229685   -0.2665019287215221   -0.005488946226849777
-0.03243130003816591   -0.2669421786222908   -0.00559635640110643
-0.03130615623547695   -0.3114753904255178   -0.007260803139669743
-0.057641956224262735   -0.26617021065676805   -0.006086606209319741
-0.03243130003816591   -0.2669421786222908   -0.00559635640110643
-0.052538991770273366   -0.3114454796684171   -0.00814662049241312
-0.03130615623547695   -0.3114753904255178   -0.007260803139669743
-0.03260954167229685   -0.2665019287215221   -0.005488946226849777
-0.05252223856283398   -0.3111205705635269   -0.007787245079469102
-0.03133737349439138   -0.31122237606308395   -0.007153433387170267
-0.03260954167229685   -0.2665019287215221   -0.005488946226849777
-0.057641956224262735   -0.26617021065676805   -0.006086606209319741
-0.05252223856283398   -0.3111205705635269   -0.007787245079469102
-0.05780353547626693   -0.2659410454577103   -0.005730891223226259
-0.03133737349439138   -0.31122237606308395   -0.007153433387170267
-0.052511896867618466   -0.31095287179387054   -0.007387855354934788
-0.05780353547626693   -0.2659410454577103   -0.005730891223226259
-0.05252223856283398   -0.3111205705635269   -0.007787245079469102
-0.03133737349439138   -0.31122237606308395   -0.007153433387170267
-0.05780353547626693   -0.2659410454577103   -0.005730891223226259
-0.03281521265936289   -0.26617948260896696   -0.005344752517767876
-0.03260954167229685   -0.2665019287215221   -0.005488946226849777
-0.03133737349439138   -0.31122237606308395   -0.007153433387170267
-0.05780353547626693   -0.2659410454577103   -0.005730891223226259
-0.03260954167229685   -0.2665019287215221   -0.005488946226849777
-0.05252223856283398   -0.3111205705635269   -0.007787245079469102
-0.0525194895504172   -0.31193046284579146   -0.008464765629201587
-0.05729560266201086   -0.26697172416552345   -0.006686494196379746
-0.07440232203674003   -0.31087799351296336   -0.009421275449695288
-0.052538991770273366   -0.3114454796684171   -0.00814662049241312
-0.05729560266201086   -0.26697172416552345   -0.006686494196379746
-0.08293160552866272   -0.26607134918417075   -0.007541169621625146
-0.07440232203674003   -0.31087799351296336   -0.009421275449695288
-0.08308904542634481   -0.2657091587190636   -0.007045192552530053
-0.052538991770273366   -0.3114454796684171   -0.00814662049241312
-0.07437789925192283   -0.31048075126569114   -0.008807060362293012
-0.08308904542634481   -0.2657091587190636   -0.007045192552530053
-0.07440232203674003   -0.31087799351296336   -0.009421275449695288
-0.052538991770273366   -0.3114454796684171   -0.00814662049241312
-0.08308904542634481   -0.2657091587190636   -0.007045192552530053
-0.05748483214620814   -0.266513615939966   -0.0064055180903828755
-0.05729560266201086   -0.26697172416552345   -0.006686494196379746
-0.052538991770273366   -0.3114454796684171   -0.00814662049241312
-0.08308904542634481   -0.2657091587190636   -0.007045192552530053
-0.05729560266201086   -0.26697172416552345   -0.006686494196379746
-0.07440232203674003   -0.31087799351296336   -0.009421275449695288
-0.052538991770273366   -0.3114454796684171   -0.00814662049241312
-0.05748483214620814   -0.266513615939966   -0.0064055180903828755
-0.07437789925192283   -0.31048075126569114   -0.008807060362293012
-0.05252223856283398   -0.3111205705635269   -0.007787245079469102
-0.05748483214620814   -0.266513615939966   -0.0064055180903828755
-0.08308904542634481   -0.2657091587190636   -0.007045192552530053
-0.07437789925192283   -0.31048075126569114   -0.008807060362293012
-0.08311224042836489   -0.2654542676027059   -0.006516537230086701
-0.05252223856283398   -0.3111205705635269   -0.007787245079469102
-0.07419623588820203   -0.31023732442596014   -0.008157811407685062
-0.08311224042836489   -0.2654542676027059   -0.006516537230086701
-0.07437789925192283   -0.31048075126569114   -0.008807060362293012
-0.05252223856283398   -0.3111205705635269   -0.007787245079469102
-0.08311224042836489   -0.2654542676027059   -0.006516537230086701
-0.057641956224262735   -0.26617021065676805   -0.006086606209319741
-0.05748483214620814   -0.266513615939966   -0.0064055180903828755
-0.05252223856283398   -0.3111205705635269   -0.007787245079469102
-0.08311224042836489   -0.2654542676027059   -0.006516537230086701
-0.05748483214620814   -0.266513615939966   -0.0064055180903828755
-0.07437789925192283   -0.31048075126569114   -0.008807060362293012
-0.05252223856283398   -0.3111205705635269   -0.007787245079469102
-0.057641956224262735   -0.26617021065676805   -0.006086606209319741
-0.07419623588820203   -0.31023732442596014   -0.008157811407685062
-0.052511896867618466   -0.31095287179387054   -0.007387855354934788
-0.057641956224262735   -0.26617021065676805   -0.006086606209319741
-0.08311224042836489   -0.2654542676027059   -0.006516537230086701
-0.07419623588820203   -0.31023732442596014   -0.008157811407685062
-0.0831728288972738   -0.2653238147777016   -0.005948308310587116
-0.052511896867618466   -0.31095287179387054   -0.007387855354934788
-0.07407439135489985   -0.31016426378544276   -0.007465362787294483
-0.0831728288972738   -0.2653238147777016   -0.005948308310587116
-0.07419623588820203   -0.31023732442596014   -0.008157811407685062
-0.052511896867618466   -0.31095287179387054   -0.007387855354934788
-0.0831728288972738   -0.2653238147777016   -0.005948308310587116
-0.05780353547626693   -0.2659410454577103   -0.005730891223226259
-0.057641956224262735   -0.26617021065676805   -0.006086606209319741
-0.052511896867618466   -0.31095287179387054   -0.007387855354934788
-0.0831728288972738   -0.2653238147777016   -0.005948308310587116
-0.057641956224262735   -0.26617021065676805   -0.006086606209319741
-0.07419623588820203   -0.31023732442596014   -0.008157811407685062
-0.07440232203674003   -0.31087799351296336   -0.009421275449695288
-0.08293160552866272   -0.26607134918417075   -0.007541169621625146
-0.09884426829457531   -0.3094310862386412   -0.010281967848192734
-0.07437789925192283   -0.31048075126569114   -0.008807060362293012
-0.08293160552866272   -0.26607134918417075   -0.007541169621625146
-0.11088210349539135   -0.26489381863183487   -0.00827107161436197
-0.09884426829457531   -0.3094310862386412   -0.010281967848192734
-0.11035756612668893   -0.2645630121226914   -0.007548856317785636
-0.07437789925192283   -0.31048075126569114   -0.008807060362293012
-0.09794025073162213   -0.3090421292366654   -0.009343436331127256
-0.11035756612668893   -0.2645630121226914   -0.007548856317785636
-0.09884426829457531   -0.3094310862386412   -0.010281967848192734
-0.07437789925192283   -0.31048075126569114   -0.008807060362293012
-0.11035756612668893   -0.2645630121226914   -0.007548856317785636
-0.08308904542634481   -0.2657091587190636   -0.007045192552530053
-0.08293160552866272   -0.26607134918417075   -0.007541169621625146
-0.07437789925192283   -0.31048075126569114   -0.008807060362293012
-0.11035756612668893   -0.2645630121226914   -0.007548856317785636
-0.08293160552866272   -0.26607134918417075   -0.007541169621625146
-0.09884426829457531   -0.3094310862386412   -0.010281967848192734
-0.07437789925192283   -0.31048075126569114   -0.008807060362293012
-0.08308904542634481   -0.2657091587190636   -0.007045192552530053
-0.09794025073162213   -0.3090421292366654   -0.009343436331127256
-0.07419623588820203   -0.31023732442596014   -0.008157811407685062
-0.08308904542634481   -0.2657091587190636   -0.007045192552530053
-0.11035756612668893   -0.2645630121226914   -0.007548856317785636
-0.09794025073162213   -0.3090421292366654   -0.009343436331127256
-0.10991470579465423   -0.26434559186251905   -0.006769659931844992
-0.07419623588820203   -0.31023732442596014   -0.008157811407685062
-0.09716578830978179   -0.30882836805388103   -0.008346144013227322
-0.10991470579465423   -0.26434559186251905   -0.006769659931844992
-0.09794025073162213   -0.3090421292366654   -0.009343436331127256
-0.07419623588820203   -0.31023732442596014   -0.008157811407685062
-0.10991470579465423   -0.26434559186251905   -0.006769659931844992
-0.08311224042836489   -0.2654542676027059   -0.006516537230086701
-0.08308904542634481   -0.2657091587190636   -0.007045192552530053
-0.07419623588820203   -0.31023732442596014   -0.008157811407685062
-0.10991470579465423   -0.26434559186251905   -0.006769659931844992
-0.08308904542634481   -0.2657091587190636   -0.007045192552530053
-0.09794025073162213   -0.3090421292366654   -0.009343436331127256
-0.07419623588820203   -0.31023732442596014   -0.008157811407685062
-0.08311224042836489   -0.2654542676027059   -0.006516537230086701
-0.09716578830978179   -0.30882836805388103   -0.008346144013227322
-0.07407439135489985   -0.31016426378544276   -0.007465362787294483
-0.08311224042836489   -0.2654542676027059   -0.006516537230086701
-0.10991470579465423   -0.26434559186251905   -0.006769659931844992
-0.09716578830978179   -0.30882836805388103   -0.008346144013227322
-0.10918029899574824   -0.2643401876586058   -0.005940563424701203
-0.07407439135489985   -0.31016426378544276   -0.007465362787294483
-0.09604627692212904   -0.3088853289200574   -0.007298086607931598
-0.10918029899574824   -0.2643401876586058   -0.005940563424701203
-0.09716578830978179   -0.30882836805388103   -0.008346144013227322
-0.07407439135489985   -0.31016426378544276   -0.007465362787294483
-0.10918029899574824   -0.2643401876586058   -0.005940563424701203
-0.0831728288972738   -0.2653238147777016   -0.005948308310587116
-0.08311224042836489   -0.2654542676027059   -0.006516537230086701
-0.07407439135489985   -0.31016426378544276   -0.007465362787294483
-0.10918029899574824   -0.2643401876586058   -0.005940563424701203
-0.08311224042836489   -0.2654542676027059   -0.006516537230086701
-0.09716578830978179   -0.30882836805388103   -0.008346144013227322
0.019802553048910484   -0.2673734465841479   -0.003031760441641647
0.023680905533613305   -0.2174835176039037   -0.0015379926325132037
-0.006782471473033358   -0.26764022371952584   -0.004473730517657941
0.02005180339001435   -0.26660416026059164   -0.0034593109968328473
0.023680905533613305   -0.2174835176039037   -0.0015379926325132037
-0.005785654787263638   -0.2174713205000357   -0.0028764943063964658
-0.006782471473033358   -0.26764022371952584   -0.004473730517657941
-0.006053631749504178   -0.2168289466196616   -0.0028932670550917373
0.02005180339001435   -0.26660416026059164   -0.0034593109968328473
-0.0069108628547321325   -0.2669767035390144   -0.004618006634621826
-0.006053631749504178   -0.2168289466196616   -0.0028932670550917373
-0.006782471473033358   -0.26764022371952584   -0.004473730517657941
0.02005180339001435   -0.26660416026059164   -0.0034593109968328473
-0.006053631749504178   -0.2168289466196616   -0.0028932670550917373
0.023585639387114683   -0.2167466279261683   -0.0017392253794295846
0.023680905533613305   -0.2174835176039037   -0.0015379926325132037
0.02005180339001435   -0.26660416026059164   -0.0034593109968328473
-0.006053631749504178   -0.2168289466196616   -0.0028932670550917373
0.023680905533613305   -0.2174835176039037   -0.0015379926325132037
-0.006782471473033358   -0.26764022371952584   -0.004473730517657941
0.02005180339001435   -0.26660416026059164   -0.0034593109968328473
0.023585639387114683   -0.2167466279261683   -0.0017392253794295846
-0.0069108628547321325   -0.2669767035390144   -0.004618006634621826
0.02012270460725252   -0.2660390766881736   -0.0038315373944699384
0.023585639387114683   -0.2167466279261683   -0.0017392253794295846
-0.006053631749504178   -0.2168289466196616   -0.0028932670550917373
-0.0069108628547321325   -0.2669767035390144   -0.004618006634621826
-0.006351320239119923   -0.21627294620676155   -0.0028769274650513148
0.02012270460725252   -0.2660390766881736   -0.0038315373944699384
-0.007046203623225938   -0.2664482445290852   -0.004724755021063079
-0.006351320239119923   -0.21627294620676155   -0.0028769274650513148
-0.0069108628547321325   -0.2669767035390144   -0.004618006634621826
0.02012270460725252   -0.2660390766881736   -0.0038315373944699384
-0.006351320239119923   -0.21627294620676155   -0.0028769274650513148
0.023365220959942094   -0.21614956927872364   -0.001887386078187813
0.023585639387114683   -0.2167466279261683   -0.0017392253794295846
0.02012270460725252   -0.2660390766881736   -0.0038315373944699384
-0.006351320239119923   -0.21627294620676155   -0.0028769274650513148
0.023585639387114683   -0.2167466279261683   -0.0017392253794295846
-0.0069108628547321325   -0.2669767035390144   -0.004618006634621826
0.02012270460725252   -0.2660390766881736   -0.0038315373944699384
0.023365220959942094   -0.21614956927872364   -0.001887386078187813
-0.007046203623225938   -0.2664482445290852   -0.004724755021063079
0.020157077248189985   -0.2655802404081776   -0.004151037011611907
0.023365220959942094   -0.21614956927872364   -0.001887386078187813
-0.006351320239119923   -0.21627294620676155   -0.0028769274650513148
-0.007046203623225938   -0.2664482445290852   -0.004724755021063079
-0.0067192382880400196   -0.2157891675032843   -0.0028261701630983866
0.020157077248189985   -0.2655802404081776   -0.004151037011611907
-0.007273632239974856   -0.2660385129207365   -0.004795253796631617
-0.0067192382880400196   -0.2157891675032843   -0.0028261701630983866
-0.007046203623225938   -0.2664482445290852   -0.004724755021063079
0.020157077248189985   -0.2655802404081776   -0.004151037011611907
-0.0067192382880400196   -0.2157891675032843   -0.0028261701630983866
0.023059001808155444   -0.2155968186001453   -0.0019861793631161064
0.023365220959942094   -0.21614956927872364   -0.001887386078187813
0.020157077248189985   -0.2655802404081776   -0.004151037011611907
-0.0067192382880400196   -0.2157891675032843   -0.0028261701630983866
0.023365220959942094   -0.21614956927872364   -0.001887386078187813
-0.007046203623225938   -0.2664482445290852   -0.004724755021063079
-0.006782471473033358   -0.26764022371952584   -0.004473730517657941
-0.005785654787263638   -0.2174713205000357   -0.0028764943063964658
-0.03225545245477503   -0.26749824515454135   -0.005665171933799377
-0.0069108628547321325   -0.2669767035390144   -0.004618006634621826
-0.005785654787263638   -0.2174713205000357   -0.0028764943063964658
-0.03388675818810516   -0.21720365108872575   -0.0039857690244448915
-0.03225545245477503   -0.26749824515454135   -0.005665171933799377
-0.03418504783964916   -0.2166684889582371   -0.0038702080967950928
-0.0069108628547321325   -0.2669767035390144   -0.004618006634621826
-0.03243130003816591   -0.2669421786222908   -0.00559635640110643
-0.03418504783964916   -0.2166684889582371   -0.0038702080967950928
-0.03225545245477503   -0.26749824515454135   -0.005665171933799377
-0.0069108628547321325   -0.2669767035390144   -0.004618006634621826
-0.03418504783964916   -0.2166684889582371   -0.0038702080967950928
-0.006053631749504178   -0.2168289466196616   -0.0028932670550917373
-0.005785654787263638   -0.2174713205000357   -0.0028764943063964658
-0.0069108628547321325   -0.2669767035390144   -0.004618006634621826
-0.03418504783964916   -0.2166684889582371   -0.0038702080967950928
-0.005785654787263638   -0.2174713205000357   -0.0028764943063964658
-0.03225545245477503   -0.26749824515454135   -0.005665171933799377
-0.0069108628547321325   -0.2669767035390144   -0.004618006634621826
-0.006053631749504178   -0.2168289466196616   -0.0028932670550917373
-0.03243130003816591   -0.2669421786222908   -0.00559635640110643
-0.007046203623225938   -0.2664482445290852   -0.004724755021063079
-0.006053631749504178   -0.2168289466196616   -0.0028932670550917373
-0.03418504783964916   -0.2166684889582371   -0.0038702080967950928
-0.03243130003816591   -0.2669421786222908   -0.00559635640110643
-0.034489231192545114   -0.2162036522608304   -0.0037201976717203505
-0.007046203623225938   -0.2664482445290852   -0.004724755021063079
-0.03260954167229685   -0.2665019287215221   -0.005488946226849777
-0.034489231192545114   -0.2162036522608304   -0.0037201976717203505
-0.03243130003816591   -0.2669421786222908   -0.00559635640110643
-0.007046203623225938   -0.2664482445290852   -0.004724755021063079
-0.034489231192545114   -0.2162036522608304   -0.0037201976717203505
-0.006351320239119923   -0.21627294620676155   -0.0028769274650513148
-0.006053631749504178   -0.2168289466196616   -0.0028932670550917373
-0.007046203623225938   -0.2664482445290852   -0.004724755021063079
-0.034489231192545114   -0.2162036522608304   -0.0037201976717203505
-0.006053631749504178   -0.2168289466196616   -0.0028932670550917373
-0.03243130003816591   -0.2669421786222908   -0.00559635640110643
-0.007046203623225938   -0.2664482445290852   -0.004724755021063079
-0.006351320239119923   -0.21627294620676155   -0.0028769274650513148
-0.03260954167229685   -0.2665019287215221   -0.005488946226849777
-0.007273632239974856   -0.2660385129207365   -0.004795253796631617
-0.006351320239119923   -0.21627294620676155   -0.0028769274650513148
-0.034489231192545114   -0.2162036522608304   -0.0037201976717203505
-0.03260954167229685   -0.2665019287215221   -0.005488946226849777
-0.034818878372009025   -0.21581340519821696   -0.0035373046803782123
-0.007273632239974856   -0.2660385129207365   -0.004795253796631617
-0.03281521265936289   -0.26617948260896696   -0.005344752517767876
-0.034818878372009025   -0.21581340519821696   -0.0035373046803782123
-0.03260954167229685   -0.2665019287215221   -0.005488946226849777
-0.007273632239974856   -0.2660385129207365   -0.004795253796631617
-0.034818878372009025   -0.21581340519821696   -0.0035373046803782123
-0.0067192382880400196   -0.2157891675032843   -0.0028261701630983866
-0.006351320239119923   -0.21627294620676155   -0.0028769274650513148
-0.007273632239974856   -0.2660385129207365   -0.004795253796631617
-0.034818878372009025   -0.21581340519821696   -0.0035373046803782123
-0.006351320239119923   -0.21627294620676155   -0.0028769274650513148
-0.03260954167229685   -0.2665019287215221   -0.005488946226849777
-0.03225545245477503   -0.26749824515454135   -0.005665171933799377
-0.03388675818810516   -0.21720365108872575   -0.0039857690244448915
-0.05729560266201086   -0.26697172416552345   -0.006686494196379746
-0.03243130003816591   -0.2669421786222908   -0.00559635640110643
-0.03388675818810516   -0.21720365108872575   -0.0039857690244448915
-0.06151247432633098   -0.21670827544039187   -0.004924159586309976
-0.05729560266201086   -0.26697172416552345   -0.006686494196379746
-0.06181902414742016   -0.216272263446644   -0.00467635943546821
-0.03243130003816591   -0.2669421786222908   -0.00559635640110643
-0.05748483214620814   -0.266513615939966   -0.0064055180903828755
-0.06181902414742016   -0.216272263446644   -0.00467635943546821
-0.05729560266201086   -0.26697172416552345   -0.006686494196379746
-0.03243130003816591   -0.2669421786222908   -0.00559635640110643
-0.06181902414742016   -0.216272263446644   -0.00467635943546821
-0.03418504783964916   -0.2166684889582371   -0.0038702080967950928
-0.03388675818810516   -0.21720365108872575   -0.0039857690244448915
-0.03243130003816591   -0.2669421786222908   -0.00559635640110643
-0.06181902414742016   -0.216272263446644   -0.00467635943546821
-0.03388675818810516   -0.21720365108872575   -0.0039857690244448915
-0.05729560266201086   -0.26697172416552345   -0.006686494196379746
-0.03243130003816591   -0.2669421786222908   -0.00559635640110643
-0.03418504783964916   -0.2166684889582371   -0.0038702080967950928
-0.05748483214620814   -0.266513615939966   -0.0064055180903828755
-0.03260954167229685   -0.2665019287215221   -0.005488946226849777
-0.03418504783964916   -0.2166684889582371   -0.0038702080967950928
-0.06181902414742016   -0.216272263446644   -0.00467635943546821
-0.05748483214620814   -0.266513615939966   -0.0064055180903828755
-0.06209737765882579   -0.21590607829614397   -0.004394897190884433
-0.03260954167229685   -0.2665019287215221   -0.005488946226849777
-0.057641956224262735   -0.26617021065676805   -0.006086606209319741
-0.06209737765882579   -0.21590607829614397   -0.004394897190884433
-0.05748483214620814   -0.266513615939966   -0.0064055180903828755
-0.03260954167229685   -0.2665019287215221   -0.005488946226849777
-0.06209737765882579   -0.21590607829614397   -0.004394897190884433
-0.034489231192545114   -0.2162036522608304   -0.0037201976717203505
-0.03418504783964916   -0.2166684889582371   -0.0038702080967950928
-0.03260954167229685   -0.2665019287215221   -0.005488946226849777
-0.06209737765882579   -0.21590607829614397   -0.004394897190884433
-0.03418504783964916   -0.2166684889582371   -0.0038702080967950928
-0.05748483214620814   -0.266513615939966   -0.0064055180903828755
-0.03260954167229685   -0.2665019287215221   -0.005488946226849777
-0.034489231192545114   -0.2162036522608304   -0.0037201976717203505
-0.057641956224262735   -0.26617021065676805   -0.006086606209319741
-0.03281521265936289   -0.26617948260896696   -0.005344752517767876
-0.034489231192545114   -0.2162036522608304   -0.0037201976717203505
-0.06209737765882579   -0.21590607829614397   -0.004394897190884433
-0.057641956224262735   -0.26617021065676805   -0.006086606209319741
-0.06237833554418327   -0.21561037380645176   -0.004081074842523353
-0.03281521265936289   -0.26617948260896696   -0.005344752517767876
-0.05780353547626693   -0.2659410454577103   -0.005730891223226259
-0.06237833554418327   -0.21561037380645176   -0.004081074842523353
-0.057641956224262735   -0.26617021065676805   -0.006086606209319741
-0.03281521265936289   -0.26617948260896696   -0.005344752517767876
-0.06237833554418327   -0.21561037380645176   -0.004081074842523353
-0.034818878372009025   -0.21581340519821696   -0.0035373046803782123
-0.034489231192545114   -0.2162036522608304   -0.0037201976717203505
-0.03281521265936289   -0.26617948260896696   -0.005344752517767876
-0.06237833554418327   -0.21561037380645176   -0.004081074842523353
-0.034489231192545114   -0.2162036522608304   -0.0037201976717203505
-0.057641956224262735   -0.26617021065676805   -0.006086606209319741
-0.05729560266201086   -0.26697172416552345   -0.006686494196379746
-0.06151247432633098   -0.21670827544039187   -0.004924159586309976
-0.08293160552866272   -0.26607134918417075   -0.007541169621625146
-0.05748483214620814   -0.266513615939966   -0.0064055180903828755
-0.06151247432633098   -0.21670827544039187   -0.004924159586309976
-0.0896842035777192   -0.21597457308039025   -0.005693473200646983
-0.08293160552866272   -0.26607134918417075   -0.007541169621625146
-0.08996934069893267   -0.21563869545623363   -0.005312448994698517
-0.05748483214620814   -0.266513615939966   -0.0064055180903828755
-0.08308904542634481   -0.2657091587190636   -0.007045192552530053
-0.08996934069893267   -0.21563869545623363   -0.005312448994698517
-0.08293160552866272   -0.26607134918417075   -0.007541169621625146
-0.05748483214620814   -0.266513615939966   -0.0064055180903828755
-0.08996934069893267   -0.21563869545623363   -0.005312448994698517
-0.06181902414742016   -0.216272263446644   -0.00467635943546821
-0.06151247432633098   -0.21670827544039187   -0.004924159586309976
-0.05748483214620814   -0.266513615939966   -0.0064055180903828755
-0.08996934069893267   -0.21563869545623363   -0.005312448994698517
-0.06151247432633098   -0.21670827544039187   -0.004924159586309976
-0.08293160552866272   -0.26607134918417075   -0.007541169621625146
-0.05748483214620814   -0.266513615939966   -0.0064055180903828755
-0.06181902414742016   -0.216272263446644   -0.00467635943546821
-0.08308904542634481   -0.2657091587190636   -0.007045192552530053
-0.057641956224262735   -0.26617021065676805   -0.006086606209319741
-0.06181902414742016   -0.216272263446644   -0.00467635943546821
-0.08996934069893267   -0.21563869545623363   -0.005312448994698517
-0.08308904542634481   -0.2657091587190636   -0.007045192552530053
-0.0901439806894015   -0.2153633419758021   -0.004902346324331955
-0.057641956224262735   -0.26617021065676805   -0.006086606209319741
-0.08311224042836489   -0.2654542676027059   -0.006516537230086701
-0.0901439806894015   -0.2153633419758021   -0.004902346324331955
-0.08308904542634481   -0.2657091587190636   -0.007045192552530053
-0.057641956224262735   -0.26617021065676805   -0.006086606209319741
-0.0901439806894015   -0.2153633419758021   -0.004902346324331955
-0.06209737765882579   -0.21590607829614397   -0.004394897190884433
-0.06181902414742016   -0.216272263446644   -0.00467635943546821
-0.057641956224262735   -0.26617021065676805   -0.006086606209319741
-0.0901439806894015   -0.2153633419758021   -0.004902346324331955
-0.06181902414742016   -0.216272263446644   -0.00467635943546821
-0.08308904542634481   -0.2657091587190636   -0.007045192552530053
-0.057641956224262735   -0.26617021065676805   -0.006086606209319741
-0.06209737765882579   -0.21590607829614397   -0.004394897190884433
-0.08311224042836489   -0.2654542676027059   -0.006516537230086701
-0.05780353547626693   -0.2659410454577103   -0.005730891223226259
-0.06209737765882579   -0.21590607829614397   -0.004394897190884433
-0.0901439806894015   -0.2153633419758021   -0.004902346324331955
-0.08311224042836489   -0.2654542676027059   -0.006516537230086701
-0.09033479966330413   -0.21516448669422597   -0.004457133002232429
-0.05780353547626693   -0.2659410454577103   -0.005730891223226259
-0.0831728288972738   -0.2653238147777016   -0.005948308310587116
-0.09033479966330413   -0.21516448669422597   -0.004457133002232429
-0.08311224042836489   -0.2654542676027059   -0.006516537230086701
-0.05780353547626693   -0.2659410454577103   -0.005730891223226259
-0.09033479966330413   -0.21516448669422597   -0.004457133002232429
-0.06237833554418327   -0.21561037380645176   -0.004081074842523353
-0.06209737765882579   -0.21590607829614397   -0.004394897190884433
-0.05780353547626693   -0.2659410454577103   -0.005730891223226259
-0.09033479966330413   -0.21516448669422597   -0.004457133002232429
-0.06209737765882579   -0.21590607829614397   -0.004394897190884433
-0.08311224042836489   -0.2654542676027059   -0.006516537230086701
-0.08293160552866272   -0.26607134918417075   -0.007541169621625146
-0.0896842035777192   -0.21597457308039025   -0.005693473200646983
-0.11088210349539135   -0.26489381863183487   -0.00827107161436197
-0.08308904542634481   -0.2657091587190636   -0.007045192552530053
-0.0896842035777192   -0.21597457308039025   -0.005693473200646983
-0.11991046461046283   -0.21507529968673472   -0.006306864139448767
-0.11088210349539135   -0.26489381863183487   -0.00827107161436197
-0.11971280861027356   -0.21479109821860765   -0.0058013037964315065
-0.08308904542634481   -0.2657091587190636   -0.007045192552530053
-0.11035756612668893   -0.2645630121226914   -0.007548856317785636
-0.11971280861027356   -0.21479109821860765   -0.0058013037964315065
-0.11088210349539135   -0.26489381863183487   -0.00827107161436197
-0.08308904542634481   -0.2657091587190636   -0.007045192552530053
-0.11971280861027356   -0.21479109821860765   -0.0058013037964315065
-0.08996934069893267   -0.21563869545623363   -0.005312448994698517
-0.0896842035777192   -0.21597457308039025   -0.005693473200646983
-0.08308904542634481   -0.2657091587190636   -0.007045192552530053
-0.11971280861027356   -0.21479109821860765   -0.0058013037964315065
-0.0896842035777192   -0.21597457308039025   -0.005693473200646983
-0.11088210349539135   -0.26489381863183487   -0.00827107161436197
-0.08308904542634481   -0.2657091587190636   -0.007045192552530053
-0.08996934069893267   -0.21563869545623363   -0.005312448994698517
-0.11035756612668893   -0.2645630121226914   -0.007548856317785636
-0.08311224042836489   -0.2654542676027059   -0.006516537230086701
-0.08996934069893267   -0.21563869545623363   -0.005312448994698517
-0.11971280861027356   -0.21479109821860765   -0.0058013037964315065
-0.11035756612668893   -0.2645630121226914   -0.007548856317785636
-0.11955187745180006   -0.21455849534134755   -0.005242393188048839
-0.08311224042836489   -0.2654542676027059   -0.006516537230086701
-0.10991470579465423   -0.26434559186251905   -0.006769659931844992
-0.11955187745180006   -0.21455849534134755   -0.005242393188048839
-0.11035756612668893   -0.2645630121226914   -0.007548856317785636
-0.08311224042836489   -0.2654542676027059   -0.006516537230086701
-0.11955187745180006   -0.21455849534134755   -0.005242393188048839
-0.0901439806894015   -0.2153633419758021   -0.004902346324331955
-0.08996934069893267   -0.21563869545623363   -0.005312448994698517
-0.08311224042836489   -0.2654542676027059   -0.006516537230086701
-0.11955187745180006   -0.21455849534134755   -0.005242393188048839
-0.08996934069893267   -0.21563869545623363   -0.005312448994698517
-0.11035756612668893   -0.2645630121226914   -0.007548856317785636
-0.08311224042836489   -0.2654542676027059   -0.006516537230086701
-0.0901439806894015   -0.2153633419758021   -0.004902346324331955
-0.10991470579465423   -0.26434559186251905   -0.006769659931844992
-0.0831728288972738   -0.2653238147777016   -0.005948308310587116
-0.0901439806894015   -0.2153633419758021   -0.004902346324331955
-0.11955187745180006   -0.21455849534134755   -0.005242393188048839
-0.10991470579465423   -0.26434559186251905   -0.006769659931844992
-0.11915543766478642   -0.2144752237743594   -0.004636230332506658
-0.0831728288972738   -0.2653238147777016   -0.005948308310587116
-0.10918029899574824   -0.2643401876586058   -0.005940563424701203
-0.11915543766478642   -0.2144752237743594   -0.004636230332506658
-0.10991470579465423   -0.26434559186251905   -0.006769659931844992
-0.0831728288972738   -0.2653238147777016   -0.005948308310587116
-0.11915543766478642   -0.2144752237743594   -0.004636230332506658
-0.09033479966330413   -0.21516448669422597   -0.004457133002232429
-0.0901439806894015   -0.2153633419758021   -0.004902346324331955
-0.0831728288972738   -0.2653238147777016   -0.005948308310587116
-0.11915543766478642   -0.2144752237743594   -0.004636230332506658
-0.0901439806894015   -0.2153633419758021   -0.004902346324331955
-0.10991470579465423   -0.26434559186251905   -0.006769659931844992
0.023680905533613305   -0.2174835176039037   -0.0015379926325132037
0.02438897413119773   -0.1642315656495177   -0.00022848093743497422
-0.005785654787263638   -0.2174713205000357   -0.0028764943063964658
0.023585639387114683   -0.2167466279261683   -0.0017392253794295846
0.02438897413119773   -0.1642315656495177   -0.00022848093743497422
-0.006705765665365461   -0.1639525623924349   -0.0014345872614917518
-0.005785654787263638   -0.2174713205000357   -0.0028764943063964658
-0.007071543152843762   -0.16333685958733754   -0.0013245061240852235
0.023585639387114683   -0.2167466279261683   -0.0017392253794295846
-0.006053631749504178   -0.2168289466196616   -0.0028932670550917373
-0.007071543152843762   -0.16333685958733754   -0.0013245061240852235
-0.005785654787263638   -0.2174713205000357   -0.0028764943063964658
0.023585639387114683   -0.2167466279261683   -0.0017392253794295846
-0.007071543152843762   -0.16333685958733754   -0.0013245061240852235
0.02399519407782887   -0.16352773492514408   -0.00020036674869977728
0.02438897413119773   -0.1642315656495177   -0.00022848093743497422
0.023585639387114683   -0.2167466279261683   -0.0017392253794295846
-0.007071543152843762   -0.16333685958733754   -0.0013245061240852235
0.02438897413119773   -0.1642315656495177   -0.00022848093743497422
-0.005785654787263638   -0.2174713205000357   -0.0028764943063964658
0.023585639387114683   -0.2167466279261683   -0.0017392253794295846
0.02399519407782887   -0.16352773492514408   -0.00020036674869977728
-0.006053631749504178   -0.2168289466196616   -0.0028932670550917373
0.023365220959942094   -0.21614956927872364   -0.001887386078187813
0.02399519407782887   -0.16352773492514408   -0.00020036674869977728
-0.007071543152843762   -0.16333685958733754   -0.0013245061240852235
-0.006053631749504178   -0.2168289466196616   -0.0028932670550917373
-0.007489869001428839   -0.16275351385665784   -0.0011845472022959627
0.023365220959942094   -0.21614956927872364   -0.001887386078187813
-0.006351320239119923   -0.21627294620676155   -0.0028769274650513148
-0.007489869001428839   -0.16275351385665784   -0.0011845472022959627
-0.006053631749504178   -0.2168289466196616   -0.0028932670550917373
0.023365220959942094   -0.21614956927872364   -0.001887386078187813
-0.007489869001428839   -0.16275351385665784   -0.0011845472022959627
0.023516205918462596   -0.16289544075052934   -0.0001111042130992809
0.02399519407782887   -0.16352773492514408   -0.00020036674869977728
0.023365220959942094   -0.21614956927872364   -0.001887386078187813
-0.007489869001428839   -0.16275351385665784   -0.0011845472022959627
0.02399519407782887   -0.16352773492514408   -0.00020036674869977728
-0.006053631749504178   -0.2168289466196616   -0.0028932670550917373
0.023365220959942094   -0.21614956927872364   -0.001887386078187813
0.023516205918462596   -0.16289544075052934   -0.0001111042130992809
-0.006351320239119923   -0.21627294620676155   -0.0028769274650513148
0.023059001808155444   -0.2155968186001453   -0.0019861793631161064
0.023516205918462596   -0.16289544075052934   -0.0001111042130992809
-0.007489869001428839   -0.16275351385665784   -0.0011845472022959627
-0.006351320239119923   -0.21627294620676155   -0.0028769274650513148
-0.00795831057343301   -0.16219465591532728   -0.0010072013701851058
0.023059001808155444   -0.2155968186001453   -0.0019861793631161064
-0.0067192382880400196   -0.2157891675032843   -0.0028261701630983866
-0.00795831057343301   -0.16219465591532728   -0.0010072013701851058
-0.006351320239119923   -0.21627294620676155   -0.0028769274650513148
0.023059001808155444   -0.2155968186001453   -0.0019861793631161064
-0.00795831057343301   -0.16219465591532728   -0.0010072013701851058
0.02288596014591059   -0.16223234189640962   3.650867753706562e-05
0.023516205918462596   -0.16289544075052934   -0.0001111042130992809
0.023059001808155444   -0.2155968186001453   -0.0019861793631161064
-0.00795831057343301   -0.16219465591532728   -0.0010072013701851058
0.023516205918462596   -0.16289544075052934   -0.0001111042130992809
-0.006351320239119923   -0.21627294620676155   -0.0028769274650513148
-0.005785654787263638   -0.2174713205000357   -0.0028764943063964658
-0.006705765665365461   -0.1639525623924349   -0.0014345872614917518
-0.03388675818810516   -0.21720365108872575   -0.0039857690244448915
-0.006053631749504178   -0.2168289466196616   -0.0028932670550917373
-0.006705765665365461   -0.1639525623924349   -0.0014345872614917518
-0.036171118312911595   -0.16363308639241259   -0.002460025167426819
-0.03388675818810516   -0.21720365108872575   -0.0039857690244448915
-0.036542791786542725   -0.16311603582295395   -0.0022950546450496035
-0.006053631749504178   -0.2168289466196616   -0.0028932670550917373
-0.03418504783964916   -0.2166684889582371   -0.0038702080967950928
-0.036542791786542725   -0.16311603582295395   -0.0022950546450496035
-0.03388675818810516   -0.21720365108872575   -0.0039857690244448915
-0.006053631749504178   -0.2168289466196616   -0.0028932670550917373
-0.036542791786542725   -0.16311603582295395   -0.0022950546450496035
-0.007071543152843762   -0.16333685958733754   -0.0013245061240852235
-0.006705765665365461   -0.1639525623924349   -0.0014345872614917518
-0.006053631749504178   -0.2168289466196616   -0.0028932670550917373
-0.036542791786542725   -0.16311603582295395   -0.0022950546450496035
-0.006705765665365461   -0.1639525623924349   -0.0014345872614917518
-0.03388675818810516   -0.21720365108872575   -0.0039857690244448915
-0.006053631749504178   -0.2168289466196616   -0.0028932670550917373
-0.007071543152843762   -0.16333685958733754   -0.0013245061240852235
-0.03418504783964916   -0.2166684889582371   -0.0038702080967950928
-0.006351320239119923   -0.21627294620676155   -0.0028769274650513148
-0.007071543152843762   -0.16333685958733754   -0.0013245061240852235
-0.036542791786542725   -0.16311603582295395   -0.0022950546450496035
-0.03418504783964916   -0.2166684889582371   -0.0038702080967950928
-0.03692261290746167   -0.16262415117500054   -0.0021016919788892745
-0.006351320239119923   -0.21627294620676155   -0.0028769274650513148
-0.034489231192545114   -0.2162036522608304   -0.0037201976717203505
-0.03692261290746167   -0.16262415117500054   -0.0021016919788892745
-0.03418504783964916   -0.2166684889582371   -0.0038702080967950928
-0.006351320239119923   -0.21627294620676155   -0.0028769274650513148
-0.03692261290746167   -0.16262415117500054   -0.0021016919788892745
-0.007489869001428839   -0.16275351385665784   -0.0011845472022959627
-0.007071543152843762   -0.16333685958733754   -0.0013245061240852235
-0.006351320239119923   -0.21627294620676155   -0.0028769274650513148
-0.03692261290746167   -0.16262415117500054   -0.0021016919788892745
-0.007071543152843762   -0.16333685958733754   -0.0013245061240852235
-0.03418504783964916   -0.2166684889582371   -0.0038702080967950928
-0.006351320239119923   -0.21627294620676155   -0.0028769274650513148
-0.007489869001428839   -0.16275351385665784   -0.0011845472022959627
-0.034489231192545114   -0.2162036522608304   -0.0037201976717203505
-0.0067192382880400196   -0.2157891675032843   -0.0028261701630983866
-0.007489869001428839   -0.16275351385665784   -0.0011845472022959627
-0.03692261290746167   -0.16262415117500054   -0.0021016919788892745
-0.034489231192545114   -0.2162036522608304   -0.0037201976717203505
-0.037326315451546445   -0.16216480108152423   -0.0018795677295578746
-0.0067192382880400196   -0.2157891675032843   -0.0028261701630983866
-0.034818878372009025   -0.21581340519821696   -0.0035373046803782123
-0.037326315451546445   -0.16216480108152423   -0.0018795677295578746
-0.034489231192545114   -0.2162036522608304   -0.0037201976717203505
-0.0067192382880400196   -0.2157891675032843   -0.0028261701630983866
-0.037326315451546445   -0.16216480108152423   -0.0018795677295578746
-0.00795831057343301   -0.16219465591532728   -0.0010072013701851058
-0.007489869001428839   -0.16275351385665784   -0.0011845472022959627
-0.0067192382880400196   -0.2157891675032843   -0.0028261701630983866
-0.037326315451546445   -0.16216480108152423   -0.0018795677295578746
-0.007489869001428839   -0.16275351385665784   -0.0011845472022959627
-0.034489231192545114   -0.2162036522608304   -0.0037201976717203505
-0.03388675818810516   -0.21720365108872575   -0.0039857690244448915
-0.036171118312911595   -0.16363308639241259   -0.002460025167426819
-0.06151247432633098   -0.21670827544039187   -0.004924159586309976
-0.03418504783964916   -0.2166684889582371   -0.0038702080967950928
-0.036171118312911595   -0.16363308639241259   -0.002460025167426819
-0.06516009437041077   -0.16325258846912769   -0.003333676649114858
-0.06151247432633098   -0.21670827544039187   -0.004924159586309976
-0.06552850608254887   -0.1628272725045372   -0.003113629924129473
-0.03418504783964916   -0.2166684889582371   -0.0038702080967950928
-0.06181902414742016   -0.216272263446644   -0.00467635943546821
-0.06552850608254887   -0.1628272725045372   -0.003113629924129473
-0.06151247432633098   -0.21670827544039187   -0.004924159586309976
-0.03418504783964916   -0.2166684889582371   -0.0038702080967950928
-0.06552850608254887   -0.1628272725045372   -0.003113629924129473
-0.036542791786542725   -0.16311603582295395   -0.0022950546450496035
-0.036171118312911595   -0.16363308639241259   -0.002460025167426819
-0.03418504783964916   -0.2166684889582371   -0.0038702080967950928
-0.06552850608254887   -0.1628272725045372   -0.003113629924129473
-0.036171118312911595   -0.16363308639241259   -0.002460025167426819
-0.06151247432633098   -0.21670827544039187   -0.004924159586309976
-0.03418504783964916   -0.2166684889582371   -0.0038702080967950928
-0.036542791786542725   -0.16311603582295395   -0.0022950546450496035
-0.06181902414742016   -0.216272263446644   -0.00467635943546821
-0.034489231192545114   -0.2162036522608304   -0.0037201976717203505
-0.036542791786542725   -0.16311603582295395   -0.0022950546450496035
-0.06552850608254887   -0.1628272725045372   -0.003113629924129473
-0.06181902414742016   -0.216272263446644   -0.00467635943546821
-0.06587324417991552   -0.16242865482852328   -0.002866165642820826
-0.034489231192545114   -0.2162036522608304   -0.0037201976717203505
-0.06209737765882579   -0.21590607829614397   -0.004394897190884433
-0.06587324417991552   -0.16242865482852328   -0.002866165642820826
-0.06181902414742016   -0.216272263446644   -0.00467635943546821
-0.034489231192545114   -0.2162036522608304   -0.0037201976717203505
-0.06587324417991552   -0.16242865482852328   -0.002866165642820826
-0.03692261290746167   -0.16262415117500054   -0.0021016919788892745
-0.036542791786542725   -0.16311603582295395   -0.0022950546450496035
-0.034489231192545114   -0.2162036522608304   -0.0037201976717203505
-0.06587324417991552   -0.16242865482852328   -0.002866165642820826
-0.036542791786542725   -0.16311603582295395   -0.0022950546450496035
-0.06181902414742016   -0.216272263446644   -0.00467635943546821
-0.034489231192545114   -0.2162036522608304   -0.0037201976717203505
-0.03692261290746167   -0.16262415117500054   -0.0021016919788892745
-0.06209737765882579   -0.21590607829614397   -0.004394897190884433
-0.034818878372009025   -0.21581340519821696   -0.0035373046803782123
-0.03692261290746167   -0.16262415117500054   -0.0021016919788892745
-0.06587324417991552   -0.16242865482852328   -0.002866165642820826
-0.06209737765882579   -0.21590607829614397   -0.004394897190884433
-0.0662192100403349   -0.16205787833186433   -0.002592660471855811
-0.034818878372009025   -0.21581340519821696   -0.0035373046803782123
-0.06237833554418327   -0.21561037380645176   -0.004081074842523353
-0.0662192100403349   -0.16205787833186433   -0.002592660471855811
-0.06209737765882579   -0.21590607829614397   -0.004394897190884433
-0.034818878372009025   -0.21581340519821696   -0.0035373046803782123
-0.0662192100403349   -0.16205787833186433   -0.002592660471855811
-0.037326315451546445   -0.16216480108152423   -0.0018795677295578746
-0.03692261290746167   -0.16262415117500054   -0.0021016919788892745
-0.034818878372009025   -0.21581340519821696   -0.0035373046803782123
-0.0662192100403349   -0.16205787833186433   -0.002592660471855811
-0.03692261290746167   -0.16262415117500054   -0.0021016919788892745
-0.06209737765882579   -0.21590607829614397   -0.004394897190884433
-0.06151247432633098   -0.21670827544039187   -0.004924159586309976
-0.06516009437041077   -0.16325258846912769   -0.003333676649114858
-0.0896842035777192   -0.21597457308039025   -0.005693473200646983
-0.06181902414742016   -0.216272263446644   -0.00467635943546821
-0.06516009437041077   -0.16325258846912769   -0.003333676649114858
-0.09467089849469396   -0.1627398891277304   -0.004048118843045386
-0.0896842035777192   -0.21597457308039025   -0.005693473200646983
-0.09502392394144664   -0.16241112389551354   -0.003773638353984802
-0.06181902414742016   -0.216272263446644   -0.00467635943546821
-0.08996934069893267   -0.21563869545623363   -0.005312448994698517
-0.09502392394144664   -0.16241112389551354   -0.003773638353984802
-0.0896842035777192   -0.21597457308039025   -0.005693473200646983
-0.06181902414742016   -0.216272263446644   -0.00467635943546821
-0.09502392394144664   -0.16241112389551354   -0.003773638353984802
-0.06552850608254887   -0.1628272725045372   -0.003113629924129473
-0.06516009437041077   -0.16325258846912769   -0.003333676649114858
-0.06181902414742016   -0.216272263446644   -0.00467635943546821
-0.09502392394144664   -0.16241112389551354   -0.003773638353984802
-0.06516009437041077   -0.16325258846912769   -0.003333676649114858
-0.0896842035777192   -0.21597457308039025   -0.005693473200646983
-0.06181902414742016   -0.216272263446644   -0.00467635943546821
-0.06552850608254887   -0.1628272725045372   -0.003113629924129473
-0.08996934069893267   -0.21563869545623363   -0.005312448994698517
-0.06209737765882579   -0.21590607829614397   -0.004394897190884433
-0.06552850608254887   -0.1628272725045372   -0.003113629924129473
-0.09502392394144664   -0.16241112389551354   -0.003773638353984802
-0.08996934069893267   -0.21563869545623363   -0.005312448994698517
-0.09529288471185118   -0.16209824076218202   -0.0034763528038513894
-0.06209737765882579   -0.21590607829614397   -0.004394897190884433
-0.0901439806894015   -0.2153633419758021   -0.004902346324331955
-0.09529288471185118   -0.16209824076218202   -0.0034763528038513894
-0.08996934069893267   -0.21563869545623363   -0.005312448994698517
-0.06209737765882579   -0.21590607829614397   -0.004394897190884433
-0.09529288471185118   -0.16209824076218202   -0.0034763528038513894
-0.06587324417991552   -0.16242865482852328   -0.002866165642820826
-0.06552850608254887   -0.1628272725045372   -0.003113629924129473
-0.06209737765882579   -0.21590607829614397   -0.004394897190884433
-0.09529288471185118   -0.16209824076218202   -0.0034763528038513894
-0.06552850608254887   -0.1628272725045372   -0.003113629924129473
-0.08996934069893267   -0.21563869545623363   -0.005312448994698517
-0.06209737765882579   -0.21590607829614397   -0.004394897190884433
-0.06587324417991552   -0.16242865482852328   -0.002866165642820826
-0.0901439806894015   -0.2153633419758021   -0.004902346324331955
-0.06237833554418327   -0.21561037380645176   -0.004081074842523353
-0.06587324417991552   -0.16242865482852328   -0.002866165642820826
-0.09529288471185118   -0.16209824076218202   -0.0034763528038513894
-0.0901439806894015   -0.2153633419758021   -0.004902346324331955
-0.09555943481610989   -0.16181463124740877   -0.0031502353637005934
-0.06237833554418327   -0.21561037380645176   -0.004081074842523353
-0.09033479966330413   -0.21516448669422597   -0.004457133002232429
-0.09555943481610989   -0.16181463124740877   -0.0031502353637005934
-0.0901439806894015   -0.2153633419758021   -0.004902346324331955
-0.06237833554418327   -0.21561037380645176   -0.004081074842523353
-0.09555943481610989   -0.16181463124740877   -0.0031502353637005934
-0.0662192100403349   -0.16205787833186433   -0.002592660471855811
-0.06587324417991552   -0.16242865482852328   -0.002866165642820826
-0.06237833554418327   -0.21561037380645176   -0.004081074842523353
-0.09555943481610989   -0.16181463124740877   -0.0031502353637005934
-0.06587324417991552   -0.16242865482852328   -0.002866165642820826
-0.0901439806894015   -0.2153633419758021   -0.004902346324331955
-0.0896842035777192   -0.21597457308039025   -0.005693473200646983
-0.09467089849469396   -0.1627398891277304   -0.004048118843045386
-0.11991046461046283   -0.21507529968673472   -0.006306864139448767
-0.08996934069893267   -0.21563869545623363   -0.005312448994698517
-0.09467089849469396   -0.1627398891277304   -0.004048118843045386
-0.12593527318262643   -0.16213709516187258   -0.004582035697496083
-0.11991046461046283   -0.21507529968673472   -0.006306864139448767
-0.12599690907188507   -0.16187262191249752   -0.004281221699212791
-0.08996934069893267   -0.21563869545623363   -0.005312448994698517
-0.11971280861027356   -0.21479109821860765   -0.0058013037964315065
-0.12599690907188507   -0.16187262191249752   -0.004281221699212791
-0.11991046461046283   -0.21507529968673472   -0.006306864139448767
-0.08996934069893267   -0.21563869545623363   -0.005312448994698517
-0.12599690907188507   -0.16187262191249752   -0.004281221699212791
-0.09502392394144664   -0.16241112389551354   -0.003773638353984802
-0.09467089849469396   -0.1627398891277304   -0.004048118843045386
-0.08996934069893267   -0.21563869545623363   -0.005312448994698517
-0.12599690907188507   -0.16187262191249752   -0.004281221699212791
-0.09467089849469396   -0.1627398891277304   -0.004048118843045386
-0.11991046461046283   -0.21507529968673472   -0.006306864139448767
-0.08996934069893267   -0.21563869545623363   -0.005312448994698517
-0.09502392394144664   -0.16241112389551354   -0.003773638353984802
-0.11971280861027356   -0.21479109821860765   -0.0058013037964315065
-0.0901439806894015   -0.2153633419758021   -0.004902346324331955
-0.09502392394144664   -0.16241112389551354   -0.003773638353984802
-0.12599690907188507   -0.16187262191249752   -0.004281221699212791
-0.11971280861027356   -0.21479109821860765   -0.0058013037964315065
-0.12605897070434866   -0.16160374007300052   -0.003934391837279856
-0.0901439806894015   -0.2153633419758021   -0.004902346324331955
-0.11955187745180006   -0.21455849534134755   -0.005242393188048839
-0.12605897070434866   -0.16160374007300052   -0.003934391837279856
-0.11971280861027356   -0.21479109821860765   -0.0058013037964315065
-0.0901439806894015   -0.2153633419758021   -0.004902346324331955
-0.12605897070434866   -0.16160374007300052   -0.003934391837279856
-0.09529288471185118   -0.16209824076218202   -0.0034763528038513894
-0.09502392394144664   -0.16241112389551354   -0.003773638353984802
-0.0901439806894015   -0.2153633419758021   -0.004902346324331955
-0.12605897070434866   -0.16160374007300052   -0.003934391837279856
-0.09502392394144664   -0.16241112389551354   -0.003773638353984802
-0.11971280861027356   -0.21479109821860765   -0.0058013037964315065
-0.0901439806894015   -0.2153633419758021   -0.004902346324331955
-0.09529288471185118   -0.16209824076218202   -0.0034763528038513894
-0.11955187745180006   -0.21455849534134755   -0.005242393188048839
-0.09033479966330413   -0.21516448669422597   -0.004457133002232429
-0.09529288471185118   -0.16209824076218202   -0.0034763528038513894
-0.12605897070434866   -0.16160374007300052   -0.003934391837279856
-0.11955187745180006   -0.21455849534134755   -0.005242393188048839
-0.1259473143550845   -0.16142041770785823   -0.0035470620603426594
-0.09033479966330413   -0.21516448669422597   -0.004457133002232429
-0.11915543766478642   -0.2144752237743594   -0.004636230332506658
-0.1259473143550845   -0.16142041770785823   -0.0035470620603426594
-0.11955187745180006   -0.21455849534134755   -0.005242393188048839
-0.09033479966330413   -0.21516448669422597   -0.004457133002232429
-0.1259473143550845   -0.16142041770785823   -0.0035470620603426594
-0.09555943481610989   -0.16181463124740877   -0.0031502353637005934
-0.09529288471185118   -0.16209824076218202   -0.0034763528038513894
-0.09033479966330413   -0.21516448669422597   -0.004457133002232429
-0.1259473143550845   -0.16142041770785823   -0.0035470620603426594
-0.09529288471185118   -0.16209824076218202   -0.0034763528038513894
-0.11955187745180006   -0.21455849534134755   -0.005242393188048839
0.02438897413119773   -0.1642315656495177   -0.00022848093743497422
0.021801586619644098   -0.10947584516621969   0.0006745234809344675
-0.006705765665365461   -0.1639525623924349   -0.0014345872614917518
0.02399519407782887   -0.16352773492514408   -0.00020036674869977728
0.021801586619644098   -0.10947584516621969   0.0006745234809344675
-0.009482511242047595   -0.1089546359535666   -0.0002895012983584213
-0.006705765665365461   -0.1639525623924349   -0.0014345872614917518
-0.009917046599180843   -0.10839580390935732   -6.338841527742616e-05
0.02399519407782887   -0.16352773492514408   -0.00020036674869977728
-0.007071543152843762   -0.16333685958733754   -0.0013245061240852235
-0.009917046599180843   -0.10839580390935732   -6.338841527742616e-05
-0.006705765665365461   -0.1639525623924349   -0.0014345872614917518
0.02399519407782887   -0.16352773492514408   -0.00020036674869977728
-0.009917046599180843   -0.10839580390935732   -6.338841527742616e-05
0.021113221994689815   -0.10880415737409664   0.0009593240082867094
0.021801586619644098   -0.10947584516621969   0.0006745234809344675
0.02399519407782887   -0.16352773492514408   -0.00020036674869977728
-0.009917046599180843   -0.10839580390935732   -6.338841527742616e-05
0.021801586619644098   -0.10947584516621969   0.0006745234809344675
-0.006705765665365461   -0.1639525623924349   -0.0014345872614917518
0.02399519407782887   -0.16352773492514408   -0.00020036674869977728
0.021113221994689815   -0.10880415737409664   0.0009593240082867094
-0.007071543152843762   -0.16333685958733754   -0.0013245061240852235
0.023516205918462596   -0.16289544075052934   -0.0001111042130992809
0.021113221994689815   -0.10880415737409664   0.0009593240082867094
-0.009917046599180843   -0.10839580390935732   -6.338841527742616e-05
-0.007071543152843762   -0.16333685958733754   -0.0013245061240852235
-0.010424715364585885   -0.10780515028079742   0.0002024281806030479
0.023516205918462596   -0.16289544075052934   -0.0001111042130992809
-0.007489869001428839   -0.16275351385665784   -0.0011845472022959627
-0.010424715364585885   -0.10780515028079742   0.0002024281806030479
-0.007071543152843762   -0.16333685958733754   -0.0013245061240852235
0.023516205918462596   -0.16289544075052934   -0.0001111042130992809
-0.010424715364585885   -0.10780515028079742   0.0002024281806030479
0.020348336097644953   -0.10813503310438025   0.001365340276041027
0.021113221994689815   -0.10880415737409664   0.0009593240082867094
0.023516205918462596   -0.16289544075052934   -0.0001111042130992809
-0.010424715364585885   -0.10780515028079742   0.0002024281806030479
0.021113221994689815   -0.10880415737409664   0.0009593240082867094
-0.007071543152843762   -0.16333685958733754   -0.0013245061240852235
0.023516205918462596   -0.16289544075052934   -0.0001111042130992809
0.020348336097644953   -0.10813503310438025   0.001365340276041027
-0.007489869001428839   -0.16275351385665784   -0.0011845472022959627
0.02288596014591059   -0.16223234189640962   3.650867753706562e-05
0.020348336097644953   -0.10813503310438025   0.001365340276041027
-0.010424715364585885   -0.10780515028079742   0.0002024281806030479
-0.007489869001428839   -0.16275351385665784   -0.0011845472022959627
-0.010949057351453106   -0.10717722952470518   0.000507312807793994
0.02288596014591059   -0.16223234189640962   3.650867753706562e-05
-0.00795831057343301   -0.16219465591532728   -0.0010072013701851058
-0.010949057351453106   -0.10717722952470518   0.000507312807793994
-0.007489869001428839   -0.16275351385665784   -0.0011845472022959627
0.02288596014591059   -0.16223234189640962   3.650867753706562e-05
-0.010949057351453106   -0.10717722952470518   0.000507312807793994
0.01941407544635231   -0.10731385565852199   0.0018115773649804718
0.020348336097644953   -0.10813503310438025   0.001365340276041027
0.02288596014591059   -0.16223234189640962   3.650867753706562e-05
-0.010949057351453106   -0.10717722952470518   0.000507312807793994
0.020348336097644953   -0.10813503310438025   0.001365340276041027
-0.007489869001428839   -0.16275351385665784   -0.0011845472022959627
-0.006705765665365461   -0.1639525623924349   -0.0014345872614917518
-0.009482511242047595   -0.1089546359535666   -0.0002895012983584213
-0.036171118312911595   -0.16363308639241259   -0.002460025167426819
-0.007071543152843762   -0.16333685958733754   -0.0013245061240852235
-0.009482511242047595   -0.1089546359535666   -0.0002895012983584213
-0.03895343090735015   -0.10882001966256961   -0.0012211446066972059
-0.036171118312911595   -0.16363308639241259   -0.002460025167426819
-0.039344931809734876   -0.10833041515018271   -0.0010124022065521499
-0.007071543152843762   -0.16333685958733754   -0.0013245061240852235
-0.036542791786542725   -0.16311603582295395   -0.0022950546450496035
-0.039344931809734876   -0.10833041515018271   -0.0010124022065521499
-0.036171118312911595   -0.16363308639241259   -0.002460025167426819
-0.007071543152843762   -0.16333685958733754   -0.0013245061240852235
-0.039344931809734876   -0.10833041515018271   -0.0010124022065521499
-0.009917046599180843   -0.10839580390935732   -6.338841527742616e-05
-0.009482511242047595   -0.1089546359535666   -0.0002895012983584213
-0.007071543152843762   -0.16333685958733754   -0.0013245061240852235
-0.039344931809734876   -0.10833041515018271   -0.0010124022065521499
-0.009482511242047595   -0.1089546359535666   -0.0002895012983584213
-0.036171118312911595   -0.16363308639241259   -0.002460025167426819
-0.007071543152843762   -0.16333685958733754   -0.0013245061240852235
-0.009917046599180843   -0.10839580390935732   -6.338841527742616e-05
-0.036542791786542725   -0.16311603582295395   -0.0022950546450496035
-0.007489869001428839   -0.16275351385665784   -0.0011845472022959627
-0.009917046599180843   -0.10839580390935732   -6.338841527742616e-05
-0.039344931809734876   -0.10833041515018271   -0.0010124022065521499
-0.036542791786542725   -0.16311603582295395   -0.0022950546450496035
-0.039749598127972706   -0.10782080178300776   -0.0007832646159456936
-0.007489869001428839   -0.16275351385665784   -0.0011845472022959627
-0.03692261290746167   -0.16262415117500054   -0.0021016919788892745
-0.039749598127972706   -0.10782080178300776   -0.0007832646159456936
-0.036542791786542725   -0.16311603582295395   -0.0022950546450496035
-0.007489869001428839   -0.16275351385665784   -0.0011845472022959627
-0.039749598127972706   -0.10782080178300776   -0.0007832646159456936
-0.010424715364585885   -0.10780515028079742   0.0002024281806030479
-0.009917046599180843   -0.10839580390935732   -6.338841527742616e-05
-0.007489869001428839   -0.16275351385665784   -0.0011845472022959627
-0.039749598127972706   -0.10782080178300776   -0.0007832646159456936
-0.009917046599180843   -0.10839580390935732   -6.338841527742616e-05
-0.036542791786542725   -0.16311603582295395   -0.0022950546450496035
-0.007489869001428839   -0.16275351385665784   -0.0011845472022959627
-0.010424715364585885   -0.10780515028079742   0.0002024281806030479
-0.03692261290746167   -0.16262415117500054   -0.0021016919788892745
-0.00795831057343301   -0.16219465591532728   -0.0010072013701851058
-0.010424715364585885   -0.10780515028079742   0.0002024281806030479
-0.039749598127972706   -0.10782080178300776   -0.0007832646159456936
-0.03692261290746167   -0.16262415117500054   -0.0021016919788892745
-0.040170565032564796   -0.10729984604757785   -0.0005295838100364359
-0.00795831057343301   -0.16219465591532728   -0.0010072013701851058
-0.037326315451546445   -0.16216480108152423   -0.0018795677295578746
-0.040170565032564796   -0.10729984604757785   -0.0005295838100364359
-0.03692261290746167   -0.16262415117500054   -0.0021016919788892745
-0.00795831057343301   -0.16219465591532728   -0.0010072013701851058
-0.040170565032564796   -0.10729984604757785   -0.0005295838100364359
-0.010949057351453106   -0.10717722952470518   0.000507312807793994
-0.010424715364585885   -0.10780515028079742   0.0002024281806030479
-0.00795831057343301   -0.16219465591532728   -0.0010072013701851058
-0.040170565032564796   -0.10729984604757785   -0.0005295838100364359
-0.010424715364585885   -0.10780515028079742   0.0002024281806030479
-0.03692261290746167   -0.16262415117500054   -0.0021016919788892745
-0.036171118312911595   -0.16363308639241259   -0.002460025167426819
-0.03895343090735015   -0.10882001966256961   -0.0012211446066972059
-0.06516009437041077   -0.16325258846912769   -0.003333676649114858
-0.036542791786542725   -0.16311603582295395   -0.0022950546450496035
-0.03895343090735015   -0.10882001966256961   -0.0012211446066972059
-0.06813035435514694   -0.10878298435730373   -0.0020647704719631427
-0.06516009437041077   -0.16325258846912769   -0.003333676649114858
-0.06850399711235429   -0.10835233103951508   -0.0018670365766037986
-0.036542791786542725   -0.16311603582295395   -0.0022950546450496035
-0.06552850608254887   -0.1628272725045372   -0.003113629924129473
-0.06850399711235429   -0.10835233103951508   -0.0018670365766037986
-0.06516009437041077   -0.16325258846912769   -0.003333676649114858
-0.036542791786542725   -0.16311603582295395   -0.0022950546450496035
-0.06850399711235429   -0.10835233103951508   -0.0018670365766037986
-0.039344931809734876   -0.10833041515018271   -0.0010124022065521499
-0.03895343090735015   -0.10882001966256961   -0.0012211446066972059
-0.036542791786542725   -0.16311603582295395   -0.0022950546450496035
-0.06850399711235429   -0.10835233103951508   -0.0018670365766037986
-0.03895343090735015   -0.10882001966256961   -0.0012211446066972059
-0.06516009437041077   -0.16325258846912769   -0.003333676649114858
-0.036542791786542725   -0.16311603582295395   -0.0022950546450496035
-0.039344931809734876   -0.10833041515018271   -0.0010124022065521499
-0.06552850608254887   -0.1628272725045372   -0.003113629924129473
-0.03692261290746167   -0.16262415117500054   -0.0021016919788892745
-0.039344931809734876   -0.10833041515018271   -0.0010124022065521499
-0.06850399711235429   -0.10835233103951508   -0.0018670365766037986
-0.06552850608254887   -0.1628272725045372   -0.003113629924129473
-0.06885989426186999   -0.10791334571054914   -0.0016515217909154325
-0.03692261290746167   -0.16262415117500054   -0.0021016919788892745
-0.06587324417991552   -0.16242865482852328   -0.002866165642820826
-0.06885989426186999   -0.10791334571054914   -0.0016515217909154325
-0.06552850608254887   -0.1628272725045372   -0.003113629924129473
-0.03692261290746167   -0.16262415117500054   -0.0021016919788892745
-0.06885989426186999   -0.10791334571054914   -0.0016515217909154325
-0.039749598127972706   -0.10782080178300776   -0.0007832646159456936
-0.039344931809734876   -0.10833041515018271   -0.0010124022065521499
-0.03692261290746167   -0.16262415117500054   -0.0021016919788892745
-0.06885989426186999   -0.10791334571054914   -0.0016515217909154325
-0.039344931809734876   -0.10833041515018271   -0.0010124022065521499
-0.06552850608254887   -0.1628272725045372   -0.003113629924129473
-0.03692261290746167   -0.16262415117500054   -0.0021016919788892745
-0.039749598127972706   -0.10782080178300776   -0.0007832646159456936
-0.06587324417991552   -0.16242865482852328   -0.002866165642820826
-0.037326315451546445   -0.16216480108152423   -0.0018795677295578746
-0.039749598127972706   -0.10782080178300776   -0.0007832646159456936
-0.06885989426186999   -0.10791334571054914   -0.0016515217909154325
-0.06587324417991552   -0.16242865482852328   -0.002866165642820826
-0.06921217597902152   -0.10746360900619852   -0.0014192839184535848
-0.037326315451546445   -0.16216480108152423   -0.0018795677295578746
-0.0662192100403349   -0.16205787833186433   -0.002592660471855811
-0.06921217597902152   -0.10746360900619852   -0.0014192839184535848
-0.06587324417991552   -0.16242865482852328   -0.002866165642820826
-0.037326315451546445   -0.16216480108152423   -0.0018795677295578746
-0.06921217597902152   -0.10746360900619852   -0.0014192839184535848
-0.040170565032564796   -0.10729984604757785   -0.0005295838100364359
-0.039749598127972706   -0.10782080178300776   -0.0007832646159456936
-0.037326315451546445   -0.16216480108152423   -0.0018795677295578746
-0.06921217597902152   -0.10746360900619852   -0.0014192839184535848
-0.039749598127972706   -0.10782080178300776   -0.0007832646159456936
-0.06587324417991552   -0.16242865482852328   -0.002866165642820826
-0.06516009437041077   -0.16325258846912769   -0.003333676649114858
-0.06813035435514694   -0.10878298435730373   -0.0020647704719631427
-0.09467089849469396   -0.1627398891277304   -0.004048118843045386
-0.06552850608254887   -0.1628272725045372   -0.003113629924129473
-0.06813035435514694   -0.10878298435730373   -0.0020647704719631427
-0.09792414138439334   -0.108615438232556   -0.0027764079024339265
-0.09467089849469396   -0.1627398891277304   -0.004048118843045386
-0.09828036581949944   -0.10826228968589022   -0.0025905027625248212
-0.06552850608254887   -0.1628272725045372   -0.003113629924129473
-0.09502392394144664   -0.16241112389551354   -0.003773638353984802
-0.09828036581949944   -0.10826228968589022   -0.0025905027625248212
-0.09467089849469396   -0.1627398891277304   -0.004048118843045386
-0.06552850608254887   -0.1628272725045372   -0.003113629924129473
-0.09828036581949944   -0.10826228968589022   -0.0025905027625248212
-0.06850399711235429   -0.10835233103951508   -0.0018670365766037986
-0.06813035435514694   -0.10878298435730373   -0.0020647704719631427
-0.06552850608254887   -0.1628272725045372   -0.003113629924129473
-0.09828036581949944   -0.10826228968589022   -0.0025905027625248212
-0.06813035435514694   -0.10878298435730373   -0.0020647704719631427
-0.09467089849469396   -0.1627398891277304   -0.004048118843045386
-0.06552850608254887   -0.1628272725045372   -0.003113629924129473
-0.06850399711235429   -0.10835233103951508   -0.0018670365766037986
-0.09502392394144664   -0.16241112389551354   -0.003773638353984802
-0.06587324417991552   -0.16242865482852328   -0.002866165642820826
-0.06850399711235429   -0.10835233103951508   -0.0018670365766037986
-0.09828036581949944   -0.10826228968589022   -0.0025905027625248212
-0.09502392394144664   -0.16241112389551354   -0.003773638353984802
-0.09858289825667352   -0.10788957845697605   -0.002392126948270562
-0.06587324417991552   -0.16242865482852328   -0.002866165642820826
-0.09529288471185118   -0.16209824076218202   -0.0034763528038513894
-0.09858289825667352   -0.10788957845697605   -0.002392126948270562
-0.09502392394144664   -0.16241112389551354   -0.003773638353984802
-0.06587324417991552   -0.16242865482852328   -0.002866165642820826
-0.09858289825667352   -0.10788957845697605   -0.002392126948270562
-0.06885989426186999   -0.10791334571054914   -0.0016515217909154325
-0.06850399711235429   -0.10835233103951508   -0.0018670365766037986
-0.06587324417991552   -0.16242865482852328   -0.002866165642820826
-0.09858289825667352   -0.10788957845697605   -0.002392126948270562
-0.06850399711235429   -0.10835233103951508   -0.0018670365766037986
-0.09502392394144664   -0.16241112389551354   -0.003773638353984802
-0.06587324417991552   -0.16242865482852328   -0.002866165642820826
-0.06885989426186999   -0.10791334571054914   -0.0016515217909154325
-0.09529288471185118   -0.16209824076218202   -0.0034763528038513894
-0.0662192100403349   -0.16205787833186433   -0.002592660471855811
-0.06885989426186999   -0.10791334571054914   -0.0016515217909154325
-0.09858289825667352   -0.10788957845697605   -0.002392126948270562
-0.09529288471185118   -0.16209824076218202   -0.0034763528038513894
-0.09886887609214948   -0.10750659016511462   -0.0021757002242242824
-0.0662192100403349   -0.16205787833186433   -0.002592660471855811
-0.09555943481610989   -0.16181463124740877   -0.0031502353637005934
-0.09886887609214948   -0.10750659016511462   -0.0021757002242242824
-0.09529288471185118   -0.16209824076218202   -0.0034763528038513894
-0.0662192100403349   -0.16205787833186433   -0.002592660471855811
-0.09886887609214948   -0.10750659016511462   -0.0021757002242242824
-0.06921217597902152   -0.10746360900619852   -0.0014192839184535848
-0.06885989426186999   -0.10791334571054914   -0.0016515217909154325
-0.0662192100403349   -0.16205787833186433   -0.002592660471855811
-0.09886887609214948   -0.10750659016511462   -0.0021757002242242824
-0.06885989426186999   -0.10791334571054914   -0.0016515217909154325
-0.09529288471185118   -0.16209824076218202   -0.0034763528038513894
-0.09467089849469396   -0.1627398891277304   -0.004048118843045386
-0.09792414138439334   -0.108615438232556   -0.0027764079024339265
-0.12593527318262643   -0.16213709516187258   -0.004582035697496083
-0.09502392394144664   -0.16241112389551354   -0.003773638353984802
-0.09792414138439334   -0.108615438232556   -0.0027764079024339265
-0.1291180475645535   -0.10834143509459117   -0.003307792588296193
-0.12593527318262643   -0.16213709516187258   -0.004582035697496083
-0.1293431989624052   -0.10804286511316619   -0.00317060637531014
-0.09502392394144664   -0.16241112389551354   -0.003773638353984802
-0.12599690907188507   -0.16187262191249752   -0.004281221699212791
-0.1293431989624052   -0.10804286511316619   -0.00317060637531014
-0.12593527318262643   -0.16213709516187258   -0.004582035697496083
-0.09502392394144664   -0.16241112389551354   -0.003773638353984802
-0.1293431989624052   -0.10804286511316619   -0.00317060637531014
-0.09828036581949944   -0.10826228968589022   -0.0025905027625248212
-0.09792414138439334   -0.108615438232556   -0.0027764079024339265
-0.09502392394144664   -0.16241112389551354   -0.003773638353984802
-0.1293431989624052   -0.10804286511316619   -0.00317060637531014
-0.09792414138439334   -0.108615438232556   -0.0027764079024339265
-0.12593527318262643   -0.16213709516187258   -0.004582035697496083
-0.09502392394144664   -0.16241112389551354   -0.003773638353984802
-0.09828036581949944   -0.10826228968589022   -0.0025905027625248212
-0.12599690907188507   -0.16187262191249752   -0.004281221699212791
-0.09529288471185118   -0.16209824076218202   -0.0034763528038513894
-0.09828036581949944   -0.10826228968589022   -0.0025905027625248212
-0.1293431989624052   -0.10804286511316619   -0.00317060637531014
-0.12599690907188507   -0.16187262191249752   -0.004281221699212791
-0.12954907146974035   -0.10770590979944772   -0.0030025092403039993
-0.09529288471185118   -0.16209824076218202   -0.0034763528038513894
-0.12605897070434866   -0.16160374007300052   -0.003934391837279856
-0.12954907146974035   -0.10770590979944772   -0.0030025092403039993
-0.12599690907188507   -0.16187262191249752   -0.004281221699212791
-0.09529288471185118   -0.16209824076218202   -0.0034763528038513894
-0.12954907146974035   -0.10770590979944772   -0.0030025092403039993
-0.09858289825667352   -0.10788957845697605   -0.002392126948270562
-0.09828036581949944   -0.10826228968589022   -0.0025905027625248212
-0.09529288471185118   -0.16209824076218202   -0.0034763528038513894
-0.12954907146974035   -0.10770590979944772   -0.0030025092403039993
-0.09828036581949944   -0.10826228968589022   -0.0025905027625248212
-0.12599690907188507   -0.16187262191249752   -0.004281221699212791
-0.09529288471185118   -0.16209824076218202   -0.0034763528038513894
-0.09858289825667352   -0.10788957845697605   -0.002392126948270562
-0.12605897070434866   -0.16160374007300052   -0.003934391837279856
-0.09555943481610989   -0.16181463124740877   -0.0031502353637005934
-0.09858289825667352   -0.10788957845697605   -0.002392126948270562
-0.12954907146974035   -0.10770590979944772   -0.0030025092403039993
-0.12605897070434866   -0.16160374007300052   -0.003934391837279856
-0.12965306092796225   -0.10739404484835201   -0.0028114058642611612
-0.09555943481610989   -0.16181463124740877   -0.0031502353637005934
-0.1259473143550845   -0.16142041770785823   -0.0035470620603426594
-0.12965306092796225   -0.10739404484835201   -0.0028114058642611612
-0.12605897070434866   -0.16160374007300052   -0.003934391837279856
-0.09555943481610989   -0.16181463124740877   -0.0031502353637005934
-0.12965306092796225   -0.10739404484835201   -0.0028114058642611612
-0.09886887609214948   -0.10750659016511462   -0.0021757002242242824
-0.09858289825667352   -0.10788957845697605   -0.002392126948270562
-0.09555943481610989   -0.16181463124740877   -0.0031502353637005934
-0.12965306092796225   -0.10739404484835201   -0.0028114058642611612
-0.09858289825667352   -0.10788957845697605   -0.002392126948270562
-0.12605897070434866   -0.16160374007300052   -0.003934391837279856
0.021801586619644098   -0.10947584516621969   0.0006745234809344675
0.015236477068086977   -0.05490333050526021   0.0007201686640006722
-0.009482511242047595   -0.1089546359535666   -0.0002895012983584213
0.021113221994689815   -0.10880415737409664   0.0009593240082867094
0.015236477068086977   -0.05490333050526021   0.0007201686640006722
-0.013889338817880308   -0.05417975148364164   0.0003470452599457517
-0.009482511242047595   -0.1089546359535666   -0.0002895012983584213
-0.014319994438925895   -0.05389172983562845   0.000658759986442826
0.021113221994689815   -0.10880415737409664   0.0009593240082867094
-0.009917046599180843   -0.10839580390935732   -6.338841527742616e-05
-0.014319994438925895   -0.05389172983562845   0.000658759986442826
-0.009482511242047595   -0.1089546359535666   -0.0002895012983584213
0.021113221994689815   -0.10880415737409664   0.0009593240082867094
-0.014319994438925895   -0.05389172983562845   0.000658759986442826
0.013895971392177735   -0.05419252059264232   0.00149416696327004
0.015236477068086977   -0.05490333050526021   0.0007201686640006722
0.021113221994689815   -0.10880415737409664   0.0009593240082867094
-0.014319994438925895   -0.05389172983562845   0.000658759986442826
0.015236477068086977   -0.05490333050526021   0.0007201686640006722
-0.009482511242047595   -0.1089546359535666   -0.0002895012983584213
0.021113221994689815   -0.10880415737409664   0.0009593240082867094
0.013895971392177735   -0.05419252059264232   0.00149416696327004
-0.009917046599180843   -0.10839580390935732   -6.338841527742616e-05
0.020348336097644953   -0.10813503310438025   0.001365340276041027
0.013895971392177735   -0.05419252059264232   0.00149416696327004
-0.014319994438925895   -0.05389172983562845   0.000658759986442826
-0.009917046599180843   -0.10839580390935732   -6.338841527742616e-05
-0.014883223359098929   -0.05338812895360662   0.0010364754566216771
0.020348336097644953   -0.10813503310438025   0.001365340276041027
-0.010424715364585885   -0.10780515028079742   0.0002024281806030479
-0.014883223359098929   -0.05338812895360662   0.0010364754566216771
-0.009917046599180843   -0.10839580390935732   -6.338841527742616e-05
0.020348336097644953   -0.10813503310438025   0.001365340276041027
-0.014883223359098929   -0.05338812895360662   0.0010364754566216771
0.013109766602041998   -0.053606690909804314   0.002073312160813298
0.013895971392177735   -0.05419252059264232   0.00149416696327004
0.020348336097644953   -0.10813503310438025   0.001365340276041027
-0.014883223359098929   -0.05338812895360662   0.0010364754566216771
0.013895971392177735   -0.05419252059264232   0.00149416696327004
-0.009917046599180843   -0.10839580390935732   -6.338841527742616e-05
0.020348336097644953   -0.10813503310438025   0.001365340276041027
0.013109766602041998   -0.053606690909804314   0.002073312160813298
-0.010424715364585885   -0.10780515028079742   0.0002024281806030479
0.01941407544635231   -0.10731385565852199   0.0018115773649804718
0.013109766602041998   -0.053606690909804314   0.002073312160813298
-0.014883223359098929   -0.05338812895360662   0.0010364754566216771
-0.010424715364585885   -0.10780515028079742   0.0002024281806030479
-0.015355536699586843   -0.052844966983388614   0.0013691408083805934
0.01941407544635231   -0.10731385565852199   0.0018115773649804718
-0.010949057351453106   -0.10717722952470518   0.000507312807793994
-0.015355536699586843   -0.052844966983388614   0.0013691408083805934
-0.010424715364585885   -0.10780515028079742   0.0002024281806030479
0.01941407544635231   -0.10731385565852199   0.0018115773649804718
-0.015355536699586843   -0.052844966983388614   0.0013691408083805934
0.012104206056431036   -0.05271544851256332   0.0027357338224302586
0.013109766602041998   -0.053606690909804314   0.002073312160813298
0.01941407544635231   -0.10731385565852199   0.0018115773649804718
-0.015355536699586843   -0.052844966983388614   0.0013691408083805934
0.013109766602041998   -0.053606690909804314   0.002073312160813298
-0.010424715364585885   -0.10780515028079742   0.0002024281806030479
-0.009482511242047595   -0.1089546359535666   -0.0002895012983584213
-0.013889338817880308   -0.05417975148364164   0.0003470452599457517
-0.03895343090735015   -0.10882001966256961   -0.0012211446066972059
-0.009917046599180843   -0.10839580390935732   -6.338841527742616e-05
-0.013889338817880308   -0.05417975148364164   0.0003470452599457517
-0.04164522012443725   -0.054972182793817846   -0.00040045955534621924
-0.03895343090735015   -0.10882001966256961   -0.0012211446066972059
-0.04203931088196   -0.054538318482686324   -0.00018065707174070675
-0.009917046599180843   -0.10839580390935732   -6.338841527742616e-05
-0.039344931809734876   -0.10833041515018271   -0.0010124022065521499
-0.04203931088196   -0.054538318482686324   -0.00018065707174070675
-0.03895343090735015   -0.10882001966256961   -0.0012211446066972059
-0.009917046599180843   -0.10839580390935732   -6.338841527742616e-05
-0.04203931088196   -0.054538318482686324   -0.00018065707174070675
-0.014319994438925895   -0.05389172983562845   0.000658759986442826
-0.013889338817880308   -0.05417975148364164   0.0003470452599457517
-0.009917046599180843   -0.10839580390935732   -6.338841527742616e-05
-0.04203931088196   -0.054538318482686324   -0.00018065707174070675
-0.013889338817880308   -0.05417975148364164   0.0003470452599457517
-0.03895343090735015   -0.10882001966256961   -0.0012211446066972059
-0.009917046599180843   -0.10839580390935732   -6.338841527742616e-05
-0.014319994438925895   -0.05389172983562845   0.000658759986442826
-0.039344931809734876   -0.10833041515018271   -0.0010124022065521499
-0.010424715364585885   -0.10780515028079742   0.0002024281806030479
-0.014319994438925895   -0.05389172983562845   0.000658759986442826
-0.04203931088196   -0.054538318482686324   -0.00018065707174070675
-0.039344931809734876   -0.10833041515018271   -0.0010124022065521499
-0.04245048725750912   -0.05405014323635808   5.129488794804988e-05
-0.010424715364585885   -0.10780515028079742   0.0002024281806030479
-0.039749598127972706   -0.10782080178300776   -0.0007832646159456936
-0.04245048725750912   -0.05405014323635808   5.129488794804988e-05
-0.039344931809734876   -0.10833041515018271   -0.0010124022065521499
-0.010424715364585885   -0.10780515028079742   0.0002024281806030479
-0.04245048725750912   -0.05405014323635808   5.129488794804988e-05
-0.014883223359098929   -0.05338812895360662   0.0010364754566216771
-0.014319994438925895   -0.05389172983562845   0.000658759986442826
-0.010424715364585885   -0.10780515028079742   0.0002024281806030479
-0.04245048725750912   -0.05405014323635808   5.129488794804988e-05
-0.014319994438925895   -0.05389172983562845   0.000658759986442826
-0.039344931809734876   -0.10833041515018271   -0.0010124022065521499
-0.010424715364585885   -0.10780515028079742   0.0002024281806030479
-0.014883223359098929   -0.05338812895360662   0.0010364754566216771
-0.039749598127972706   -0.10782080178300776   -0.0007832646159456936
-0.010949057351453106   -0.10717722952470518   0.000507312807793994
-0.014883223359098929   -0.05338812895360662   0.0010364754566216771
-0.04245048725750912   -0.05405014323635808   5.129488794804988e-05
-0.039749598127972706   -0.10782080178300776   -0.0007832646159456936
-0.04284020331856301   -0.05351512349623269   0.0003067039829858253
-0.010949057351453106   -0.10717722952470518   0.000507312807793994
-0.040170565032564796   -0.10729984604757785   -0.0005295838100364359
-0.04284020331856301   -0.05351512349623269   0.0003067039829858253
-0.039749598127972706   -0.10782080178300776   -0.0007832646159456936
-0.010949057351453106   -0.10717722952470518   0.000507312807793994
-0.04284020331856301   -0.05351512349623269   0.0003067039829858253
-0.015355536699586843   -0.052844966983388614   0.0013691408083805934
-0.014883223359098929   -0.05338812895360662   0.0010364754566216771
-0.010949057351453106   -0.10717722952470518   0.000507312807793994
-0.04284020331856301   -0.05351512349623269   0.0003067039829858253
-0.014883223359098929   -0.05338812895360662   0.0010364754566216771
-0.039749598127972706   -0.10782080178300776   -0.0007832646159456936
-0.03895343090735015   -0.10882001966256961   -0.0012211446066972059
-0.04164522012443725   -0.054972182793817846   -0.00040045955534621924
-0.06813035435514694   -0.10878298435730373   -0.0020647704719631427
-0.039344931809734876   -0.10833041515018271   -0.0010124022065521499
-0.04164522012443725   -0.054972182793817846   -0.00040045955534621924
-0.07009693894604795   -0.05559097674833928   -0.0012246660657186867
-0.06813035435514694   -0.10878298435730373   -0.0020647704719631427
-0.07044981329215781   -0.05514603581412397   -0.0010551753939130638
-0.039344931809734876   -0.10833041515018271   -0.0010124022065521499
-0.06850399711235429   -0.10835233103951508   -0.0018670365766037986
-0.07044981329215781   -0.05514603581412397   -0.0010551753939130638
-0.06813035435514694   -0.10878298435730373   -0.0020647704719631427
-0.039344931809734876   -0.10833041515018271   -0.0010124022065521499
-0.07044981329215781   -0.05514603581412397   -0.0010551753939130638
-0.04203931088196   -0.054538318482686324   -0.00018065707174070675
-0.04164522012443725   -0.054972182793817846   -0.00040045955534621924
-0.039344931809734876   -0.10833041515018271   -0.0010124022065521499
-0.07044981329215781   -0.05514603581412397   -0.0010551753939130638
-0.04164522012443725   -0.054972182793817846   -0.00040045955534621924
-0.06813035435514694   -0.10878298435730373   -0.0020647704719631427
-0.039344931809734876   -0.10833041515018271   -0.0010124022065521499
-0.04203931088196   -0.054538318482686324   -0.00018065707174070675
-0.06850399711235429   -0.10835233103951508   -0.0018670365766037986
-0.039749598127972706   -0.10782080178300776   -0.0007832646159456936
-0.04203931088196   -0.054538318482686324   -0.00018065707174070675
-0.07044981329215781   -0.05514603581412397   -0.0010551753939130638
-0.06850399711235429   -0.10835233103951508   -0.0018670365766037986
-0.07078681818257215   -0.0546768564188059   -0.0008867181234170546
-0.039749598127972706   -0.10782080178300776   -0.0007832646159456936
-0.06885989426186999   -0.10791334571054914   -0.0016515217909154325
-0.07078681818257215   -0.0546768564188059   -0.0008867181234170546
-0.06850399711235429   -0.10835233103951508   -0.0018670365766037986
-0.039749598127972706   -0.10782080178300776   -0.0007832646159456936
-0.07078681818257215   -0.0546768564188059   -0.0008867181234170546
-0.04245048725750912   -0.05405014323635808   5.129488794804988e-05
-0.04203931088196   -0.054538318482686324   -0.00018065707174070675
-0.039749598127972706   -0.10782080178300776   -0.0007832646159456936
-0.07078681818257215   -0.0546768564188059   -0.0008867181234170546
-0.04203931088196   -0.054538318482686324   -0.00018065707174070675
-0.06850399711235429   -0.10835233103951508   -0.0018670365766037986
-0.039749598127972706   -0.10782080178300776   -0.0007832646159456936
-0.04245048725750912   -0.05405014323635808   5.129488794804988e-05
-0.06885989426186999   -0.10791334571054914   -0.0016515217909154325
-0.040170565032564796   -0.10729984604757785   -0.0005295838100364359
-0.04245048725750912   -0.05405014323635808   5.129488794804988e-05
-0.07078681818257215   -0.0546768564188059   -0.0008867181234170546
-0.06885989426186999   -0.10791334571054914   -0.0016515217909154325
-0.07109682862995188   -0.05416946575628972   -0.0007038302189031455
-0.040170565032564796   -0.10729984604757785   -0.0005295838100364359
-0.06921217597902152   -0.10746360900619852   -0.0014192839184535848
-0.07109682862995188   -0.05416946575628972   -0.0007038302189031455
-0.06885989426186999   -0.10791334571054914   -0.0016515217909154325
-0.040170565032564796   -0.10729984604757785   -0.0005295838100364359
-0.07109682862995188   -0.05416946575628972   -0.0007038302189031455
-0.04284020331856301   -0.05351512349623269   0.0003067039829858253
-0.04245048725750912   -0.05405014323635808   5.129488794804988e-05
-0.040170565032564796   -0.10729984604757785   -0.0005295838100364359
-0.07109682862995188   -0.05416946575628972   -0.0007038302189031455
-0.04245048725750912   -0.05405014323635808   5.129488794804988e-05
-0.06885989426186999   -0.10791334571054914   -0.0016515217909154325
-0.06813035435514694   -0.10878298435730373   -0.0020647704719631427
-0.07009693894604795   -0.05559097674833928   -0.0012246660657186867
-0.09792414138439334   -0.108615438232556   -0.0027764079024339265
-0.06850399711235429   -0.10835233103951508   -0.0018670365766037986
-0.07009693894604795   -0.05559097674833928   -0.0012246660657186867
-0.0995475988077196   -0.05584405619437704   -0.001986577956487987
-0.09792414138439334   -0.108615438232556   -0.0027764079024339265
-0.09986527239357038   -0.05544306883146086   -0.0018637257790260914
-0.06850399711235429   -0.10835233103951508   -0.0018670365766037986
-0.09828036581949944   -0.10826228968589022   -0.0025905027625248212
-0.09986527239357038   -0.05544306883146086   -0.0018637257790260914
-0.09792414138439334   -0.108615438232556   -0.0027764079024339265
-0.06850399711235429   -0.10835233103951508   -0.0018670365766037986
-0.09986527239357038   -0.05544306883146086   -0.0018637257790260914
-0.07044981329215781   -0.05514603581412397   -0.0010551753939130638
-0.07009693894604795   -0.05559097674833928   -0.0012246660657186867
-0.06850399711235429   -0.10835233103951508   -0.0018670365766037986
-0.09986527239357038   -0.05544306883146086   -0.0018637257790260914
-0.07009693894604795   -0.05559097674833928   -0.0012246660657186867
-0.09792414138439334   -0.108615438232556   -0.0027764079024339265
-0.06850399711235429   -0.10835233103951508   -0.0018670365766037986
-0.07044981329215781   -0.05514603581412397   -0.0010551753939130638
-0.09828036581949944   -0.10826228968589022   -0.0025905027625248212
-0.06885989426186999   -0.10791334571054914   -0.0016515217909154325
-0.07044981329215781   -0.05514603581412397   -0.0010551753939130638
-0.09986527239357038   -0.05544306883146086   -0.0018637257790260914
-0.09828036581949944   -0.10826228968589022   -0.0025905027625248212
-0.10014830596528954   -0.055007366795950294   -0.0017448224516016973
-0.06885989426186999   -0.10791334571054914   -0.0016515217909154325
-0.09858289825667352   -0.10788957845697605   -0.002392126948270562
-0.10014830596528954   -0.055007366795950294   -0.0017448224516016973
-0.09828036581949944   -0.10826228968589022   -0.0025905027625248212
-0.06885989426186999   -0.10791334571054914   -0.0016515217909154325
-0.10014830596528954   -0.055007366795950294   -0.0017448224516016973
-0.07078681818257215   -0.0546768564188059   -0.0008867181234170546
-0.07044981329215781   -0.05514603581412397   -0.0010551753939130638
-0.06885989426186999   -0.10791334571054914   -0.0016515217909154325
-0.10014830596528954   -0.055007366795950294   -0.0017448224516016973
-0.07044981329215781   -0.05514603581412397   -0.0010551753939130638
-0.09828036581949944   -0.10826228968589022   -0.0025905027625248212
-0.06885989426186999   -0.10791334571054914   -0.0016515217909154325
-0.07078681818257215   -0.0546768564188059   -0.0008867181234170546
-0.09858289825667352   -0.10788957845697605   -0.002392126948270562
-0.06921217597902152   -0.10746360900619852   -0.0014192839184535848
-0.07078681818257215   -0.0546768564188059   -0.0008867181234170546
-0.10014830596528954   -0.055007366795950294   -0.0017448224516016973
-0.09858289825667352   -0.10788957845697605   -0.002392126948270562
-0.10040441157090675   -0.05454407774427588   -0.0016229104525723765
-0.06921217597902152   -0.10746360900619852   -0.0014192839184535848
-0.09886887609214948   -0.10750659016511462   -0.0021757002242242824
-0.10040441157090675   -0.05454407774427588   -0.0016229104525723765
-0.09858289825667352   -0.10788957845697605   -0.002392126948270562
-0.06921217597902152   -0.10746360900619852   -0.0014192839184535848
-0.10040441157090675   -0.05454407774427588   -0.0016229104525723765
-0.07109682862995188   -0.05416946575628972   -0.0007038302189031455
-0.07078681818257215   -0.0546768564188059   -0.0008867181234170546
-0.06921217597902152   -0.10746360900619852   -0.0014192839184535848
-0.10040441157090675   -0.05454407774427588   -0.0016229104525723765
-0.07078681818257215   -0.0546768564188059   -0.0008867181234170546
-0.09858289825667352   -0.10788957845697605   -0.002392126948270562
-0.09792414138439334   -0.108615438232556   -0.0027764079024339265
-0.0995475988077196   -0.05584405619437704   -0.001986577956487987
-0.1291180475645535   -0.10834143509459117   -0.003307792588296193
-0.09828036581949944   -0.10826228968589022   -0.0025905027625248212
-0.0995475988077196   -0.05584405619437704   -0.001986577956487987
-0.13003192581127088   -0.055873730831149514   -0.002622569154075729
-0.1291180475645535   -0.10834143509459117   -0.003307792588296193
-0.13030609477637498   -0.05548387546485527   -0.002571189859507628
-0.09828036581949944   -0.10826228968589022   -0.0025905027625248212
-0.1293431989624052   -0.10804286511316619   -0.00317060637531014
-0.13030609477637498   -0.05548387546485527   -0.002571189859507628
-0.1291180475645535   -0.10834143509459117   -0.003307792588296193
-0.09828036581949944   -0.10826228968589022   -0.0025905027625248212
-0.13030609477637498   -0.05548387546485527   -0.002571189859507628
-0.09986527239357038   -0.05544306883146086   -0.0018637257790260914
-0.0995475988077196   -0.05584405619437704   -0.001986577956487987
-0.09828036581949944   -0.10826228968589022   -0.0025905027625248212
-0.13030609477637498   -0.05548387546485527   -0.002571189859507628
-0.0995475988077196   -0.05584405619437704   -0.001986577956487987
-0.1291180475645535   -0.10834143509459117   -0.003307792588296193
-0.09828036581949944   -0.10826228968589022   -0.0025905027625248212
-0.09986527239357038   -0.05544306883146086   -0.0018637257790260914
-0.1293431989624052   -0.10804286511316619   -0.00317060637531014
-0.09858289825667352   -0.10788957845697605   -0.002392126948270562
-0.09986527239357038   -0.05544306883146086   -0.0018637257790260914
-0.13030609477637498   -0.05548387546485527   -0.002571189859507628
-0.1293431989624052   -0.10804286511316619   -0.00317060637531014
-0.13055172462075387   -0.055063431628629006   -0.0025113518064808966
-0.09858289825667352   -0.10788957845697605   -0.002392126948270562
-0.12954907146974035   -0.10770590979944772   -0.0030025092403039993
-0.13055172462075387   -0.055063431628629006   -0.0025113518064808966
-0.1293431989624052   -0.10804286511316619   -0.00317060637531014
-0.09858289825667352   -0.10788957845697605   -0.002392126948270562
-0.13055172462075387   -0.055063431628629006   -0.0025113518064808966
-0.10014830596528954   -0.055007366795950294   -0.0017448224516016973
-0.09986527239357038   -0.05544306883146086   -0.0018637257790260914
-0.09858289825667352   -0.10788957845697605   -0.002392126948270562
-0.13055172462075387   -0.055063431628629006   -0.0025113518064808966
-0.09986527239357038   -0.05544306883146086   -0.0018637257790260914
-0.1293431989624052   -0.10804286511316619   -0.00317060637531014
-0.09858289825667352   -0.10788957845697605   -0.002392126948270562
-0.10014830596528954   -0.055007366795950294   -0.0017448224516016973
-0.12954907146974035   -0.10770590979944772   -0.0030025092403039993
-0.09886887609214948   -0.10750659016511462   -0.0021757002242242824
-0.10014830596528954   -0.055007366795950294   -0.0017448224516016973
-0.13055172462075387   -0.055063431628629006   -0.0025113518064808966
-0.12954907146974035   -0.10770590979944772   -0.0030025092403039993
-0.130759856529734   -0.05461801901363362   -0.0024565680717157363
-0.09886887609214948   -0.10750659016511462   -0.0021757002242242824
-0.12965306092796225   -0.10739404484835201   -0.0028114058642611612
-0.130759856529734   -0.05461801901363362   -0.0024565680717157363
-0.12954907146974035   -0.10770590979944772   -0.0030025092403039993
-0.09886887609214948   -0.10750659016511462   -0.0021757002242242824
-0.130759856529734   -0.05461801901363362   -0.0024565680717157363
-0.10040441157090675   -0.05454407774427588   -0.0016229104525723765
-0.10014830596528954   -0.055007366795950294   -0.0017448224516016973
-0.09886887609214948   -0.10750659016511462   -0.0021757002242242824
-0.130759856529734   -0.05461801901363362   -0.0024565680717157363
-0.10014830596528954   -0.055007366795950294   -0.0017448224516016973
-0.12954907146974035   -0.10770590979944772   -0.0030025092403039993
0.015236477068086977   -0.05490333050526021   0.0007201686640006722
0.0   0.0   0.0
-0.013889338817880308   -0.05417975148364164   0.0003470452599457517
0.013895971392177735   -0.05419252059264232   0.00149416696327004
0.0   0.0   0.0
-0.01749073344469459   -0.004342916239657813   -0.00016911587546404084
-0.013889338817880308   -0.05417975148364164   0.0003470452599457517
-0.01853379716159514   -0.003356755216899208   0.00042405663256913365
0.013895971392177735   -0.05419252059264232   0.00149416696327004
-0.014319994438925895   -0.05389172983562845   0.000658759986442826
-0.01853379716159514   -0.003356755216899208   0.00042405663256913365
-0.013889338817880308   -0.05417975148364164   0.0003470452599457517
0.013895971392177735   -0.05419252059264232   0.00149416696327004
-0.01853379716159514   -0.003356755216899208   0.00042405663256913365
0.0   0.0   0.0
0.0   0.0   0.0
0.013895971392177735   -0.05419252059264232   0.00149416696327004
-0.01853379716159514   -0.003356755216899208   0.00042405663256913365
0.0   0.0   0.0
-0.013889338817880308   -0.05417975148364164   0.0003470452599457517
0.013895971392177735   -0.05419252059264232   0.00149416696327004
0.0   0.0   0.0
-0.014319994438925895   -0.05389172983562845   0.000658759986442826
0.013109766602041998   -0.053606690909804314   0.002073312160813298
0.0   0.0   0.0
-0.01853379716159514   -0.003356755216899208   0.00042405663256913365
-0.014319994438925895   -0.05389172983562845   0.000658759986442826
-0.019185653043152038   -0.0028790639295264452   0.0007633984365111976
0.013109766602041998   -0.053606690909804314   0.002073312160813298
-0.014883223359098929   -0.05338812895360662   0.0010364754566216771
-0.019185653043152038   -0.0028790639295264452   0.0007633984365111976
-0.014319994438925895   -0.05389172983562845   0.000658759986442826
0.013109766602041998   -0.053606690909804314   0.002073312160813298
-0.019185653043152038   -0.0028790639295264452   0.0007633984365111976
0.0   0.0   0.0
0.0   0.0   0.0
0.013109766602041998   -0.053606690909804314   0.002073312160813298
-0.019185653043152038   -0.0028790639295264452   0.0007633984365111976
0.0   0.0   0.0
-0.014319994438925895   -0.05389172983562845   0.000658759986442826
0.013109766602041998   -0.053606690909804314   0.002073312160813298
0.0   0.0   0.0
-0.014883223359098929   -0.05338812895360662   0.0010364754566216771
0.012104206056431036   -0.05271544851256332   0.0027357338224302586
0.0   0.0   0.0
-0.019185653043152038   -0.0028790639295264452   0.0007633984365111976
-0.014883223359098929   -0.05338812895360662   0.0010364754566216771
-0.02005478873276531   -0.0022462991392119412   0.001152318063395063
0.012104206056431036   -0.05271544851256332   0.0027357338224302586
-0.015355536699586843   -0.052844966983388614   0.0013691408083805934
-0.02005478873276531   -0.0022462991392119412   0.001152318063395063
-0.014883223359098929   -0.05338812895360662   0.0010364754566216771
0.012104206056431036   -0.05271544851256332   0.0027357338224302586
-0.02005478873276531   -0.0022462991392119412   0.001152318063395063
0.0   0.0   0.0
0.0   0.0   0.0
0.012104206056431036   -0.05271544851256332   0.0027357338224302586
-0.02005478873276531   -0.0022462991392119412   0.001152318063395063
0.0   0.0   0.0
-0.014883223359098929   -0.05338812895360662   0.0010364754566216771
-0.013889338817880308   -0.05417975148364164   0.0003470452599457517
-0.01749073344469459   -0.004342916239657813   -0.00016911587546404084
-0.04164522012443725   -0.054972182793817846   -0.00040045955534621924
-0.014319994438925895   -0.05389172983562845   0.000658759986442826
-0.01749073344469459   -0.004342916239657813   -0.00016911587546404084
-0.04290542798371355   -0.005654876544740294   -0.00019133459759178303
-0.04164522012443725   -0.054972182793817846   -0.00040045955534621924
-0.04343926448418521   -0.005110537523138165   -4.357111900674287e-05
-0.014319994438925895   -0.05389172983562845   0.000658759986442826
-0.04203931088196   -0.054538318482686324   -0.00018065707174070675
-0.04343926448418521   -0.005110537523138165   -4.357111900674287e-05
-0.04164522012443725   -0.054972182793817846   -0.00040045955534621924
-0.014319994438925895   -0.05389172983562845   0.000658759986442826
-0.04343926448418521   -0.005110537523138165   -4.357111900674287e-05
-0.01853379716159514   -0.003356755216899208   0.00042405663256913365
-0.01749073344469459   -0.004342916239657813   -0.00016911587546404084
-0.014319994438925895   -0.05389172983562845   0.000658759986442826
-0.04343926448418521   -0.005110537523138165   -4.357111900674287e-05
-0.01749073344469459   -0.004342916239657813   -0.00016911587546404084
-0.04164522012443725   -0.054972182793817846   -0.00040045955534621924
-0.014319994438925895   -0.05389172983562845   0.000658759986442826
-0.01853379716159514   -0.003356755216899208   0.00042405663256913365
-0.04203931088196   -0.054538318482686324   -0.00018065707174070675
-0.014883223359098929   -0.05338812895360662   0.0010364754566216771
-0.01853379716159514   -0.003356755216899208   0.00042405663256913365
-0.04343926448418521   -0.005110537523138165   -4.357111900674287e-05
-0.04203931088196   -0.054538318482686324   -0.00018065707174070675
-0.04396956705503864   -0.004475071133643365   0.00022436734405150343
-0.014883223359098929   -0.05338812895360662   0.0010364754566216771
-0.04245048725750912   -0.05405014323635808   5.129488794804988e-05
-0.04396956705503864   -0.004475071133643365   0.00022436734405150343
-0.04203931088196   -0.054538318482686324   -0.00018065707174070675
-0.014883223359098929   -0.05338812895360662   0.0010364754566216771
-0.04396956705503864   -0.004475071133643365   0.00022436734405150343
-0.019185653043152038   -0.0028790639295264452   0.0007633984365111976
-0.01853379716159514   -0.003356755216899208   0.00042405663256913365
-0.014883223359098929   -0.05338812895360662   0.0010364754566216771
-0.04396956705503864   -0.004475071133643365   0.00022436734405150343
-0.01853379716159514   -0.003356755216899208   0.00042405663256913365
-0.04203931088196   -0.054538318482686324   -0.00018065707174070675
-0.014883223359098929   -0.05338812895360662   0.0010364754566216771
-0.019185653043152038   -0.0028790639295264452   0.0007633984365111976
-0.04245048725750912   -0.05405014323635808   5.129488794804988e-05
-0.015355536699586843   -0.052844966983388614   0.0013691408083805934
-0.019185653043152038   -0.0028790639295264452   0.0007633984365111976
-0.04396956705503864   -0.004475071133643365   0.00022436734405150343
-0.04245048725750912   -0.05405014323635808   5.129488794804988e-05
-0.0445517527891769   -0.003743636608836735   0.0004788840939778127
-0.015355536699586843   -0.052844966983388614   0.0013691408083805934
-0.04284020331856301   -0.05351512349623269   0.0003067039829858253
-0.0445517527891769   -0.003743636608836735   0.0004788840939778127
-0.04245048725750912   -0.05405014323635808   5.129488794804988e-05
-0.015355536699586843   -0.052844966983388614   0.0013691408083805934
-0.0445517527891769   -0.003743636608836735   0.0004788840939778127
-0.02005478873276531   -0.0022462991392119412   0.001152318063395063
-0.019185653043152038   -0.0028790639295264452   0.0007633984365111976
-0.015355536699586843   -0.052844966983388614   0.0013691408083805934
-0.0445517527891769   -0.003743636608836735   0.0004788840939778127
-0.019185653043152038   -0.0028790639295264452   0.0007633984365111976
-0.04245048725750912   -0.05405014323635808   5.129488794804988e-05
-0.04164522012443725   -0.054972182793817846   -0.00040045955534621924
-0.04290542798371355   -0.005654876544740294   -0.00019133459759178303
-0.07009693894604795   -0.05559097674833928   -0.0012246660657186867
-0.04203931088196   -0.054538318482686324   -0.00018065707174070675
-0.04290542798371355   -0.005654876544740294   -0.00019133459759178303
-0.07079651810445067   -0.006001997916781693   -0.0007249466138422771
-0.07009693894604795   -0.05559097674833928   -0.0012246660657186867
-0.07111819445385488   -0.005571281636530345   -0.0006861655642339313
-0.04203931088196   -0.054538318482686324   -0.00018065707174070675
-0.07044981329215781   -0.05514603581412397   -0.0010551753939130638
-0.07111819445385488   -0.005571281636530345   -0.0006861655642339313
-0.07009693894604795   -0.05559097674833928   -0.0012246660657186867
-0.04203931088196   -0.054538318482686324   -0.00018065707174070675
-0.07111819445385488   -0.005571281636530345   -0.0006861655642339313
-0.04343926448418521   -0.005110537523138165   -4.357111900674287e-05
-0.04290542798371355   -0.005654876544740294   -0.00019133459759178303
-0.04203931088196   -0.054538318482686324   -0.00018065707174070675
-0.07111819445385488   -0.005571281636530345   -0.0006861655642339313
-0.04290542798371355   -0.005654876544740294   -0.00019133459759178303
-0.07009693894604795   -0.05559097674833928   -0.0012246660657186867
-0.04203931088196   -0.054538318482686324   -0.00018065707174070675
-0.04343926448418521   -0.005110537523138165   -4.357111900674287e-05
-0.07044981329215781   -0.05514603581412397   -0.0010551753939130638
-0.04245048725750912   -0.05405014323635808   5.129488794804988e-05
-0.04343926448418521   -0.005110537523138165   -4.357111900674287e-05
-0.07111819445385488   -0.005571281636530345   -0.0006861655642339313
-0.07044981329215781   -0.05514603581412397   -0.0010551753939130638
-0.07145227729721611   -0.005074482418505407   -0.0006168737691762051
-0.04245048725750912   -0.05405014323635808   5.129488794804988e-05
-0.07078681818257215   -0.0546768564188059   -0.0008867181234170546
-0.07145227729721611   -0.005074482418505407   -0.0006168737691762051
-0.07044981329215781   -0.05514603581412397   -0.0010551753939130638
-0.04245048725750912   -0.05405014323635808   5.129488794804988e-05
-0.07145227729721611   -0.005074482418505407   -0.0006168737691762051
-0.04396956705503864   -0.004475071133643365   0.00022436734405150343
-0.04343926448418521   -0.005110537523138165   -4.357111900674287e-05
-0.04245048725750912   -0.05405014323635808   5.129488794804988e-05
-0.07145227729721611   -0.005074482418505407   -0.0006168737691762051
-0.04343926448418521   -0.005110537523138165   -4.357111900674287e-05
-0.07044981329215781   -0.05514603581412397   -0.0010551753939130638
-0.04245048725750912   -0.05405014323635808   5.129488794804988e-05
-0.04396956705503864   -0.004475071133643365   0.00022436734405150343
-0.07078681818257215   -0.0546768564188059   -0.0008867181234170546
-0.04284020331856301   -0.05351512349623269   0.0003067039829858253
-0.04396956705503864   -0.004475071133643365   0.00022436734405150343
-0.07145227729721611   -0.005074482418505407   -0.0006168737691762051
-0.07078681818257215   -0.0546768564188059   -0.0008867181234170546
-0.07176509538026883   -0.004475199067066275   -0.000525206350114496
-0.04284020331856301   -0.05351512349623269   0.0003067039829858253
-0.07109682862995188   -0.05416946575628972   -0.0007038302189031455
-0.07176509538026883   -0.004475199067066275   -0.000525206350114496
-0.07078681818257215   -0.0546768564188059   -0.0008867181234170546
-0.04284020331856301   -0.05351512349623269   0.0003067039829858253
-0.07176509538026883   -0.004475199067066275   -0.000525206350114496
-0.0445517527891769   -0.003743636608836735   0.0004788840939778127
-0.04396956705503864   -0.004475071133643365   0.00022436734405150343
-0.04284020331856301   -0.05351512349623269   0.0003067039829858253
-0.07176509538026883   -0.004475199067066275   -0.000525206350114496
-0.04396956705503864   -0.004475071133643365   0.00022436734405150343
-0.07078681818257215   -0.0546768564188059   -0.0008867181234170546
-0.07009693894604795   -0.05559097674833928   -0.0012246660657186867
-0.07079651810445067   -0.006001997916781693   -0.0007249466138422771
-0.0995475988077196   -0.05584405619437704   -0.001986577956487987
-0.07044981329215781   -0.05514603581412397   -0.0010551753939130638
-0.07079651810445067   -0.006001997916781693   -0.0007249466138422771
-0.10005938724329196   -0.005920096136528649   -0.0014763878779511963
-0.0995475988077196   -0.05584405619437704   -0.001986577956487987
-0.10027607611951328   -0.005528384999682281   -0.0014601090504967576
-0.07044981329215781   -0.05514603581412397   -0.0010551753939130638
-0.09986527239357038   -0.05544306883146086   -0.0018637257790260914
-0.10027607611951328   -0.005528384999682281   -0.0014601090504967576
-0.0995475988077196   -0.05584405619437704   -0.001986577956487987
-0.07044981329215781   -0.05514603581412397   -0.0010551753939130638
-0.10027607611951328   -0.005528384999682281   -0.0014601090504967576
-0.07111819445385488   -0.005571281636530345   -0.0006861655642339313
-0.07079651810445067   -0.006001997916781693   -0.0007249466138422771
-0.07044981329215781   -0.05514603581412397   -0.0010551753939130638
-0.10027607611951328   -0.005528384999682281   -0.0014601090504967576
-0.07079651810445067   -0.006001997916781693   -0.0007249466138422771
-0.0995475988077196   -0.05584405619437704   -0.001986577956487987
-0.07044981329215781   -0.05514603581412397   -0.0010551753939130638
-0.07111819445385488   -0.005571281636530345   -0.0006861655642339313
-0.09986527239357038   -0.05544306883146086   -0.0018637257790260914
-0.07078681818257215   -0.0546768564188059   -0.0008867181234170546
-0.07111819445385488   -0.005571281636530345   -0.0006861655642339313
-0.10027607611951328   -0.005528384999682281   -0.0014601090504967576
-0.09986527239357038   -0.05544306883146086   -0.0018637257790260914
-0.10050228156315716   -0.005095388860712328   -0.0014505984437142164
-0.07078681818257215   -0.0546768564188059   -0.0008867181234170546
-0.10014830596528954   -0.055007366795950294   -0.0017448224516016973
-0.10050228156315716   -0.005095388860712328   -0.0014505984437142164
-0.09986527239357038   -0.05544306883146086   -0.0018637257790260914
-0.07078681818257215   -0.0546768564188059   -0.0008867181234170546
-0.10050228156315716   -0.005095388860712328   -0.0014505984437142164
-0.07145227729721611   -0.005074482418505407   -0.0006168737691762051
-0.07111819445385488   -0.005571281636530345   -0.0006861655642339313
-0.07078681818257215   -0.0546768564188059   -0.0008867181234170546
-0.10050228156315716   -0.005095388860712328   -0.0014505984437142164
-0.07111819445385488   -0.005571281636530345   -0.0006861655642339313
-0.09986527239357038   -0.05544306883146086   -0.0018637257790260914
-0.07078681818257215   -0.0546768564188059   -0.0008867181234170546
-0.07145227729721611   -0.005074482418505407   -0.0006168737691762051
-0.10014830596528954   -0.055007366795950294   -0.0017448224516016973
-0.07109682862995188   -0.05416946575628972   -0.0007038302189031455
-0.07145227729721611   -0.005074482418505407   -0.0006168737691762051
-0.10050228156315716   -0.005095388860712328   -0.0014505984437142164
-0.10014830596528954   -0.055007366795950294   -0.0017448224516016973
-0.1006710154599378   -0.00462961549800855   -0.0014489904537938565
-0.07109682862995188   -0.05416946575628972   -0.0007038302189031455
-0.10040441157090675   -0.05454407774427588   -0.0016229104525723765
-0.1006710154599378   -0.00462961549800855   -0.0014489904537938565
-0.10014830596528954   -0.055007366795950294   -0.0017448224516016973
-0.07109682862995188   -0.05416946575628972   -0.0007038302189031455
-0.1006710154599378   -0.00462961549800855   -0.0014489904537938565
-0.07176509538026883   -0.004475199067066275   -0.000525206350114496
-0.07145227729721611   -0.005074482418505407   -0.0006168737691762051
-0.07109682862995188   -0.05416946575628972   -0.0007038302189031455
-0.1006710154599378   -0.00462961549800855   -0.0014489904537938565
-0.07145227729721611   -0.005074482418505407   -0.0006168737691762051
-0.10014830596528954   -0.055007366795950294   -0.0017448224516016973
-0.0995475988077196   -0.05584405619437704   -0.001986577956487987
-0.10005938724329196   -0.005920096136528649   -0.0014763878779511963
-0.13003192581127088   -0.055873730831149514   -0.002622569154075729
-0.09986527239357038   -0.05544306883146086   -0.0018637257790260914
-0.10005938724329196   -0.005920096136528649   -0.0014763878779511963
-0.13011896560461159   -0.005874158645843303   -0.002214655615569848
-0.13003192581127088   -0.055873730831149514   -0.002622569154075729
-0.13029366954508836   -0.005448133770279426   -0.002215316574027447
-0.09986527239357038   -0.05544306883146086   -0.0018637257790260914
-0.13030609477637498   -0.05548387546485527   -0.002571189859507628
-0.13029366954508836   -0.005448133770279426   -0.002215316574027447
-0.13003192581127088   -0.055873730831149514   -0.002622569154075729
-0.09986527239357038   -0.05544306883146086   -0.0018637257790260914
-0.13029366954508836   -0.005448133770279426   -0.002215316574027447
-0.10027607611951328   -0.005528384999682281   -0.0014601090504967576
-0.10005938724329196   -0.005920096136528649   -0.0014763878779511963
-0.09986527239357038   -0.05544306883146086   -0.0018637257790260914
-0.13029366954508836   -0.005448133770279426   -0.002215316574027447
-0.10005938724329196   -0.005920096136528649   -0.0014763878779511963
-0.13003192581127088   -0.055873730831149514   -0.002622569154075729
-0.09986527239357038   -0.05544306883146086   -0.0018637257790260914
-0.10027607611951328   -0.005528384999682281   -0.0014601090504967576
-0.13030609477637498   -0.05548387546485527   -0.002571189859507628
-0.10014830596528954   -0.055007366795950294   -0.0017448224516016973
-0.10027607611951328   -0.005528384999682281   -0.0014601090504967576
-0.13029366954508836   -0.005448133770279426   -0.002215316574027447
-0.13030609477637498   -0.05548387546485527   -0.002571189859507628
-0.13048571720907715   -0.005024557732879741   -0.002249112891916401
-0.10014830596528954   -0.055007366795950294   -0.0017448224516016973
-0.13055172462075387   -0.055063431628629006   -0.0025113518064808966
-0.13048571720907715   -0.005024557732879741   -0.002249112891916401
-0.13030609477637498   -0.05548387546485527   -0.002571189859507628
-0.10014830596528954   -0.055007366795950294   -0.0017448224516016973
-0.13048571720907715   -0.005024557732879741   -0.002249112891916401
-0.10050228156315716   -0.005095388860712328   -0.0014505984437142164
-0.10027607611951328   -0.005528384999682281   -0.0014601090504967576
-0.10014830596528954   -0.055007366795950294   -0.0017448224516016973
-0.13048571720907715   -0.005024557732879741   -0.002249112891916401
-0.10027607611951328   -0.005528384999682281   -0.0014601090504967576
-0.13030609477637498   -0.05548387546485527   -0.002571189859507628
-0.10014830596528954   -0.055007366795950294   -0.0017448224516016973
-0.10050228156315716   -0.005095388860712328   -0.0014505984437142164
-0.13055172462075387   -0.055063431628629006   -0.0025113518064808966
-0.10040441157090675   -0.05454407774427588   -0.0016229104525723765
-0.10050228156315716   -0.005095388860712328   -0.0014505984437142164
-0.13048571720907715   -0.005024557732879741   -0.002249112891916401
-0.13055172462075387   -0.055063431628629006   -0.0025113518064808966
-0.1306261969149717   -0.004564821412664251   -0.002285524097021666
-0.10040441157090675   -0.05454407774427588   -0.0016229104525723765
-0.130759856529734   -0.05461801901363362   -0.0024565680717157363
-0.1306261969149717   -0.004564821412664251   -0.002285524097021666
-0.13055172462075387   -0.055063431628629006   -0.0025113518064808966
-0.10040441157090675   -0.05454407774427588   -0.0016229104525723765
-0.1306261969149717   -0.004564821412664251   -0.002285524097021666
-0.1006710154599378   -0.00462961549800855   -0.0014489904537938565
-0.10050228156315716   -0.005095388860712328   -0.0014505984437142164
-0.10040441157090675   -0.05454407774427588   -0.0016229104525723765
-0.1306261969149717   -0.004564821412664251   -0.002285524097021666
-0.10050228156315716   -0.005095388860712328   -0.0014505984437142164
-0.13055172462075387   -0.055063431628629006   -0.0025113518064808966
              </DataArray>   
          </PointData>  
       </Piece>  
   </UnstructuredGrid> 
</VTKFile> 
