<?xml version="1.0"?> 
<VTKFile type="UnstructuredGrid"> 
   <UnstructuredGrid> 
      <Piece NumberOfPoints="6000"  NumberOfCells="1500">  
          <Points>  
             <DataArray type="Float64" NumberOfComponents="3" format="ascii">   
-500.0   0.0   0.0
-450.0   0.0   0.0
-500.0   30.0   0.0
-500.0   0.0   16.666666666666668
-450.0   0.0   0.0
-450.0   30.0   0.0
-500.0   30.0   0.0
-450.0   30.0   16.666666666666668
-500.0   0.0   16.666666666666668
-500.0   30.0   16.666666666666668
-450.0   30.0   16.666666666666668
-500.0   30.0   0.0
-500.0   0.0   16.666666666666668
-450.0   30.0   16.666666666666668
-450.0   0.0   16.666666666666668
-450.0   0.0   0.0
-500.0   0.0   16.666666666666668
-450.0   30.0   16.666666666666668
-450.0   0.0   0.0
-500.0   30.0   0.0
-500.0   0.0   16.666666666666668
-450.0   0.0   16.666666666666668
-500.0   30.0   16.666666666666668
-500.0   0.0   33.333333333333336
-450.0   0.0   16.666666666666668
-450.0   30.0   16.666666666666668
-500.0   30.0   16.666666666666668
-450.0   30.0   33.333333333333336
-500.0   0.0   33.333333333333336
-500.0   30.0   33.333333333333336
-450.0   30.0   33.333333333333336
-500.0   30.0   16.666666666666668
-500.0   0.0   33.333333333333336
-450.0   30.0   33.333333333333336
-450.0   0.0   33.333333333333336
-450.0   0.0   16.666666666666668
-500.0   0.0   33.333333333333336
-450.0   30.0   33.333333333333336
-450.0   0.0   16.666666666666668
-500.0   30.0   16.666666666666668
-500.0   0.0   33.333333333333336
-450.0   0.0   33.333333333333336
-500.0   30.0   33.333333333333336
-500.0   0.0   50.0
-450.0   0.0   33.333333333333336
-450.0   30.0   33.333333333333336
-500.0   30.0   33.333333333333336
-450.0   30.0   50.0
-500.0   0.0   50.0
-500.0   30.0   50.0
-450.0   30.0   50.0
-500.0   30.0   33.333333333333336
-500.0   0.0   50.0
-450.0   30.0   50.0
-450.0   0.0   50.0
-450.0   0.0   33.333333333333336
-500.0   0.0   50.0
-450.0   30.0   50.0
-450.0   0.0   33.333333333333336
-500.0   30.0   33.333333333333336
-500.0   30.0   0.0
-450.0   30.0   0.0
-500.0   60.0   0.0
-500.0   30.0   16.666666666666668
-450.0   30.0   0.0
-450.0   60.0   0.0
-500.0   60.0   0.0
-450.0   60.0   16.666666666666668
-500.0   30.0   16.666666666666668
-500.0   60.0   16.666666666666668
-450.0   60.0   16.666666666666668
-500.0   60.0   0.0
-500.0   30.0   16.666666666666668
-450.0   60.0   16.666666666666668
-450.0   30.0   16.666666666666668
-450.0   30.0   0.0
-500.0   30.0   16.666666666666668
-450.0   60.0   16.666666666666668
-450.0   30.0   0.0
-500.0   60.0   0.0
-500.0   30.0   16.666666666666668
-450.0   30.0   16.666666666666668
-500.0   60.0   16.666666666666668
-500.0   30.0   33.333333333333336
-450.0   30.0   16.666666666666668
-450.0   60.0   16.666666666666668
-500.0   60.0   16.666666666666668
-450.0   60.0   33.333333333333336
-500.0   30.0   33.333333333333336
-500.0   60.0   33.333333333333336
-450.0   60.0   33.333333333333336
-500.0   60.0   16.666666666666668
-500.0   30.0   33.333333333333336
-450.0   60.0   33.333333333333336
-450.0   30.0   33.333333333333336
-450.0   30.0   16.666666666666668
-500.0   30.0   33.333333333333336
-450.0   60.0   33.333333333333336
-450.0   30.0   16.666666666666668
-500.0   60.0   16.666666666666668
-500.0   30.0   33.333333333333336
-450.0   30.0   33.333333333333336
-500.0   60.0   33.333333333333336
-500.0   30.0   50.0
-450.0   30.0   33.333333333333336
-450.0   60.0   33.333333333333336
-500.0   60.0   33.333333333333336
-450.0   60.0   50.0
-500.0   30.0   50.0
-500.0   60.0   50.0
-450.0   60.0   50.0
-500.0   60.0   33.333333333333336
-500.0   30.0   50.0
-450.0   60.0   50.0
-450.0   30.0   50.0
-450.0   30.0   33.333333333333336
-500.0   30.0   50.0
-450.0   60.0   50.0
-450.0   30.0   33.333333333333336
-500.0   60.0   33.333333333333336
-500.0   60.0   0.0
-450.0   60.0   0.0
-500.0   90.0   0.0
-500.0   60.0   16.666666666666668
-450.0   60.0   0.0
-450.0   90.0   0.0
-500.0   90.0   0.0
-450.0   90.0   16.666666666666668
-500.0   60.0   16.666666666666668
-500.0   90.0   16.666666666666668
-450.0   90.0   16.666666666666668
-500.0   90.0   0.0
-500.0   60.0   16.666666666666668
-450.0   90.0   16.666666666666668
-450.0   60.0   16.666666666666668
-450.0   60.0   0.0
-500.0   60.0   16.666666666666668
-450.0   90.0   16.666666666666668
-450.0   60.0   0.0
-500.0   90.0   0.0
-500.0   60.0   16.666666666666668
-450.0   60.0   16.666666666666668
-500.0   90.0   16.666666666666668
-500.0   60.0   33.333333333333336
-450.0   60.0   16.666666666666668
-450.0   90.0   16.666666666666668
-500.0   90.0   16.666666666666668
-450.0   90.0   33.333333333333336
-500.0   60.0   33.333333333333336
-500.0   90.0   33.333333333333336
-450.0   90.0   33.333333333333336
-500.0   90.0   16.666666666666668
-500.0   60.0   33.333333333333336
-450.0   90.0   33.333333333333336
-450.0   60.0   33.333333333333336
-450.0   60.0   16.666666666666668
-500.0   60.0   33.333333333333336
-450.0   90.0   33.333333333333336
-450.0   60.0   16.666666666666668
-500.0   90.0   16.666666666666668
-500.0   60.0   33.333333333333336
-450.0   60.0   33.333333333333336
-500.0   90.0   33.333333333333336
-500.0   60.0   50.0
-450.0   60.0   33.333333333333336
-450.0   90.0   33.333333333333336
-500.0   90.0   33.333333333333336
-450.0   90.0   50.0
-500.0   60.0   50.0
-500.0   90.0   50.0
-450.0   90.0   50.0
-500.0   90.0   33.333333333333336
-500.0   60.0   50.0
-450.0   90.0   50.0
-450.0   60.0   50.0
-450.0   60.0   33.333333333333336
-500.0   60.0   50.0
-450.0   90.0   50.0
-450.0   60.0   33.333333333333336
-500.0   90.0   33.333333333333336
-500.0   90.0   0.0
-450.0   90.0   0.0
-500.0   120.0   0.0
-500.0   90.0   16.666666666666668
-450.0   90.0   0.0
-450.0   120.0   0.0
-500.0   120.0   0.0
-450.0   120.0   16.666666666666668
-500.0   90.0   16.666666666666668
-500.0   120.0   16.666666666666668
-450.0   120.0   16.666666666666668
-500.0   120.0   0.0
-500.0   90.0   16.666666666666668
-450.0   120.0   16.666666666666668
-450.0   90.0   16.666666666666668
-450.0   90.0   0.0
-500.0   90.0   16.666666666666668
-450.0   120.0   16.666666666666668
-450.0   90.0   0.0
-500.0   120.0   0.0
-500.0   90.0   16.666666666666668
-450.0   90.0   16.666666666666668
-500.0   120.0   16.666666666666668
-500.0   90.0   33.333333333333336
-450.0   90.0   16.666666666666668
-450.0   120.0   16.666666666666668
-500.0   120.0   16.666666666666668
-450.0   120.0   33.333333333333336
-500.0   90.0   33.333333333333336
-500.0   120.0   33.333333333333336
-450.0   120.0   33.333333333333336
-500.0   120.0   16.666666666666668
-500.0   90.0   33.333333333333336
-450.0   120.0   33.333333333333336
-450.0   90.0   33.333333333333336
-450.0   90.0   16.666666666666668
-500.0   90.0   33.333333333333336
-450.0   120.0   33.333333333333336
-450.0   90.0   16.666666666666668
-500.0   120.0   16.666666666666668
-500.0   90.0   33.333333333333336
-450.0   90.0   33.333333333333336
-500.0   120.0   33.333333333333336
-500.0   90.0   50.0
-450.0   90.0   33.333333333333336
-450.0   120.0   33.333333333333336
-500.0   120.0   33.333333333333336
-450.0   120.0   50.0
-500.0   90.0   50.0
-500.0   120.0   50.0
-450.0   120.0   50.0
-500.0   120.0   33.333333333333336
-500.0   90.0   50.0
-450.0   120.0   50.0
-450.0   90.0   50.0
-450.0   90.0   33.333333333333336
-500.0   90.0   50.0
-450.0   120.0   50.0
-450.0   90.0   33.333333333333336
-500.0   120.0   33.333333333333336
-500.0   120.0   0.0
-450.0   120.0   0.0
-500.0   150.0   0.0
-500.0   120.0   16.666666666666668
-450.0   120.0   0.0
-450.0   150.0   0.0
-500.0   150.0   0.0
-450.0   150.0   16.666666666666668
-500.0   120.0   16.666666666666668
-500.0   150.0   16.666666666666668
-450.0   150.0   16.666666666666668
-500.0   150.0   0.0
-500.0   120.0   16.666666666666668
-450.0   150.0   16.666666666666668
-450.0   120.0   16.666666666666668
-450.0   120.0   0.0
-500.0   120.0   16.666666666666668
-450.0   150.0   16.666666666666668
-450.0   120.0   0.0
-500.0   150.0   0.0
-500.0   120.0   16.666666666666668
-450.0   120.0   16.666666666666668
-500.0   150.0   16.666666666666668
-500.0   120.0   33.333333333333336
-450.0   120.0   16.666666666666668
-450.0   150.0   16.666666666666668
-500.0   150.0   16.666666666666668
-450.0   150.0   33.333333333333336
-500.0   120.0   33.333333333333336
-500.0   150.0   33.333333333333336
-450.0   150.0   33.333333333333336
-500.0   150.0   16.666666666666668
-500.0   120.0   33.333333333333336
-450.0   150.0   33.333333333333336
-450.0   120.0   33.333333333333336
-450.0   120.0   16.666666666666668
-500.0   120.0   33.333333333333336
-450.0   150.0   33.333333333333336
-450.0   120.0   16.666666666666668
-500.0   150.0   16.666666666666668
-500.0   120.0   33.333333333333336
-450.0   120.0   33.333333333333336
-500.0   150.0   33.333333333333336
-500.0   120.0   50.0
-450.0   120.0   33.333333333333336
-450.0   150.0   33.333333333333336
-500.0   150.0   33.333333333333336
-450.0   150.0   50.0
-500.0   120.0   50.0
-500.0   150.0   50.0
-450.0   150.0   50.0
-500.0   150.0   33.333333333333336
-500.0   120.0   50.0
-450.0   150.0   50.0
-450.0   120.0   50.0
-450.0   120.0   33.333333333333336
-500.0   120.0   50.0
-450.0   150.0   50.0
-450.0   120.0   33.333333333333336
-500.0   150.0   33.333333333333336
-450.0   0.0   0.0
-400.0   0.0   0.0
-450.0   30.0   0.0
-450.0   0.0   16.666666666666668
-400.0   0.0   0.0
-400.0   30.0   0.0
-450.0   30.0   0.0
-400.0   30.0   16.666666666666668
-450.0   0.0   16.666666666666668
-450.0   30.0   16.666666666666668
-400.0   30.0   16.666666666666668
-450.0   30.0   0.0
-450.0   0.0   16.666666666666668
-400.0   30.0   16.666666666666668
-400.0   0.0   16.666666666666668
-400.0   0.0   0.0
-450.0   0.0   16.666666666666668
-400.0   30.0   16.666666666666668
-400.0   0.0   0.0
-450.0   30.0   0.0
-450.0   0.0   16.666666666666668
-400.0   0.0   16.666666666666668
-450.0   30.0   16.666666666666668
-450.0   0.0   33.333333333333336
-400.0   0.0   16.666666666666668
-400.0   30.0   16.666666666666668
-450.0   30.0   16.666666666666668
-400.0   30.0   33.333333333333336
-450.0   0.0   33.333333333333336
-450.0   30.0   33.333333333333336
-400.0   30.0   33.333333333333336
-450.0   30.0   16.666666666666668
-450.0   0.0   33.333333333333336
-400.0   30.0   33.333333333333336
-400.0   0.0   33.333333333333336
-400.0   0.0   16.666666666666668
-450.0   0.0   33.333333333333336
-400.0   30.0   33.333333333333336
-400.0   0.0   16.666666666666668
-450.0   30.0   16.666666666666668
-450.0   0.0   33.333333333333336
-400.0   0.0   33.333333333333336
-450.0   30.0   33.333333333333336
-450.0   0.0   50.0
-400.0   0.0   33.333333333333336
-400.0   30.0   33.333333333333336
-450.0   30.0   33.333333333333336
-400.0   30.0   50.0
-450.0   0.0   50.0
-450.0   30.0   50.0
-400.0   30.0   50.0
-450.0   30.0   33.333333333333336
-450.0   0.0   50.0
-400.0   30.0   50.0
-400.0   0.0   50.0
-400.0   0.0   33.333333333333336
-450.0   0.0   50.0
-400.0   30.0   50.0
-400.0   0.0   33.333333333333336
-450.0   30.0   33.333333333333336
-450.0   30.0   0.0
-400.0   30.0   0.0
-450.0   60.0   0.0
-450.0   30.0   16.666666666666668
-400.0   30.0   0.0
-400.0   60.0   0.0
-450.0   60.0   0.0
-400.0   60.0   16.666666666666668
-450.0   30.0   16.666666666666668
-450.0   60.0   16.666666666666668
-400.0   60.0   16.666666666666668
-450.0   60.0   0.0
-450.0   30.0   16.666666666666668
-400.0   60.0   16.666666666666668
-400.0   30.0   16.666666666666668
-400.0   30.0   0.0
-450.0   30.0   16.666666666666668
-400.0   60.0   16.666666666666668
-400.0   30.0   0.0
-450.0   60.0   0.0
-450.0   30.0   16.666666666666668
-400.0   30.0   16.666666666666668
-450.0   60.0   16.666666666666668
-450.0   30.0   33.333333333333336
-400.0   30.0   16.666666666666668
-400.0   60.0   16.666666666666668
-450.0   60.0   16.666666666666668
-400.0   60.0   33.333333333333336
-450.0   30.0   33.333333333333336
-450.0   60.0   33.333333333333336
-400.0   60.0   33.333333333333336
-450.0   60.0   16.666666666666668
-450.0   30.0   33.333333333333336
-400.0   60.0   33.333333333333336
-400.0   30.0   33.333333333333336
-400.0   30.0   16.666666666666668
-450.0   30.0   33.333333333333336
-400.0   60.0   33.333333333333336
-400.0   30.0   16.666666666666668
-450.0   60.0   16.666666666666668
-450.0   30.0   33.333333333333336
-400.0   30.0   33.333333333333336
-450.0   60.0   33.333333333333336
-450.0   30.0   50.0
-400.0   30.0   33.333333333333336
-400.0   60.0   33.333333333333336
-450.0   60.0   33.333333333333336
-400.0   60.0   50.0
-450.0   30.0   50.0
-450.0   60.0   50.0
-400.0   60.0   50.0
-450.0   60.0   33.333333333333336
-450.0   30.0   50.0
-400.0   60.0   50.0
-400.0   30.0   50.0
-400.0   30.0   33.333333333333336
-450.0   30.0   50.0
-400.0   60.0   50.0
-400.0   30.0   33.333333333333336
-450.0   60.0   33.333333333333336
-450.0   60.0   0.0
-400.0   60.0   0.0
-450.0   90.0   0.0
-450.0   60.0   16.666666666666668
-400.0   60.0   0.0
-400.0   90.0   0.0
-450.0   90.0   0.0
-400.0   90.0   16.666666666666668
-450.0   60.0   16.666666666666668
-450.0   90.0   16.666666666666668
-400.0   90.0   16.666666666666668
-450.0   90.0   0.0
-450.0   60.0   16.666666666666668
-400.0   90.0   16.666666666666668
-400.0   60.0   16.666666666666668
-400.0   60.0   0.0
-450.0   60.0   16.666666666666668
-400.0   90.0   16.666666666666668
-400.0   60.0   0.0
-450.0   90.0   0.0
-450.0   60.0   16.666666666666668
-400.0   60.0   16.666666666666668
-450.0   90.0   16.666666666666668
-450.0   60.0   33.333333333333336
-400.0   60.0   16.666666666666668
-400.0   90.0   16.666666666666668
-450.0   90.0   16.666666666666668
-400.0   90.0   33.333333333333336
-450.0   60.0   33.333333333333336
-450.0   90.0   33.333333333333336
-400.0   90.0   33.333333333333336
-450.0   90.0   16.666666666666668
-450.0   60.0   33.333333333333336
-400.0   90.0   33.333333333333336
-400.0   60.0   33.333333333333336
-400.0   60.0   16.666666666666668
-450.0   60.0   33.333333333333336
-400.0   90.0   33.333333333333336
-400.0   60.0   16.666666666666668
-450.0   90.0   16.666666666666668
-450.0   60.0   33.333333333333336
-400.0   60.0   33.333333333333336
-450.0   90.0   33.333333333333336
-450.0   60.0   50.0
-400.0   60.0   33.333333333333336
-400.0   90.0   33.333333333333336
-450.0   90.0   33.333333333333336
-400.0   90.0   50.0
-450.0   60.0   50.0
-450.0   90.0   50.0
-400.0   90.0   50.0
-450.0   90.0   33.333333333333336
-450.0   60.0   50.0
-400.0   90.0   50.0
-400.0   60.0   50.0
-400.0   60.0   33.333333333333336
-450.0   60.0   50.0
-400.0   90.0   50.0
-400.0   60.0   33.333333333333336
-450.0   90.0   33.333333333333336
-450.0   90.0   0.0
-400.0   90.0   0.0
-450.0   120.0   0.0
-450.0   90.0   16.666666666666668
-400.0   90.0   0.0
-400.0   120.0   0.0
-450.0   120.0   0.0
-400.0   120.0   16.666666666666668
-450.0   90.0   16.666666666666668
-450.0   120.0   16.666666666666668
-400.0   120.0   16.666666666666668
-450.0   120.0   0.0
-450.0   90.0   16.666666666666668
-400.0   120.0   16.666666666666668
-400.0   90.0   16.666666666666668
-400.0   90.0   0.0
-450.0   90.0   16.666666666666668
-400.0   120.0   16.666666666666668
-400.0   90.0   0.0
-450.0   120.0   0.0
-450.0   90.0   16.666666666666668
-400.0   90.0   16.666666666666668
-450.0   120.0   16.666666666666668
-450.0   90.0   33.333333333333336
-400.0   90.0   16.666666666666668
-400.0   120.0   16.666666666666668
-450.0   120.0   16.666666666666668
-400.0   120.0   33.333333333333336
-450.0   90.0   33.333333333333336
-450.0   120.0   33.333333333333336
-400.0   120.0   33.333333333333336
-450.0   120.0   16.666666666666668
-450.0   90.0   33.333333333333336
-400.0   120.0   33.333333333333336
-400.0   90.0   33.333333333333336
-400.0   90.0   16.666666666666668
-450.0   90.0   33.333333333333336
-400.0   120.0   33.333333333333336
-400.0   90.0   16.666666666666668
-450.0   120.0   16.666666666666668
-450.0   90.0   33.333333333333336
-400.0   90.0   33.333333333333336
-450.0   120.0   33.333333333333336
-450.0   90.0   50.0
-400.0   90.0   33.333333333333336
-400.0   120.0   33.333333333333336
-450.0   120.0   33.333333333333336
-400.0   120.0   50.0
-450.0   90.0   50.0
-450.0   120.0   50.0
-400.0   120.0   50.0
-450.0   120.0   33.333333333333336
-450.0   90.0   50.0
-400.0   120.0   50.0
-400.0   90.0   50.0
-400.0   90.0   33.333333333333336
-450.0   90.0   50.0
-400.0   120.0   50.0
-400.0   90.0   33.333333333333336
-450.0   120.0   33.333333333333336
-450.0   120.0   0.0
-400.0   120.0   0.0
-450.0   150.0   0.0
-450.0   120.0   16.666666666666668
-400.0   120.0   0.0
-400.0   150.0   0.0
-450.0   150.0   0.0
-400.0   150.0   16.666666666666668
-450.0   120.0   16.666666666666668
-450.0   150.0   16.666666666666668
-400.0   150.0   16.666666666666668
-450.0   150.0   0.0
-450.0   120.0   16.666666666666668
-400.0   150.0   16.666666666666668
-400.0   120.0   16.666666666666668
-400.0   120.0   0.0
-450.0   120.0   16.666666666666668
-400.0   150.0   16.666666666666668
-400.0   120.0   0.0
-450.0   150.0   0.0
-450.0   120.0   16.666666666666668
-400.0   120.0   16.666666666666668
-450.0   150.0   16.666666666666668
-450.0   120.0   33.333333333333336
-400.0   120.0   16.666666666666668
-400.0   150.0   16.666666666666668
-450.0   150.0   16.666666666666668
-400.0   150.0   33.333333333333336
-450.0   120.0   33.333333333333336
-450.0   150.0   33.333333333333336
-400.0   150.0   33.333333333333336
-450.0   150.0   16.666666666666668
-450.0   120.0   33.333333333333336
-400.0   150.0   33.333333333333336
-400.0   120.0   33.333333333333336
-400.0   120.0   16.666666666666668
-450.0   120.0   33.333333333333336
-400.0   150.0   33.333333333333336
-400.0   120.0   16.666666666666668
-450.0   150.0   16.666666666666668
-450.0   120.0   33.333333333333336
-400.0   120.0   33.333333333333336
-450.0   150.0   33.333333333333336
-450.0   120.0   50.0
-400.0   120.0   33.333333333333336
-400.0   150.0   33.333333333333336
-450.0   150.0   33.333333333333336
-400.0   150.0   50.0
-450.0   120.0   50.0
-450.0   150.0   50.0
-400.0   150.0   50.0
-450.0   150.0   33.333333333333336
-450.0   120.0   50.0
-400.0   150.0   50.0
-400.0   120.0   50.0
-400.0   120.0   33.333333333333336
-450.0   120.0   50.0
-400.0   150.0   50.0
-400.0   120.0   33.333333333333336
-450.0   150.0   33.333333333333336
-400.0   0.0   0.0
-350.0   0.0   0.0
-400.0   30.0   0.0
-400.0   0.0   16.666666666666668
-350.0   0.0   0.0
-350.0   30.0   0.0
-400.0   30.0   0.0
-350.0   30.0   16.666666666666668
-400.0   0.0   16.666666666666668
-400.0   30.0   16.666666666666668
-350.0   30.0   16.666666666666668
-400.0   30.0   0.0
-400.0   0.0   16.666666666666668
-350.0   30.0   16.666666666666668
-350.0   0.0   16.666666666666668
-350.0   0.0   0.0
-400.0   0.0   16.666666666666668
-350.0   30.0   16.666666666666668
-350.0   0.0   0.0
-400.0   30.0   0.0
-400.0   0.0   16.666666666666668
-350.0   0.0   16.666666666666668
-400.0   30.0   16.666666666666668
-400.0   0.0   33.333333333333336
-350.0   0.0   16.666666666666668
-350.0   30.0   16.666666666666668
-400.0   30.0   16.666666666666668
-350.0   30.0   33.333333333333336
-400.0   0.0   33.333333333333336
-400.0   30.0   33.333333333333336
-350.0   30.0   33.333333333333336
-400.0   30.0   16.666666666666668
-400.0   0.0   33.333333333333336
-350.0   30.0   33.333333333333336
-350.0   0.0   33.333333333333336
-350.0   0.0   16.666666666666668
-400.0   0.0   33.333333333333336
-350.0   30.0   33.333333333333336
-350.0   0.0   16.666666666666668
-400.0   30.0   16.666666666666668
-400.0   0.0   33.333333333333336
-350.0   0.0   33.333333333333336
-400.0   30.0   33.333333333333336
-400.0   0.0   50.0
-350.0   0.0   33.333333333333336
-350.0   30.0   33.333333333333336
-400.0   30.0   33.333333333333336
-350.0   30.0   50.0
-400.0   0.0   50.0
-400.0   30.0   50.0
-350.0   30.0   50.0
-400.0   30.0   33.333333333333336
-400.0   0.0   50.0
-350.0   30.0   50.0
-350.0   0.0   50.0
-350.0   0.0   33.333333333333336
-400.0   0.0   50.0
-350.0   30.0   50.0
-350.0   0.0   33.333333333333336
-400.0   30.0   33.333333333333336
-400.0   30.0   0.0
-350.0   30.0   0.0
-400.0   60.0   0.0
-400.0   30.0   16.666666666666668
-350.0   30.0   0.0
-350.0   60.0   0.0
-400.0   60.0   0.0
-350.0   60.0   16.666666666666668
-400.0   30.0   16.666666666666668
-400.0   60.0   16.666666666666668
-350.0   60.0   16.666666666666668
-400.0   60.0   0.0
-400.0   30.0   16.666666666666668
-350.0   60.0   16.666666666666668
-350.0   30.0   16.666666666666668
-350.0   30.0   0.0
-400.0   30.0   16.666666666666668
-350.0   60.0   16.666666666666668
-350.0   30.0   0.0
-400.0   60.0   0.0
-400.0   30.0   16.666666666666668
-350.0   30.0   16.666666666666668
-400.0   60.0   16.666666666666668
-400.0   30.0   33.333333333333336
-350.0   30.0   16.666666666666668
-350.0   60.0   16.666666666666668
-400.0   60.0   16.666666666666668
-350.0   60.0   33.333333333333336
-400.0   30.0   33.333333333333336
-400.0   60.0   33.333333333333336
-350.0   60.0   33.333333333333336
-400.0   60.0   16.666666666666668
-400.0   30.0   33.333333333333336
-350.0   60.0   33.333333333333336
-350.0   30.0   33.333333333333336
-350.0   30.0   16.666666666666668
-400.0   30.0   33.333333333333336
-350.0   60.0   33.333333333333336
-350.0   30.0   16.666666666666668
-400.0   60.0   16.666666666666668
-400.0   30.0   33.333333333333336
-350.0   30.0   33.333333333333336
-400.0   60.0   33.333333333333336
-400.0   30.0   50.0
-350.0   30.0   33.333333333333336
-350.0   60.0   33.333333333333336
-400.0   60.0   33.333333333333336
-350.0   60.0   50.0
-400.0   30.0   50.0
-400.0   60.0   50.0
-350.0   60.0   50.0
-400.0   60.0   33.333333333333336
-400.0   30.0   50.0
-350.0   60.0   50.0
-350.0   30.0   50.0
-350.0   30.0   33.333333333333336
-400.0   30.0   50.0
-350.0   60.0   50.0
-350.0   30.0   33.333333333333336
-400.0   60.0   33.333333333333336
-400.0   60.0   0.0
-350.0   60.0   0.0
-400.0   90.0   0.0
-400.0   60.0   16.666666666666668
-350.0   60.0   0.0
-350.0   90.0   0.0
-400.0   90.0   0.0
-350.0   90.0   16.666666666666668
-400.0   60.0   16.666666666666668
-400.0   90.0   16.666666666666668
-350.0   90.0   16.666666666666668
-400.0   90.0   0.0
-400.0   60.0   16.666666666666668
-350.0   90.0   16.666666666666668
-350.0   60.0   16.666666666666668
-350.0   60.0   0.0
-400.0   60.0   16.666666666666668
-350.0   90.0   16.666666666666668
-350.0   60.0   0.0
-400.0   90.0   0.0
-400.0   60.0   16.666666666666668
-350.0   60.0   16.666666666666668
-400.0   90.0   16.666666666666668
-400.0   60.0   33.333333333333336
-350.0   60.0   16.666666666666668
-350.0   90.0   16.666666666666668
-400.0   90.0   16.666666666666668
-350.0   90.0   33.333333333333336
-400.0   60.0   33.333333333333336
-400.0   90.0   33.333333333333336
-350.0   90.0   33.333333333333336
-400.0   90.0   16.666666666666668
-400.0   60.0   33.333333333333336
-350.0   90.0   33.333333333333336
-350.0   60.0   33.333333333333336
-350.0   60.0   16.666666666666668
-400.0   60.0   33.333333333333336
-350.0   90.0   33.333333333333336
-350.0   60.0   16.666666666666668
-400.0   90.0   16.666666666666668
-400.0   60.0   33.333333333333336
-350.0   60.0   33.333333333333336
-400.0   90.0   33.333333333333336
-400.0   60.0   50.0
-350.0   60.0   33.333333333333336
-350.0   90.0   33.333333333333336
-400.0   90.0   33.333333333333336
-350.0   90.0   50.0
-400.0   60.0   50.0
-400.0   90.0   50.0
-350.0   90.0   50.0
-400.0   90.0   33.333333333333336
-400.0   60.0   50.0
-350.0   90.0   50.0
-350.0   60.0   50.0
-350.0   60.0   33.333333333333336
-400.0   60.0   50.0
-350.0   90.0   50.0
-350.0   60.0   33.333333333333336
-400.0   90.0   33.333333333333336
-400.0   90.0   0.0
-350.0   90.0   0.0
-400.0   120.0   0.0
-400.0   90.0   16.666666666666668
-350.0   90.0   0.0
-350.0   120.0   0.0
-400.0   120.0   0.0
-350.0   120.0   16.666666666666668
-400.0   90.0   16.666666666666668
-400.0   120.0   16.666666666666668
-350.0   120.0   16.666666666666668
-400.0   120.0   0.0
-400.0   90.0   16.666666666666668
-350.0   120.0   16.666666666666668
-350.0   90.0   16.666666666666668
-350.0   90.0   0.0
-400.0   90.0   16.666666666666668
-350.0   120.0   16.666666666666668
-350.0   90.0   0.0
-400.0   120.0   0.0
-400.0   90.0   16.666666666666668
-350.0   90.0   16.666666666666668
-400.0   120.0   16.666666666666668
-400.0   90.0   33.333333333333336
-350.0   90.0   16.666666666666668
-350.0   120.0   16.666666666666668
-400.0   120.0   16.666666666666668
-350.0   120.0   33.333333333333336
-400.0   90.0   33.333333333333336
-400.0   120.0   33.333333333333336
-350.0   120.0   33.333333333333336
-400.0   120.0   16.666666666666668
-400.0   90.0   33.333333333333336
-350.0   120.0   33.333333333333336
-350.0   90.0   33.333333333333336
-350.0   90.0   16.666666666666668
-400.0   90.0   33.333333333333336
-350.0   120.0   33.333333333333336
-350.0   90.0   16.666666666666668
-400.0   120.0   16.666666666666668
-400.0   90.0   33.333333333333336
-350.0   90.0   33.333333333333336
-400.0   120.0   33.333333333333336
-400.0   90.0   50.0
-350.0   90.0   33.333333333333336
-350.0   120.0   33.333333333333336
-400.0   120.0   33.333333333333336
-350.0   120.0   50.0
-400.0   90.0   50.0
-400.0   120.0   50.0
-350.0   120.0   50.0
-400.0   120.0   33.333333333333336
-400.0   90.0   50.0
-350.0   120.0   50.0
-350.0   90.0   50.0
-350.0   90.0   33.333333333333336
-400.0   90.0   50.0
-350.0   120.0   50.0
-350.0   90.0   33.333333333333336
-400.0   120.0   33.333333333333336
-400.0   120.0   0.0
-350.0   120.0   0.0
-400.0   150.0   0.0
-400.0   120.0   16.666666666666668
-350.0   120.0   0.0
-350.0   150.0   0.0
-400.0   150.0   0.0
-350.0   150.0   16.666666666666668
-400.0   120.0   16.666666666666668
-400.0   150.0   16.666666666666668
-350.0   150.0   16.666666666666668
-400.0   150.0   0.0
-400.0   120.0   16.666666666666668
-350.0   150.0   16.666666666666668
-350.0   120.0   16.666666666666668
-350.0   120.0   0.0
-400.0   120.0   16.666666666666668
-350.0   150.0   16.666666666666668
-350.0   120.0   0.0
-400.0   150.0   0.0
-400.0   120.0   16.666666666666668
-350.0   120.0   16.666666666666668
-400.0   150.0   16.666666666666668
-400.0   120.0   33.333333333333336
-350.0   120.0   16.666666666666668
-350.0   150.0   16.666666666666668
-400.0   150.0   16.666666666666668
-350.0   150.0   33.333333333333336
-400.0   120.0   33.333333333333336
-400.0   150.0   33.333333333333336
-350.0   150.0   33.333333333333336
-400.0   150.0   16.666666666666668
-400.0   120.0   33.333333333333336
-350.0   150.0   33.333333333333336
-350.0   120.0   33.333333333333336
-350.0   120.0   16.666666666666668
-400.0   120.0   33.333333333333336
-350.0   150.0   33.333333333333336
-350.0   120.0   16.666666666666668
-400.0   150.0   16.666666666666668
-400.0   120.0   33.333333333333336
-350.0   120.0   33.333333333333336
-400.0   150.0   33.333333333333336
-400.0   120.0   50.0
-350.0   120.0   33.333333333333336
-350.0   150.0   33.333333333333336
-400.0   150.0   33.333333333333336
-350.0   150.0   50.0
-400.0   120.0   50.0
-400.0   150.0   50.0
-350.0   150.0   50.0
-400.0   150.0   33.333333333333336
-400.0   120.0   50.0
-350.0   150.0   50.0
-350.0   120.0   50.0
-350.0   120.0   33.333333333333336
-400.0   120.0   50.0
-350.0   150.0   50.0
-350.0   120.0   33.333333333333336
-400.0   150.0   33.333333333333336
-350.0   0.0   0.0
-300.0   0.0   0.0
-350.0   30.0   0.0
-350.0   0.0   16.666666666666668
-300.0   0.0   0.0
-300.0   30.0   0.0
-350.0   30.0   0.0
-300.0   30.0   16.666666666666668
-350.0   0.0   16.666666666666668
-350.0   30.0   16.666666666666668
-300.0   30.0   16.666666666666668
-350.0   30.0   0.0
-350.0   0.0   16.666666666666668
-300.0   30.0   16.666666666666668
-300.0   0.0   16.666666666666668
-300.0   0.0   0.0
-350.0   0.0   16.666666666666668
-300.0   30.0   16.666666666666668
-300.0   0.0   0.0
-350.0   30.0   0.0
-350.0   0.0   16.666666666666668
-300.0   0.0   16.666666666666668
-350.0   30.0   16.666666666666668
-350.0   0.0   33.333333333333336
-300.0   0.0   16.666666666666668
-300.0   30.0   16.666666666666668
-350.0   30.0   16.666666666666668
-300.0   30.0   33.333333333333336
-350.0   0.0   33.333333333333336
-350.0   30.0   33.333333333333336
-300.0   30.0   33.333333333333336
-350.0   30.0   16.666666666666668
-350.0   0.0   33.333333333333336
-300.0   30.0   33.333333333333336
-300.0   0.0   33.333333333333336
-300.0   0.0   16.666666666666668
-350.0   0.0   33.333333333333336
-300.0   30.0   33.333333333333336
-300.0   0.0   16.666666666666668
-350.0   30.0   16.666666666666668
-350.0   0.0   33.333333333333336
-300.0   0.0   33.333333333333336
-350.0   30.0   33.333333333333336
-350.0   0.0   50.0
-300.0   0.0   33.333333333333336
-300.0   30.0   33.333333333333336
-350.0   30.0   33.333333333333336
-300.0   30.0   50.0
-350.0   0.0   50.0
-350.0   30.0   50.0
-300.0   30.0   50.0
-350.0   30.0   33.333333333333336
-350.0   0.0   50.0
-300.0   30.0   50.0
-300.0   0.0   50.0
-300.0   0.0   33.333333333333336
-350.0   0.0   50.0
-300.0   30.0   50.0
-300.0   0.0   33.333333333333336
-350.0   30.0   33.333333333333336
-350.0   30.0   0.0
-300.0   30.0   0.0
-350.0   60.0   0.0
-350.0   30.0   16.666666666666668
-300.0   30.0   0.0
-300.0   60.0   0.0
-350.0   60.0   0.0
-300.0   60.0   16.666666666666668
-350.0   30.0   16.666666666666668
-350.0   60.0   16.666666666666668
-300.0   60.0   16.666666666666668
-350.0   60.0   0.0
-350.0   30.0   16.666666666666668
-300.0   60.0   16.666666666666668
-300.0   30.0   16.666666666666668
-300.0   30.0   0.0
-350.0   30.0   16.666666666666668
-300.0   60.0   16.666666666666668
-300.0   30.0   0.0
-350.0   60.0   0.0
-350.0   30.0   16.666666666666668
-300.0   30.0   16.666666666666668
-350.0   60.0   16.666666666666668
-350.0   30.0   33.333333333333336
-300.0   30.0   16.666666666666668
-300.0   60.0   16.666666666666668
-350.0   60.0   16.666666666666668
-300.0   60.0   33.333333333333336
-350.0   30.0   33.333333333333336
-350.0   60.0   33.333333333333336
-300.0   60.0   33.333333333333336
-350.0   60.0   16.666666666666668
-350.0   30.0   33.333333333333336
-300.0   60.0   33.333333333333336
-300.0   30.0   33.333333333333336
-300.0   30.0   16.666666666666668
-350.0   30.0   33.333333333333336
-300.0   60.0   33.333333333333336
-300.0   30.0   16.666666666666668
-350.0   60.0   16.666666666666668
-350.0   30.0   33.333333333333336
-300.0   30.0   33.333333333333336
-350.0   60.0   33.333333333333336
-350.0   30.0   50.0
-300.0   30.0   33.333333333333336
-300.0   60.0   33.333333333333336
-350.0   60.0   33.333333333333336
-300.0   60.0   50.0
-350.0   30.0   50.0
-350.0   60.0   50.0
-300.0   60.0   50.0
-350.0   60.0   33.333333333333336
-350.0   30.0   50.0
-300.0   60.0   50.0
-300.0   30.0   50.0
-300.0   30.0   33.333333333333336
-350.0   30.0   50.0
-300.0   60.0   50.0
-300.0   30.0   33.333333333333336
-350.0   60.0   33.333333333333336
-350.0   60.0   0.0
-300.0   60.0   0.0
-350.0   90.0   0.0
-350.0   60.0   16.666666666666668
-300.0   60.0   0.0
-300.0   90.0   0.0
-350.0   90.0   0.0
-300.0   90.0   16.666666666666668
-350.0   60.0   16.666666666666668
-350.0   90.0   16.666666666666668
-300.0   90.0   16.666666666666668
-350.0   90.0   0.0
-350.0   60.0   16.666666666666668
-300.0   90.0   16.666666666666668
-300.0   60.0   16.666666666666668
-300.0   60.0   0.0
-350.0   60.0   16.666666666666668
-300.0   90.0   16.666666666666668
-300.0   60.0   0.0
-350.0   90.0   0.0
-350.0   60.0   16.666666666666668
-300.0   60.0   16.666666666666668
-350.0   90.0   16.666666666666668
-350.0   60.0   33.333333333333336
-300.0   60.0   16.666666666666668
-300.0   90.0   16.666666666666668
-350.0   90.0   16.666666666666668
-300.0   90.0   33.333333333333336
-350.0   60.0   33.333333333333336
-350.0   90.0   33.333333333333336
-300.0   90.0   33.333333333333336
-350.0   90.0   16.666666666666668
-350.0   60.0   33.333333333333336
-300.0   90.0   33.333333333333336
-300.0   60.0   33.333333333333336
-300.0   60.0   16.666666666666668
-350.0   60.0   33.333333333333336
-300.0   90.0   33.333333333333336
-300.0   60.0   16.666666666666668
-350.0   90.0   16.666666666666668
-350.0   60.0   33.333333333333336
-300.0   60.0   33.333333333333336
-350.0   90.0   33.333333333333336
-350.0   60.0   50.0
-300.0   60.0   33.333333333333336
-300.0   90.0   33.333333333333336
-350.0   90.0   33.333333333333336
-300.0   90.0   50.0
-350.0   60.0   50.0
-350.0   90.0   50.0
-300.0   90.0   50.0
-350.0   90.0   33.333333333333336
-350.0   60.0   50.0
-300.0   90.0   50.0
-300.0   60.0   50.0
-300.0   60.0   33.333333333333336
-350.0   60.0   50.0
-300.0   90.0   50.0
-300.0   60.0   33.333333333333336
-350.0   90.0   33.333333333333336
-350.0   90.0   0.0
-300.0   90.0   0.0
-350.0   120.0   0.0
-350.0   90.0   16.666666666666668
-300.0   90.0   0.0
-300.0   120.0   0.0
-350.0   120.0   0.0
-300.0   120.0   16.666666666666668
-350.0   90.0   16.666666666666668
-350.0   120.0   16.666666666666668
-300.0   120.0   16.666666666666668
-350.0   120.0   0.0
-350.0   90.0   16.666666666666668
-300.0   120.0   16.666666666666668
-300.0   90.0   16.666666666666668
-300.0   90.0   0.0
-350.0   90.0   16.666666666666668
-300.0   120.0   16.666666666666668
-300.0   90.0   0.0
-350.0   120.0   0.0
-350.0   90.0   16.666666666666668
-300.0   90.0   16.666666666666668
-350.0   120.0   16.666666666666668
-350.0   90.0   33.333333333333336
-300.0   90.0   16.666666666666668
-300.0   120.0   16.666666666666668
-350.0   120.0   16.666666666666668
-300.0   120.0   33.333333333333336
-350.0   90.0   33.333333333333336
-350.0   120.0   33.333333333333336
-300.0   120.0   33.333333333333336
-350.0   120.0   16.666666666666668
-350.0   90.0   33.333333333333336
-300.0   120.0   33.333333333333336
-300.0   90.0   33.333333333333336
-300.0   90.0   16.666666666666668
-350.0   90.0   33.333333333333336
-300.0   120.0   33.333333333333336
-300.0   90.0   16.666666666666668
-350.0   120.0   16.666666666666668
-350.0   90.0   33.333333333333336
-300.0   90.0   33.333333333333336
-350.0   120.0   33.333333333333336
-350.0   90.0   50.0
-300.0   90.0   33.333333333333336
-300.0   120.0   33.333333333333336
-350.0   120.0   33.333333333333336
-300.0   120.0   50.0
-350.0   90.0   50.0
-350.0   120.0   50.0
-300.0   120.0   50.0
-350.0   120.0   33.333333333333336
-350.0   90.0   50.0
-300.0   120.0   50.0
-300.0   90.0   50.0
-300.0   90.0   33.333333333333336
-350.0   90.0   50.0
-300.0   120.0   50.0
-300.0   90.0   33.333333333333336
-350.0   120.0   33.333333333333336
-350.0   120.0   0.0
-300.0   120.0   0.0
-350.0   150.0   0.0
-350.0   120.0   16.666666666666668
-300.0   120.0   0.0
-300.0   150.0   0.0
-350.0   150.0   0.0
-300.0   150.0   16.666666666666668
-350.0   120.0   16.666666666666668
-350.0   150.0   16.666666666666668
-300.0   150.0   16.666666666666668
-350.0   150.0   0.0
-350.0   120.0   16.666666666666668
-300.0   150.0   16.666666666666668
-300.0   120.0   16.666666666666668
-300.0   120.0   0.0
-350.0   120.0   16.666666666666668
-300.0   150.0   16.666666666666668
-300.0   120.0   0.0
-350.0   150.0   0.0
-350.0   120.0   16.666666666666668
-300.0   120.0   16.666666666666668
-350.0   150.0   16.666666666666668
-350.0   120.0   33.333333333333336
-300.0   120.0   16.666666666666668
-300.0   150.0   16.666666666666668
-350.0   150.0   16.666666666666668
-300.0   150.0   33.333333333333336
-350.0   120.0   33.333333333333336
-350.0   150.0   33.333333333333336
-300.0   150.0   33.333333333333336
-350.0   150.0   16.666666666666668
-350.0   120.0   33.333333333333336
-300.0   150.0   33.333333333333336
-300.0   120.0   33.333333333333336
-300.0   120.0   16.666666666666668
-350.0   120.0   33.333333333333336
-300.0   150.0   33.333333333333336
-300.0   120.0   16.666666666666668
-350.0   150.0   16.666666666666668
-350.0   120.0   33.333333333333336
-300.0   120.0   33.333333333333336
-350.0   150.0   33.333333333333336
-350.0   120.0   50.0
-300.0   120.0   33.333333333333336
-300.0   150.0   33.333333333333336
-350.0   150.0   33.333333333333336
-300.0   150.0   50.0
-350.0   120.0   50.0
-350.0   150.0   50.0
-300.0   150.0   50.0
-350.0   150.0   33.333333333333336
-350.0   120.0   50.0
-300.0   150.0   50.0
-300.0   120.0   50.0
-300.0   120.0   33.333333333333336
-350.0   120.0   50.0
-300.0   150.0   50.0
-300.0   120.0   33.333333333333336
-350.0   150.0   33.333333333333336
-300.0   0.0   0.0
-250.0   0.0   0.0
-300.0   30.0   0.0
-300.0   0.0   16.666666666666668
-250.0   0.0   0.0
-250.0   30.0   0.0
-300.0   30.0   0.0
-250.0   30.0   16.666666666666668
-300.0   0.0   16.666666666666668
-300.0   30.0   16.666666666666668
-250.0   30.0   16.666666666666668
-300.0   30.0   0.0
-300.0   0.0   16.666666666666668
-250.0   30.0   16.666666666666668
-250.0   0.0   16.666666666666668
-250.0   0.0   0.0
-300.0   0.0   16.666666666666668
-250.0   30.0   16.666666666666668
-250.0   0.0   0.0
-300.0   30.0   0.0
-300.0   0.0   16.666666666666668
-250.0   0.0   16.666666666666668
-300.0   30.0   16.666666666666668
-300.0   0.0   33.333333333333336
-250.0   0.0   16.666666666666668
-250.0   30.0   16.666666666666668
-300.0   30.0   16.666666666666668
-250.0   30.0   33.333333333333336
-300.0   0.0   33.333333333333336
-300.0   30.0   33.333333333333336
-250.0   30.0   33.333333333333336
-300.0   30.0   16.666666666666668
-300.0   0.0   33.333333333333336
-250.0   30.0   33.333333333333336
-250.0   0.0   33.333333333333336
-250.0   0.0   16.666666666666668
-300.0   0.0   33.333333333333336
-250.0   30.0   33.333333333333336
-250.0   0.0   16.666666666666668
-300.0   30.0   16.666666666666668
-300.0   0.0   33.333333333333336
-250.0   0.0   33.333333333333336
-300.0   30.0   33.333333333333336
-300.0   0.0   50.0
-250.0   0.0   33.333333333333336
-250.0   30.0   33.333333333333336
-300.0   30.0   33.333333333333336
-250.0   30.0   50.0
-300.0   0.0   50.0
-300.0   30.0   50.0
-250.0   30.0   50.0
-300.0   30.0   33.333333333333336
-300.0   0.0   50.0
-250.0   30.0   50.0
-250.0   0.0   50.0
-250.0   0.0   33.333333333333336
-300.0   0.0   50.0
-250.0   30.0   50.0
-250.0   0.0   33.333333333333336
-300.0   30.0   33.333333333333336
-300.0   30.0   0.0
-250.0   30.0   0.0
-300.0   60.0   0.0
-300.0   30.0   16.666666666666668
-250.0   30.0   0.0
-250.0   60.0   0.0
-300.0   60.0   0.0
-250.0   60.0   16.666666666666668
-300.0   30.0   16.666666666666668
-300.0   60.0   16.666666666666668
-250.0   60.0   16.666666666666668
-300.0   60.0   0.0
-300.0   30.0   16.666666666666668
-250.0   60.0   16.666666666666668
-250.0   30.0   16.666666666666668
-250.0   30.0   0.0
-300.0   30.0   16.666666666666668
-250.0   60.0   16.666666666666668
-250.0   30.0   0.0
-300.0   60.0   0.0
-300.0   30.0   16.666666666666668
-250.0   30.0   16.666666666666668
-300.0   60.0   16.666666666666668
-300.0   30.0   33.333333333333336
-250.0   30.0   16.666666666666668
-250.0   60.0   16.666666666666668
-300.0   60.0   16.666666666666668
-250.0   60.0   33.333333333333336
-300.0   30.0   33.333333333333336
-300.0   60.0   33.333333333333336
-250.0   60.0   33.333333333333336
-300.0   60.0   16.666666666666668
-300.0   30.0   33.333333333333336
-250.0   60.0   33.333333333333336
-250.0   30.0   33.333333333333336
-250.0   30.0   16.666666666666668
-300.0   30.0   33.333333333333336
-250.0   60.0   33.333333333333336
-250.0   30.0   16.666666666666668
-300.0   60.0   16.666666666666668
-300.0   30.0   33.333333333333336
-250.0   30.0   33.333333333333336
-300.0   60.0   33.333333333333336
-300.0   30.0   50.0
-250.0   30.0   33.333333333333336
-250.0   60.0   33.333333333333336
-300.0   60.0   33.333333333333336
-250.0   60.0   50.0
-300.0   30.0   50.0
-300.0   60.0   50.0
-250.0   60.0   50.0
-300.0   60.0   33.333333333333336
-300.0   30.0   50.0
-250.0   60.0   50.0
-250.0   30.0   50.0
-250.0   30.0   33.333333333333336
-300.0   30.0   50.0
-250.0   60.0   50.0
-250.0   30.0   33.333333333333336
-300.0   60.0   33.333333333333336
-300.0   60.0   0.0
-250.0   60.0   0.0
-300.0   90.0   0.0
-300.0   60.0   16.666666666666668
-250.0   60.0   0.0
-250.0   90.0   0.0
-300.0   90.0   0.0
-250.0   90.0   16.666666666666668
-300.0   60.0   16.666666666666668
-300.0   90.0   16.666666666666668
-250.0   90.0   16.666666666666668
-300.0   90.0   0.0
-300.0   60.0   16.666666666666668
-250.0   90.0   16.666666666666668
-250.0   60.0   16.666666666666668
-250.0   60.0   0.0
-300.0   60.0   16.666666666666668
-250.0   90.0   16.666666666666668
-250.0   60.0   0.0
-300.0   90.0   0.0
-300.0   60.0   16.666666666666668
-250.0   60.0   16.666666666666668
-300.0   90.0   16.666666666666668
-300.0   60.0   33.333333333333336
-250.0   60.0   16.666666666666668
-250.0   90.0   16.666666666666668
-300.0   90.0   16.666666666666668
-250.0   90.0   33.333333333333336
-300.0   60.0   33.333333333333336
-300.0   90.0   33.333333333333336
-250.0   90.0   33.333333333333336
-300.0   90.0   16.666666666666668
-300.0   60.0   33.333333333333336
-250.0   90.0   33.333333333333336
-250.0   60.0   33.333333333333336
-250.0   60.0   16.666666666666668
-300.0   60.0   33.333333333333336
-250.0   90.0   33.333333333333336
-250.0   60.0   16.666666666666668
-300.0   90.0   16.666666666666668
-300.0   60.0   33.333333333333336
-250.0   60.0   33.333333333333336
-300.0   90.0   33.333333333333336
-300.0   60.0   50.0
-250.0   60.0   33.333333333333336
-250.0   90.0   33.333333333333336
-300.0   90.0   33.333333333333336
-250.0   90.0   50.0
-300.0   60.0   50.0
-300.0   90.0   50.0
-250.0   90.0   50.0
-300.0   90.0   33.333333333333336
-300.0   60.0   50.0
-250.0   90.0   50.0
-250.0   60.0   50.0
-250.0   60.0   33.333333333333336
-300.0   60.0   50.0
-250.0   90.0   50.0
-250.0   60.0   33.333333333333336
-300.0   90.0   33.333333333333336
-300.0   90.0   0.0
-250.0   90.0   0.0
-300.0   120.0   0.0
-300.0   90.0   16.666666666666668
-250.0   90.0   0.0
-250.0   120.0   0.0
-300.0   120.0   0.0
-250.0   120.0   16.666666666666668
-300.0   90.0   16.666666666666668
-300.0   120.0   16.666666666666668
-250.0   120.0   16.666666666666668
-300.0   120.0   0.0
-300.0   90.0   16.666666666666668
-250.0   120.0   16.666666666666668
-250.0   90.0   16.666666666666668
-250.0   90.0   0.0
-300.0   90.0   16.666666666666668
-250.0   120.0   16.666666666666668
-250.0   90.0   0.0
-300.0   120.0   0.0
-300.0   90.0   16.666666666666668
-250.0   90.0   16.666666666666668
-300.0   120.0   16.666666666666668
-300.0   90.0   33.333333333333336
-250.0   90.0   16.666666666666668
-250.0   120.0   16.666666666666668
-300.0   120.0   16.666666666666668
-250.0   120.0   33.333333333333336
-300.0   90.0   33.333333333333336
-300.0   120.0   33.333333333333336
-250.0   120.0   33.333333333333336
-300.0   120.0   16.666666666666668
-300.0   90.0   33.333333333333336
-250.0   120.0   33.333333333333336
-250.0   90.0   33.333333333333336
-250.0   90.0   16.666666666666668
-300.0   90.0   33.333333333333336
-250.0   120.0   33.333333333333336
-250.0   90.0   16.666666666666668
-300.0   120.0   16.666666666666668
-300.0   90.0   33.333333333333336
-250.0   90.0   33.333333333333336
-300.0   120.0   33.333333333333336
-300.0   90.0   50.0
-250.0   90.0   33.333333333333336
-250.0   120.0   33.333333333333336
-300.0   120.0   33.333333333333336
-250.0   120.0   50.0
-300.0   90.0   50.0
-300.0   120.0   50.0
-250.0   120.0   50.0
-300.0   120.0   33.333333333333336
-300.0   90.0   50.0
-250.0   120.0   50.0
-250.0   90.0   50.0
-250.0   90.0   33.333333333333336
-300.0   90.0   50.0
-250.0   120.0   50.0
-250.0   90.0   33.333333333333336
-300.0   120.0   33.333333333333336
-300.0   120.0   0.0
-250.0   120.0   0.0
-300.0   150.0   0.0
-300.0   120.0   16.666666666666668
-250.0   120.0   0.0
-250.0   150.0   0.0
-300.0   150.0   0.0
-250.0   150.0   16.666666666666668
-300.0   120.0   16.666666666666668
-300.0   150.0   16.666666666666668
-250.0   150.0   16.666666666666668
-300.0   150.0   0.0
-300.0   120.0   16.666666666666668
-250.0   150.0   16.666666666666668
-250.0   120.0   16.666666666666668
-250.0   120.0   0.0
-300.0   120.0   16.666666666666668
-250.0   150.0   16.666666666666668
-250.0   120.0   0.0
-300.0   150.0   0.0
-300.0   120.0   16.666666666666668
-250.0   120.0   16.666666666666668
-300.0   150.0   16.666666666666668
-300.0   120.0   33.333333333333336
-250.0   120.0   16.666666666666668
-250.0   150.0   16.666666666666668
-300.0   150.0   16.666666666666668
-250.0   150.0   33.333333333333336
-300.0   120.0   33.333333333333336
-300.0   150.0   33.333333333333336
-250.0   150.0   33.333333333333336
-300.0   150.0   16.666666666666668
-300.0   120.0   33.333333333333336
-250.0   150.0   33.333333333333336
-250.0   120.0   33.333333333333336
-250.0   120.0   16.666666666666668
-300.0   120.0   33.333333333333336
-250.0   150.0   33.333333333333336
-250.0   120.0   16.666666666666668
-300.0   150.0   16.666666666666668
-300.0   120.0   33.333333333333336
-250.0   120.0   33.333333333333336
-300.0   150.0   33.333333333333336
-300.0   120.0   50.0
-250.0   120.0   33.333333333333336
-250.0   150.0   33.333333333333336
-300.0   150.0   33.333333333333336
-250.0   150.0   50.0
-300.0   120.0   50.0
-300.0   150.0   50.0
-250.0   150.0   50.0
-300.0   150.0   33.333333333333336
-300.0   120.0   50.0
-250.0   150.0   50.0
-250.0   120.0   50.0
-250.0   120.0   33.333333333333336
-300.0   120.0   50.0
-250.0   150.0   50.0
-250.0   120.0   33.333333333333336
-300.0   150.0   33.333333333333336
-250.0   0.0   0.0
-200.0   0.0   0.0
-250.0   30.0   0.0
-250.0   0.0   16.666666666666668
-200.0   0.0   0.0
-200.0   30.0   0.0
-250.0   30.0   0.0
-200.0   30.0   16.666666666666668
-250.0   0.0   16.666666666666668
-250.0   30.0   16.666666666666668
-200.0   30.0   16.666666666666668
-250.0   30.0   0.0
-250.0   0.0   16.666666666666668
-200.0   30.0   16.666666666666668
-200.0   0.0   16.666666666666668
-200.0   0.0   0.0
-250.0   0.0   16.666666666666668
-200.0   30.0   16.666666666666668
-200.0   0.0   0.0
-250.0   30.0   0.0
-250.0   0.0   16.666666666666668
-200.0   0.0   16.666666666666668
-250.0   30.0   16.666666666666668
-250.0   0.0   33.333333333333336
-200.0   0.0   16.666666666666668
-200.0   30.0   16.666666666666668
-250.0   30.0   16.666666666666668
-200.0   30.0   33.333333333333336
-250.0   0.0   33.333333333333336
-250.0   30.0   33.333333333333336
-200.0   30.0   33.333333333333336
-250.0   30.0   16.666666666666668
-250.0   0.0   33.333333333333336
-200.0   30.0   33.333333333333336
-200.0   0.0   33.333333333333336
-200.0   0.0   16.666666666666668
-250.0   0.0   33.333333333333336
-200.0   30.0   33.333333333333336
-200.0   0.0   16.666666666666668
-250.0   30.0   16.666666666666668
-250.0   0.0   33.333333333333336
-200.0   0.0   33.333333333333336
-250.0   30.0   33.333333333333336
-250.0   0.0   50.0
-200.0   0.0   33.333333333333336
-200.0   30.0   33.333333333333336
-250.0   30.0   33.333333333333336
-200.0   30.0   50.0
-250.0   0.0   50.0
-250.0   30.0   50.0
-200.0   30.0   50.0
-250.0   30.0   33.333333333333336
-250.0   0.0   50.0
-200.0   30.0   50.0
-200.0   0.0   50.0
-200.0   0.0   33.333333333333336
-250.0   0.0   50.0
-200.0   30.0   50.0
-200.0   0.0   33.333333333333336
-250.0   30.0   33.333333333333336
-250.0   30.0   0.0
-200.0   30.0   0.0
-250.0   60.0   0.0
-250.0   30.0   16.666666666666668
-200.0   30.0   0.0
-200.0   60.0   0.0
-250.0   60.0   0.0
-200.0   60.0   16.666666666666668
-250.0   30.0   16.666666666666668
-250.0   60.0   16.666666666666668
-200.0   60.0   16.666666666666668
-250.0   60.0   0.0
-250.0   30.0   16.666666666666668
-200.0   60.0   16.666666666666668
-200.0   30.0   16.666666666666668
-200.0   30.0   0.0
-250.0   30.0   16.666666666666668
-200.0   60.0   16.666666666666668
-200.0   30.0   0.0
-250.0   60.0   0.0
-250.0   30.0   16.666666666666668
-200.0   30.0   16.666666666666668
-250.0   60.0   16.666666666666668
-250.0   30.0   33.333333333333336
-200.0   30.0   16.666666666666668
-200.0   60.0   16.666666666666668
-250.0   60.0   16.666666666666668
-200.0   60.0   33.333333333333336
-250.0   30.0   33.333333333333336
-250.0   60.0   33.333333333333336
-200.0   60.0   33.333333333333336
-250.0   60.0   16.666666666666668
-250.0   30.0   33.333333333333336
-200.0   60.0   33.333333333333336
-200.0   30.0   33.333333333333336
-200.0   30.0   16.666666666666668
-250.0   30.0   33.333333333333336
-200.0   60.0   33.333333333333336
-200.0   30.0   16.666666666666668
-250.0   60.0   16.666666666666668
-250.0   30.0   33.333333333333336
-200.0   30.0   33.333333333333336
-250.0   60.0   33.333333333333336
-250.0   30.0   50.0
-200.0   30.0   33.333333333333336
-200.0   60.0   33.333333333333336
-250.0   60.0   33.333333333333336
-200.0   60.0   50.0
-250.0   30.0   50.0
-250.0   60.0   50.0
-200.0   60.0   50.0
-250.0   60.0   33.333333333333336
-250.0   30.0   50.0
-200.0   60.0   50.0
-200.0   30.0   50.0
-200.0   30.0   33.333333333333336
-250.0   30.0   50.0
-200.0   60.0   50.0
-200.0   30.0   33.333333333333336
-250.0   60.0   33.333333333333336
-250.0   60.0   0.0
-200.0   60.0   0.0
-250.0   90.0   0.0
-250.0   60.0   16.666666666666668
-200.0   60.0   0.0
-200.0   90.0   0.0
-250.0   90.0   0.0
-200.0   90.0   16.666666666666668
-250.0   60.0   16.666666666666668
-250.0   90.0   16.666666666666668
-200.0   90.0   16.666666666666668
-250.0   90.0   0.0
-250.0   60.0   16.666666666666668
-200.0   90.0   16.666666666666668
-200.0   60.0   16.666666666666668
-200.0   60.0   0.0
-250.0   60.0   16.666666666666668
-200.0   90.0   16.666666666666668
-200.0   60.0   0.0
-250.0   90.0   0.0
-250.0   60.0   16.666666666666668
-200.0   60.0   16.666666666666668
-250.0   90.0   16.666666666666668
-250.0   60.0   33.333333333333336
-200.0   60.0   16.666666666666668
-200.0   90.0   16.666666666666668
-250.0   90.0   16.666666666666668
-200.0   90.0   33.333333333333336
-250.0   60.0   33.333333333333336
-250.0   90.0   33.333333333333336
-200.0   90.0   33.333333333333336
-250.0   90.0   16.666666666666668
-250.0   60.0   33.333333333333336
-200.0   90.0   33.333333333333336
-200.0   60.0   33.333333333333336
-200.0   60.0   16.666666666666668
-250.0   60.0   33.333333333333336
-200.0   90.0   33.333333333333336
-200.0   60.0   16.666666666666668
-250.0   90.0   16.666666666666668
-250.0   60.0   33.333333333333336
-200.0   60.0   33.333333333333336
-250.0   90.0   33.333333333333336
-250.0   60.0   50.0
-200.0   60.0   33.333333333333336
-200.0   90.0   33.333333333333336
-250.0   90.0   33.333333333333336
-200.0   90.0   50.0
-250.0   60.0   50.0
-250.0   90.0   50.0
-200.0   90.0   50.0
-250.0   90.0   33.333333333333336
-250.0   60.0   50.0
-200.0   90.0   50.0
-200.0   60.0   50.0
-200.0   60.0   33.333333333333336
-250.0   60.0   50.0
-200.0   90.0   50.0
-200.0   60.0   33.333333333333336
-250.0   90.0   33.333333333333336
-250.0   90.0   0.0
-200.0   90.0   0.0
-250.0   120.0   0.0
-250.0   90.0   16.666666666666668
-200.0   90.0   0.0
-200.0   120.0   0.0
-250.0   120.0   0.0
-200.0   120.0   16.666666666666668
-250.0   90.0   16.666666666666668
-250.0   120.0   16.666666666666668
-200.0   120.0   16.666666666666668
-250.0   120.0   0.0
-250.0   90.0   16.666666666666668
-200.0   120.0   16.666666666666668
-200.0   90.0   16.666666666666668
-200.0   90.0   0.0
-250.0   90.0   16.666666666666668
-200.0   120.0   16.666666666666668
-200.0   90.0   0.0
-250.0   120.0   0.0
-250.0   90.0   16.666666666666668
-200.0   90.0   16.666666666666668
-250.0   120.0   16.666666666666668
-250.0   90.0   33.333333333333336
-200.0   90.0   16.666666666666668
-200.0   120.0   16.666666666666668
-250.0   120.0   16.666666666666668
-200.0   120.0   33.333333333333336
-250.0   90.0   33.333333333333336
-250.0   120.0   33.333333333333336
-200.0   120.0   33.333333333333336
-250.0   120.0   16.666666666666668
-250.0   90.0   33.333333333333336
-200.0   120.0   33.333333333333336
-200.0   90.0   33.333333333333336
-200.0   90.0   16.666666666666668
-250.0   90.0   33.333333333333336
-200.0   120.0   33.333333333333336
-200.0   90.0   16.666666666666668
-250.0   120.0   16.666666666666668
-250.0   90.0   33.333333333333336
-200.0   90.0   33.333333333333336
-250.0   120.0   33.333333333333336
-250.0   90.0   50.0
-200.0   90.0   33.333333333333336
-200.0   120.0   33.333333333333336
-250.0   120.0   33.333333333333336
-200.0   120.0   50.0
-250.0   90.0   50.0
-250.0   120.0   50.0
-200.0   120.0   50.0
-250.0   120.0   33.333333333333336
-250.0   90.0   50.0
-200.0   120.0   50.0
-200.0   90.0   50.0
-200.0   90.0   33.333333333333336
-250.0   90.0   50.0
-200.0   120.0   50.0
-200.0   90.0   33.333333333333336
-250.0   120.0   33.333333333333336
-250.0   120.0   0.0
-200.0   120.0   0.0
-250.0   150.0   0.0
-250.0   120.0   16.666666666666668
-200.0   120.0   0.0
-200.0   150.0   0.0
-250.0   150.0   0.0
-200.0   150.0   16.666666666666668
-250.0   120.0   16.666666666666668
-250.0   150.0   16.666666666666668
-200.0   150.0   16.666666666666668
-250.0   150.0   0.0
-250.0   120.0   16.666666666666668
-200.0   150.0   16.666666666666668
-200.0   120.0   16.666666666666668
-200.0   120.0   0.0
-250.0   120.0   16.666666666666668
-200.0   150.0   16.666666666666668
-200.0   120.0   0.0
-250.0   150.0   0.0
-250.0   120.0   16.666666666666668
-200.0   120.0   16.666666666666668
-250.0   150.0   16.666666666666668
-250.0   120.0   33.333333333333336
-200.0   120.0   16.666666666666668
-200.0   150.0   16.666666666666668
-250.0   150.0   16.666666666666668
-200.0   150.0   33.333333333333336
-250.0   120.0   33.333333333333336
-250.0   150.0   33.333333333333336
-200.0   150.0   33.333333333333336
-250.0   150.0   16.666666666666668
-250.0   120.0   33.333333333333336
-200.0   150.0   33.333333333333336
-200.0   120.0   33.333333333333336
-200.0   120.0   16.666666666666668
-250.0   120.0   33.333333333333336
-200.0   150.0   33.333333333333336
-200.0   120.0   16.666666666666668
-250.0   150.0   16.666666666666668
-250.0   120.0   33.333333333333336
-200.0   120.0   33.333333333333336
-250.0   150.0   33.333333333333336
-250.0   120.0   50.0
-200.0   120.0   33.333333333333336
-200.0   150.0   33.333333333333336
-250.0   150.0   33.333333333333336
-200.0   150.0   50.0
-250.0   120.0   50.0
-250.0   150.0   50.0
-200.0   150.0   50.0
-250.0   150.0   33.333333333333336
-250.0   120.0   50.0
-200.0   150.0   50.0
-200.0   120.0   50.0
-200.0   120.0   33.333333333333336
-250.0   120.0   50.0
-200.0   150.0   50.0
-200.0   120.0   33.333333333333336
-250.0   150.0   33.333333333333336
-200.0   0.0   0.0
-150.0   0.0   0.0
-200.0   30.0   0.0
-200.0   0.0   16.666666666666668
-150.0   0.0   0.0
-150.0   30.0   0.0
-200.0   30.0   0.0
-150.0   30.0   16.666666666666668
-200.0   0.0   16.666666666666668
-200.0   30.0   16.666666666666668
-150.0   30.0   16.666666666666668
-200.0   30.0   0.0
-200.0   0.0   16.666666666666668
-150.0   30.0   16.666666666666668
-150.0   0.0   16.666666666666668
-150.0   0.0   0.0
-200.0   0.0   16.666666666666668
-150.0   30.0   16.666666666666668
-150.0   0.0   0.0
-200.0   30.0   0.0
-200.0   0.0   16.666666666666668
-150.0   0.0   16.666666666666668
-200.0   30.0   16.666666666666668
-200.0   0.0   33.333333333333336
-150.0   0.0   16.666666666666668
-150.0   30.0   16.666666666666668
-200.0   30.0   16.666666666666668
-150.0   30.0   33.333333333333336
-200.0   0.0   33.333333333333336
-200.0   30.0   33.333333333333336
-150.0   30.0   33.333333333333336
-200.0   30.0   16.666666666666668
-200.0   0.0   33.333333333333336
-150.0   30.0   33.333333333333336
-150.0   0.0   33.333333333333336
-150.0   0.0   16.666666666666668
-200.0   0.0   33.333333333333336
-150.0   30.0   33.333333333333336
-150.0   0.0   16.666666666666668
-200.0   30.0   16.666666666666668
-200.0   0.0   33.333333333333336
-150.0   0.0   33.333333333333336
-200.0   30.0   33.333333333333336
-200.0   0.0   50.0
-150.0   0.0   33.333333333333336
-150.0   30.0   33.333333333333336
-200.0   30.0   33.333333333333336
-150.0   30.0   50.0
-200.0   0.0   50.0
-200.0   30.0   50.0
-150.0   30.0   50.0
-200.0   30.0   33.333333333333336
-200.0   0.0   50.0
-150.0   30.0   50.0
-150.0   0.0   50.0
-150.0   0.0   33.333333333333336
-200.0   0.0   50.0
-150.0   30.0   50.0
-150.0   0.0   33.333333333333336
-200.0   30.0   33.333333333333336
-200.0   30.0   0.0
-150.0   30.0   0.0
-200.0   60.0   0.0
-200.0   30.0   16.666666666666668
-150.0   30.0   0.0
-150.0   60.0   0.0
-200.0   60.0   0.0
-150.0   60.0   16.666666666666668
-200.0   30.0   16.666666666666668
-200.0   60.0   16.666666666666668
-150.0   60.0   16.666666666666668
-200.0   60.0   0.0
-200.0   30.0   16.666666666666668
-150.0   60.0   16.666666666666668
-150.0   30.0   16.666666666666668
-150.0   30.0   0.0
-200.0   30.0   16.666666666666668
-150.0   60.0   16.666666666666668
-150.0   30.0   0.0
-200.0   60.0   0.0
-200.0   30.0   16.666666666666668
-150.0   30.0   16.666666666666668
-200.0   60.0   16.666666666666668
-200.0   30.0   33.333333333333336
-150.0   30.0   16.666666666666668
-150.0   60.0   16.666666666666668
-200.0   60.0   16.666666666666668
-150.0   60.0   33.333333333333336
-200.0   30.0   33.333333333333336
-200.0   60.0   33.333333333333336
-150.0   60.0   33.333333333333336
-200.0   60.0   16.666666666666668
-200.0   30.0   33.333333333333336
-150.0   60.0   33.333333333333336
-150.0   30.0   33.333333333333336
-150.0   30.0   16.666666666666668
-200.0   30.0   33.333333333333336
-150.0   60.0   33.333333333333336
-150.0   30.0   16.666666666666668
-200.0   60.0   16.666666666666668
-200.0   30.0   33.333333333333336
-150.0   30.0   33.333333333333336
-200.0   60.0   33.333333333333336
-200.0   30.0   50.0
-150.0   30.0   33.333333333333336
-150.0   60.0   33.333333333333336
-200.0   60.0   33.333333333333336
-150.0   60.0   50.0
-200.0   30.0   50.0
-200.0   60.0   50.0
-150.0   60.0   50.0
-200.0   60.0   33.333333333333336
-200.0   30.0   50.0
-150.0   60.0   50.0
-150.0   30.0   50.0
-150.0   30.0   33.333333333333336
-200.0   30.0   50.0
-150.0   60.0   50.0
-150.0   30.0   33.333333333333336
-200.0   60.0   33.333333333333336
-200.0   60.0   0.0
-150.0   60.0   0.0
-200.0   90.0   0.0
-200.0   60.0   16.666666666666668
-150.0   60.0   0.0
-150.0   90.0   0.0
-200.0   90.0   0.0
-150.0   90.0   16.666666666666668
-200.0   60.0   16.666666666666668
-200.0   90.0   16.666666666666668
-150.0   90.0   16.666666666666668
-200.0   90.0   0.0
-200.0   60.0   16.666666666666668
-150.0   90.0   16.666666666666668
-150.0   60.0   16.666666666666668
-150.0   60.0   0.0
-200.0   60.0   16.666666666666668
-150.0   90.0   16.666666666666668
-150.0   60.0   0.0
-200.0   90.0   0.0
-200.0   60.0   16.666666666666668
-150.0   60.0   16.666666666666668
-200.0   90.0   16.666666666666668
-200.0   60.0   33.333333333333336
-150.0   60.0   16.666666666666668
-150.0   90.0   16.666666666666668
-200.0   90.0   16.666666666666668
-150.0   90.0   33.333333333333336
-200.0   60.0   33.333333333333336
-200.0   90.0   33.333333333333336
-150.0   90.0   33.333333333333336
-200.0   90.0   16.666666666666668
-200.0   60.0   33.333333333333336
-150.0   90.0   33.333333333333336
-150.0   60.0   33.333333333333336
-150.0   60.0   16.666666666666668
-200.0   60.0   33.333333333333336
-150.0   90.0   33.333333333333336
-150.0   60.0   16.666666666666668
-200.0   90.0   16.666666666666668
-200.0   60.0   33.333333333333336
-150.0   60.0   33.333333333333336
-200.0   90.0   33.333333333333336
-200.0   60.0   50.0
-150.0   60.0   33.333333333333336
-150.0   90.0   33.333333333333336
-200.0   90.0   33.333333333333336
-150.0   90.0   50.0
-200.0   60.0   50.0
-200.0   90.0   50.0
-150.0   90.0   50.0
-200.0   90.0   33.333333333333336
-200.0   60.0   50.0
-150.0   90.0   50.0
-150.0   60.0   50.0
-150.0   60.0   33.333333333333336
-200.0   60.0   50.0
-150.0   90.0   50.0
-150.0   60.0   33.333333333333336
-200.0   90.0   33.333333333333336
-200.0   90.0   0.0
-150.0   90.0   0.0
-200.0   120.0   0.0
-200.0   90.0   16.666666666666668
-150.0   90.0   0.0
-150.0   120.0   0.0
-200.0   120.0   0.0
-150.0   120.0   16.666666666666668
-200.0   90.0   16.666666666666668
-200.0   120.0   16.666666666666668
-150.0   120.0   16.666666666666668
-200.0   120.0   0.0
-200.0   90.0   16.666666666666668
-150.0   120.0   16.666666666666668
-150.0   90.0   16.666666666666668
-150.0   90.0   0.0
-200.0   90.0   16.666666666666668
-150.0   120.0   16.666666666666668
-150.0   90.0   0.0
-200.0   120.0   0.0
-200.0   90.0   16.666666666666668
-150.0   90.0   16.666666666666668
-200.0   120.0   16.666666666666668
-200.0   90.0   33.333333333333336
-150.0   90.0   16.666666666666668
-150.0   120.0   16.666666666666668
-200.0   120.0   16.666666666666668
-150.0   120.0   33.333333333333336
-200.0   90.0   33.333333333333336
-200.0   120.0   33.333333333333336
-150.0   120.0   33.333333333333336
-200.0   120.0   16.666666666666668
-200.0   90.0   33.333333333333336
-150.0   120.0   33.333333333333336
-150.0   90.0   33.333333333333336
-150.0   90.0   16.666666666666668
-200.0   90.0   33.333333333333336
-150.0   120.0   33.333333333333336
-150.0   90.0   16.666666666666668
-200.0   120.0   16.666666666666668
-200.0   90.0   33.333333333333336
-150.0   90.0   33.333333333333336
-200.0   120.0   33.333333333333336
-200.0   90.0   50.0
-150.0   90.0   33.333333333333336
-150.0   120.0   33.333333333333336
-200.0   120.0   33.333333333333336
-150.0   120.0   50.0
-200.0   90.0   50.0
-200.0   120.0   50.0
-150.0   120.0   50.0
-200.0   120.0   33.333333333333336
-200.0   90.0   50.0
-150.0   120.0   50.0
-150.0   90.0   50.0
-150.0   90.0   33.333333333333336
-200.0   90.0   50.0
-150.0   120.0   50.0
-150.0   90.0   33.333333333333336
-200.0   120.0   33.333333333333336
-200.0   120.0   0.0
-150.0   120.0   0.0
-200.0   150.0   0.0
-200.0   120.0   16.666666666666668
-150.0   120.0   0.0
-150.0   150.0   0.0
-200.0   150.0   0.0
-150.0   150.0   16.666666666666668
-200.0   120.0   16.666666666666668
-200.0   150.0   16.666666666666668
-150.0   150.0   16.666666666666668
-200.0   150.0   0.0
-200.0   120.0   16.666666666666668
-150.0   150.0   16.666666666666668
-150.0   120.0   16.666666666666668
-150.0   120.0   0.0
-200.0   120.0   16.666666666666668
-150.0   150.0   16.666666666666668
-150.0   120.0   0.0
-200.0   150.0   0.0
-200.0   120.0   16.666666666666668
-150.0   120.0   16.666666666666668
-200.0   150.0   16.666666666666668
-200.0   120.0   33.333333333333336
-150.0   120.0   16.666666666666668
-150.0   150.0   16.666666666666668
-200.0   150.0   16.666666666666668
-150.0   150.0   33.333333333333336
-200.0   120.0   33.333333333333336
-200.0   150.0   33.333333333333336
-150.0   150.0   33.333333333333336
-200.0   150.0   16.666666666666668
-200.0   120.0   33.333333333333336
-150.0   150.0   33.333333333333336
-150.0   120.0   33.333333333333336
-150.0   120.0   16.666666666666668
-200.0   120.0   33.333333333333336
-150.0   150.0   33.333333333333336
-150.0   120.0   16.666666666666668
-200.0   150.0   16.666666666666668
-200.0   120.0   33.333333333333336
-150.0   120.0   33.333333333333336
-200.0   150.0   33.333333333333336
-200.0   120.0   50.0
-150.0   120.0   33.333333333333336
-150.0   150.0   33.333333333333336
-200.0   150.0   33.333333333333336
-150.0   150.0   50.0
-200.0   120.0   50.0
-200.0   150.0   50.0
-150.0   150.0   50.0
-200.0   150.0   33.333333333333336
-200.0   120.0   50.0
-150.0   150.0   50.0
-150.0   120.0   50.0
-150.0   120.0   33.333333333333336
-200.0   120.0   50.0
-150.0   150.0   50.0
-150.0   120.0   33.333333333333336
-200.0   150.0   33.333333333333336
-150.0   0.0   0.0
-100.0   0.0   0.0
-150.0   30.0   0.0
-150.0   0.0   16.666666666666668
-100.0   0.0   0.0
-100.0   30.0   0.0
-150.0   30.0   0.0
-100.0   30.0   16.666666666666668
-150.0   0.0   16.666666666666668
-150.0   30.0   16.666666666666668
-100.0   30.0   16.666666666666668
-150.0   30.0   0.0
-150.0   0.0   16.666666666666668
-100.0   30.0   16.666666666666668
-100.0   0.0   16.666666666666668
-100.0   0.0   0.0
-150.0   0.0   16.666666666666668
-100.0   30.0   16.666666666666668
-100.0   0.0   0.0
-150.0   30.0   0.0
-150.0   0.0   16.666666666666668
-100.0   0.0   16.666666666666668
-150.0   30.0   16.666666666666668
-150.0   0.0   33.333333333333336
-100.0   0.0   16.666666666666668
-100.0   30.0   16.666666666666668
-150.0   30.0   16.666666666666668
-100.0   30.0   33.333333333333336
-150.0   0.0   33.333333333333336
-150.0   30.0   33.333333333333336
-100.0   30.0   33.333333333333336
-150.0   30.0   16.666666666666668
-150.0   0.0   33.333333333333336
-100.0   30.0   33.333333333333336
-100.0   0.0   33.333333333333336
-100.0   0.0   16.666666666666668
-150.0   0.0   33.333333333333336
-100.0   30.0   33.333333333333336
-100.0   0.0   16.666666666666668
-150.0   30.0   16.666666666666668
-150.0   0.0   33.333333333333336
-100.0   0.0   33.333333333333336
-150.0   30.0   33.333333333333336
-150.0   0.0   50.0
-100.0   0.0   33.333333333333336
-100.0   30.0   33.333333333333336
-150.0   30.0   33.333333333333336
-100.0   30.0   50.0
-150.0   0.0   50.0
-150.0   30.0   50.0
-100.0   30.0   50.0
-150.0   30.0   33.333333333333336
-150.0   0.0   50.0
-100.0   30.0   50.0
-100.0   0.0   50.0
-100.0   0.0   33.333333333333336
-150.0   0.0   50.0
-100.0   30.0   50.0
-100.0   0.0   33.333333333333336
-150.0   30.0   33.333333333333336
-150.0   30.0   0.0
-100.0   30.0   0.0
-150.0   60.0   0.0
-150.0   30.0   16.666666666666668
-100.0   30.0   0.0
-100.0   60.0   0.0
-150.0   60.0   0.0
-100.0   60.0   16.666666666666668
-150.0   30.0   16.666666666666668
-150.0   60.0   16.666666666666668
-100.0   60.0   16.666666666666668
-150.0   60.0   0.0
-150.0   30.0   16.666666666666668
-100.0   60.0   16.666666666666668
-100.0   30.0   16.666666666666668
-100.0   30.0   0.0
-150.0   30.0   16.666666666666668
-100.0   60.0   16.666666666666668
-100.0   30.0   0.0
-150.0   60.0   0.0
-150.0   30.0   16.666666666666668
-100.0   30.0   16.666666666666668
-150.0   60.0   16.666666666666668
-150.0   30.0   33.333333333333336
-100.0   30.0   16.666666666666668
-100.0   60.0   16.666666666666668
-150.0   60.0   16.666666666666668
-100.0   60.0   33.333333333333336
-150.0   30.0   33.333333333333336
-150.0   60.0   33.333333333333336
-100.0   60.0   33.333333333333336
-150.0   60.0   16.666666666666668
-150.0   30.0   33.333333333333336
-100.0   60.0   33.333333333333336
-100.0   30.0   33.333333333333336
-100.0   30.0   16.666666666666668
-150.0   30.0   33.333333333333336
-100.0   60.0   33.333333333333336
-100.0   30.0   16.666666666666668
-150.0   60.0   16.666666666666668
-150.0   30.0   33.333333333333336
-100.0   30.0   33.333333333333336
-150.0   60.0   33.333333333333336
-150.0   30.0   50.0
-100.0   30.0   33.333333333333336
-100.0   60.0   33.333333333333336
-150.0   60.0   33.333333333333336
-100.0   60.0   50.0
-150.0   30.0   50.0
-150.0   60.0   50.0
-100.0   60.0   50.0
-150.0   60.0   33.333333333333336
-150.0   30.0   50.0
-100.0   60.0   50.0
-100.0   30.0   50.0
-100.0   30.0   33.333333333333336
-150.0   30.0   50.0
-100.0   60.0   50.0
-100.0   30.0   33.333333333333336
-150.0   60.0   33.333333333333336
-150.0   60.0   0.0
-100.0   60.0   0.0
-150.0   90.0   0.0
-150.0   60.0   16.666666666666668
-100.0   60.0   0.0
-100.0   90.0   0.0
-150.0   90.0   0.0
-100.0   90.0   16.666666666666668
-150.0   60.0   16.666666666666668
-150.0   90.0   16.666666666666668
-100.0   90.0   16.666666666666668
-150.0   90.0   0.0
-150.0   60.0   16.666666666666668
-100.0   90.0   16.666666666666668
-100.0   60.0   16.666666666666668
-100.0   60.0   0.0
-150.0   60.0   16.666666666666668
-100.0   90.0   16.666666666666668
-100.0   60.0   0.0
-150.0   90.0   0.0
-150.0   60.0   16.666666666666668
-100.0   60.0   16.666666666666668
-150.0   90.0   16.666666666666668
-150.0   60.0   33.333333333333336
-100.0   60.0   16.666666666666668
-100.0   90.0   16.666666666666668
-150.0   90.0   16.666666666666668
-100.0   90.0   33.333333333333336
-150.0   60.0   33.333333333333336
-150.0   90.0   33.333333333333336
-100.0   90.0   33.333333333333336
-150.0   90.0   16.666666666666668
-150.0   60.0   33.333333333333336
-100.0   90.0   33.333333333333336
-100.0   60.0   33.333333333333336
-100.0   60.0   16.666666666666668
-150.0   60.0   33.333333333333336
-100.0   90.0   33.333333333333336
-100.0   60.0   16.666666666666668
-150.0   90.0   16.666666666666668
-150.0   60.0   33.333333333333336
-100.0   60.0   33.333333333333336
-150.0   90.0   33.333333333333336
-150.0   60.0   50.0
-100.0   60.0   33.333333333333336
-100.0   90.0   33.333333333333336
-150.0   90.0   33.333333333333336
-100.0   90.0   50.0
-150.0   60.0   50.0
-150.0   90.0   50.0
-100.0   90.0   50.0
-150.0   90.0   33.333333333333336
-150.0   60.0   50.0
-100.0   90.0   50.0
-100.0   60.0   50.0
-100.0   60.0   33.333333333333336
-150.0   60.0   50.0
-100.0   90.0   50.0
-100.0   60.0   33.333333333333336
-150.0   90.0   33.333333333333336
-150.0   90.0   0.0
-100.0   90.0   0.0
-150.0   120.0   0.0
-150.0   90.0   16.666666666666668
-100.0   90.0   0.0
-100.0   120.0   0.0
-150.0   120.0   0.0
-100.0   120.0   16.666666666666668
-150.0   90.0   16.666666666666668
-150.0   120.0   16.666666666666668
-100.0   120.0   16.666666666666668
-150.0   120.0   0.0
-150.0   90.0   16.666666666666668
-100.0   120.0   16.666666666666668
-100.0   90.0   16.666666666666668
-100.0   90.0   0.0
-150.0   90.0   16.666666666666668
-100.0   120.0   16.666666666666668
-100.0   90.0   0.0
-150.0   120.0   0.0
-150.0   90.0   16.666666666666668
-100.0   90.0   16.666666666666668
-150.0   120.0   16.666666666666668
-150.0   90.0   33.333333333333336
-100.0   90.0   16.666666666666668
-100.0   120.0   16.666666666666668
-150.0   120.0   16.666666666666668
-100.0   120.0   33.333333333333336
-150.0   90.0   33.333333333333336
-150.0   120.0   33.333333333333336
-100.0   120.0   33.333333333333336
-150.0   120.0   16.666666666666668
-150.0   90.0   33.333333333333336
-100.0   120.0   33.333333333333336
-100.0   90.0   33.333333333333336
-100.0   90.0   16.666666666666668
-150.0   90.0   33.333333333333336
-100.0   120.0   33.333333333333336
-100.0   90.0   16.666666666666668
-150.0   120.0   16.666666666666668
-150.0   90.0   33.333333333333336
-100.0   90.0   33.333333333333336
-150.0   120.0   33.333333333333336
-150.0   90.0   50.0
-100.0   90.0   33.333333333333336
-100.0   120.0   33.333333333333336
-150.0   120.0   33.333333333333336
-100.0   120.0   50.0
-150.0   90.0   50.0
-150.0   120.0   50.0
-100.0   120.0   50.0
-150.0   120.0   33.333333333333336
-150.0   90.0   50.0
-100.0   120.0   50.0
-100.0   90.0   50.0
-100.0   90.0   33.333333333333336
-150.0   90.0   50.0
-100.0   120.0   50.0
-100.0   90.0   33.333333333333336
-150.0   120.0   33.333333333333336
-150.0   120.0   0.0
-100.0   120.0   0.0
-150.0   150.0   0.0
-150.0   120.0   16.666666666666668
-100.0   120.0   0.0
-100.0   150.0   0.0
-150.0   150.0   0.0
-100.0   150.0   16.666666666666668
-150.0   120.0   16.666666666666668
-150.0   150.0   16.666666666666668
-100.0   150.0   16.666666666666668
-150.0   150.0   0.0
-150.0   120.0   16.666666666666668
-100.0   150.0   16.666666666666668
-100.0   120.0   16.666666666666668
-100.0   120.0   0.0
-150.0   120.0   16.666666666666668
-100.0   150.0   16.666666666666668
-100.0   120.0   0.0
-150.0   150.0   0.0
-150.0   120.0   16.666666666666668
-100.0   120.0   16.666666666666668
-150.0   150.0   16.666666666666668
-150.0   120.0   33.333333333333336
-100.0   120.0   16.666666666666668
-100.0   150.0   16.666666666666668
-150.0   150.0   16.666666666666668
-100.0   150.0   33.333333333333336
-150.0   120.0   33.333333333333336
-150.0   150.0   33.333333333333336
-100.0   150.0   33.333333333333336
-150.0   150.0   16.666666666666668
-150.0   120.0   33.333333333333336
-100.0   150.0   33.333333333333336
-100.0   120.0   33.333333333333336
-100.0   120.0   16.666666666666668
-150.0   120.0   33.333333333333336
-100.0   150.0   33.333333333333336
-100.0   120.0   16.666666666666668
-150.0   150.0   16.666666666666668
-150.0   120.0   33.333333333333336
-100.0   120.0   33.333333333333336
-150.0   150.0   33.333333333333336
-150.0   120.0   50.0
-100.0   120.0   33.333333333333336
-100.0   150.0   33.333333333333336
-150.0   150.0   33.333333333333336
-100.0   150.0   50.0
-150.0   120.0   50.0
-150.0   150.0   50.0
-100.0   150.0   50.0
-150.0   150.0   33.333333333333336
-150.0   120.0   50.0
-100.0   150.0   50.0
-100.0   120.0   50.0
-100.0   120.0   33.333333333333336
-150.0   120.0   50.0
-100.0   150.0   50.0
-100.0   120.0   33.333333333333336
-150.0   150.0   33.333333333333336
-100.0   0.0   0.0
-50.0   0.0   0.0
-100.0   30.0   0.0
-100.0   0.0   16.666666666666668
-50.0   0.0   0.0
-50.0   30.0   0.0
-100.0   30.0   0.0
-50.0   30.0   16.666666666666668
-100.0   0.0   16.666666666666668
-100.0   30.0   16.666666666666668
-50.0   30.0   16.666666666666668
-100.0   30.0   0.0
-100.0   0.0   16.666666666666668
-50.0   30.0   16.666666666666668
-50.0   0.0   16.666666666666668
-50.0   0.0   0.0
-100.0   0.0   16.666666666666668
-50.0   30.0   16.666666666666668
-50.0   0.0   0.0
-100.0   30.0   0.0
-100.0   0.0   16.666666666666668
-50.0   0.0   16.666666666666668
-100.0   30.0   16.666666666666668
-100.0   0.0   33.333333333333336
-50.0   0.0   16.666666666666668
-50.0   30.0   16.666666666666668
-100.0   30.0   16.666666666666668
-50.0   30.0   33.333333333333336
-100.0   0.0   33.333333333333336
-100.0   30.0   33.333333333333336
-50.0   30.0   33.333333333333336
-100.0   30.0   16.666666666666668
-100.0   0.0   33.333333333333336
-50.0   30.0   33.333333333333336
-50.0   0.0   33.333333333333336
-50.0   0.0   16.666666666666668
-100.0   0.0   33.333333333333336
-50.0   30.0   33.333333333333336
-50.0   0.0   16.666666666666668
-100.0   30.0   16.666666666666668
-100.0   0.0   33.333333333333336
-50.0   0.0   33.333333333333336
-100.0   30.0   33.333333333333336
-100.0   0.0   50.0
-50.0   0.0   33.333333333333336
-50.0   30.0   33.333333333333336
-100.0   30.0   33.333333333333336
-50.0   30.0   50.0
-100.0   0.0   50.0
-100.0   30.0   50.0
-50.0   30.0   50.0
-100.0   30.0   33.333333333333336
-100.0   0.0   50.0
-50.0   30.0   50.0
-50.0   0.0   50.0
-50.0   0.0   33.333333333333336
-100.0   0.0   50.0
-50.0   30.0   50.0
-50.0   0.0   33.333333333333336
-100.0   30.0   33.333333333333336
-100.0   30.0   0.0
-50.0   30.0   0.0
-100.0   60.0   0.0
-100.0   30.0   16.666666666666668
-50.0   30.0   0.0
-50.0   60.0   0.0
-100.0   60.0   0.0
-50.0   60.0   16.666666666666668
-100.0   30.0   16.666666666666668
-100.0   60.0   16.666666666666668
-50.0   60.0   16.666666666666668
-100.0   60.0   0.0
-100.0   30.0   16.666666666666668
-50.0   60.0   16.666666666666668
-50.0   30.0   16.666666666666668
-50.0   30.0   0.0
-100.0   30.0   16.666666666666668
-50.0   60.0   16.666666666666668
-50.0   30.0   0.0
-100.0   60.0   0.0
-100.0   30.0   16.666666666666668
-50.0   30.0   16.666666666666668
-100.0   60.0   16.666666666666668
-100.0   30.0   33.333333333333336
-50.0   30.0   16.666666666666668
-50.0   60.0   16.666666666666668
-100.0   60.0   16.666666666666668
-50.0   60.0   33.333333333333336
-100.0   30.0   33.333333333333336
-100.0   60.0   33.333333333333336
-50.0   60.0   33.333333333333336
-100.0   60.0   16.666666666666668
-100.0   30.0   33.333333333333336
-50.0   60.0   33.333333333333336
-50.0   30.0   33.333333333333336
-50.0   30.0   16.666666666666668
-100.0   30.0   33.333333333333336
-50.0   60.0   33.333333333333336
-50.0   30.0   16.666666666666668
-100.0   60.0   16.666666666666668
-100.0   30.0   33.333333333333336
-50.0   30.0   33.333333333333336
-100.0   60.0   33.333333333333336
-100.0   30.0   50.0
-50.0   30.0   33.333333333333336
-50.0   60.0   33.333333333333336
-100.0   60.0   33.333333333333336
-50.0   60.0   50.0
-100.0   30.0   50.0
-100.0   60.0   50.0
-50.0   60.0   50.0
-100.0   60.0   33.333333333333336
-100.0   30.0   50.0
-50.0   60.0   50.0
-50.0   30.0   50.0
-50.0   30.0   33.333333333333336
-100.0   30.0   50.0
-50.0   60.0   50.0
-50.0   30.0   33.333333333333336
-100.0   60.0   33.333333333333336
-100.0   60.0   0.0
-50.0   60.0   0.0
-100.0   90.0   0.0
-100.0   60.0   16.666666666666668
-50.0   60.0   0.0
-50.0   90.0   0.0
-100.0   90.0   0.0
-50.0   90.0   16.666666666666668
-100.0   60.0   16.666666666666668
-100.0   90.0   16.666666666666668
-50.0   90.0   16.666666666666668
-100.0   90.0   0.0
-100.0   60.0   16.666666666666668
-50.0   90.0   16.666666666666668
-50.0   60.0   16.666666666666668
-50.0   60.0   0.0
-100.0   60.0   16.666666666666668
-50.0   90.0   16.666666666666668
-50.0   60.0   0.0
-100.0   90.0   0.0
-100.0   60.0   16.666666666666668
-50.0   60.0   16.666666666666668
-100.0   90.0   16.666666666666668
-100.0   60.0   33.333333333333336
-50.0   60.0   16.666666666666668
-50.0   90.0   16.666666666666668
-100.0   90.0   16.666666666666668
-50.0   90.0   33.333333333333336
-100.0   60.0   33.333333333333336
-100.0   90.0   33.333333333333336
-50.0   90.0   33.333333333333336
-100.0   90.0   16.666666666666668
-100.0   60.0   33.333333333333336
-50.0   90.0   33.333333333333336
-50.0   60.0   33.333333333333336
-50.0   60.0   16.666666666666668
-100.0   60.0   33.333333333333336
-50.0   90.0   33.333333333333336
-50.0   60.0   16.666666666666668
-100.0   90.0   16.666666666666668
-100.0   60.0   33.333333333333336
-50.0   60.0   33.333333333333336
-100.0   90.0   33.333333333333336
-100.0   60.0   50.0
-50.0   60.0   33.333333333333336
-50.0   90.0   33.333333333333336
-100.0   90.0   33.333333333333336
-50.0   90.0   50.0
-100.0   60.0   50.0
-100.0   90.0   50.0
-50.0   90.0   50.0
-100.0   90.0   33.333333333333336
-100.0   60.0   50.0
-50.0   90.0   50.0
-50.0   60.0   50.0
-50.0   60.0   33.333333333333336
-100.0   60.0   50.0
-50.0   90.0   50.0
-50.0   60.0   33.333333333333336
-100.0   90.0   33.333333333333336
-100.0   90.0   0.0
-50.0   90.0   0.0
-100.0   120.0   0.0
-100.0   90.0   16.666666666666668
-50.0   90.0   0.0
-50.0   120.0   0.0
-100.0   120.0   0.0
-50.0   120.0   16.666666666666668
-100.0   90.0   16.666666666666668
-100.0   120.0   16.666666666666668
-50.0   120.0   16.666666666666668
-100.0   120.0   0.0
-100.0   90.0   16.666666666666668
-50.0   120.0   16.666666666666668
-50.0   90.0   16.666666666666668
-50.0   90.0   0.0
-100.0   90.0   16.666666666666668
-50.0   120.0   16.666666666666668
-50.0   90.0   0.0
-100.0   120.0   0.0
-100.0   90.0   16.666666666666668
-50.0   90.0   16.666666666666668
-100.0   120.0   16.666666666666668
-100.0   90.0   33.333333333333336
-50.0   90.0   16.666666666666668
-50.0   120.0   16.666666666666668
-100.0   120.0   16.666666666666668
-50.0   120.0   33.333333333333336
-100.0   90.0   33.333333333333336
-100.0   120.0   33.333333333333336
-50.0   120.0   33.333333333333336
-100.0   120.0   16.666666666666668
-100.0   90.0   33.333333333333336
-50.0   120.0   33.333333333333336
-50.0   90.0   33.333333333333336
-50.0   90.0   16.666666666666668
-100.0   90.0   33.333333333333336
-50.0   120.0   33.333333333333336
-50.0   90.0   16.666666666666668
-100.0   120.0   16.666666666666668
-100.0   90.0   33.333333333333336
-50.0   90.0   33.333333333333336
-100.0   120.0   33.333333333333336
-100.0   90.0   50.0
-50.0   90.0   33.333333333333336
-50.0   120.0   33.333333333333336
-100.0   120.0   33.333333333333336
-50.0   120.0   50.0
-100.0   90.0   50.0
-100.0   120.0   50.0
-50.0   120.0   50.0
-100.0   120.0   33.333333333333336
-100.0   90.0   50.0
-50.0   120.0   50.0
-50.0   90.0   50.0
-50.0   90.0   33.333333333333336
-100.0   90.0   50.0
-50.0   120.0   50.0
-50.0   90.0   33.333333333333336
-100.0   120.0   33.333333333333336
-100.0   120.0   0.0
-50.0   120.0   0.0
-100.0   150.0   0.0
-100.0   120.0   16.666666666666668
-50.0   120.0   0.0
-50.0   150.0   0.0
-100.0   150.0   0.0
-50.0   150.0   16.666666666666668
-100.0   120.0   16.666666666666668
-100.0   150.0   16.666666666666668
-50.0   150.0   16.666666666666668
-100.0   150.0   0.0
-100.0   120.0   16.666666666666668
-50.0   150.0   16.666666666666668
-50.0   120.0   16.666666666666668
-50.0   120.0   0.0
-100.0   120.0   16.666666666666668
-50.0   150.0   16.666666666666668
-50.0   120.0   0.0
-100.0   150.0   0.0
-100.0   120.0   16.666666666666668
-50.0   120.0   16.666666666666668
-100.0   150.0   16.666666666666668
-100.0   120.0   33.333333333333336
-50.0   120.0   16.666666666666668
-50.0   150.0   16.666666666666668
-100.0   150.0   16.666666666666668
-50.0   150.0   33.333333333333336
-100.0   120.0   33.333333333333336
-100.0   150.0   33.333333333333336
-50.0   150.0   33.333333333333336
-100.0   150.0   16.666666666666668
-100.0   120.0   33.333333333333336
-50.0   150.0   33.333333333333336
-50.0   120.0   33.333333333333336
-50.0   120.0   16.666666666666668
-100.0   120.0   33.333333333333336
-50.0   150.0   33.333333333333336
-50.0   120.0   16.666666666666668
-100.0   150.0   16.666666666666668
-100.0   120.0   33.333333333333336
-50.0   120.0   33.333333333333336
-100.0   150.0   33.333333333333336
-100.0   120.0   50.0
-50.0   120.0   33.333333333333336
-50.0   150.0   33.333333333333336
-100.0   150.0   33.333333333333336
-50.0   150.0   50.0
-100.0   120.0   50.0
-100.0   150.0   50.0
-50.0   150.0   50.0
-100.0   150.0   33.333333333333336
-100.0   120.0   50.0
-50.0   150.0   50.0
-50.0   120.0   50.0
-50.0   120.0   33.333333333333336
-100.0   120.0   50.0
-50.0   150.0   50.0
-50.0   120.0   33.333333333333336
-100.0   150.0   33.333333333333336
-50.0   0.0   0.0
0.0   0.0   0.0
-50.0   30.0   0.0
-50.0   0.0   16.666666666666668
0.0   0.0   0.0
0.0   30.0   0.0
-50.0   30.0   0.0
0.0   30.0   16.666666666666668
-50.0   0.0   16.666666666666668
-50.0   30.0   16.666666666666668
0.0   30.0   16.666666666666668
-50.0   30.0   0.0
-50.0   0.0   16.666666666666668
0.0   30.0   16.666666666666668
0.0   0.0   16.666666666666668
0.0   0.0   0.0
-50.0   0.0   16.666666666666668
0.0   30.0   16.666666666666668
0.0   0.0   0.0
-50.0   30.0   0.0
-50.0   0.0   16.666666666666668
0.0   0.0   16.666666666666668
-50.0   30.0   16.666666666666668
-50.0   0.0   33.333333333333336
0.0   0.0   16.666666666666668
0.0   30.0   16.666666666666668
-50.0   30.0   16.666666666666668
0.0   30.0   33.333333333333336
-50.0   0.0   33.333333333333336
-50.0   30.0   33.333333333333336
0.0   30.0   33.333333333333336
-50.0   30.0   16.666666666666668
-50.0   0.0   33.333333333333336
0.0   30.0   33.333333333333336
0.0   0.0   33.333333333333336
0.0   0.0   16.666666666666668
-50.0   0.0   33.333333333333336
0.0   30.0   33.333333333333336
0.0   0.0   16.666666666666668
-50.0   30.0   16.666666666666668
-50.0   0.0   33.333333333333336
0.0   0.0   33.333333333333336
-50.0   30.0   33.333333333333336
-50.0   0.0   50.0
0.0   0.0   33.333333333333336
0.0   30.0   33.333333333333336
-50.0   30.0   33.333333333333336
0.0   30.0   50.0
-50.0   0.0   50.0
-50.0   30.0   50.0
0.0   30.0   50.0
-50.0   30.0   33.333333333333336
-50.0   0.0   50.0
0.0   30.0   50.0
0.0   0.0   50.0
0.0   0.0   33.333333333333336
-50.0   0.0   50.0
0.0   30.0   50.0
0.0   0.0   33.333333333333336
-50.0   30.0   33.333333333333336
-50.0   30.0   0.0
0.0   30.0   0.0
-50.0   60.0   0.0
-50.0   30.0   16.666666666666668
0.0   30.0   0.0
0.0   60.0   0.0
-50.0   60.0   0.0
0.0   60.0   16.666666666666668
-50.0   30.0   16.666666666666668
-50.0   60.0   16.666666666666668
0.0   60.0   16.666666666666668
-50.0   60.0   0.0
-50.0   30.0   16.666666666666668
0.0   60.0   16.666666666666668
0.0   30.0   16.666666666666668
0.0   30.0   0.0
-50.0   30.0   16.666666666666668
0.0   60.0   16.666666666666668
0.0   30.0   0.0
-50.0   60.0   0.0
-50.0   30.0   16.666666666666668
0.0   30.0   16.666666666666668
-50.0   60.0   16.666666666666668
-50.0   30.0   33.333333333333336
0.0   30.0   16.666666666666668
0.0   60.0   16.666666666666668
-50.0   60.0   16.666666666666668
0.0   60.0   33.333333333333336
-50.0   30.0   33.333333333333336
-50.0   60.0   33.333333333333336
0.0   60.0   33.333333333333336
-50.0   60.0   16.666666666666668
-50.0   30.0   33.333333333333336
0.0   60.0   33.333333333333336
0.0   30.0   33.333333333333336
0.0   30.0   16.666666666666668
-50.0   30.0   33.333333333333336
0.0   60.0   33.333333333333336
0.0   30.0   16.666666666666668
-50.0   60.0   16.666666666666668
-50.0   30.0   33.333333333333336
0.0   30.0   33.333333333333336
-50.0   60.0   33.333333333333336
-50.0   30.0   50.0
0.0   30.0   33.333333333333336
0.0   60.0   33.333333333333336
-50.0   60.0   33.333333333333336
0.0   60.0   50.0
-50.0   30.0   50.0
-50.0   60.0   50.0
0.0   60.0   50.0
-50.0   60.0   33.333333333333336
-50.0   30.0   50.0
0.0   60.0   50.0
0.0   30.0   50.0
0.0   30.0   33.333333333333336
-50.0   30.0   50.0
0.0   60.0   50.0
0.0   30.0   33.333333333333336
-50.0   60.0   33.333333333333336
-50.0   60.0   0.0
0.0   60.0   0.0
-50.0   90.0   0.0
-50.0   60.0   16.666666666666668
0.0   60.0   0.0
0.0   90.0   0.0
-50.0   90.0   0.0
0.0   90.0   16.666666666666668
-50.0   60.0   16.666666666666668
-50.0   90.0   16.666666666666668
0.0   90.0   16.666666666666668
-50.0   90.0   0.0
-50.0   60.0   16.666666666666668
0.0   90.0   16.666666666666668
0.0   60.0   16.666666666666668
0.0   60.0   0.0
-50.0   60.0   16.666666666666668
0.0   90.0   16.666666666666668
0.0   60.0   0.0
-50.0   90.0   0.0
-50.0   60.0   16.666666666666668
0.0   60.0   16.666666666666668
-50.0   90.0   16.666666666666668
-50.0   60.0   33.333333333333336
0.0   60.0   16.666666666666668
0.0   90.0   16.666666666666668
-50.0   90.0   16.666666666666668
0.0   90.0   33.333333333333336
-50.0   60.0   33.333333333333336
-50.0   90.0   33.333333333333336
0.0   90.0   33.333333333333336
-50.0   90.0   16.666666666666668
-50.0   60.0   33.333333333333336
0.0   90.0   33.333333333333336
0.0   60.0   33.333333333333336
0.0   60.0   16.666666666666668
-50.0   60.0   33.333333333333336
0.0   90.0   33.333333333333336
0.0   60.0   16.666666666666668
-50.0   90.0   16.666666666666668
-50.0   60.0   33.333333333333336
0.0   60.0   33.333333333333336
-50.0   90.0   33.333333333333336
-50.0   60.0   50.0
0.0   60.0   33.333333333333336
0.0   90.0   33.333333333333336
-50.0   90.0   33.333333333333336
0.0   90.0   50.0
-50.0   60.0   50.0
-50.0   90.0   50.0
0.0   90.0   50.0
-50.0   90.0   33.333333333333336
-50.0   60.0   50.0
0.0   90.0   50.0
0.0   60.0   50.0
0.0   60.0   33.333333333333336
-50.0   60.0   50.0
0.0   90.0   50.0
0.0   60.0   33.333333333333336
-50.0   90.0   33.333333333333336
-50.0   90.0   0.0
0.0   90.0   0.0
-50.0   120.0   0.0
-50.0   90.0   16.666666666666668
0.0   90.0   0.0
0.0   120.0   0.0
-50.0   120.0   0.0
0.0   120.0   16.666666666666668
-50.0   90.0   16.666666666666668
-50.0   120.0   16.666666666666668
0.0   120.0   16.666666666666668
-50.0   120.0   0.0
-50.0   90.0   16.666666666666668
0.0   120.0   16.666666666666668
0.0   90.0   16.666666666666668
0.0   90.0   0.0
-50.0   90.0   16.666666666666668
0.0   120.0   16.666666666666668
0.0   90.0   0.0
-50.0   120.0   0.0
-50.0   90.0   16.666666666666668
0.0   90.0   16.666666666666668
-50.0   120.0   16.666666666666668
-50.0   90.0   33.333333333333336
0.0   90.0   16.666666666666668
0.0   120.0   16.666666666666668
-50.0   120.0   16.666666666666668
0.0   120.0   33.333333333333336
-50.0   90.0   33.333333333333336
-50.0   120.0   33.333333333333336
0.0   120.0   33.333333333333336
-50.0   120.0   16.666666666666668
-50.0   90.0   33.333333333333336
0.0   120.0   33.333333333333336
0.0   90.0   33.333333333333336
0.0   90.0   16.666666666666668
-50.0   90.0   33.333333333333336
0.0   120.0   33.333333333333336
0.0   90.0   16.666666666666668
-50.0   120.0   16.666666666666668
-50.0   90.0   33.333333333333336
0.0   90.0   33.333333333333336
-50.0   120.0   33.333333333333336
-50.0   90.0   50.0
0.0   90.0   33.333333333333336
0.0   120.0   33.333333333333336
-50.0   120.0   33.333333333333336
0.0   120.0   50.0
-50.0   90.0   50.0
-50.0   120.0   50.0
0.0   120.0   50.0
-50.0   120.0   33.333333333333336
-50.0   90.0   50.0
0.0   120.0   50.0
0.0   90.0   50.0
0.0   90.0   33.333333333333336
-50.0   90.0   50.0
0.0   120.0   50.0
0.0   90.0   33.333333333333336
-50.0   120.0   33.333333333333336
-50.0   120.0   0.0
0.0   120.0   0.0
-50.0   150.0   0.0
-50.0   120.0   16.666666666666668
0.0   120.0   0.0
0.0   150.0   0.0
-50.0   150.0   0.0
0.0   150.0   16.666666666666668
-50.0   120.0   16.666666666666668
-50.0   150.0   16.666666666666668
0.0   150.0   16.666666666666668
-50.0   150.0   0.0
-50.0   120.0   16.666666666666668
0.0   150.0   16.666666666666668
0.0   120.0   16.666666666666668
0.0   120.0   0.0
-50.0   120.0   16.666666666666668
0.0   150.0   16.666666666666668
0.0   120.0   0.0
-50.0   150.0   0.0
-50.0   120.0   16.666666666666668
0.0   120.0   16.666666666666668
-50.0   150.0   16.666666666666668
-50.0   120.0   33.333333333333336
0.0   120.0   16.666666666666668
0.0   150.0   16.666666666666668
-50.0   150.0   16.666666666666668
0.0   150.0   33.333333333333336
-50.0   120.0   33.333333333333336
-50.0   150.0   33.333333333333336
0.0   150.0   33.333333333333336
-50.0   150.0   16.666666666666668
-50.0   120.0   33.333333333333336
0.0   150.0   33.333333333333336
0.0   120.0   33.333333333333336
0.0   120.0   16.666666666666668
-50.0   120.0   33.333333333333336
0.0   150.0   33.333333333333336
0.0   120.0   16.666666666666668
-50.0   150.0   16.666666666666668
-50.0   120.0   33.333333333333336
0.0   120.0   33.333333333333336
-50.0   150.0   33.333333333333336
-50.0   120.0   50.0
0.0   120.0   33.333333333333336
0.0   150.0   33.333333333333336
-50.0   150.0   33.333333333333336
0.0   150.0   50.0
-50.0   120.0   50.0
-50.0   150.0   50.0
0.0   150.0   50.0
-50.0   150.0   33.333333333333336
-50.0   120.0   50.0
0.0   150.0   50.0
0.0   120.0   50.0
0.0   120.0   33.333333333333336
-50.0   120.0   50.0
0.0   150.0   50.0
0.0   120.0   33.333333333333336
-50.0   150.0   33.333333333333336
0.0   0.0   0.0
50.0   0.0   0.0
0.0   30.0   0.0
0.0   0.0   16.666666666666668
50.0   0.0   0.0
50.0   30.0   0.0
0.0   30.0   0.0
50.0   30.0   16.666666666666668
0.0   0.0   16.666666666666668
0.0   30.0   16.666666666666668
50.0   30.0   16.666666666666668
0.0   30.0   0.0
0.0   0.0   16.666666666666668
50.0   30.0   16.666666666666668
50.0   0.0   16.666666666666668
50.0   0.0   0.0
0.0   0.0   16.666666666666668
50.0   30.0   16.666666666666668
50.0   0.0   0.0
0.0   30.0   0.0
0.0   0.0   16.666666666666668
50.0   0.0   16.666666666666668
0.0   30.0   16.666666666666668
0.0   0.0   33.333333333333336
50.0   0.0   16.666666666666668
50.0   30.0   16.666666666666668
0.0   30.0   16.666666666666668
50.0   30.0   33.333333333333336
0.0   0.0   33.333333333333336
0.0   30.0   33.333333333333336
50.0   30.0   33.333333333333336
0.0   30.0   16.666666666666668
0.0   0.0   33.333333333333336
50.0   30.0   33.333333333333336
50.0   0.0   33.333333333333336
50.0   0.0   16.666666666666668
0.0   0.0   33.333333333333336
50.0   30.0   33.333333333333336
50.0   0.0   16.666666666666668
0.0   30.0   16.666666666666668
0.0   0.0   33.333333333333336
50.0   0.0   33.333333333333336
0.0   30.0   33.333333333333336
0.0   0.0   50.0
50.0   0.0   33.333333333333336
50.0   30.0   33.333333333333336
0.0   30.0   33.333333333333336
50.0   30.0   50.0
0.0   0.0   50.0
0.0   30.0   50.0
50.0   30.0   50.0
0.0   30.0   33.333333333333336
0.0   0.0   50.0
50.0   30.0   50.0
50.0   0.0   50.0
50.0   0.0   33.333333333333336
0.0   0.0   50.0
50.0   30.0   50.0
50.0   0.0   33.333333333333336
0.0   30.0   33.333333333333336
0.0   30.0   0.0
50.0   30.0   0.0
0.0   60.0   0.0
0.0   30.0   16.666666666666668
50.0   30.0   0.0
50.0   60.0   0.0
0.0   60.0   0.0
50.0   60.0   16.666666666666668
0.0   30.0   16.666666666666668
0.0   60.0   16.666666666666668
50.0   60.0   16.666666666666668
0.0   60.0   0.0
0.0   30.0   16.666666666666668
50.0   60.0   16.666666666666668
50.0   30.0   16.666666666666668
50.0   30.0   0.0
0.0   30.0   16.666666666666668
50.0   60.0   16.666666666666668
50.0   30.0   0.0
0.0   60.0   0.0
0.0   30.0   16.666666666666668
50.0   30.0   16.666666666666668
0.0   60.0   16.666666666666668
0.0   30.0   33.333333333333336
50.0   30.0   16.666666666666668
50.0   60.0   16.666666666666668
0.0   60.0   16.666666666666668
50.0   60.0   33.333333333333336
0.0   30.0   33.333333333333336
0.0   60.0   33.333333333333336
50.0   60.0   33.333333333333336
0.0   60.0   16.666666666666668
0.0   30.0   33.333333333333336
50.0   60.0   33.333333333333336
50.0   30.0   33.333333333333336
50.0   30.0   16.666666666666668
0.0   30.0   33.333333333333336
50.0   60.0   33.333333333333336
50.0   30.0   16.666666666666668
0.0   60.0   16.666666666666668
0.0   30.0   33.333333333333336
50.0   30.0   33.333333333333336
0.0   60.0   33.333333333333336
0.0   30.0   50.0
50.0   30.0   33.333333333333336
50.0   60.0   33.333333333333336
0.0   60.0   33.333333333333336
50.0   60.0   50.0
0.0   30.0   50.0
0.0   60.0   50.0
50.0   60.0   50.0
0.0   60.0   33.333333333333336
0.0   30.0   50.0
50.0   60.0   50.0
50.0   30.0   50.0
50.0   30.0   33.333333333333336
0.0   30.0   50.0
50.0   60.0   50.0
50.0   30.0   33.333333333333336
0.0   60.0   33.333333333333336
0.0   60.0   0.0
50.0   60.0   0.0
0.0   90.0   0.0
0.0   60.0   16.666666666666668
50.0   60.0   0.0
50.0   90.0   0.0
0.0   90.0   0.0
50.0   90.0   16.666666666666668
0.0   60.0   16.666666666666668
0.0   90.0   16.666666666666668
50.0   90.0   16.666666666666668
0.0   90.0   0.0
0.0   60.0   16.666666666666668
50.0   90.0   16.666666666666668
50.0   60.0   16.666666666666668
50.0   60.0   0.0
0.0   60.0   16.666666666666668
50.0   90.0   16.666666666666668
50.0   60.0   0.0
0.0   90.0   0.0
0.0   60.0   16.666666666666668
50.0   60.0   16.666666666666668
0.0   90.0   16.666666666666668
0.0   60.0   33.333333333333336
50.0   60.0   16.666666666666668
50.0   90.0   16.666666666666668
0.0   90.0   16.666666666666668
50.0   90.0   33.333333333333336
0.0   60.0   33.333333333333336
0.0   90.0   33.333333333333336
50.0   90.0   33.333333333333336
0.0   90.0   16.666666666666668
0.0   60.0   33.333333333333336
50.0   90.0   33.333333333333336
50.0   60.0   33.333333333333336
50.0   60.0   16.666666666666668
0.0   60.0   33.333333333333336
50.0   90.0   33.333333333333336
50.0   60.0   16.666666666666668
0.0   90.0   16.666666666666668
0.0   60.0   33.333333333333336
50.0   60.0   33.333333333333336
0.0   90.0   33.333333333333336
0.0   60.0   50.0
50.0   60.0   33.333333333333336
50.0   90.0   33.333333333333336
0.0   90.0   33.333333333333336
50.0   90.0   50.0
0.0   60.0   50.0
0.0   90.0   50.0
50.0   90.0   50.0
0.0   90.0   33.333333333333336
0.0   60.0   50.0
50.0   90.0   50.0
50.0   60.0   50.0
50.0   60.0   33.333333333333336
0.0   60.0   50.0
50.0   90.0   50.0
50.0   60.0   33.333333333333336
0.0   90.0   33.333333333333336
0.0   90.0   0.0
50.0   90.0   0.0
0.0   120.0   0.0
0.0   90.0   16.666666666666668
50.0   90.0   0.0
50.0   120.0   0.0
0.0   120.0   0.0
50.0   120.0   16.666666666666668
0.0   90.0   16.666666666666668
0.0   120.0   16.666666666666668
50.0   120.0   16.666666666666668
0.0   120.0   0.0
0.0   90.0   16.666666666666668
50.0   120.0   16.666666666666668
50.0   90.0   16.666666666666668
50.0   90.0   0.0
0.0   90.0   16.666666666666668
50.0   120.0   16.666666666666668
50.0   90.0   0.0
0.0   120.0   0.0
0.0   90.0   16.666666666666668
50.0   90.0   16.666666666666668
0.0   120.0   16.666666666666668
0.0   90.0   33.333333333333336
50.0   90.0   16.666666666666668
50.0   120.0   16.666666666666668
0.0   120.0   16.666666666666668
50.0   120.0   33.333333333333336
0.0   90.0   33.333333333333336
0.0   120.0   33.333333333333336
50.0   120.0   33.333333333333336
0.0   120.0   16.666666666666668
0.0   90.0   33.333333333333336
50.0   120.0   33.333333333333336
50.0   90.0   33.333333333333336
50.0   90.0   16.666666666666668
0.0   90.0   33.333333333333336
50.0   120.0   33.333333333333336
50.0   90.0   16.666666666666668
0.0   120.0   16.666666666666668
0.0   90.0   33.333333333333336
50.0   90.0   33.333333333333336
0.0   120.0   33.333333333333336
0.0   90.0   50.0
50.0   90.0   33.333333333333336
50.0   120.0   33.333333333333336
0.0   120.0   33.333333333333336
50.0   120.0   50.0
0.0   90.0   50.0
0.0   120.0   50.0
50.0   120.0   50.0
0.0   120.0   33.333333333333336
0.0   90.0   50.0
50.0   120.0   50.0
50.0   90.0   50.0
50.0   90.0   33.333333333333336
0.0   90.0   50.0
50.0   120.0   50.0
50.0   90.0   33.333333333333336
0.0   120.0   33.333333333333336
0.0   120.0   0.0
50.0   120.0   0.0
0.0   150.0   0.0
0.0   120.0   16.666666666666668
50.0   120.0   0.0
50.0   150.0   0.0
0.0   150.0   0.0
50.0   150.0   16.666666666666668
0.0   120.0   16.666666666666668
0.0   150.0   16.666666666666668
50.0   150.0   16.666666666666668
0.0   150.0   0.0
0.0   120.0   16.666666666666668
50.0   150.0   16.666666666666668
50.0   120.0   16.666666666666668
50.0   120.0   0.0
0.0   120.0   16.666666666666668
50.0   150.0   16.666666666666668
50.0   120.0   0.0
0.0   150.0   0.0
0.0   120.0   16.666666666666668
50.0   120.0   16.666666666666668
0.0   150.0   16.666666666666668
0.0   120.0   33.333333333333336
50.0   120.0   16.666666666666668
50.0   150.0   16.666666666666668
0.0   150.0   16.666666666666668
50.0   150.0   33.333333333333336
0.0   120.0   33.333333333333336
0.0   150.0   33.333333333333336
50.0   150.0   33.333333333333336
0.0   150.0   16.666666666666668
0.0   120.0   33.333333333333336
50.0   150.0   33.333333333333336
50.0   120.0   33.333333333333336
50.0   120.0   16.666666666666668
0.0   120.0   33.333333333333336
50.0   150.0   33.333333333333336
50.0   120.0   16.666666666666668
0.0   150.0   16.666666666666668
0.0   120.0   33.333333333333336
50.0   120.0   33.333333333333336
0.0   150.0   33.333333333333336
0.0   120.0   50.0
50.0   120.0   33.333333333333336
50.0   150.0   33.333333333333336
0.0   150.0   33.333333333333336
50.0   150.0   50.0
0.0   120.0   50.0
0.0   150.0   50.0
50.0   150.0   50.0
0.0   150.0   33.333333333333336
0.0   120.0   50.0
50.0   150.0   50.0
50.0   120.0   50.0
50.0   120.0   33.333333333333336
0.0   120.0   50.0
50.0   150.0   50.0
50.0   120.0   33.333333333333336
0.0   150.0   33.333333333333336
50.0   0.0   0.0
100.0   0.0   0.0
50.0   30.0   0.0
50.0   0.0   16.666666666666668
100.0   0.0   0.0
100.0   30.0   0.0
50.0   30.0   0.0
100.0   30.0   16.666666666666668
50.0   0.0   16.666666666666668
50.0   30.0   16.666666666666668
100.0   30.0   16.666666666666668
50.0   30.0   0.0
50.0   0.0   16.666666666666668
100.0   30.0   16.666666666666668
100.0   0.0   16.666666666666668
100.0   0.0   0.0
50.0   0.0   16.666666666666668
100.0   30.0   16.666666666666668
100.0   0.0   0.0
50.0   30.0   0.0
50.0   0.0   16.666666666666668
100.0   0.0   16.666666666666668
50.0   30.0   16.666666666666668
50.0   0.0   33.333333333333336
100.0   0.0   16.666666666666668
100.0   30.0   16.666666666666668
50.0   30.0   16.666666666666668
100.0   30.0   33.333333333333336
50.0   0.0   33.333333333333336
50.0   30.0   33.333333333333336
100.0   30.0   33.333333333333336
50.0   30.0   16.666666666666668
50.0   0.0   33.333333333333336
100.0   30.0   33.333333333333336
100.0   0.0   33.333333333333336
100.0   0.0   16.666666666666668
50.0   0.0   33.333333333333336
100.0   30.0   33.333333333333336
100.0   0.0   16.666666666666668
50.0   30.0   16.666666666666668
50.0   0.0   33.333333333333336
100.0   0.0   33.333333333333336
50.0   30.0   33.333333333333336
50.0   0.0   50.0
100.0   0.0   33.333333333333336
100.0   30.0   33.333333333333336
50.0   30.0   33.333333333333336
100.0   30.0   50.0
50.0   0.0   50.0
50.0   30.0   50.0
100.0   30.0   50.0
50.0   30.0   33.333333333333336
50.0   0.0   50.0
100.0   30.0   50.0
100.0   0.0   50.0
100.0   0.0   33.333333333333336
50.0   0.0   50.0
100.0   30.0   50.0
100.0   0.0   33.333333333333336
50.0   30.0   33.333333333333336
50.0   30.0   0.0
100.0   30.0   0.0
50.0   60.0   0.0
50.0   30.0   16.666666666666668
100.0   30.0   0.0
100.0   60.0   0.0
50.0   60.0   0.0
100.0   60.0   16.666666666666668
50.0   30.0   16.666666666666668
50.0   60.0   16.666666666666668
100.0   60.0   16.666666666666668
50.0   60.0   0.0
50.0   30.0   16.666666666666668
100.0   60.0   16.666666666666668
100.0   30.0   16.666666666666668
100.0   30.0   0.0
50.0   30.0   16.666666666666668
100.0   60.0   16.666666666666668
100.0   30.0   0.0
50.0   60.0   0.0
50.0   30.0   16.666666666666668
100.0   30.0   16.666666666666668
50.0   60.0   16.666666666666668
50.0   30.0   33.333333333333336
100.0   30.0   16.666666666666668
100.0   60.0   16.666666666666668
50.0   60.0   16.666666666666668
100.0   60.0   33.333333333333336
50.0   30.0   33.333333333333336
50.0   60.0   33.333333333333336
100.0   60.0   33.333333333333336
50.0   60.0   16.666666666666668
50.0   30.0   33.333333333333336
100.0   60.0   33.333333333333336
100.0   30.0   33.333333333333336
100.0   30.0   16.666666666666668
50.0   30.0   33.333333333333336
100.0   60.0   33.333333333333336
100.0   30.0   16.666666666666668
50.0   60.0   16.666666666666668
50.0   30.0   33.333333333333336
100.0   30.0   33.333333333333336
50.0   60.0   33.333333333333336
50.0   30.0   50.0
100.0   30.0   33.333333333333336
100.0   60.0   33.333333333333336
50.0   60.0   33.333333333333336
100.0   60.0   50.0
50.0   30.0   50.0
50.0   60.0   50.0
100.0   60.0   50.0
50.0   60.0   33.333333333333336
50.0   30.0   50.0
100.0   60.0   50.0
100.0   30.0   50.0
100.0   30.0   33.333333333333336
50.0   30.0   50.0
100.0   60.0   50.0
100.0   30.0   33.333333333333336
50.0   60.0   33.333333333333336
50.0   60.0   0.0
100.0   60.0   0.0
50.0   90.0   0.0
50.0   60.0   16.666666666666668
100.0   60.0   0.0
100.0   90.0   0.0
50.0   90.0   0.0
100.0   90.0   16.666666666666668
50.0   60.0   16.666666666666668
50.0   90.0   16.666666666666668
100.0   90.0   16.666666666666668
50.0   90.0   0.0
50.0   60.0   16.666666666666668
100.0   90.0   16.666666666666668
100.0   60.0   16.666666666666668
100.0   60.0   0.0
50.0   60.0   16.666666666666668
100.0   90.0   16.666666666666668
100.0   60.0   0.0
50.0   90.0   0.0
50.0   60.0   16.666666666666668
100.0   60.0   16.666666666666668
50.0   90.0   16.666666666666668
50.0   60.0   33.333333333333336
100.0   60.0   16.666666666666668
100.0   90.0   16.666666666666668
50.0   90.0   16.666666666666668
100.0   90.0   33.333333333333336
50.0   60.0   33.333333333333336
50.0   90.0   33.333333333333336
100.0   90.0   33.333333333333336
50.0   90.0   16.666666666666668
50.0   60.0   33.333333333333336
100.0   90.0   33.333333333333336
100.0   60.0   33.333333333333336
100.0   60.0   16.666666666666668
50.0   60.0   33.333333333333336
100.0   90.0   33.333333333333336
100.0   60.0   16.666666666666668
50.0   90.0   16.666666666666668
50.0   60.0   33.333333333333336
100.0   60.0   33.333333333333336
50.0   90.0   33.333333333333336
50.0   60.0   50.0
100.0   60.0   33.333333333333336
100.0   90.0   33.333333333333336
50.0   90.0   33.333333333333336
100.0   90.0   50.0
50.0   60.0   50.0
50.0   90.0   50.0
100.0   90.0   50.0
50.0   90.0   33.333333333333336
50.0   60.0   50.0
100.0   90.0   50.0
100.0   60.0   50.0
100.0   60.0   33.333333333333336
50.0   60.0   50.0
100.0   90.0   50.0
100.0   60.0   33.333333333333336
50.0   90.0   33.333333333333336
50.0   90.0   0.0
100.0   90.0   0.0
50.0   120.0   0.0
50.0   90.0   16.666666666666668
100.0   90.0   0.0
100.0   120.0   0.0
50.0   120.0   0.0
100.0   120.0   16.666666666666668
50.0   90.0   16.666666666666668
50.0   120.0   16.666666666666668
100.0   120.0   16.666666666666668
50.0   120.0   0.0
50.0   90.0   16.666666666666668
100.0   120.0   16.666666666666668
100.0   90.0   16.666666666666668
100.0   90.0   0.0
50.0   90.0   16.666666666666668
100.0   120.0   16.666666666666668
100.0   90.0   0.0
50.0   120.0   0.0
50.0   90.0   16.666666666666668
100.0   90.0   16.666666666666668
50.0   120.0   16.666666666666668
50.0   90.0   33.333333333333336
100.0   90.0   16.666666666666668
100.0   120.0   16.666666666666668
50.0   120.0   16.666666666666668
100.0   120.0   33.333333333333336
50.0   90.0   33.333333333333336
50.0   120.0   33.333333333333336
100.0   120.0   33.333333333333336
50.0   120.0   16.666666666666668
50.0   90.0   33.333333333333336
100.0   120.0   33.333333333333336
100.0   90.0   33.333333333333336
100.0   90.0   16.666666666666668
50.0   90.0   33.333333333333336
100.0   120.0   33.333333333333336
100.0   90.0   16.666666666666668
50.0   120.0   16.666666666666668
50.0   90.0   33.333333333333336
100.0   90.0   33.333333333333336
50.0   120.0   33.333333333333336
50.0   90.0   50.0
100.0   90.0   33.333333333333336
100.0   120.0   33.333333333333336
50.0   120.0   33.333333333333336
100.0   120.0   50.0
50.0   90.0   50.0
50.0   120.0   50.0
100.0   120.0   50.0
50.0   120.0   33.333333333333336
50.0   90.0   50.0
100.0   120.0   50.0
100.0   90.0   50.0
100.0   90.0   33.333333333333336
50.0   90.0   50.0
100.0   120.0   50.0
100.0   90.0   33.333333333333336
50.0   120.0   33.333333333333336
50.0   120.0   0.0
100.0   120.0   0.0
50.0   150.0   0.0
50.0   120.0   16.666666666666668
100.0   120.0   0.0
100.0   150.0   0.0
50.0   150.0   0.0
100.0   150.0   16.666666666666668
50.0   120.0   16.666666666666668
50.0   150.0   16.666666666666668
100.0   150.0   16.666666666666668
50.0   150.0   0.0
50.0   120.0   16.666666666666668
100.0   150.0   16.666666666666668
100.0   120.0   16.666666666666668
100.0   120.0   0.0
50.0   120.0   16.666666666666668
100.0   150.0   16.666666666666668
100.0   120.0   0.0
50.0   150.0   0.0
50.0   120.0   16.666666666666668
100.0   120.0   16.666666666666668
50.0   150.0   16.666666666666668
50.0   120.0   33.333333333333336
100.0   120.0   16.666666666666668
100.0   150.0   16.666666666666668
50.0   150.0   16.666666666666668
100.0   150.0   33.333333333333336
50.0   120.0   33.333333333333336
50.0   150.0   33.333333333333336
100.0   150.0   33.333333333333336
50.0   150.0   16.666666666666668
50.0   120.0   33.333333333333336
100.0   150.0   33.333333333333336
100.0   120.0   33.333333333333336
100.0   120.0   16.666666666666668
50.0   120.0   33.333333333333336
100.0   150.0   33.333333333333336
100.0   120.0   16.666666666666668
50.0   150.0   16.666666666666668
50.0   120.0   33.333333333333336
100.0   120.0   33.333333333333336
50.0   150.0   33.333333333333336
50.0   120.0   50.0
100.0   120.0   33.333333333333336
100.0   150.0   33.333333333333336
50.0   150.0   33.333333333333336
100.0   150.0   50.0
50.0   120.0   50.0
50.0   150.0   50.0
100.0   150.0   50.0
50.0   150.0   33.333333333333336
50.0   120.0   50.0
100.0   150.0   50.0
100.0   120.0   50.0
100.0   120.0   33.333333333333336
50.0   120.0   50.0
100.0   150.0   50.0
100.0   120.0   33.333333333333336
50.0   150.0   33.333333333333336
100.0   0.0   0.0
150.0   0.0   0.0
100.0   30.0   0.0
100.0   0.0   16.666666666666668
150.0   0.0   0.0
150.0   30.0   0.0
100.0   30.0   0.0
150.0   30.0   16.666666666666668
100.0   0.0   16.666666666666668
100.0   30.0   16.666666666666668
150.0   30.0   16.666666666666668
100.0   30.0   0.0
100.0   0.0   16.666666666666668
150.0   30.0   16.666666666666668
150.0   0.0   16.666666666666668
150.0   0.0   0.0
100.0   0.0   16.666666666666668
150.0   30.0   16.666666666666668
150.0   0.0   0.0
100.0   30.0   0.0
100.0   0.0   16.666666666666668
150.0   0.0   16.666666666666668
100.0   30.0   16.666666666666668
100.0   0.0   33.333333333333336
150.0   0.0   16.666666666666668
150.0   30.0   16.666666666666668
100.0   30.0   16.666666666666668
150.0   30.0   33.333333333333336
100.0   0.0   33.333333333333336
100.0   30.0   33.333333333333336
150.0   30.0   33.333333333333336
100.0   30.0   16.666666666666668
100.0   0.0   33.333333333333336
150.0   30.0   33.333333333333336
150.0   0.0   33.333333333333336
150.0   0.0   16.666666666666668
100.0   0.0   33.333333333333336
150.0   30.0   33.333333333333336
150.0   0.0   16.666666666666668
100.0   30.0   16.666666666666668
100.0   0.0   33.333333333333336
150.0   0.0   33.333333333333336
100.0   30.0   33.333333333333336
100.0   0.0   50.0
150.0   0.0   33.333333333333336
150.0   30.0   33.333333333333336
100.0   30.0   33.333333333333336
150.0   30.0   50.0
100.0   0.0   50.0
100.0   30.0   50.0
150.0   30.0   50.0
100.0   30.0   33.333333333333336
100.0   0.0   50.0
150.0   30.0   50.0
150.0   0.0   50.0
150.0   0.0   33.333333333333336
100.0   0.0   50.0
150.0   30.0   50.0
150.0   0.0   33.333333333333336
100.0   30.0   33.333333333333336
100.0   30.0   0.0
150.0   30.0   0.0
100.0   60.0   0.0
100.0   30.0   16.666666666666668
150.0   30.0   0.0
150.0   60.0   0.0
100.0   60.0   0.0
150.0   60.0   16.666666666666668
100.0   30.0   16.666666666666668
100.0   60.0   16.666666666666668
150.0   60.0   16.666666666666668
100.0   60.0   0.0
100.0   30.0   16.666666666666668
150.0   60.0   16.666666666666668
150.0   30.0   16.666666666666668
150.0   30.0   0.0
100.0   30.0   16.666666666666668
150.0   60.0   16.666666666666668
150.0   30.0   0.0
100.0   60.0   0.0
100.0   30.0   16.666666666666668
150.0   30.0   16.666666666666668
100.0   60.0   16.666666666666668
100.0   30.0   33.333333333333336
150.0   30.0   16.666666666666668
150.0   60.0   16.666666666666668
100.0   60.0   16.666666666666668
150.0   60.0   33.333333333333336
100.0   30.0   33.333333333333336
100.0   60.0   33.333333333333336
150.0   60.0   33.333333333333336
100.0   60.0   16.666666666666668
100.0   30.0   33.333333333333336
150.0   60.0   33.333333333333336
150.0   30.0   33.333333333333336
150.0   30.0   16.666666666666668
100.0   30.0   33.333333333333336
150.0   60.0   33.333333333333336
150.0   30.0   16.666666666666668
100.0   60.0   16.666666666666668
100.0   30.0   33.333333333333336
150.0   30.0   33.333333333333336
100.0   60.0   33.333333333333336
100.0   30.0   50.0
150.0   30.0   33.333333333333336
150.0   60.0   33.333333333333336
100.0   60.0   33.333333333333336
150.0   60.0   50.0
100.0   30.0   50.0
100.0   60.0   50.0
150.0   60.0   50.0
100.0   60.0   33.333333333333336
100.0   30.0   50.0
150.0   60.0   50.0
150.0   30.0   50.0
150.0   30.0   33.333333333333336
100.0   30.0   50.0
150.0   60.0   50.0
150.0   30.0   33.333333333333336
100.0   60.0   33.333333333333336
100.0   60.0   0.0
150.0   60.0   0.0
100.0   90.0   0.0
100.0   60.0   16.666666666666668
150.0   60.0   0.0
150.0   90.0   0.0
100.0   90.0   0.0
150.0   90.0   16.666666666666668
100.0   60.0   16.666666666666668
100.0   90.0   16.666666666666668
150.0   90.0   16.666666666666668
100.0   90.0   0.0
100.0   60.0   16.666666666666668
150.0   90.0   16.666666666666668
150.0   60.0   16.666666666666668
150.0   60.0   0.0
100.0   60.0   16.666666666666668
150.0   90.0   16.666666666666668
150.0   60.0   0.0
100.0   90.0   0.0
100.0   60.0   16.666666666666668
150.0   60.0   16.666666666666668
100.0   90.0   16.666666666666668
100.0   60.0   33.333333333333336
150.0   60.0   16.666666666666668
150.0   90.0   16.666666666666668
100.0   90.0   16.666666666666668
150.0   90.0   33.333333333333336
100.0   60.0   33.333333333333336
100.0   90.0   33.333333333333336
150.0   90.0   33.333333333333336
100.0   90.0   16.666666666666668
100.0   60.0   33.333333333333336
150.0   90.0   33.333333333333336
150.0   60.0   33.333333333333336
150.0   60.0   16.666666666666668
100.0   60.0   33.333333333333336
150.0   90.0   33.333333333333336
150.0   60.0   16.666666666666668
100.0   90.0   16.666666666666668
100.0   60.0   33.333333333333336
150.0   60.0   33.333333333333336
100.0   90.0   33.333333333333336
100.0   60.0   50.0
150.0   60.0   33.333333333333336
150.0   90.0   33.333333333333336
100.0   90.0   33.333333333333336
150.0   90.0   50.0
100.0   60.0   50.0
100.0   90.0   50.0
150.0   90.0   50.0
100.0   90.0   33.333333333333336
100.0   60.0   50.0
150.0   90.0   50.0
150.0   60.0   50.0
150.0   60.0   33.333333333333336
100.0   60.0   50.0
150.0   90.0   50.0
150.0   60.0   33.333333333333336
100.0   90.0   33.333333333333336
100.0   90.0   0.0
150.0   90.0   0.0
100.0   120.0   0.0
100.0   90.0   16.666666666666668
150.0   90.0   0.0
150.0   120.0   0.0
100.0   120.0   0.0
150.0   120.0   16.666666666666668
100.0   90.0   16.666666666666668
100.0   120.0   16.666666666666668
150.0   120.0   16.666666666666668
100.0   120.0   0.0
100.0   90.0   16.666666666666668
150.0   120.0   16.666666666666668
150.0   90.0   16.666666666666668
150.0   90.0   0.0
100.0   90.0   16.666666666666668
150.0   120.0   16.666666666666668
150.0   90.0   0.0
100.0   120.0   0.0
100.0   90.0   16.666666666666668
150.0   90.0   16.666666666666668
100.0   120.0   16.666666666666668
100.0   90.0   33.333333333333336
150.0   90.0   16.666666666666668
150.0   120.0   16.666666666666668
100.0   120.0   16.666666666666668
150.0   120.0   33.333333333333336
100.0   90.0   33.333333333333336
100.0   120.0   33.333333333333336
150.0   120.0   33.333333333333336
100.0   120.0   16.666666666666668
100.0   90.0   33.333333333333336
150.0   120.0   33.333333333333336
150.0   90.0   33.333333333333336
150.0   90.0   16.666666666666668
100.0   90.0   33.333333333333336
150.0   120.0   33.333333333333336
150.0   90.0   16.666666666666668
100.0   120.0   16.666666666666668
100.0   90.0   33.333333333333336
150.0   90.0   33.333333333333336
100.0   120.0   33.333333333333336
100.0   90.0   50.0
150.0   90.0   33.333333333333336
150.0   120.0   33.333333333333336
100.0   120.0   33.333333333333336
150.0   120.0   50.0
100.0   90.0   50.0
100.0   120.0   50.0
150.0   120.0   50.0
100.0   120.0   33.333333333333336
100.0   90.0   50.0
150.0   120.0   50.0
150.0   90.0   50.0
150.0   90.0   33.333333333333336
100.0   90.0   50.0
150.0   120.0   50.0
150.0   90.0   33.333333333333336
100.0   120.0   33.333333333333336
100.0   120.0   0.0
150.0   120.0   0.0
100.0   150.0   0.0
100.0   120.0   16.666666666666668
150.0   120.0   0.0
150.0   150.0   0.0
100.0   150.0   0.0
150.0   150.0   16.666666666666668
100.0   120.0   16.666666666666668
100.0   150.0   16.666666666666668
150.0   150.0   16.666666666666668
100.0   150.0   0.0
100.0   120.0   16.666666666666668
150.0   150.0   16.666666666666668
150.0   120.0   16.666666666666668
150.0   120.0   0.0
100.0   120.0   16.666666666666668
150.0   150.0   16.666666666666668
150.0   120.0   0.0
100.0   150.0   0.0
100.0   120.0   16.666666666666668
150.0   120.0   16.666666666666668
100.0   150.0   16.666666666666668
100.0   120.0   33.333333333333336
150.0   120.0   16.666666666666668
150.0   150.0   16.666666666666668
100.0   150.0   16.666666666666668
150.0   150.0   33.333333333333336
100.0   120.0   33.333333333333336
100.0   150.0   33.333333333333336
150.0   150.0   33.333333333333336
100.0   150.0   16.666666666666668
100.0   120.0   33.333333333333336
150.0   150.0   33.333333333333336
150.0   120.0   33.333333333333336
150.0   120.0   16.666666666666668
100.0   120.0   33.333333333333336
150.0   150.0   33.333333333333336
150.0   120.0   16.666666666666668
100.0   150.0   16.666666666666668
100.0   120.0   33.333333333333336
150.0   120.0   33.333333333333336
100.0   150.0   33.333333333333336
100.0   120.0   50.0
150.0   120.0   33.333333333333336
150.0   150.0   33.333333333333336
100.0   150.0   33.333333333333336
150.0   150.0   50.0
100.0   120.0   50.0
100.0   150.0   50.0
150.0   150.0   50.0
100.0   150.0   33.333333333333336
100.0   120.0   50.0
150.0   150.0   50.0
150.0   120.0   50.0
150.0   120.0   33.333333333333336
100.0   120.0   50.0
150.0   150.0   50.0
150.0   120.0   33.333333333333336
100.0   150.0   33.333333333333336
150.0   0.0   0.0
200.0   0.0   0.0
150.0   30.0   0.0
150.0   0.0   16.666666666666668
200.0   0.0   0.0
200.0   30.0   0.0
150.0   30.0   0.0
200.0   30.0   16.666666666666668
150.0   0.0   16.666666666666668
150.0   30.0   16.666666666666668
200.0   30.0   16.666666666666668
150.0   30.0   0.0
150.0   0.0   16.666666666666668
200.0   30.0   16.666666666666668
200.0   0.0   16.666666666666668
200.0   0.0   0.0
150.0   0.0   16.666666666666668
200.0   30.0   16.666666666666668
200.0   0.0   0.0
150.0   30.0   0.0
150.0   0.0   16.666666666666668
200.0   0.0   16.666666666666668
150.0   30.0   16.666666666666668
150.0   0.0   33.333333333333336
200.0   0.0   16.666666666666668
200.0   30.0   16.666666666666668
150.0   30.0   16.666666666666668
200.0   30.0   33.333333333333336
150.0   0.0   33.333333333333336
150.0   30.0   33.333333333333336
200.0   30.0   33.333333333333336
150.0   30.0   16.666666666666668
150.0   0.0   33.333333333333336
200.0   30.0   33.333333333333336
200.0   0.0   33.333333333333336
200.0   0.0   16.666666666666668
150.0   0.0   33.333333333333336
200.0   30.0   33.333333333333336
200.0   0.0   16.666666666666668
150.0   30.0   16.666666666666668
150.0   0.0   33.333333333333336
200.0   0.0   33.333333333333336
150.0   30.0   33.333333333333336
150.0   0.0   50.0
200.0   0.0   33.333333333333336
200.0   30.0   33.333333333333336
150.0   30.0   33.333333333333336
200.0   30.0   50.0
150.0   0.0   50.0
150.0   30.0   50.0
200.0   30.0   50.0
150.0   30.0   33.333333333333336
150.0   0.0   50.0
200.0   30.0   50.0
200.0   0.0   50.0
200.0   0.0   33.333333333333336
150.0   0.0   50.0
200.0   30.0   50.0
200.0   0.0   33.333333333333336
150.0   30.0   33.333333333333336
150.0   30.0   0.0
200.0   30.0   0.0
150.0   60.0   0.0
150.0   30.0   16.666666666666668
200.0   30.0   0.0
200.0   60.0   0.0
150.0   60.0   0.0
200.0   60.0   16.666666666666668
150.0   30.0   16.666666666666668
150.0   60.0   16.666666666666668
200.0   60.0   16.666666666666668
150.0   60.0   0.0
150.0   30.0   16.666666666666668
200.0   60.0   16.666666666666668
200.0   30.0   16.666666666666668
200.0   30.0   0.0
150.0   30.0   16.666666666666668
200.0   60.0   16.666666666666668
200.0   30.0   0.0
150.0   60.0   0.0
150.0   30.0   16.666666666666668
200.0   30.0   16.666666666666668
150.0   60.0   16.666666666666668
150.0   30.0   33.333333333333336
200.0   30.0   16.666666666666668
200.0   60.0   16.666666666666668
150.0   60.0   16.666666666666668
200.0   60.0   33.333333333333336
150.0   30.0   33.333333333333336
150.0   60.0   33.333333333333336
200.0   60.0   33.333333333333336
150.0   60.0   16.666666666666668
150.0   30.0   33.333333333333336
200.0   60.0   33.333333333333336
200.0   30.0   33.333333333333336
200.0   30.0   16.666666666666668
150.0   30.0   33.333333333333336
200.0   60.0   33.333333333333336
200.0   30.0   16.666666666666668
150.0   60.0   16.666666666666668
150.0   30.0   33.333333333333336
200.0   30.0   33.333333333333336
150.0   60.0   33.333333333333336
150.0   30.0   50.0
200.0   30.0   33.333333333333336
200.0   60.0   33.333333333333336
150.0   60.0   33.333333333333336
200.0   60.0   50.0
150.0   30.0   50.0
150.0   60.0   50.0
200.0   60.0   50.0
150.0   60.0   33.333333333333336
150.0   30.0   50.0
200.0   60.0   50.0
200.0   30.0   50.0
200.0   30.0   33.333333333333336
150.0   30.0   50.0
200.0   60.0   50.0
200.0   30.0   33.333333333333336
150.0   60.0   33.333333333333336
150.0   60.0   0.0
200.0   60.0   0.0
150.0   90.0   0.0
150.0   60.0   16.666666666666668
200.0   60.0   0.0
200.0   90.0   0.0
150.0   90.0   0.0
200.0   90.0   16.666666666666668
150.0   60.0   16.666666666666668
150.0   90.0   16.666666666666668
200.0   90.0   16.666666666666668
150.0   90.0   0.0
150.0   60.0   16.666666666666668
200.0   90.0   16.666666666666668
200.0   60.0   16.666666666666668
200.0   60.0   0.0
150.0   60.0   16.666666666666668
200.0   90.0   16.666666666666668
200.0   60.0   0.0
150.0   90.0   0.0
150.0   60.0   16.666666666666668
200.0   60.0   16.666666666666668
150.0   90.0   16.666666666666668
150.0   60.0   33.333333333333336
200.0   60.0   16.666666666666668
200.0   90.0   16.666666666666668
150.0   90.0   16.666666666666668
200.0   90.0   33.333333333333336
150.0   60.0   33.333333333333336
150.0   90.0   33.333333333333336
200.0   90.0   33.333333333333336
150.0   90.0   16.666666666666668
150.0   60.0   33.333333333333336
200.0   90.0   33.333333333333336
200.0   60.0   33.333333333333336
200.0   60.0   16.666666666666668
150.0   60.0   33.333333333333336
200.0   90.0   33.333333333333336
200.0   60.0   16.666666666666668
150.0   90.0   16.666666666666668
150.0   60.0   33.333333333333336
200.0   60.0   33.333333333333336
150.0   90.0   33.333333333333336
150.0   60.0   50.0
200.0   60.0   33.333333333333336
200.0   90.0   33.333333333333336
150.0   90.0   33.333333333333336
200.0   90.0   50.0
150.0   60.0   50.0
150.0   90.0   50.0
200.0   90.0   50.0
150.0   90.0   33.333333333333336
150.0   60.0   50.0
200.0   90.0   50.0
200.0   60.0   50.0
200.0   60.0   33.333333333333336
150.0   60.0   50.0
200.0   90.0   50.0
200.0   60.0   33.333333333333336
150.0   90.0   33.333333333333336
150.0   90.0   0.0
200.0   90.0   0.0
150.0   120.0   0.0
150.0   90.0   16.666666666666668
200.0   90.0   0.0
200.0   120.0   0.0
150.0   120.0   0.0
200.0   120.0   16.666666666666668
150.0   90.0   16.666666666666668
150.0   120.0   16.666666666666668
200.0   120.0   16.666666666666668
150.0   120.0   0.0
150.0   90.0   16.666666666666668
200.0   120.0   16.666666666666668
200.0   90.0   16.666666666666668
200.0   90.0   0.0
150.0   90.0   16.666666666666668
200.0   120.0   16.666666666666668
200.0   90.0   0.0
150.0   120.0   0.0
150.0   90.0   16.666666666666668
200.0   90.0   16.666666666666668
150.0   120.0   16.666666666666668
150.0   90.0   33.333333333333336
200.0   90.0   16.666666666666668
200.0   120.0   16.666666666666668
150.0   120.0   16.666666666666668
200.0   120.0   33.333333333333336
150.0   90.0   33.333333333333336
150.0   120.0   33.333333333333336
200.0   120.0   33.333333333333336
150.0   120.0   16.666666666666668
150.0   90.0   33.333333333333336
200.0   120.0   33.333333333333336
200.0   90.0   33.333333333333336
200.0   90.0   16.666666666666668
150.0   90.0   33.333333333333336
200.0   120.0   33.333333333333336
200.0   90.0   16.666666666666668
150.0   120.0   16.666666666666668
150.0   90.0   33.333333333333336
200.0   90.0   33.333333333333336
150.0   120.0   33.333333333333336
150.0   90.0   50.0
200.0   90.0   33.333333333333336
200.0   120.0   33.333333333333336
150.0   120.0   33.333333333333336
200.0   120.0   50.0
150.0   90.0   50.0
150.0   120.0   50.0
200.0   120.0   50.0
150.0   120.0   33.333333333333336
150.0   90.0   50.0
200.0   120.0   50.0
200.0   90.0   50.0
200.0   90.0   33.333333333333336
150.0   90.0   50.0
200.0   120.0   50.0
200.0   90.0   33.333333333333336
150.0   120.0   33.333333333333336
150.0   120.0   0.0
200.0   120.0   0.0
150.0   150.0   0.0
150.0   120.0   16.666666666666668
200.0   120.0   0.0
200.0   150.0   0.0
150.0   150.0   0.0
200.0   150.0   16.666666666666668
150.0   120.0   16.666666666666668
150.0   150.0   16.666666666666668
200.0   150.0   16.666666666666668
150.0   150.0   0.0
150.0   120.0   16.666666666666668
200.0   150.0   16.666666666666668
200.0   120.0   16.666666666666668
200.0   120.0   0.0
150.0   120.0   16.666666666666668
200.0   150.0   16.666666666666668
200.0   120.0   0.0
150.0   150.0   0.0
150.0   120.0   16.666666666666668
200.0   120.0   16.666666666666668
150.0   150.0   16.666666666666668
150.0   120.0   33.333333333333336
200.0   120.0   16.666666666666668
200.0   150.0   16.666666666666668
150.0   150.0   16.666666666666668
200.0   150.0   33.333333333333336
150.0   120.0   33.333333333333336
150.0   150.0   33.333333333333336
200.0   150.0   33.333333333333336
150.0   150.0   16.666666666666668
150.0   120.0   33.333333333333336
200.0   150.0   33.333333333333336
200.0   120.0   33.333333333333336
200.0   120.0   16.666666666666668
150.0   120.0   33.333333333333336
200.0   150.0   33.333333333333336
200.0   120.0   16.666666666666668
150.0   150.0   16.666666666666668
150.0   120.0   33.333333333333336
200.0   120.0   33.333333333333336
150.0   150.0   33.333333333333336
150.0   120.0   50.0
200.0   120.0   33.333333333333336
200.0   150.0   33.333333333333336
150.0   150.0   33.333333333333336
200.0   150.0   50.0
150.0   120.0   50.0
150.0   150.0   50.0
200.0   150.0   50.0
150.0   150.0   33.333333333333336
150.0   120.0   50.0
200.0   150.0   50.0
200.0   120.0   50.0
200.0   120.0   33.333333333333336
150.0   120.0   50.0
200.0   150.0   50.0
200.0   120.0   33.333333333333336
150.0   150.0   33.333333333333336
200.0   0.0   0.0
250.0   0.0   0.0
200.0   30.0   0.0
200.0   0.0   16.666666666666668
250.0   0.0   0.0
250.0   30.0   0.0
200.0   30.0   0.0
250.0   30.0   16.666666666666668
200.0   0.0   16.666666666666668
200.0   30.0   16.666666666666668
250.0   30.0   16.666666666666668
200.0   30.0   0.0
200.0   0.0   16.666666666666668
250.0   30.0   16.666666666666668
250.0   0.0   16.666666666666668
250.0   0.0   0.0
200.0   0.0   16.666666666666668
250.0   30.0   16.666666666666668
250.0   0.0   0.0
200.0   30.0   0.0
200.0   0.0   16.666666666666668
250.0   0.0   16.666666666666668
200.0   30.0   16.666666666666668
200.0   0.0   33.333333333333336
250.0   0.0   16.666666666666668
250.0   30.0   16.666666666666668
200.0   30.0   16.666666666666668
250.0   30.0   33.333333333333336
200.0   0.0   33.333333333333336
200.0   30.0   33.333333333333336
250.0   30.0   33.333333333333336
200.0   30.0   16.666666666666668
200.0   0.0   33.333333333333336
250.0   30.0   33.333333333333336
250.0   0.0   33.333333333333336
250.0   0.0   16.666666666666668
200.0   0.0   33.333333333333336
250.0   30.0   33.333333333333336
250.0   0.0   16.666666666666668
200.0   30.0   16.666666666666668
200.0   0.0   33.333333333333336
250.0   0.0   33.333333333333336
200.0   30.0   33.333333333333336
200.0   0.0   50.0
250.0   0.0   33.333333333333336
250.0   30.0   33.333333333333336
200.0   30.0   33.333333333333336
250.0   30.0   50.0
200.0   0.0   50.0
200.0   30.0   50.0
250.0   30.0   50.0
200.0   30.0   33.333333333333336
200.0   0.0   50.0
250.0   30.0   50.0
250.0   0.0   50.0
250.0   0.0   33.333333333333336
200.0   0.0   50.0
250.0   30.0   50.0
250.0   0.0   33.333333333333336
200.0   30.0   33.333333333333336
200.0   30.0   0.0
250.0   30.0   0.0
200.0   60.0   0.0
200.0   30.0   16.666666666666668
250.0   30.0   0.0
250.0   60.0   0.0
200.0   60.0   0.0
250.0   60.0   16.666666666666668
200.0   30.0   16.666666666666668
200.0   60.0   16.666666666666668
250.0   60.0   16.666666666666668
200.0   60.0   0.0
200.0   30.0   16.666666666666668
250.0   60.0   16.666666666666668
250.0   30.0   16.666666666666668
250.0   30.0   0.0
200.0   30.0   16.666666666666668
250.0   60.0   16.666666666666668
250.0   30.0   0.0
200.0   60.0   0.0
200.0   30.0   16.666666666666668
250.0   30.0   16.666666666666668
200.0   60.0   16.666666666666668
200.0   30.0   33.333333333333336
250.0   30.0   16.666666666666668
250.0   60.0   16.666666666666668
200.0   60.0   16.666666666666668
250.0   60.0   33.333333333333336
200.0   30.0   33.333333333333336
200.0   60.0   33.333333333333336
250.0   60.0   33.333333333333336
200.0   60.0   16.666666666666668
200.0   30.0   33.333333333333336
250.0   60.0   33.333333333333336
250.0   30.0   33.333333333333336
250.0   30.0   16.666666666666668
200.0   30.0   33.333333333333336
250.0   60.0   33.333333333333336
250.0   30.0   16.666666666666668
200.0   60.0   16.666666666666668
200.0   30.0   33.333333333333336
250.0   30.0   33.333333333333336
200.0   60.0   33.333333333333336
200.0   30.0   50.0
250.0   30.0   33.333333333333336
250.0   60.0   33.333333333333336
200.0   60.0   33.333333333333336
250.0   60.0   50.0
200.0   30.0   50.0
200.0   60.0   50.0
250.0   60.0   50.0
200.0   60.0   33.333333333333336
200.0   30.0   50.0
250.0   60.0   50.0
250.0   30.0   50.0
250.0   30.0   33.333333333333336
200.0   30.0   50.0
250.0   60.0   50.0
250.0   30.0   33.333333333333336
200.0   60.0   33.333333333333336
200.0   60.0   0.0
250.0   60.0   0.0
200.0   90.0   0.0
200.0   60.0   16.666666666666668
250.0   60.0   0.0
250.0   90.0   0.0
200.0   90.0   0.0
250.0   90.0   16.666666666666668
200.0   60.0   16.666666666666668
200.0   90.0   16.666666666666668
250.0   90.0   16.666666666666668
200.0   90.0   0.0
200.0   60.0   16.666666666666668
250.0   90.0   16.666666666666668
250.0   60.0   16.666666666666668
250.0   60.0   0.0
200.0   60.0   16.666666666666668
250.0   90.0   16.666666666666668
250.0   60.0   0.0
200.0   90.0   0.0
200.0   60.0   16.666666666666668
250.0   60.0   16.666666666666668
200.0   90.0   16.666666666666668
200.0   60.0   33.333333333333336
250.0   60.0   16.666666666666668
250.0   90.0   16.666666666666668
200.0   90.0   16.666666666666668
250.0   90.0   33.333333333333336
200.0   60.0   33.333333333333336
200.0   90.0   33.333333333333336
250.0   90.0   33.333333333333336
200.0   90.0   16.666666666666668
200.0   60.0   33.333333333333336
250.0   90.0   33.333333333333336
250.0   60.0   33.333333333333336
250.0   60.0   16.666666666666668
200.0   60.0   33.333333333333336
250.0   90.0   33.333333333333336
250.0   60.0   16.666666666666668
200.0   90.0   16.666666666666668
200.0   60.0   33.333333333333336
250.0   60.0   33.333333333333336
200.0   90.0   33.333333333333336
200.0   60.0   50.0
250.0   60.0   33.333333333333336
250.0   90.0   33.333333333333336
200.0   90.0   33.333333333333336
250.0   90.0   50.0
200.0   60.0   50.0
200.0   90.0   50.0
250.0   90.0   50.0
200.0   90.0   33.333333333333336
200.0   60.0   50.0
250.0   90.0   50.0
250.0   60.0   50.0
250.0   60.0   33.333333333333336
200.0   60.0   50.0
250.0   90.0   50.0
250.0   60.0   33.333333333333336
200.0   90.0   33.333333333333336
200.0   90.0   0.0
250.0   90.0   0.0
200.0   120.0   0.0
200.0   90.0   16.666666666666668
250.0   90.0   0.0
250.0   120.0   0.0
200.0   120.0   0.0
250.0   120.0   16.666666666666668
200.0   90.0   16.666666666666668
200.0   120.0   16.666666666666668
250.0   120.0   16.666666666666668
200.0   120.0   0.0
200.0   90.0   16.666666666666668
250.0   120.0   16.666666666666668
250.0   90.0   16.666666666666668
250.0   90.0   0.0
200.0   90.0   16.666666666666668
250.0   120.0   16.666666666666668
250.0   90.0   0.0
200.0   120.0   0.0
200.0   90.0   16.666666666666668
250.0   90.0   16.666666666666668
200.0   120.0   16.666666666666668
200.0   90.0   33.333333333333336
250.0   90.0   16.666666666666668
250.0   120.0   16.666666666666668
200.0   120.0   16.666666666666668
250.0   120.0   33.333333333333336
200.0   90.0   33.333333333333336
200.0   120.0   33.333333333333336
250.0   120.0   33.333333333333336
200.0   120.0   16.666666666666668
200.0   90.0   33.333333333333336
250.0   120.0   33.333333333333336
250.0   90.0   33.333333333333336
250.0   90.0   16.666666666666668
200.0   90.0   33.333333333333336
250.0   120.0   33.333333333333336
250.0   90.0   16.666666666666668
200.0   120.0   16.666666666666668
200.0   90.0   33.333333333333336
250.0   90.0   33.333333333333336
200.0   120.0   33.333333333333336
200.0   90.0   50.0
250.0   90.0   33.333333333333336
250.0   120.0   33.333333333333336
200.0   120.0   33.333333333333336
250.0   120.0   50.0
200.0   90.0   50.0
200.0   120.0   50.0
250.0   120.0   50.0
200.0   120.0   33.333333333333336
200.0   90.0   50.0
250.0   120.0   50.0
250.0   90.0   50.0
250.0   90.0   33.333333333333336
200.0   90.0   50.0
250.0   120.0   50.0
250.0   90.0   33.333333333333336
200.0   120.0   33.333333333333336
200.0   120.0   0.0
250.0   120.0   0.0
200.0   150.0   0.0
200.0   120.0   16.666666666666668
250.0   120.0   0.0
250.0   150.0   0.0
200.0   150.0   0.0
250.0   150.0   16.666666666666668
200.0   120.0   16.666666666666668
200.0   150.0   16.666666666666668
250.0   150.0   16.666666666666668
200.0   150.0   0.0
200.0   120.0   16.666666666666668
250.0   150.0   16.666666666666668
250.0   120.0   16.666666666666668
250.0   120.0   0.0
200.0   120.0   16.666666666666668
250.0   150.0   16.666666666666668
250.0   120.0   0.0
200.0   150.0   0.0
200.0   120.0   16.666666666666668
250.0   120.0   16.666666666666668
200.0   150.0   16.666666666666668
200.0   120.0   33.333333333333336
250.0   120.0   16.666666666666668
250.0   150.0   16.666666666666668
200.0   150.0   16.666666666666668
250.0   150.0   33.333333333333336
200.0   120.0   33.333333333333336
200.0   150.0   33.333333333333336
250.0   150.0   33.333333333333336
200.0   150.0   16.666666666666668
200.0   120.0   33.333333333333336
250.0   150.0   33.333333333333336
250.0   120.0   33.333333333333336
250.0   120.0   16.666666666666668
200.0   120.0   33.333333333333336
250.0   150.0   33.333333333333336
250.0   120.0   16.666666666666668
200.0   150.0   16.666666666666668
200.0   120.0   33.333333333333336
250.0   120.0   33.333333333333336
200.0   150.0   33.333333333333336
200.0   120.0   50.0
250.0   120.0   33.333333333333336
250.0   150.0   33.333333333333336
200.0   150.0   33.333333333333336
250.0   150.0   50.0
200.0   120.0   50.0
200.0   150.0   50.0
250.0   150.0   50.0
200.0   150.0   33.333333333333336
200.0   120.0   50.0
250.0   150.0   50.0
250.0   120.0   50.0
250.0   120.0   33.333333333333336
200.0   120.0   50.0
250.0   150.0   50.0
250.0   120.0   33.333333333333336
200.0   150.0   33.333333333333336
250.0   0.0   0.0
300.0   0.0   0.0
250.0   30.0   0.0
250.0   0.0   16.666666666666668
300.0   0.0   0.0
300.0   30.0   0.0
250.0   30.0   0.0
300.0   30.0   16.666666666666668
250.0   0.0   16.666666666666668
250.0   30.0   16.666666666666668
300.0   30.0   16.666666666666668
250.0   30.0   0.0
250.0   0.0   16.666666666666668
300.0   30.0   16.666666666666668
300.0   0.0   16.666666666666668
300.0   0.0   0.0
250.0   0.0   16.666666666666668
300.0   30.0   16.666666666666668
300.0   0.0   0.0
250.0   30.0   0.0
250.0   0.0   16.666666666666668
300.0   0.0   16.666666666666668
250.0   30.0   16.666666666666668
250.0   0.0   33.333333333333336
300.0   0.0   16.666666666666668
300.0   30.0   16.666666666666668
250.0   30.0   16.666666666666668
300.0   30.0   33.333333333333336
250.0   0.0   33.333333333333336
250.0   30.0   33.333333333333336
300.0   30.0   33.333333333333336
250.0   30.0   16.666666666666668
250.0   0.0   33.333333333333336
300.0   30.0   33.333333333333336
300.0   0.0   33.333333333333336
300.0   0.0   16.666666666666668
250.0   0.0   33.333333333333336
300.0   30.0   33.333333333333336
300.0   0.0   16.666666666666668
250.0   30.0   16.666666666666668
250.0   0.0   33.333333333333336
300.0   0.0   33.333333333333336
250.0   30.0   33.333333333333336
250.0   0.0   50.0
300.0   0.0   33.333333333333336
300.0   30.0   33.333333333333336
250.0   30.0   33.333333333333336
300.0   30.0   50.0
250.0   0.0   50.0
250.0   30.0   50.0
300.0   30.0   50.0
250.0   30.0   33.333333333333336
250.0   0.0   50.0
300.0   30.0   50.0
300.0   0.0   50.0
300.0   0.0   33.333333333333336
250.0   0.0   50.0
300.0   30.0   50.0
300.0   0.0   33.333333333333336
250.0   30.0   33.333333333333336
250.0   30.0   0.0
300.0   30.0   0.0
250.0   60.0   0.0
250.0   30.0   16.666666666666668
300.0   30.0   0.0
300.0   60.0   0.0
250.0   60.0   0.0
300.0   60.0   16.666666666666668
250.0   30.0   16.666666666666668
250.0   60.0   16.666666666666668
300.0   60.0   16.666666666666668
250.0   60.0   0.0
250.0   30.0   16.666666666666668
300.0   60.0   16.666666666666668
300.0   30.0   16.666666666666668
300.0   30.0   0.0
250.0   30.0   16.666666666666668
300.0   60.0   16.666666666666668
300.0   30.0   0.0
250.0   60.0   0.0
250.0   30.0   16.666666666666668
300.0   30.0   16.666666666666668
250.0   60.0   16.666666666666668
250.0   30.0   33.333333333333336
300.0   30.0   16.666666666666668
300.0   60.0   16.666666666666668
250.0   60.0   16.666666666666668
300.0   60.0   33.333333333333336
250.0   30.0   33.333333333333336
250.0   60.0   33.333333333333336
300.0   60.0   33.333333333333336
250.0   60.0   16.666666666666668
250.0   30.0   33.333333333333336
300.0   60.0   33.333333333333336
300.0   30.0   33.333333333333336
300.0   30.0   16.666666666666668
250.0   30.0   33.333333333333336
300.0   60.0   33.333333333333336
300.0   30.0   16.666666666666668
250.0   60.0   16.666666666666668
250.0   30.0   33.333333333333336
300.0   30.0   33.333333333333336
250.0   60.0   33.333333333333336
250.0   30.0   50.0
300.0   30.0   33.333333333333336
300.0   60.0   33.333333333333336
250.0   60.0   33.333333333333336
300.0   60.0   50.0
250.0   30.0   50.0
250.0   60.0   50.0
300.0   60.0   50.0
250.0   60.0   33.333333333333336
250.0   30.0   50.0
300.0   60.0   50.0
300.0   30.0   50.0
300.0   30.0   33.333333333333336
250.0   30.0   50.0
300.0   60.0   50.0
300.0   30.0   33.333333333333336
250.0   60.0   33.333333333333336
250.0   60.0   0.0
300.0   60.0   0.0
250.0   90.0   0.0
250.0   60.0   16.666666666666668
300.0   60.0   0.0
300.0   90.0   0.0
250.0   90.0   0.0
300.0   90.0   16.666666666666668
250.0   60.0   16.666666666666668
250.0   90.0   16.666666666666668
300.0   90.0   16.666666666666668
250.0   90.0   0.0
250.0   60.0   16.666666666666668
300.0   90.0   16.666666666666668
300.0   60.0   16.666666666666668
300.0   60.0   0.0
250.0   60.0   16.666666666666668
300.0   90.0   16.666666666666668
300.0   60.0   0.0
250.0   90.0   0.0
250.0   60.0   16.666666666666668
300.0   60.0   16.666666666666668
250.0   90.0   16.666666666666668
250.0   60.0   33.333333333333336
300.0   60.0   16.666666666666668
300.0   90.0   16.666666666666668
250.0   90.0   16.666666666666668
300.0   90.0   33.333333333333336
250.0   60.0   33.333333333333336
250.0   90.0   33.333333333333336
300.0   90.0   33.333333333333336
250.0   90.0   16.666666666666668
250.0   60.0   33.333333333333336
300.0   90.0   33.333333333333336
300.0   60.0   33.333333333333336
300.0   60.0   16.666666666666668
250.0   60.0   33.333333333333336
300.0   90.0   33.333333333333336
300.0   60.0   16.666666666666668
250.0   90.0   16.666666666666668
250.0   60.0   33.333333333333336
300.0   60.0   33.333333333333336
250.0   90.0   33.333333333333336
250.0   60.0   50.0
300.0   60.0   33.333333333333336
300.0   90.0   33.333333333333336
250.0   90.0   33.333333333333336
300.0   90.0   50.0
250.0   60.0   50.0
250.0   90.0   50.0
300.0   90.0   50.0
250.0   90.0   33.333333333333336
250.0   60.0   50.0
300.0   90.0   50.0
300.0   60.0   50.0
300.0   60.0   33.333333333333336
250.0   60.0   50.0
300.0   90.0   50.0
300.0   60.0   33.333333333333336
250.0   90.0   33.333333333333336
250.0   90.0   0.0
300.0   90.0   0.0
250.0   120.0   0.0
250.0   90.0   16.666666666666668
300.0   90.0   0.0
300.0   120.0   0.0
250.0   120.0   0.0
300.0   120.0   16.666666666666668
250.0   90.0   16.666666666666668
250.0   120.0   16.666666666666668
300.0   120.0   16.666666666666668
250.0   120.0   0.0
250.0   90.0   16.666666666666668
300.0   120.0   16.666666666666668
300.0   90.0   16.666666666666668
300.0   90.0   0.0
250.0   90.0   16.666666666666668
300.0   120.0   16.666666666666668
300.0   90.0   0.0
250.0   120.0   0.0
250.0   90.0   16.666666666666668
300.0   90.0   16.666666666666668
250.0   120.0   16.666666666666668
250.0   90.0   33.333333333333336
300.0   90.0   16.666666666666668
300.0   120.0   16.666666666666668
250.0   120.0   16.666666666666668
300.0   120.0   33.333333333333336
250.0   90.0   33.333333333333336
250.0   120.0   33.333333333333336
300.0   120.0   33.333333333333336
250.0   120.0   16.666666666666668
250.0   90.0   33.333333333333336
300.0   120.0   33.333333333333336
300.0   90.0   33.333333333333336
300.0   90.0   16.666666666666668
250.0   90.0   33.333333333333336
300.0   120.0   33.333333333333336
300.0   90.0   16.666666666666668
250.0   120.0   16.666666666666668
250.0   90.0   33.333333333333336
300.0   90.0   33.333333333333336
250.0   120.0   33.333333333333336
250.0   90.0   50.0
300.0   90.0   33.333333333333336
300.0   120.0   33.333333333333336
250.0   120.0   33.333333333333336
300.0   120.0   50.0
250.0   90.0   50.0
250.0   120.0   50.0
300.0   120.0   50.0
250.0   120.0   33.333333333333336
250.0   90.0   50.0
300.0   120.0   50.0
300.0   90.0   50.0
300.0   90.0   33.333333333333336
250.0   90.0   50.0
300.0   120.0   50.0
300.0   90.0   33.333333333333336
250.0   120.0   33.333333333333336
250.0   120.0   0.0
300.0   120.0   0.0
250.0   150.0   0.0
250.0   120.0   16.666666666666668
300.0   120.0   0.0
300.0   150.0   0.0
250.0   150.0   0.0
300.0   150.0   16.666666666666668
250.0   120.0   16.666666666666668
250.0   150.0   16.666666666666668
300.0   150.0   16.666666666666668
250.0   150.0   0.0
250.0   120.0   16.666666666666668
300.0   150.0   16.666666666666668
300.0   120.0   16.666666666666668
300.0   120.0   0.0
250.0   120.0   16.666666666666668
300.0   150.0   16.666666666666668
300.0   120.0   0.0
250.0   150.0   0.0
250.0   120.0   16.666666666666668
300.0   120.0   16.666666666666668
250.0   150.0   16.666666666666668
250.0   120.0   33.333333333333336
300.0   120.0   16.666666666666668
300.0   150.0   16.666666666666668
250.0   150.0   16.666666666666668
300.0   150.0   33.333333333333336
250.0   120.0   33.333333333333336
250.0   150.0   33.333333333333336
300.0   150.0   33.333333333333336
250.0   150.0   16.666666666666668
250.0   120.0   33.333333333333336
300.0   150.0   33.333333333333336
300.0   120.0   33.333333333333336
300.0   120.0   16.666666666666668
250.0   120.0   33.333333333333336
300.0   150.0   33.333333333333336
300.0   120.0   16.666666666666668
250.0   150.0   16.666666666666668
250.0   120.0   33.333333333333336
300.0   120.0   33.333333333333336
250.0   150.0   33.333333333333336
250.0   120.0   50.0
300.0   120.0   33.333333333333336
300.0   150.0   33.333333333333336
250.0   150.0   33.333333333333336
300.0   150.0   50.0
250.0   120.0   50.0
250.0   150.0   50.0
300.0   150.0   50.0
250.0   150.0   33.333333333333336
250.0   120.0   50.0
300.0   150.0   50.0
300.0   120.0   50.0
300.0   120.0   33.333333333333336
250.0   120.0   50.0
300.0   150.0   50.0
300.0   120.0   33.333333333333336
250.0   150.0   33.333333333333336
300.0   0.0   0.0
350.0   0.0   0.0
300.0   30.0   0.0
300.0   0.0   16.666666666666668
350.0   0.0   0.0
350.0   30.0   0.0
300.0   30.0   0.0
350.0   30.0   16.666666666666668
300.0   0.0   16.666666666666668
300.0   30.0   16.666666666666668
350.0   30.0   16.666666666666668
300.0   30.0   0.0
300.0   0.0   16.666666666666668
350.0   30.0   16.666666666666668
350.0   0.0   16.666666666666668
350.0   0.0   0.0
300.0   0.0   16.666666666666668
350.0   30.0   16.666666666666668
350.0   0.0   0.0
300.0   30.0   0.0
300.0   0.0   16.666666666666668
350.0   0.0   16.666666666666668
300.0   30.0   16.666666666666668
300.0   0.0   33.333333333333336
350.0   0.0   16.666666666666668
350.0   30.0   16.666666666666668
300.0   30.0   16.666666666666668
350.0   30.0   33.333333333333336
300.0   0.0   33.333333333333336
300.0   30.0   33.333333333333336
350.0   30.0   33.333333333333336
300.0   30.0   16.666666666666668
300.0   0.0   33.333333333333336
350.0   30.0   33.333333333333336
350.0   0.0   33.333333333333336
350.0   0.0   16.666666666666668
300.0   0.0   33.333333333333336
350.0   30.0   33.333333333333336
350.0   0.0   16.666666666666668
300.0   30.0   16.666666666666668
300.0   0.0   33.333333333333336
350.0   0.0   33.333333333333336
300.0   30.0   33.333333333333336
300.0   0.0   50.0
350.0   0.0   33.333333333333336
350.0   30.0   33.333333333333336
300.0   30.0   33.333333333333336
350.0   30.0   50.0
300.0   0.0   50.0
300.0   30.0   50.0
350.0   30.0   50.0
300.0   30.0   33.333333333333336
300.0   0.0   50.0
350.0   30.0   50.0
350.0   0.0   50.0
350.0   0.0   33.333333333333336
300.0   0.0   50.0
350.0   30.0   50.0
350.0   0.0   33.333333333333336
300.0   30.0   33.333333333333336
300.0   30.0   0.0
350.0   30.0   0.0
300.0   60.0   0.0
300.0   30.0   16.666666666666668
350.0   30.0   0.0
350.0   60.0   0.0
300.0   60.0   0.0
350.0   60.0   16.666666666666668
300.0   30.0   16.666666666666668
300.0   60.0   16.666666666666668
350.0   60.0   16.666666666666668
300.0   60.0   0.0
300.0   30.0   16.666666666666668
350.0   60.0   16.666666666666668
350.0   30.0   16.666666666666668
350.0   30.0   0.0
300.0   30.0   16.666666666666668
350.0   60.0   16.666666666666668
350.0   30.0   0.0
300.0   60.0   0.0
300.0   30.0   16.666666666666668
350.0   30.0   16.666666666666668
300.0   60.0   16.666666666666668
300.0   30.0   33.333333333333336
350.0   30.0   16.666666666666668
350.0   60.0   16.666666666666668
300.0   60.0   16.666666666666668
350.0   60.0   33.333333333333336
300.0   30.0   33.333333333333336
300.0   60.0   33.333333333333336
350.0   60.0   33.333333333333336
300.0   60.0   16.666666666666668
300.0   30.0   33.333333333333336
350.0   60.0   33.333333333333336
350.0   30.0   33.333333333333336
350.0   30.0   16.666666666666668
300.0   30.0   33.333333333333336
350.0   60.0   33.333333333333336
350.0   30.0   16.666666666666668
300.0   60.0   16.666666666666668
300.0   30.0   33.333333333333336
350.0   30.0   33.333333333333336
300.0   60.0   33.333333333333336
300.0   30.0   50.0
350.0   30.0   33.333333333333336
350.0   60.0   33.333333333333336
300.0   60.0   33.333333333333336
350.0   60.0   50.0
300.0   30.0   50.0
300.0   60.0   50.0
350.0   60.0   50.0
300.0   60.0   33.333333333333336
300.0   30.0   50.0
350.0   60.0   50.0
350.0   30.0   50.0
350.0   30.0   33.333333333333336
300.0   30.0   50.0
350.0   60.0   50.0
350.0   30.0   33.333333333333336
300.0   60.0   33.333333333333336
300.0   60.0   0.0
350.0   60.0   0.0
300.0   90.0   0.0
300.0   60.0   16.666666666666668
350.0   60.0   0.0
350.0   90.0   0.0
300.0   90.0   0.0
350.0   90.0   16.666666666666668
300.0   60.0   16.666666666666668
300.0   90.0   16.666666666666668
350.0   90.0   16.666666666666668
300.0   90.0   0.0
300.0   60.0   16.666666666666668
350.0   90.0   16.666666666666668
350.0   60.0   16.666666666666668
350.0   60.0   0.0
300.0   60.0   16.666666666666668
350.0   90.0   16.666666666666668
350.0   60.0   0.0
300.0   90.0   0.0
300.0   60.0   16.666666666666668
350.0   60.0   16.666666666666668
300.0   90.0   16.666666666666668
300.0   60.0   33.333333333333336
350.0   60.0   16.666666666666668
350.0   90.0   16.666666666666668
300.0   90.0   16.666666666666668
350.0   90.0   33.333333333333336
300.0   60.0   33.333333333333336
300.0   90.0   33.333333333333336
350.0   90.0   33.333333333333336
300.0   90.0   16.666666666666668
300.0   60.0   33.333333333333336
350.0   90.0   33.333333333333336
350.0   60.0   33.333333333333336
350.0   60.0   16.666666666666668
300.0   60.0   33.333333333333336
350.0   90.0   33.333333333333336
350.0   60.0   16.666666666666668
300.0   90.0   16.666666666666668
300.0   60.0   33.333333333333336
350.0   60.0   33.333333333333336
300.0   90.0   33.333333333333336
300.0   60.0   50.0
350.0   60.0   33.333333333333336
350.0   90.0   33.333333333333336
300.0   90.0   33.333333333333336
350.0   90.0   50.0
300.0   60.0   50.0
300.0   90.0   50.0
350.0   90.0   50.0
300.0   90.0   33.333333333333336
300.0   60.0   50.0
350.0   90.0   50.0
350.0   60.0   50.0
350.0   60.0   33.333333333333336
300.0   60.0   50.0
350.0   90.0   50.0
350.0   60.0   33.333333333333336
300.0   90.0   33.333333333333336
300.0   90.0   0.0
350.0   90.0   0.0
300.0   120.0   0.0
300.0   90.0   16.666666666666668
350.0   90.0   0.0
350.0   120.0   0.0
300.0   120.0   0.0
350.0   120.0   16.666666666666668
300.0   90.0   16.666666666666668
300.0   120.0   16.666666666666668
350.0   120.0   16.666666666666668
300.0   120.0   0.0
300.0   90.0   16.666666666666668
350.0   120.0   16.666666666666668
350.0   90.0   16.666666666666668
350.0   90.0   0.0
300.0   90.0   16.666666666666668
350.0   120.0   16.666666666666668
350.0   90.0   0.0
300.0   120.0   0.0
300.0   90.0   16.666666666666668
350.0   90.0   16.666666666666668
300.0   120.0   16.666666666666668
300.0   90.0   33.333333333333336
350.0   90.0   16.666666666666668
350.0   120.0   16.666666666666668
300.0   120.0   16.666666666666668
350.0   120.0   33.333333333333336
300.0   90.0   33.333333333333336
300.0   120.0   33.333333333333336
350.0   120.0   33.333333333333336
300.0   120.0   16.666666666666668
300.0   90.0   33.333333333333336
350.0   120.0   33.333333333333336
350.0   90.0   33.333333333333336
350.0   90.0   16.666666666666668
300.0   90.0   33.333333333333336
350.0   120.0   33.333333333333336
350.0   90.0   16.666666666666668
300.0   120.0   16.666666666666668
300.0   90.0   33.333333333333336
350.0   90.0   33.333333333333336
300.0   120.0   33.333333333333336
300.0   90.0   50.0
350.0   90.0   33.333333333333336
350.0   120.0   33.333333333333336
300.0   120.0   33.333333333333336
350.0   120.0   50.0
300.0   90.0   50.0
300.0   120.0   50.0
350.0   120.0   50.0
300.0   120.0   33.333333333333336
300.0   90.0   50.0
350.0   120.0   50.0
350.0   90.0   50.0
350.0   90.0   33.333333333333336
300.0   90.0   50.0
350.0   120.0   50.0
350.0   90.0   33.333333333333336
300.0   120.0   33.333333333333336
300.0   120.0   0.0
350.0   120.0   0.0
300.0   150.0   0.0
300.0   120.0   16.666666666666668
350.0   120.0   0.0
350.0   150.0   0.0
300.0   150.0   0.0
350.0   150.0   16.666666666666668
300.0   120.0   16.666666666666668
300.0   150.0   16.666666666666668
350.0   150.0   16.666666666666668
300.0   150.0   0.0
300.0   120.0   16.666666666666668
350.0   150.0   16.666666666666668
350.0   120.0   16.666666666666668
350.0   120.0   0.0
300.0   120.0   16.666666666666668
350.0   150.0   16.666666666666668
350.0   120.0   0.0
300.0   150.0   0.0
300.0   120.0   16.666666666666668
350.0   120.0   16.666666666666668
300.0   150.0   16.666666666666668
300.0   120.0   33.333333333333336
350.0   120.0   16.666666666666668
350.0   150.0   16.666666666666668
300.0   150.0   16.666666666666668
350.0   150.0   33.333333333333336
300.0   120.0   33.333333333333336
300.0   150.0   33.333333333333336
350.0   150.0   33.333333333333336
300.0   150.0   16.666666666666668
300.0   120.0   33.333333333333336
350.0   150.0   33.333333333333336
350.0   120.0   33.333333333333336
350.0   120.0   16.666666666666668
300.0   120.0   33.333333333333336
350.0   150.0   33.333333333333336
350.0   120.0   16.666666666666668
300.0   150.0   16.666666666666668
300.0   120.0   33.333333333333336
350.0   120.0   33.333333333333336
300.0   150.0   33.333333333333336
300.0   120.0   50.0
350.0   120.0   33.333333333333336
350.0   150.0   33.333333333333336
300.0   150.0   33.333333333333336
350.0   150.0   50.0
300.0   120.0   50.0
300.0   150.0   50.0
350.0   150.0   50.0
300.0   150.0   33.333333333333336
300.0   120.0   50.0
350.0   150.0   50.0
350.0   120.0   50.0
350.0   120.0   33.333333333333336
300.0   120.0   50.0
350.0   150.0   50.0
350.0   120.0   33.333333333333336
300.0   150.0   33.333333333333336
350.0   0.0   0.0
400.0   0.0   0.0
350.0   30.0   0.0
350.0   0.0   16.666666666666668
400.0   0.0   0.0
400.0   30.0   0.0
350.0   30.0   0.0
400.0   30.0   16.666666666666668
350.0   0.0   16.666666666666668
350.0   30.0   16.666666666666668
400.0   30.0   16.666666666666668
350.0   30.0   0.0
350.0   0.0   16.666666666666668
400.0   30.0   16.666666666666668
400.0   0.0   16.666666666666668
400.0   0.0   0.0
350.0   0.0   16.666666666666668
400.0   30.0   16.666666666666668
400.0   0.0   0.0
350.0   30.0   0.0
350.0   0.0   16.666666666666668
400.0   0.0   16.666666666666668
350.0   30.0   16.666666666666668
350.0   0.0   33.333333333333336
400.0   0.0   16.666666666666668
400.0   30.0   16.666666666666668
350.0   30.0   16.666666666666668
400.0   30.0   33.333333333333336
350.0   0.0   33.333333333333336
350.0   30.0   33.333333333333336
400.0   30.0   33.333333333333336
350.0   30.0   16.666666666666668
350.0   0.0   33.333333333333336
400.0   30.0   33.333333333333336
400.0   0.0   33.333333333333336
400.0   0.0   16.666666666666668
350.0   0.0   33.333333333333336
400.0   30.0   33.333333333333336
400.0   0.0   16.666666666666668
350.0   30.0   16.666666666666668
350.0   0.0   33.333333333333336
400.0   0.0   33.333333333333336
350.0   30.0   33.333333333333336
350.0   0.0   50.0
400.0   0.0   33.333333333333336
400.0   30.0   33.333333333333336
350.0   30.0   33.333333333333336
400.0   30.0   50.0
350.0   0.0   50.0
350.0   30.0   50.0
400.0   30.0   50.0
350.0   30.0   33.333333333333336
350.0   0.0   50.0
400.0   30.0   50.0
400.0   0.0   50.0
400.0   0.0   33.333333333333336
350.0   0.0   50.0
400.0   30.0   50.0
400.0   0.0   33.333333333333336
350.0   30.0   33.333333333333336
350.0   30.0   0.0
400.0   30.0   0.0
350.0   60.0   0.0
350.0   30.0   16.666666666666668
400.0   30.0   0.0
400.0   60.0   0.0
350.0   60.0   0.0
400.0   60.0   16.666666666666668
350.0   30.0   16.666666666666668
350.0   60.0   16.666666666666668
400.0   60.0   16.666666666666668
350.0   60.0   0.0
350.0   30.0   16.666666666666668
400.0   60.0   16.666666666666668
400.0   30.0   16.666666666666668
400.0   30.0   0.0
350.0   30.0   16.666666666666668
400.0   60.0   16.666666666666668
400.0   30.0   0.0
350.0   60.0   0.0
350.0   30.0   16.666666666666668
400.0   30.0   16.666666666666668
350.0   60.0   16.666666666666668
350.0   30.0   33.333333333333336
400.0   30.0   16.666666666666668
400.0   60.0   16.666666666666668
350.0   60.0   16.666666666666668
400.0   60.0   33.333333333333336
350.0   30.0   33.333333333333336
350.0   60.0   33.333333333333336
400.0   60.0   33.333333333333336
350.0   60.0   16.666666666666668
350.0   30.0   33.333333333333336
400.0   60.0   33.333333333333336
400.0   30.0   33.333333333333336
400.0   30.0   16.666666666666668
350.0   30.0   33.333333333333336
400.0   60.0   33.333333333333336
400.0   30.0   16.666666666666668
350.0   60.0   16.666666666666668
350.0   30.0   33.333333333333336
400.0   30.0   33.333333333333336
350.0   60.0   33.333333333333336
350.0   30.0   50.0
400.0   30.0   33.333333333333336
400.0   60.0   33.333333333333336
350.0   60.0   33.333333333333336
400.0   60.0   50.0
350.0   30.0   50.0
350.0   60.0   50.0
400.0   60.0   50.0
350.0   60.0   33.333333333333336
350.0   30.0   50.0
400.0   60.0   50.0
400.0   30.0   50.0
400.0   30.0   33.333333333333336
350.0   30.0   50.0
400.0   60.0   50.0
400.0   30.0   33.333333333333336
350.0   60.0   33.333333333333336
350.0   60.0   0.0
400.0   60.0   0.0
350.0   90.0   0.0
350.0   60.0   16.666666666666668
400.0   60.0   0.0
400.0   90.0   0.0
350.0   90.0   0.0
400.0   90.0   16.666666666666668
350.0   60.0   16.666666666666668
350.0   90.0   16.666666666666668
400.0   90.0   16.666666666666668
350.0   90.0   0.0
350.0   60.0   16.666666666666668
400.0   90.0   16.666666666666668
400.0   60.0   16.666666666666668
400.0   60.0   0.0
350.0   60.0   16.666666666666668
400.0   90.0   16.666666666666668
400.0   60.0   0.0
350.0   90.0   0.0
350.0   60.0   16.666666666666668
400.0   60.0   16.666666666666668
350.0   90.0   16.666666666666668
350.0   60.0   33.333333333333336
400.0   60.0   16.666666666666668
400.0   90.0   16.666666666666668
350.0   90.0   16.666666666666668
400.0   90.0   33.333333333333336
350.0   60.0   33.333333333333336
350.0   90.0   33.333333333333336
400.0   90.0   33.333333333333336
350.0   90.0   16.666666666666668
350.0   60.0   33.333333333333336
400.0   90.0   33.333333333333336
400.0   60.0   33.333333333333336
400.0   60.0   16.666666666666668
350.0   60.0   33.333333333333336
400.0   90.0   33.333333333333336
400.0   60.0   16.666666666666668
350.0   90.0   16.666666666666668
350.0   60.0   33.333333333333336
400.0   60.0   33.333333333333336
350.0   90.0   33.333333333333336
350.0   60.0   50.0
400.0   60.0   33.333333333333336
400.0   90.0   33.333333333333336
350.0   90.0   33.333333333333336
400.0   90.0   50.0
350.0   60.0   50.0
350.0   90.0   50.0
400.0   90.0   50.0
350.0   90.0   33.333333333333336
350.0   60.0   50.0
400.0   90.0   50.0
400.0   60.0   50.0
400.0   60.0   33.333333333333336
350.0   60.0   50.0
400.0   90.0   50.0
400.0   60.0   33.333333333333336
350.0   90.0   33.333333333333336
350.0   90.0   0.0
400.0   90.0   0.0
350.0   120.0   0.0
350.0   90.0   16.666666666666668
400.0   90.0   0.0
400.0   120.0   0.0
350.0   120.0   0.0
400.0   120.0   16.666666666666668
350.0   90.0   16.666666666666668
350.0   120.0   16.666666666666668
400.0   120.0   16.666666666666668
350.0   120.0   0.0
350.0   90.0   16.666666666666668
400.0   120.0   16.666666666666668
400.0   90.0   16.666666666666668
400.0   90.0   0.0
350.0   90.0   16.666666666666668
400.0   120.0   16.666666666666668
400.0   90.0   0.0
350.0   120.0   0.0
350.0   90.0   16.666666666666668
400.0   90.0   16.666666666666668
350.0   120.0   16.666666666666668
350.0   90.0   33.333333333333336
400.0   90.0   16.666666666666668
400.0   120.0   16.666666666666668
350.0   120.0   16.666666666666668
400.0   120.0   33.333333333333336
350.0   90.0   33.333333333333336
350.0   120.0   33.333333333333336
400.0   120.0   33.333333333333336
350.0   120.0   16.666666666666668
350.0   90.0   33.333333333333336
400.0   120.0   33.333333333333336
400.0   90.0   33.333333333333336
400.0   90.0   16.666666666666668
350.0   90.0   33.333333333333336
400.0   120.0   33.333333333333336
400.0   90.0   16.666666666666668
350.0   120.0   16.666666666666668
350.0   90.0   33.333333333333336
400.0   90.0   33.333333333333336
350.0   120.0   33.333333333333336
350.0   90.0   50.0
400.0   90.0   33.333333333333336
400.0   120.0   33.333333333333336
350.0   120.0   33.333333333333336
400.0   120.0   50.0
350.0   90.0   50.0
350.0   120.0   50.0
400.0   120.0   50.0
350.0   120.0   33.333333333333336
350.0   90.0   50.0
400.0   120.0   50.0
400.0   90.0   50.0
400.0   90.0   33.333333333333336
350.0   90.0   50.0
400.0   120.0   50.0
400.0   90.0   33.333333333333336
350.0   120.0   33.333333333333336
350.0   120.0   0.0
400.0   120.0   0.0
350.0   150.0   0.0
350.0   120.0   16.666666666666668
400.0   120.0   0.0
400.0   150.0   0.0
350.0   150.0   0.0
400.0   150.0   16.666666666666668
350.0   120.0   16.666666666666668
350.0   150.0   16.666666666666668
400.0   150.0   16.666666666666668
350.0   150.0   0.0
350.0   120.0   16.666666666666668
400.0   150.0   16.666666666666668
400.0   120.0   16.666666666666668
400.0   120.0   0.0
350.0   120.0   16.666666666666668
400.0   150.0   16.666666666666668
400.0   120.0   0.0
350.0   150.0   0.0
350.0   120.0   16.666666666666668
400.0   120.0   16.666666666666668
350.0   150.0   16.666666666666668
350.0   120.0   33.333333333333336
400.0   120.0   16.666666666666668
400.0   150.0   16.666666666666668
350.0   150.0   16.666666666666668
400.0   150.0   33.333333333333336
350.0   120.0   33.333333333333336
350.0   150.0   33.333333333333336
400.0   150.0   33.333333333333336
350.0   150.0   16.666666666666668
350.0   120.0   33.333333333333336
400.0   150.0   33.333333333333336
400.0   120.0   33.333333333333336
400.0   120.0   16.666666666666668
350.0   120.0   33.333333333333336
400.0   150.0   33.333333333333336
400.0   120.0   16.666666666666668
350.0   150.0   16.666666666666668
350.0   120.0   33.333333333333336
400.0   120.0   33.333333333333336
350.0   150.0   33.333333333333336
350.0   120.0   50.0
400.0   120.0   33.333333333333336
400.0   150.0   33.333333333333336
350.0   150.0   33.333333333333336
400.0   150.0   50.0
350.0   120.0   50.0
350.0   150.0   50.0
400.0   150.0   50.0
350.0   150.0   33.333333333333336
350.0   120.0   50.0
400.0   150.0   50.0
400.0   120.0   50.0
400.0   120.0   33.333333333333336
350.0   120.0   50.0
400.0   150.0   50.0
400.0   120.0   33.333333333333336
350.0   150.0   33.333333333333336
400.0   0.0   0.0
450.0   0.0   0.0
400.0   30.0   0.0
400.0   0.0   16.666666666666668
450.0   0.0   0.0
450.0   30.0   0.0
400.0   30.0   0.0
450.0   30.0   16.666666666666668
400.0   0.0   16.666666666666668
400.0   30.0   16.666666666666668
450.0   30.0   16.666666666666668
400.0   30.0   0.0
400.0   0.0   16.666666666666668
450.0   30.0   16.666666666666668
450.0   0.0   16.666666666666668
450.0   0.0   0.0
400.0   0.0   16.666666666666668
450.0   30.0   16.666666666666668
450.0   0.0   0.0
400.0   30.0   0.0
400.0   0.0   16.666666666666668
450.0   0.0   16.666666666666668
400.0   30.0   16.666666666666668
400.0   0.0   33.333333333333336
450.0   0.0   16.666666666666668
450.0   30.0   16.666666666666668
400.0   30.0   16.666666666666668
450.0   30.0   33.333333333333336
400.0   0.0   33.333333333333336
400.0   30.0   33.333333333333336
450.0   30.0   33.333333333333336
400.0   30.0   16.666666666666668
400.0   0.0   33.333333333333336
450.0   30.0   33.333333333333336
450.0   0.0   33.333333333333336
450.0   0.0   16.666666666666668
400.0   0.0   33.333333333333336
450.0   30.0   33.333333333333336
450.0   0.0   16.666666666666668
400.0   30.0   16.666666666666668
400.0   0.0   33.333333333333336
450.0   0.0   33.333333333333336
400.0   30.0   33.333333333333336
400.0   0.0   50.0
450.0   0.0   33.333333333333336
450.0   30.0   33.333333333333336
400.0   30.0   33.333333333333336
450.0   30.0   50.0
400.0   0.0   50.0
400.0   30.0   50.0
450.0   30.0   50.0
400.0   30.0   33.333333333333336
400.0   0.0   50.0
450.0   30.0   50.0
450.0   0.0   50.0
450.0   0.0   33.333333333333336
400.0   0.0   50.0
450.0   30.0   50.0
450.0   0.0   33.333333333333336
400.0   30.0   33.333333333333336
400.0   30.0   0.0
450.0   30.0   0.0
400.0   60.0   0.0
400.0   30.0   16.666666666666668
450.0   30.0   0.0
450.0   60.0   0.0
400.0   60.0   0.0
450.0   60.0   16.666666666666668
400.0   30.0   16.666666666666668
400.0   60.0   16.666666666666668
450.0   60.0   16.666666666666668
400.0   60.0   0.0
400.0   30.0   16.666666666666668
450.0   60.0   16.666666666666668
450.0   30.0   16.666666666666668
450.0   30.0   0.0
400.0   30.0   16.666666666666668
450.0   60.0   16.666666666666668
450.0   30.0   0.0
400.0   60.0   0.0
400.0   30.0   16.666666666666668
450.0   30.0   16.666666666666668
400.0   60.0   16.666666666666668
400.0   30.0   33.333333333333336
450.0   30.0   16.666666666666668
450.0   60.0   16.666666666666668
400.0   60.0   16.666666666666668
450.0   60.0   33.333333333333336
400.0   30.0   33.333333333333336
400.0   60.0   33.333333333333336
450.0   60.0   33.333333333333336
400.0   60.0   16.666666666666668
400.0   30.0   33.333333333333336
450.0   60.0   33.333333333333336
450.0   30.0   33.333333333333336
450.0   30.0   16.666666666666668
400.0   30.0   33.333333333333336
450.0   60.0   33.333333333333336
450.0   30.0   16.666666666666668
400.0   60.0   16.666666666666668
400.0   30.0   33.333333333333336
450.0   30.0   33.333333333333336
400.0   60.0   33.333333333333336
400.0   30.0   50.0
450.0   30.0   33.333333333333336
450.0   60.0   33.333333333333336
400.0   60.0   33.333333333333336
450.0   60.0   50.0
400.0   30.0   50.0
400.0   60.0   50.0
450.0   60.0   50.0
400.0   60.0   33.333333333333336
400.0   30.0   50.0
450.0   60.0   50.0
450.0   30.0   50.0
450.0   30.0   33.333333333333336
400.0   30.0   50.0
450.0   60.0   50.0
450.0   30.0   33.333333333333336
400.0   60.0   33.333333333333336
400.0   60.0   0.0
450.0   60.0   0.0
400.0   90.0   0.0
400.0   60.0   16.666666666666668
450.0   60.0   0.0
450.0   90.0   0.0
400.0   90.0   0.0
450.0   90.0   16.666666666666668
400.0   60.0   16.666666666666668
400.0   90.0   16.666666666666668
450.0   90.0   16.666666666666668
400.0   90.0   0.0
400.0   60.0   16.666666666666668
450.0   90.0   16.666666666666668
450.0   60.0   16.666666666666668
450.0   60.0   0.0
400.0   60.0   16.666666666666668
450.0   90.0   16.666666666666668
450.0   60.0   0.0
400.0   90.0   0.0
400.0   60.0   16.666666666666668
450.0   60.0   16.666666666666668
400.0   90.0   16.666666666666668
400.0   60.0   33.333333333333336
450.0   60.0   16.666666666666668
450.0   90.0   16.666666666666668
400.0   90.0   16.666666666666668
450.0   90.0   33.333333333333336
400.0   60.0   33.333333333333336
400.0   90.0   33.333333333333336
450.0   90.0   33.333333333333336
400.0   90.0   16.666666666666668
400.0   60.0   33.333333333333336
450.0   90.0   33.333333333333336
450.0   60.0   33.333333333333336
450.0   60.0   16.666666666666668
400.0   60.0   33.333333333333336
450.0   90.0   33.333333333333336
450.0   60.0   16.666666666666668
400.0   90.0   16.666666666666668
400.0   60.0   33.333333333333336
450.0   60.0   33.333333333333336
400.0   90.0   33.333333333333336
400.0   60.0   50.0
450.0   60.0   33.333333333333336
450.0   90.0   33.333333333333336
400.0   90.0   33.333333333333336
450.0   90.0   50.0
400.0   60.0   50.0
400.0   90.0   50.0
450.0   90.0   50.0
400.0   90.0   33.333333333333336
400.0   60.0   50.0
450.0   90.0   50.0
450.0   60.0   50.0
450.0   60.0   33.333333333333336
400.0   60.0   50.0
450.0   90.0   50.0
450.0   60.0   33.333333333333336
400.0   90.0   33.333333333333336
400.0   90.0   0.0
450.0   90.0   0.0
400.0   120.0   0.0
400.0   90.0   16.666666666666668
450.0   90.0   0.0
450.0   120.0   0.0
400.0   120.0   0.0
450.0   120.0   16.666666666666668
400.0   90.0   16.666666666666668
400.0   120.0   16.666666666666668
450.0   120.0   16.666666666666668
400.0   120.0   0.0
400.0   90.0   16.666666666666668
450.0   120.0   16.666666666666668
450.0   90.0   16.666666666666668
450.0   90.0   0.0
400.0   90.0   16.666666666666668
450.0   120.0   16.666666666666668
450.0   90.0   0.0
400.0   120.0   0.0
400.0   90.0   16.666666666666668
450.0   90.0   16.666666666666668
400.0   120.0   16.666666666666668
400.0   90.0   33.333333333333336
450.0   90.0   16.666666666666668
450.0   120.0   16.666666666666668
400.0   120.0   16.666666666666668
450.0   120.0   33.333333333333336
400.0   90.0   33.333333333333336
400.0   120.0   33.333333333333336
450.0   120.0   33.333333333333336
400.0   120.0   16.666666666666668
400.0   90.0   33.333333333333336
450.0   120.0   33.333333333333336
450.0   90.0   33.333333333333336
450.0   90.0   16.666666666666668
400.0   90.0   33.333333333333336
450.0   120.0   33.333333333333336
450.0   90.0   16.666666666666668
400.0   120.0   16.666666666666668
400.0   90.0   33.333333333333336
450.0   90.0   33.333333333333336
400.0   120.0   33.333333333333336
400.0   90.0   50.0
450.0   90.0   33.333333333333336
450.0   120.0   33.333333333333336
400.0   120.0   33.333333333333336
450.0   120.0   50.0
400.0   90.0   50.0
400.0   120.0   50.0
450.0   120.0   50.0
400.0   120.0   33.333333333333336
400.0   90.0   50.0
450.0   120.0   50.0
450.0   90.0   50.0
450.0   90.0   33.333333333333336
400.0   90.0   50.0
450.0   120.0   50.0
450.0   90.0   33.333333333333336
400.0   120.0   33.333333333333336
400.0   120.0   0.0
450.0   120.0   0.0
400.0   150.0   0.0
400.0   120.0   16.666666666666668
450.0   120.0   0.0
450.0   150.0   0.0
400.0   150.0   0.0
450.0   150.0   16.666666666666668
400.0   120.0   16.666666666666668
400.0   150.0   16.666666666666668
450.0   150.0   16.666666666666668
400.0   150.0   0.0
400.0   120.0   16.666666666666668
450.0   150.0   16.666666666666668
450.0   120.0   16.666666666666668
450.0   120.0   0.0
400.0   120.0   16.666666666666668
450.0   150.0   16.666666666666668
450.0   120.0   0.0
400.0   150.0   0.0
400.0   120.0   16.666666666666668
450.0   120.0   16.666666666666668
400.0   150.0   16.666666666666668
400.0   120.0   33.333333333333336
450.0   120.0   16.666666666666668
450.0   150.0   16.666666666666668
400.0   150.0   16.666666666666668
450.0   150.0   33.333333333333336
400.0   120.0   33.333333333333336
400.0   150.0   33.333333333333336
450.0   150.0   33.333333333333336
400.0   150.0   16.666666666666668
400.0   120.0   33.333333333333336
450.0   150.0   33.333333333333336
450.0   120.0   33.333333333333336
450.0   120.0   16.666666666666668
400.0   120.0   33.333333333333336
450.0   150.0   33.333333333333336
450.0   120.0   16.666666666666668
400.0   150.0   16.666666666666668
400.0   120.0   33.333333333333336
450.0   120.0   33.333333333333336
400.0   150.0   33.333333333333336
400.0   120.0   50.0
450.0   120.0   33.333333333333336
450.0   150.0   33.333333333333336
400.0   150.0   33.333333333333336
450.0   150.0   50.0
400.0   120.0   50.0
400.0   150.0   50.0
450.0   150.0   50.0
400.0   150.0   33.333333333333336
400.0   120.0   50.0
450.0   150.0   50.0
450.0   120.0   50.0
450.0   120.0   33.333333333333336
400.0   120.0   50.0
450.0   150.0   50.0
450.0   120.0   33.333333333333336
400.0   150.0   33.333333333333336
450.0   0.0   0.0
500.0   0.0   0.0
450.0   30.0   0.0
450.0   0.0   16.666666666666668
500.0   0.0   0.0
500.0   30.0   0.0
450.0   30.0   0.0
500.0   30.0   16.666666666666668
450.0   0.0   16.666666666666668
450.0   30.0   16.666666666666668
500.0   30.0   16.666666666666668
450.0   30.0   0.0
450.0   0.0   16.666666666666668
500.0   30.0   16.666666666666668
500.0   0.0   16.666666666666668
500.0   0.0   0.0
450.0   0.0   16.666666666666668
500.0   30.0   16.666666666666668
500.0   0.0   0.0
450.0   30.0   0.0
450.0   0.0   16.666666666666668
500.0   0.0   16.666666666666668
450.0   30.0   16.666666666666668
450.0   0.0   33.333333333333336
500.0   0.0   16.666666666666668
500.0   30.0   16.666666666666668
450.0   30.0   16.666666666666668
500.0   30.0   33.333333333333336
450.0   0.0   33.333333333333336
450.0   30.0   33.333333333333336
500.0   30.0   33.333333333333336
450.0   30.0   16.666666666666668
450.0   0.0   33.333333333333336
500.0   30.0   33.333333333333336
500.0   0.0   33.333333333333336
500.0   0.0   16.666666666666668
450.0   0.0   33.333333333333336
500.0   30.0   33.333333333333336
500.0   0.0   16.666666666666668
450.0   30.0   16.666666666666668
450.0   0.0   33.333333333333336
500.0   0.0   33.333333333333336
450.0   30.0   33.333333333333336
450.0   0.0   50.0
500.0   0.0   33.333333333333336
500.0   30.0   33.333333333333336
450.0   30.0   33.333333333333336
500.0   30.0   50.0
450.0   0.0   50.0
450.0   30.0   50.0
500.0   30.0   50.0
450.0   30.0   33.333333333333336
450.0   0.0   50.0
500.0   30.0   50.0
500.0   0.0   50.0
500.0   0.0   33.333333333333336
450.0   0.0   50.0
500.0   30.0   50.0
500.0   0.0   33.333333333333336
450.0   30.0   33.333333333333336
450.0   30.0   0.0
500.0   30.0   0.0
450.0   60.0   0.0
450.0   30.0   16.666666666666668
500.0   30.0   0.0
500.0   60.0   0.0
450.0   60.0   0.0
500.0   60.0   16.666666666666668
450.0   30.0   16.666666666666668
450.0   60.0   16.666666666666668
500.0   60.0   16.666666666666668
450.0   60.0   0.0
450.0   30.0   16.666666666666668
500.0   60.0   16.666666666666668
500.0   30.0   16.666666666666668
500.0   30.0   0.0
450.0   30.0   16.666666666666668
500.0   60.0   16.666666666666668
500.0   30.0   0.0
450.0   60.0   0.0
450.0   30.0   16.666666666666668
500.0   30.0   16.666666666666668
450.0   60.0   16.666666666666668
450.0   30.0   33.333333333333336
500.0   30.0   16.666666666666668
500.0   60.0   16.666666666666668
450.0   60.0   16.666666666666668
500.0   60.0   33.333333333333336
450.0   30.0   33.333333333333336
450.0   60.0   33.333333333333336
500.0   60.0   33.333333333333336
450.0   60.0   16.666666666666668
450.0   30.0   33.333333333333336
500.0   60.0   33.333333333333336
500.0   30.0   33.333333333333336
500.0   30.0   16.666666666666668
450.0   30.0   33.333333333333336
500.0   60.0   33.333333333333336
500.0   30.0   16.666666666666668
450.0   60.0   16.666666666666668
450.0   30.0   33.333333333333336
500.0   30.0   33.333333333333336
450.0   60.0   33.333333333333336
450.0   30.0   50.0
500.0   30.0   33.333333333333336
500.0   60.0   33.333333333333336
450.0   60.0   33.333333333333336
500.0   60.0   50.0
450.0   30.0   50.0
450.0   60.0   50.0
500.0   60.0   50.0
450.0   60.0   33.333333333333336
450.0   30.0   50.0
500.0   60.0   50.0
500.0   30.0   50.0
500.0   30.0   33.333333333333336
450.0   30.0   50.0
500.0   60.0   50.0
500.0   30.0   33.333333333333336
450.0   60.0   33.333333333333336
450.0   60.0   0.0
500.0   60.0   0.0
450.0   90.0   0.0
450.0   60.0   16.666666666666668
500.0   60.0   0.0
500.0   90.0   0.0
450.0   90.0   0.0
500.0   90.0   16.666666666666668
450.0   60.0   16.666666666666668
450.0   90.0   16.666666666666668
500.0   90.0   16.666666666666668
450.0   90.0   0.0
450.0   60.0   16.666666666666668
500.0   90.0   16.666666666666668
500.0   60.0   16.666666666666668
500.0   60.0   0.0
450.0   60.0   16.666666666666668
500.0   90.0   16.666666666666668
500.0   60.0   0.0
450.0   90.0   0.0
450.0   60.0   16.666666666666668
500.0   60.0   16.666666666666668
450.0   90.0   16.666666666666668
450.0   60.0   33.333333333333336
500.0   60.0   16.666666666666668
500.0   90.0   16.666666666666668
450.0   90.0   16.666666666666668
500.0   90.0   33.333333333333336
450.0   60.0   33.333333333333336
450.0   90.0   33.333333333333336
500.0   90.0   33.333333333333336
450.0   90.0   16.666666666666668
450.0   60.0   33.333333333333336
500.0   90.0   33.333333333333336
500.0   60.0   33.333333333333336
500.0   60.0   16.666666666666668
450.0   60.0   33.333333333333336
500.0   90.0   33.333333333333336
500.0   60.0   16.666666666666668
450.0   90.0   16.666666666666668
450.0   60.0   33.333333333333336
500.0   60.0   33.333333333333336
450.0   90.0   33.333333333333336
450.0   60.0   50.0
500.0   60.0   33.333333333333336
500.0   90.0   33.333333333333336
450.0   90.0   33.333333333333336
500.0   90.0   50.0
450.0   60.0   50.0
450.0   90.0   50.0
500.0   90.0   50.0
450.0   90.0   33.333333333333336
450.0   60.0   50.0
500.0   90.0   50.0
500.0   60.0   50.0
500.0   60.0   33.333333333333336
450.0   60.0   50.0
500.0   90.0   50.0
500.0   60.0   33.333333333333336
450.0   90.0   33.333333333333336
450.0   90.0   0.0
500.0   90.0   0.0
450.0   120.0   0.0
450.0   90.0   16.666666666666668
500.0   90.0   0.0
500.0   120.0   0.0
450.0   120.0   0.0
500.0   120.0   16.666666666666668
450.0   90.0   16.666666666666668
450.0   120.0   16.666666666666668
500.0   120.0   16.666666666666668
450.0   120.0   0.0
450.0   90.0   16.666666666666668
500.0   120.0   16.666666666666668
500.0   90.0   16.666666666666668
500.0   90.0   0.0
450.0   90.0   16.666666666666668
500.0   120.0   16.666666666666668
500.0   90.0   0.0
450.0   120.0   0.0
450.0   90.0   16.666666666666668
500.0   90.0   16.666666666666668
450.0   120.0   16.666666666666668
450.0   90.0   33.333333333333336
500.0   90.0   16.666666666666668
500.0   120.0   16.666666666666668
450.0   120.0   16.666666666666668
500.0   120.0   33.333333333333336
450.0   90.0   33.333333333333336
450.0   120.0   33.333333333333336
500.0   120.0   33.333333333333336
450.0   120.0   16.666666666666668
450.0   90.0   33.333333333333336
500.0   120.0   33.333333333333336
500.0   90.0   33.333333333333336
500.0   90.0   16.666666666666668
450.0   90.0   33.333333333333336
500.0   120.0   33.333333333333336
500.0   90.0   16.666666666666668
450.0   120.0   16.666666666666668
450.0   90.0   33.333333333333336
500.0   90.0   33.333333333333336
450.0   120.0   33.333333333333336
450.0   90.0   50.0
500.0   90.0   33.333333333333336
500.0   120.0   33.333333333333336
450.0   120.0   33.333333333333336
500.0   120.0   50.0
450.0   90.0   50.0
450.0   120.0   50.0
500.0   120.0   50.0
450.0   120.0   33.333333333333336
450.0   90.0   50.0
500.0   120.0   50.0
500.0   90.0   50.0
500.0   90.0   33.333333333333336
450.0   90.0   50.0
500.0   120.0   50.0
500.0   90.0   33.333333333333336
450.0   120.0   33.333333333333336
450.0   120.0   0.0
500.0   120.0   0.0
450.0   150.0   0.0
450.0   120.0   16.666666666666668
500.0   120.0   0.0
500.0   150.0   0.0
450.0   150.0   0.0
500.0   150.0   16.666666666666668
450.0   120.0   16.666666666666668
450.0   150.0   16.666666666666668
500.0   150.0   16.666666666666668
450.0   150.0   0.0
450.0   120.0   16.666666666666668
500.0   150.0   16.666666666666668
500.0   120.0   16.666666666666668
500.0   120.0   0.0
450.0   120.0   16.666666666666668
500.0   150.0   16.666666666666668
500.0   120.0   0.0
450.0   150.0   0.0
450.0   120.0   16.666666666666668
500.0   120.0   16.666666666666668
450.0   150.0   16.666666666666668
450.0   120.0   33.333333333333336
500.0   120.0   16.666666666666668
500.0   150.0   16.666666666666668
450.0   150.0   16.666666666666668
500.0   150.0   33.333333333333336
450.0   120.0   33.333333333333336
450.0   150.0   33.333333333333336
500.0   150.0   33.333333333333336
450.0   150.0   16.666666666666668
450.0   120.0   33.333333333333336
500.0   150.0   33.333333333333336
500.0   120.0   33.333333333333336
500.0   120.0   16.666666666666668
450.0   120.0   33.333333333333336
500.0   150.0   33.333333333333336
500.0   120.0   16.666666666666668
450.0   150.0   16.666666666666668
450.0   120.0   33.333333333333336
500.0   120.0   33.333333333333336
450.0   150.0   33.333333333333336
450.0   120.0   50.0
500.0   120.0   33.333333333333336
500.0   150.0   33.333333333333336
450.0   150.0   33.333333333333336
500.0   150.0   50.0
450.0   120.0   50.0
450.0   150.0   50.0
500.0   150.0   50.0
450.0   150.0   33.333333333333336
450.0   120.0   50.0
500.0   150.0   50.0
500.0   120.0   50.0
500.0   120.0   33.333333333333336
450.0   120.0   50.0
500.0   150.0   50.0
500.0   120.0   33.333333333333336
450.0   150.0   33.333333333333336
             </DataArray>   
          </Points>  
          <Cells>  
             <DataArray type="Int32" Name="connectivity" format="ascii">   
0   1   2   3
4   5   6   7
8   9   10   11
12   13   14   15
16   17   18   19
20   21   22   23
24   25   26   27
28   29   30   31
32   33   34   35
36   37   38   39
40   41   42   43
44   45   46   47
48   49   50   51
52   53   54   55
56   57   58   59
60   61   62   63
64   65   66   67
68   69   70   71
72   73   74   75
76   77   78   79
80   81   82   83
84   85   86   87
88   89   90   91
92   93   94   95
96   97   98   99
100   101   102   103
104   105   106   107
108   109   110   111
112   113   114   115
116   117   118   119
120   121   122   123
124   125   126   127
128   129   130   131
132   133   134   135
136   137   138   139
140   141   142   143
144   145   146   147
148   149   150   151
152   153   154   155
156   157   158   159
160   161   162   163
164   165   166   167
168   169   170   171
172   173   174   175
176   177   178   179
180   181   182   183
184   185   186   187
188   189   190   191
192   193   194   195
196   197   198   199
200   201   202   203
204   205   206   207
208   209   210   211
212   213   214   215
216   217   218   219
220   221   222   223
224   225   226   227
228   229   230   231
232   233   234   235
236   237   238   239
240   241   242   243
244   245   246   247
248   249   250   251
252   253   254   255
256   257   258   259
260   261   262   263
264   265   266   267
268   269   270   271
272   273   274   275
276   277   278   279
280   281   282   283
284   285   286   287
288   289   290   291
292   293   294   295
296   297   298   299
300   301   302   303
304   305   306   307
308   309   310   311
312   313   314   315
316   317   318   319
320   321   322   323
324   325   326   327
328   329   330   331
332   333   334   335
336   337   338   339
340   341   342   343
344   345   346   347
348   349   350   351
352   353   354   355
356   357   358   359
360   361   362   363
364   365   366   367
368   369   370   371
372   373   374   375
376   377   378   379
380   381   382   383
384   385   386   387
388   389   390   391
392   393   394   395
396   397   398   399
400   401   402   403
404   405   406   407
408   409   410   411
412   413   414   415
416   417   418   419
420   421   422   423
424   425   426   427
428   429   430   431
432   433   434   435
436   437   438   439
440   441   442   443
444   445   446   447
448   449   450   451
452   453   454   455
456   457   458   459
460   461   462   463
464   465   466   467
468   469   470   471
472   473   474   475
476   477   478   479
480   481   482   483
484   485   486   487
488   489   490   491
492   493   494   495
496   497   498   499
500   501   502   503
504   505   506   507
508   509   510   511
512   513   514   515
516   517   518   519
520   521   522   523
524   525   526   527
528   529   530   531
532   533   534   535
536   537   538   539
540   541   542   543
544   545   546   547
548   549   550   551
552   553   554   555
556   557   558   559
560   561   562   563
564   565   566   567
568   569   570   571
572   573   574   575
576   577   578   579
580   581   582   583
584   585   586   587
588   589   590   591
592   593   594   595
596   597   598   599
600   601   602   603
604   605   606   607
608   609   610   611
612   613   614   615
616   617   618   619
620   621   622   623
624   625   626   627
628   629   630   631
632   633   634   635
636   637   638   639
640   641   642   643
644   645   646   647
648   649   650   651
652   653   654   655
656   657   658   659
660   661   662   663
664   665   666   667
668   669   670   671
672   673   674   675
676   677   678   679
680   681   682   683
684   685   686   687
688   689   690   691
692   693   694   695
696   697   698   699
700   701   702   703
704   705   706   707
708   709   710   711
712   713   714   715
716   717   718   719
720   721   722   723
724   725   726   727
728   729   730   731
732   733   734   735
736   737   738   739
740   741   742   743
744   745   746   747
748   749   750   751
752   753   754   755
756   757   758   759
760   761   762   763
764   765   766   767
768   769   770   771
772   773   774   775
776   777   778   779
780   781   782   783
784   785   786   787
788   789   790   791
792   793   794   795
796   797   798   799
800   801   802   803
804   805   806   807
808   809   810   811
812   813   814   815
816   817   818   819
820   821   822   823
824   825   826   827
828   829   830   831
832   833   834   835
836   837   838   839
840   841   842   843
844   845   846   847
848   849   850   851
852   853   854   855
856   857   858   859
860   861   862   863
864   865   866   867
868   869   870   871
872   873   874   875
876   877   878   879
880   881   882   883
884   885   886   887
888   889   890   891
892   893   894   895
896   897   898   899
900   901   902   903
904   905   906   907
908   909   910   911
912   913   914   915
916   917   918   919
920   921   922   923
924   925   926   927
928   929   930   931
932   933   934   935
936   937   938   939
940   941   942   943
944   945   946   947
948   949   950   951
952   953   954   955
956   957   958   959
960   961   962   963
964   965   966   967
968   969   970   971
972   973   974   975
976   977   978   979
980   981   982   983
984   985   986   987
988   989   990   991
992   993   994   995
996   997   998   999
1000   1001   1002   1003
1004   1005   1006   1007
1008   1009   1010   1011
1012   1013   1014   1015
1016   1017   1018   1019
1020   1021   1022   1023
1024   1025   1026   1027
1028   1029   1030   1031
1032   1033   1034   1035
1036   1037   1038   1039
1040   1041   1042   1043
1044   1045   1046   1047
1048   1049   1050   1051
1052   1053   1054   1055
1056   1057   1058   1059
1060   1061   1062   1063
1064   1065   1066   1067
1068   1069   1070   1071
1072   1073   1074   1075
1076   1077   1078   1079
1080   1081   1082   1083
1084   1085   1086   1087
1088   1089   1090   1091
1092   1093   1094   1095
1096   1097   1098   1099
1100   1101   1102   1103
1104   1105   1106   1107
1108   1109   1110   1111
1112   1113   1114   1115
1116   1117   1118   1119
1120   1121   1122   1123
1124   1125   1126   1127
1128   1129   1130   1131
1132   1133   1134   1135
1136   1137   1138   1139
1140   1141   1142   1143
1144   1145   1146   1147
1148   1149   1150   1151
1152   1153   1154   1155
1156   1157   1158   1159
1160   1161   1162   1163
1164   1165   1166   1167
1168   1169   1170   1171
1172   1173   1174   1175
1176   1177   1178   1179
1180   1181   1182   1183
1184   1185   1186   1187
1188   1189   1190   1191
1192   1193   1194   1195
1196   1197   1198   1199
1200   1201   1202   1203
1204   1205   1206   1207
1208   1209   1210   1211
1212   1213   1214   1215
1216   1217   1218   1219
1220   1221   1222   1223
1224   1225   1226   1227
1228   1229   1230   1231
1232   1233   1234   1235
1236   1237   1238   1239
1240   1241   1242   1243
1244   1245   1246   1247
1248   1249   1250   1251
1252   1253   1254   1255
1256   1257   1258   1259
1260   1261   1262   1263
1264   1265   1266   1267
1268   1269   1270   1271
1272   1273   1274   1275
1276   1277   1278   1279
1280   1281   1282   1283
1284   1285   1286   1287
1288   1289   1290   1291
1292   1293   1294   1295
1296   1297   1298   1299
1300   1301   1302   1303
1304   1305   1306   1307
1308   1309   1310   1311
1312   1313   1314   1315
1316   1317   1318   1319
1320   1321   1322   1323
1324   1325   1326   1327
1328   1329   1330   1331
1332   1333   1334   1335
1336   1337   1338   1339
1340   1341   1342   1343
1344   1345   1346   1347
1348   1349   1350   1351
1352   1353   1354   1355
1356   1357   1358   1359
1360   1361   1362   1363
1364   1365   1366   1367
1368   1369   1370   1371
1372   1373   1374   1375
1376   1377   1378   1379
1380   1381   1382   1383
1384   1385   1386   1387
1388   1389   1390   1391
1392   1393   1394   1395
1396   1397   1398   1399
1400   1401   1402   1403
1404   1405   1406   1407
1408   1409   1410   1411
1412   1413   1414   1415
1416   1417   1418   1419
1420   1421   1422   1423
1424   1425   1426   1427
1428   1429   1430   1431
1432   1433   1434   1435
1436   1437   1438   1439
1440   1441   1442   1443
1444   1445   1446   1447
1448   1449   1450   1451
1452   1453   1454   1455
1456   1457   1458   1459
1460   1461   1462   1463
1464   1465   1466   1467
1468   1469   1470   1471
1472   1473   1474   1475
1476   1477   1478   1479
1480   1481   1482   1483
1484   1485   1486   1487
1488   1489   1490   1491
1492   1493   1494   1495
1496   1497   1498   1499
1500   1501   1502   1503
1504   1505   1506   1507
1508   1509   1510   1511
1512   1513   1514   1515
1516   1517   1518   1519
1520   1521   1522   1523
1524   1525   1526   1527
1528   1529   1530   1531
1532   1533   1534   1535
1536   1537   1538   1539
1540   1541   1542   1543
1544   1545   1546   1547
1548   1549   1550   1551
1552   1553   1554   1555
1556   1557   1558   1559
1560   1561   1562   1563
1564   1565   1566   1567
1568   1569   1570   1571
1572   1573   1574   1575
1576   1577   1578   1579
1580   1581   1582   1583
1584   1585   1586   1587
1588   1589   1590   1591
1592   1593   1594   1595
1596   1597   1598   1599
1600   1601   1602   1603
1604   1605   1606   1607
1608   1609   1610   1611
1612   1613   1614   1615
1616   1617   1618   1619
1620   1621   1622   1623
1624   1625   1626   1627
1628   1629   1630   1631
1632   1633   1634   1635
1636   1637   1638   1639
1640   1641   1642   1643
1644   1645   1646   1647
1648   1649   1650   1651
1652   1653   1654   1655
1656   1657   1658   1659
1660   1661   1662   1663
1664   1665   1666   1667
1668   1669   1670   1671
1672   1673   1674   1675
1676   1677   1678   1679
1680   1681   1682   1683
1684   1685   1686   1687
1688   1689   1690   1691
1692   1693   1694   1695
1696   1697   1698   1699
1700   1701   1702   1703
1704   1705   1706   1707
1708   1709   1710   1711
1712   1713   1714   1715
1716   1717   1718   1719
1720   1721   1722   1723
1724   1725   1726   1727
1728   1729   1730   1731
1732   1733   1734   1735
1736   1737   1738   1739
1740   1741   1742   1743
1744   1745   1746   1747
1748   1749   1750   1751
1752   1753   1754   1755
1756   1757   1758   1759
1760   1761   1762   1763
1764   1765   1766   1767
1768   1769   1770   1771
1772   1773   1774   1775
1776   1777   1778   1779
1780   1781   1782   1783
1784   1785   1786   1787
1788   1789   1790   1791
1792   1793   1794   1795
1796   1797   1798   1799
1800   1801   1802   1803
1804   1805   1806   1807
1808   1809   1810   1811
1812   1813   1814   1815
1816   1817   1818   1819
1820   1821   1822   1823
1824   1825   1826   1827
1828   1829   1830   1831
1832   1833   1834   1835
1836   1837   1838   1839
1840   1841   1842   1843
1844   1845   1846   1847
1848   1849   1850   1851
1852   1853   1854   1855
1856   1857   1858   1859
1860   1861   1862   1863
1864   1865   1866   1867
1868   1869   1870   1871
1872   1873   1874   1875
1876   1877   1878   1879
1880   1881   1882   1883
1884   1885   1886   1887
1888   1889   1890   1891
1892   1893   1894   1895
1896   1897   1898   1899
1900   1901   1902   1903
1904   1905   1906   1907
1908   1909   1910   1911
1912   1913   1914   1915
1916   1917   1918   1919
1920   1921   1922   1923
1924   1925   1926   1927
1928   1929   1930   1931
1932   1933   1934   1935
1936   1937   1938   1939
1940   1941   1942   1943
1944   1945   1946   1947
1948   1949   1950   1951
1952   1953   1954   1955
1956   1957   1958   1959
1960   1961   1962   1963
1964   1965   1966   1967
1968   1969   1970   1971
1972   1973   1974   1975
1976   1977   1978   1979
1980   1981   1982   1983
1984   1985   1986   1987
1988   1989   1990   1991
1992   1993   1994   1995
1996   1997   1998   1999
2000   2001   2002   2003
2004   2005   2006   2007
2008   2009   2010   2011
2012   2013   2014   2015
2016   2017   2018   2019
2020   2021   2022   2023
2024   2025   2026   2027
2028   2029   2030   2031
2032   2033   2034   2035
2036   2037   2038   2039
2040   2041   2042   2043
2044   2045   2046   2047
2048   2049   2050   2051
2052   2053   2054   2055
2056   2057   2058   2059
2060   2061   2062   2063
2064   2065   2066   2067
2068   2069   2070   2071
2072   2073   2074   2075
2076   2077   2078   2079
2080   2081   2082   2083
2084   2085   2086   2087
2088   2089   2090   2091
2092   2093   2094   2095
2096   2097   2098   2099
2100   2101   2102   2103
2104   2105   2106   2107
2108   2109   2110   2111
2112   2113   2114   2115
2116   2117   2118   2119
2120   2121   2122   2123
2124   2125   2126   2127
2128   2129   2130   2131
2132   2133   2134   2135
2136   2137   2138   2139
2140   2141   2142   2143
2144   2145   2146   2147
2148   2149   2150   2151
2152   2153   2154   2155
2156   2157   2158   2159
2160   2161   2162   2163
2164   2165   2166   2167
2168   2169   2170   2171
2172   2173   2174   2175
2176   2177   2178   2179
2180   2181   2182   2183
2184   2185   2186   2187
2188   2189   2190   2191
2192   2193   2194   2195
2196   2197   2198   2199
2200   2201   2202   2203
2204   2205   2206   2207
2208   2209   2210   2211
2212   2213   2214   2215
2216   2217   2218   2219
2220   2221   2222   2223
2224   2225   2226   2227
2228   2229   2230   2231
2232   2233   2234   2235
2236   2237   2238   2239
2240   2241   2242   2243
2244   2245   2246   2247
2248   2249   2250   2251
2252   2253   2254   2255
2256   2257   2258   2259
2260   2261   2262   2263
2264   2265   2266   2267
2268   2269   2270   2271
2272   2273   2274   2275
2276   2277   2278   2279
2280   2281   2282   2283
2284   2285   2286   2287
2288   2289   2290   2291
2292   2293   2294   2295
2296   2297   2298   2299
2300   2301   2302   2303
2304   2305   2306   2307
2308   2309   2310   2311
2312   2313   2314   2315
2316   2317   2318   2319
2320   2321   2322   2323
2324   2325   2326   2327
2328   2329   2330   2331
2332   2333   2334   2335
2336   2337   2338   2339
2340   2341   2342   2343
2344   2345   2346   2347
2348   2349   2350   2351
2352   2353   2354   2355
2356   2357   2358   2359
2360   2361   2362   2363
2364   2365   2366   2367
2368   2369   2370   2371
2372   2373   2374   2375
2376   2377   2378   2379
2380   2381   2382   2383
2384   2385   2386   2387
2388   2389   2390   2391
2392   2393   2394   2395
2396   2397   2398   2399
2400   2401   2402   2403
2404   2405   2406   2407
2408   2409   2410   2411
2412   2413   2414   2415
2416   2417   2418   2419
2420   2421   2422   2423
2424   2425   2426   2427
2428   2429   2430   2431
2432   2433   2434   2435
2436   2437   2438   2439
2440   2441   2442   2443
2444   2445   2446   2447
2448   2449   2450   2451
2452   2453   2454   2455
2456   2457   2458   2459
2460   2461   2462   2463
2464   2465   2466   2467
2468   2469   2470   2471
2472   2473   2474   2475
2476   2477   2478   2479
2480   2481   2482   2483
2484   2485   2486   2487
2488   2489   2490   2491
2492   2493   2494   2495
2496   2497   2498   2499
2500   2501   2502   2503
2504   2505   2506   2507
2508   2509   2510   2511
2512   2513   2514   2515
2516   2517   2518   2519
2520   2521   2522   2523
2524   2525   2526   2527
2528   2529   2530   2531
2532   2533   2534   2535
2536   2537   2538   2539
2540   2541   2542   2543
2544   2545   2546   2547
2548   2549   2550   2551
2552   2553   2554   2555
2556   2557   2558   2559
2560   2561   2562   2563
2564   2565   2566   2567
2568   2569   2570   2571
2572   2573   2574   2575
2576   2577   2578   2579
2580   2581   2582   2583
2584   2585   2586   2587
2588   2589   2590   2591
2592   2593   2594   2595
2596   2597   2598   2599
2600   2601   2602   2603
2604   2605   2606   2607
2608   2609   2610   2611
2612   2613   2614   2615
2616   2617   2618   2619
2620   2621   2622   2623
2624   2625   2626   2627
2628   2629   2630   2631
2632   2633   2634   2635
2636   2637   2638   2639
2640   2641   2642   2643
2644   2645   2646   2647
2648   2649   2650   2651
2652   2653   2654   2655
2656   2657   2658   2659
2660   2661   2662   2663
2664   2665   2666   2667
2668   2669   2670   2671
2672   2673   2674   2675
2676   2677   2678   2679
2680   2681   2682   2683
2684   2685   2686   2687
2688   2689   2690   2691
2692   2693   2694   2695
2696   2697   2698   2699
2700   2701   2702   2703
2704   2705   2706   2707
2708   2709   2710   2711
2712   2713   2714   2715
2716   2717   2718   2719
2720   2721   2722   2723
2724   2725   2726   2727
2728   2729   2730   2731
2732   2733   2734   2735
2736   2737   2738   2739
2740   2741   2742   2743
2744   2745   2746   2747
2748   2749   2750   2751
2752   2753   2754   2755
2756   2757   2758   2759
2760   2761   2762   2763
2764   2765   2766   2767
2768   2769   2770   2771
2772   2773   2774   2775
2776   2777   2778   2779
2780   2781   2782   2783
2784   2785   2786   2787
2788   2789   2790   2791
2792   2793   2794   2795
2796   2797   2798   2799
2800   2801   2802   2803
2804   2805   2806   2807
2808   2809   2810   2811
2812   2813   2814   2815
2816   2817   2818   2819
2820   2821   2822   2823
2824   2825   2826   2827
2828   2829   2830   2831
2832   2833   2834   2835
2836   2837   2838   2839
2840   2841   2842   2843
2844   2845   2846   2847
2848   2849   2850   2851
2852   2853   2854   2855
2856   2857   2858   2859
2860   2861   2862   2863
2864   2865   2866   2867
2868   2869   2870   2871
2872   2873   2874   2875
2876   2877   2878   2879
2880   2881   2882   2883
2884   2885   2886   2887
2888   2889   2890   2891
2892   2893   2894   2895
2896   2897   2898   2899
2900   2901   2902   2903
2904   2905   2906   2907
2908   2909   2910   2911
2912   2913   2914   2915
2916   2917   2918   2919
2920   2921   2922   2923
2924   2925   2926   2927
2928   2929   2930   2931
2932   2933   2934   2935
2936   2937   2938   2939
2940   2941   2942   2943
2944   2945   2946   2947
2948   2949   2950   2951
2952   2953   2954   2955
2956   2957   2958   2959
2960   2961   2962   2963
2964   2965   2966   2967
2968   2969   2970   2971
2972   2973   2974   2975
2976   2977   2978   2979
2980   2981   2982   2983
2984   2985   2986   2987
2988   2989   2990   2991
2992   2993   2994   2995
2996   2997   2998   2999
3000   3001   3002   3003
3004   3005   3006   3007
3008   3009   3010   3011
3012   3013   3014   3015
3016   3017   3018   3019
3020   3021   3022   3023
3024   3025   3026   3027
3028   3029   3030   3031
3032   3033   3034   3035
3036   3037   3038   3039
3040   3041   3042   3043
3044   3045   3046   3047
3048   3049   3050   3051
3052   3053   3054   3055
3056   3057   3058   3059
3060   3061   3062   3063
3064   3065   3066   3067
3068   3069   3070   3071
3072   3073   3074   3075
3076   3077   3078   3079
3080   3081   3082   3083
3084   3085   3086   3087
3088   3089   3090   3091
3092   3093   3094   3095
3096   3097   3098   3099
3100   3101   3102   3103
3104   3105   3106   3107
3108   3109   3110   3111
3112   3113   3114   3115
3116   3117   3118   3119
3120   3121   3122   3123
3124   3125   3126   3127
3128   3129   3130   3131
3132   3133   3134   3135
3136   3137   3138   3139
3140   3141   3142   3143
3144   3145   3146   3147
3148   3149   3150   3151
3152   3153   3154   3155
3156   3157   3158   3159
3160   3161   3162   3163
3164   3165   3166   3167
3168   3169   3170   3171
3172   3173   3174   3175
3176   3177   3178   3179
3180   3181   3182   3183
3184   3185   3186   3187
3188   3189   3190   3191
3192   3193   3194   3195
3196   3197   3198   3199
3200   3201   3202   3203
3204   3205   3206   3207
3208   3209   3210   3211
3212   3213   3214   3215
3216   3217   3218   3219
3220   3221   3222   3223
3224   3225   3226   3227
3228   3229   3230   3231
3232   3233   3234   3235
3236   3237   3238   3239
3240   3241   3242   3243
3244   3245   3246   3247
3248   3249   3250   3251
3252   3253   3254   3255
3256   3257   3258   3259
3260   3261   3262   3263
3264   3265   3266   3267
3268   3269   3270   3271
3272   3273   3274   3275
3276   3277   3278   3279
3280   3281   3282   3283
3284   3285   3286   3287
3288   3289   3290   3291
3292   3293   3294   3295
3296   3297   3298   3299
3300   3301   3302   3303
3304   3305   3306   3307
3308   3309   3310   3311
3312   3313   3314   3315
3316   3317   3318   3319
3320   3321   3322   3323
3324   3325   3326   3327
3328   3329   3330   3331
3332   3333   3334   3335
3336   3337   3338   3339
3340   3341   3342   3343
3344   3345   3346   3347
3348   3349   3350   3351
3352   3353   3354   3355
3356   3357   3358   3359
3360   3361   3362   3363
3364   3365   3366   3367
3368   3369   3370   3371
3372   3373   3374   3375
3376   3377   3378   3379
3380   3381   3382   3383
3384   3385   3386   3387
3388   3389   3390   3391
3392   3393   3394   3395
3396   3397   3398   3399
3400   3401   3402   3403
3404   3405   3406   3407
3408   3409   3410   3411
3412   3413   3414   3415
3416   3417   3418   3419
3420   3421   3422   3423
3424   3425   3426   3427
3428   3429   3430   3431
3432   3433   3434   3435
3436   3437   3438   3439
3440   3441   3442   3443
3444   3445   3446   3447
3448   3449   3450   3451
3452   3453   3454   3455
3456   3457   3458   3459
3460   3461   3462   3463
3464   3465   3466   3467
3468   3469   3470   3471
3472   3473   3474   3475
3476   3477   3478   3479
3480   3481   3482   3483
3484   3485   3486   3487
3488   3489   3490   3491
3492   3493   3494   3495
3496   3497   3498   3499
3500   3501   3502   3503
3504   3505   3506   3507
3508   3509   3510   3511
3512   3513   3514   3515
3516   3517   3518   3519
3520   3521   3522   3523
3524   3525   3526   3527
3528   3529   3530   3531
3532   3533   3534   3535
3536   3537   3538   3539
3540   3541   3542   3543
3544   3545   3546   3547
3548   3549   3550   3551
3552   3553   3554   3555
3556   3557   3558   3559
3560   3561   3562   3563
3564   3565   3566   3567
3568   3569   3570   3571
3572   3573   3574   3575
3576   3577   3578   3579
3580   3581   3582   3583
3584   3585   3586   3587
3588   3589   3590   3591
3592   3593   3594   3595
3596   3597   3598   3599
3600   3601   3602   3603
3604   3605   3606   3607
3608   3609   3610   3611
3612   3613   3614   3615
3616   3617   3618   3619
3620   3621   3622   3623
3624   3625   3626   3627
3628   3629   3630   3631
3632   3633   3634   3635
3636   3637   3638   3639
3640   3641   3642   3643
3644   3645   3646   3647
3648   3649   3650   3651
3652   3653   3654   3655
3656   3657   3658   3659
3660   3661   3662   3663
3664   3665   3666   3667
3668   3669   3670   3671
3672   3673   3674   3675
3676   3677   3678   3679
3680   3681   3682   3683
3684   3685   3686   3687
3688   3689   3690   3691
3692   3693   3694   3695
3696   3697   3698   3699
3700   3701   3702   3703
3704   3705   3706   3707
3708   3709   3710   3711
3712   3713   3714   3715
3716   3717   3718   3719
3720   3721   3722   3723
3724   3725   3726   3727
3728   3729   3730   3731
3732   3733   3734   3735
3736   3737   3738   3739
3740   3741   3742   3743
3744   3745   3746   3747
3748   3749   3750   3751
3752   3753   3754   3755
3756   3757   3758   3759
3760   3761   3762   3763
3764   3765   3766   3767
3768   3769   3770   3771
3772   3773   3774   3775
3776   3777   3778   3779
3780   3781   3782   3783
3784   3785   3786   3787
3788   3789   3790   3791
3792   3793   3794   3795
3796   3797   3798   3799
3800   3801   3802   3803
3804   3805   3806   3807
3808   3809   3810   3811
3812   3813   3814   3815
3816   3817   3818   3819
3820   3821   3822   3823
3824   3825   3826   3827
3828   3829   3830   3831
3832   3833   3834   3835
3836   3837   3838   3839
3840   3841   3842   3843
3844   3845   3846   3847
3848   3849   3850   3851
3852   3853   3854   3855
3856   3857   3858   3859
3860   3861   3862   3863
3864   3865   3866   3867
3868   3869   3870   3871
3872   3873   3874   3875
3876   3877   3878   3879
3880   3881   3882   3883
3884   3885   3886   3887
3888   3889   3890   3891
3892   3893   3894   3895
3896   3897   3898   3899
3900   3901   3902   3903
3904   3905   3906   3907
3908   3909   3910   3911
3912   3913   3914   3915
3916   3917   3918   3919
3920   3921   3922   3923
3924   3925   3926   3927
3928   3929   3930   3931
3932   3933   3934   3935
3936   3937   3938   3939
3940   3941   3942   3943
3944   3945   3946   3947
3948   3949   3950   3951
3952   3953   3954   3955
3956   3957   3958   3959
3960   3961   3962   3963
3964   3965   3966   3967
3968   3969   3970   3971
3972   3973   3974   3975
3976   3977   3978   3979
3980   3981   3982   3983
3984   3985   3986   3987
3988   3989   3990   3991
3992   3993   3994   3995
3996   3997   3998   3999
4000   4001   4002   4003
4004   4005   4006   4007
4008   4009   4010   4011
4012   4013   4014   4015
4016   4017   4018   4019
4020   4021   4022   4023
4024   4025   4026   4027
4028   4029   4030   4031
4032   4033   4034   4035
4036   4037   4038   4039
4040   4041   4042   4043
4044   4045   4046   4047
4048   4049   4050   4051
4052   4053   4054   4055
4056   4057   4058   4059
4060   4061   4062   4063
4064   4065   4066   4067
4068   4069   4070   4071
4072   4073   4074   4075
4076   4077   4078   4079
4080   4081   4082   4083
4084   4085   4086   4087
4088   4089   4090   4091
4092   4093   4094   4095
4096   4097   4098   4099
4100   4101   4102   4103
4104   4105   4106   4107
4108   4109   4110   4111
4112   4113   4114   4115
4116   4117   4118   4119
4120   4121   4122   4123
4124   4125   4126   4127
4128   4129   4130   4131
4132   4133   4134   4135
4136   4137   4138   4139
4140   4141   4142   4143
4144   4145   4146   4147
4148   4149   4150   4151
4152   4153   4154   4155
4156   4157   4158   4159
4160   4161   4162   4163
4164   4165   4166   4167
4168   4169   4170   4171
4172   4173   4174   4175
4176   4177   4178   4179
4180   4181   4182   4183
4184   4185   4186   4187
4188   4189   4190   4191
4192   4193   4194   4195
4196   4197   4198   4199
4200   4201   4202   4203
4204   4205   4206   4207
4208   4209   4210   4211
4212   4213   4214   4215
4216   4217   4218   4219
4220   4221   4222   4223
4224   4225   4226   4227
4228   4229   4230   4231
4232   4233   4234   4235
4236   4237   4238   4239
4240   4241   4242   4243
4244   4245   4246   4247
4248   4249   4250   4251
4252   4253   4254   4255
4256   4257   4258   4259
4260   4261   4262   4263
4264   4265   4266   4267
4268   4269   4270   4271
4272   4273   4274   4275
4276   4277   4278   4279
4280   4281   4282   4283
4284   4285   4286   4287
4288   4289   4290   4291
4292   4293   4294   4295
4296   4297   4298   4299
4300   4301   4302   4303
4304   4305   4306   4307
4308   4309   4310   4311
4312   4313   4314   4315
4316   4317   4318   4319
4320   4321   4322   4323
4324   4325   4326   4327
4328   4329   4330   4331
4332   4333   4334   4335
4336   4337   4338   4339
4340   4341   4342   4343
4344   4345   4346   4347
4348   4349   4350   4351
4352   4353   4354   4355
4356   4357   4358   4359
4360   4361   4362   4363
4364   4365   4366   4367
4368   4369   4370   4371
4372   4373   4374   4375
4376   4377   4378   4379
4380   4381   4382   4383
4384   4385   4386   4387
4388   4389   4390   4391
4392   4393   4394   4395
4396   4397   4398   4399
4400   4401   4402   4403
4404   4405   4406   4407
4408   4409   4410   4411
4412   4413   4414   4415
4416   4417   4418   4419
4420   4421   4422   4423
4424   4425   4426   4427
4428   4429   4430   4431
4432   4433   4434   4435
4436   4437   4438   4439
4440   4441   4442   4443
4444   4445   4446   4447
4448   4449   4450   4451
4452   4453   4454   4455
4456   4457   4458   4459
4460   4461   4462   4463
4464   4465   4466   4467
4468   4469   4470   4471
4472   4473   4474   4475
4476   4477   4478   4479
4480   4481   4482   4483
4484   4485   4486   4487
4488   4489   4490   4491
4492   4493   4494   4495
4496   4497   4498   4499
4500   4501   4502   4503
4504   4505   4506   4507
4508   4509   4510   4511
4512   4513   4514   4515
4516   4517   4518   4519
4520   4521   4522   4523
4524   4525   4526   4527
4528   4529   4530   4531
4532   4533   4534   4535
4536   4537   4538   4539
4540   4541   4542   4543
4544   4545   4546   4547
4548   4549   4550   4551
4552   4553   4554   4555
4556   4557   4558   4559
4560   4561   4562   4563
4564   4565   4566   4567
4568   4569   4570   4571
4572   4573   4574   4575
4576   4577   4578   4579
4580   4581   4582   4583
4584   4585   4586   4587
4588   4589   4590   4591
4592   4593   4594   4595
4596   4597   4598   4599
4600   4601   4602   4603
4604   4605   4606   4607
4608   4609   4610   4611
4612   4613   4614   4615
4616   4617   4618   4619
4620   4621   4622   4623
4624   4625   4626   4627
4628   4629   4630   4631
4632   4633   4634   4635
4636   4637   4638   4639
4640   4641   4642   4643
4644   4645   4646   4647
4648   4649   4650   4651
4652   4653   4654   4655
4656   4657   4658   4659
4660   4661   4662   4663
4664   4665   4666   4667
4668   4669   4670   4671
4672   4673   4674   4675
4676   4677   4678   4679
4680   4681   4682   4683
4684   4685   4686   4687
4688   4689   4690   4691
4692   4693   4694   4695
4696   4697   4698   4699
4700   4701   4702   4703
4704   4705   4706   4707
4708   4709   4710   4711
4712   4713   4714   4715
4716   4717   4718   4719
4720   4721   4722   4723
4724   4725   4726   4727
4728   4729   4730   4731
4732   4733   4734   4735
4736   4737   4738   4739
4740   4741   4742   4743
4744   4745   4746   4747
4748   4749   4750   4751
4752   4753   4754   4755
4756   4757   4758   4759
4760   4761   4762   4763
4764   4765   4766   4767
4768   4769   4770   4771
4772   4773   4774   4775
4776   4777   4778   4779
4780   4781   4782   4783
4784   4785   4786   4787
4788   4789   4790   4791
4792   4793   4794   4795
4796   4797   4798   4799
4800   4801   4802   4803
4804   4805   4806   4807
4808   4809   4810   4811
4812   4813   4814   4815
4816   4817   4818   4819
4820   4821   4822   4823
4824   4825   4826   4827
4828   4829   4830   4831
4832   4833   4834   4835
4836   4837   4838   4839
4840   4841   4842   4843
4844   4845   4846   4847
4848   4849   4850   4851
4852   4853   4854   4855
4856   4857   4858   4859
4860   4861   4862   4863
4864   4865   4866   4867
4868   4869   4870   4871
4872   4873   4874   4875
4876   4877   4878   4879
4880   4881   4882   4883
4884   4885   4886   4887
4888   4889   4890   4891
4892   4893   4894   4895
4896   4897   4898   4899
4900   4901   4902   4903
4904   4905   4906   4907
4908   4909   4910   4911
4912   4913   4914   4915
4916   4917   4918   4919
4920   4921   4922   4923
4924   4925   4926   4927
4928   4929   4930   4931
4932   4933   4934   4935
4936   4937   4938   4939
4940   4941   4942   4943
4944   4945   4946   4947
4948   4949   4950   4951
4952   4953   4954   4955
4956   4957   4958   4959
4960   4961   4962   4963
4964   4965   4966   4967
4968   4969   4970   4971
4972   4973   4974   4975
4976   4977   4978   4979
4980   4981   4982   4983
4984   4985   4986   4987
4988   4989   4990   4991
4992   4993   4994   4995
4996   4997   4998   4999
5000   5001   5002   5003
5004   5005   5006   5007
5008   5009   5010   5011
5012   5013   5014   5015
5016   5017   5018   5019
5020   5021   5022   5023
5024   5025   5026   5027
5028   5029   5030   5031
5032   5033   5034   5035
5036   5037   5038   5039
5040   5041   5042   5043
5044   5045   5046   5047
5048   5049   5050   5051
5052   5053   5054   5055
5056   5057   5058   5059
5060   5061   5062   5063
5064   5065   5066   5067
5068   5069   5070   5071
5072   5073   5074   5075
5076   5077   5078   5079
5080   5081   5082   5083
5084   5085   5086   5087
5088   5089   5090   5091
5092   5093   5094   5095
5096   5097   5098   5099
5100   5101   5102   5103
5104   5105   5106   5107
5108   5109   5110   5111
5112   5113   5114   5115
5116   5117   5118   5119
5120   5121   5122   5123
5124   5125   5126   5127
5128   5129   5130   5131
5132   5133   5134   5135
5136   5137   5138   5139
5140   5141   5142   5143
5144   5145   5146   5147
5148   5149   5150   5151
5152   5153   5154   5155
5156   5157   5158   5159
5160   5161   5162   5163
5164   5165   5166   5167
5168   5169   5170   5171
5172   5173   5174   5175
5176   5177   5178   5179
5180   5181   5182   5183
5184   5185   5186   5187
5188   5189   5190   5191
5192   5193   5194   5195
5196   5197   5198   5199
5200   5201   5202   5203
5204   5205   5206   5207
5208   5209   5210   5211
5212   5213   5214   5215
5216   5217   5218   5219
5220   5221   5222   5223
5224   5225   5226   5227
5228   5229   5230   5231
5232   5233   5234   5235
5236   5237   5238   5239
5240   5241   5242   5243
5244   5245   5246   5247
5248   5249   5250   5251
5252   5253   5254   5255
5256   5257   5258   5259
5260   5261   5262   5263
5264   5265   5266   5267
5268   5269   5270   5271
5272   5273   5274   5275
5276   5277   5278   5279
5280   5281   5282   5283
5284   5285   5286   5287
5288   5289   5290   5291
5292   5293   5294   5295
5296   5297   5298   5299
5300   5301   5302   5303
5304   5305   5306   5307
5308   5309   5310   5311
5312   5313   5314   5315
5316   5317   5318   5319
5320   5321   5322   5323
5324   5325   5326   5327
5328   5329   5330   5331
5332   5333   5334   5335
5336   5337   5338   5339
5340   5341   5342   5343
5344   5345   5346   5347
5348   5349   5350   5351
5352   5353   5354   5355
5356   5357   5358   5359
5360   5361   5362   5363
5364   5365   5366   5367
5368   5369   5370   5371
5372   5373   5374   5375
5376   5377   5378   5379
5380   5381   5382   5383
5384   5385   5386   5387
5388   5389   5390   5391
5392   5393   5394   5395
5396   5397   5398   5399
5400   5401   5402   5403
5404   5405   5406   5407
5408   5409   5410   5411
5412   5413   5414   5415
5416   5417   5418   5419
5420   5421   5422   5423
5424   5425   5426   5427
5428   5429   5430   5431
5432   5433   5434   5435
5436   5437   5438   5439
5440   5441   5442   5443
5444   5445   5446   5447
5448   5449   5450   5451
5452   5453   5454   5455
5456   5457   5458   5459
5460   5461   5462   5463
5464   5465   5466   5467
5468   5469   5470   5471
5472   5473   5474   5475
5476   5477   5478   5479
5480   5481   5482   5483
5484   5485   5486   5487
5488   5489   5490   5491
5492   5493   5494   5495
5496   5497   5498   5499
5500   5501   5502   5503
5504   5505   5506   5507
5508   5509   5510   5511
5512   5513   5514   5515
5516   5517   5518   5519
5520   5521   5522   5523
5524   5525   5526   5527
5528   5529   5530   5531
5532   5533   5534   5535
5536   5537   5538   5539
5540   5541   5542   5543
5544   5545   5546   5547
5548   5549   5550   5551
5552   5553   5554   5555
5556   5557   5558   5559
5560   5561   5562   5563
5564   5565   5566   5567
5568   5569   5570   5571
5572   5573   5574   5575
5576   5577   5578   5579
5580   5581   5582   5583
5584   5585   5586   5587
5588   5589   5590   5591
5592   5593   5594   5595
5596   5597   5598   5599
5600   5601   5602   5603
5604   5605   5606   5607
5608   5609   5610   5611
5612   5613   5614   5615
5616   5617   5618   5619
5620   5621   5622   5623
5624   5625   5626   5627
5628   5629   5630   5631
5632   5633   5634   5635
5636   5637   5638   5639
5640   5641   5642   5643
5644   5645   5646   5647
5648   5649   5650   5651
5652   5653   5654   5655
5656   5657   5658   5659
5660   5661   5662   5663
5664   5665   5666   5667
5668   5669   5670   5671
5672   5673   5674   5675
5676   5677   5678   5679
5680   5681   5682   5683
5684   5685   5686   5687
5688   5689   5690   5691
5692   5693   5694   5695
5696   5697   5698   5699
5700   5701   5702   5703
5704   5705   5706   5707
5708   5709   5710   5711
5712   5713   5714   5715
5716   5717   5718   5719
5720   5721   5722   5723
5724   5725   5726   5727
5728   5729   5730   5731
5732   5733   5734   5735
5736   5737   5738   5739
5740   5741   5742   5743
5744   5745   5746   5747
5748   5749   5750   5751
5752   5753   5754   5755
5756   5757   5758   5759
5760   5761   5762   5763
5764   5765   5766   5767
5768   5769   5770   5771
5772   5773   5774   5775
5776   5777   5778   5779
5780   5781   5782   5783
5784   5785   5786   5787
5788   5789   5790   5791
5792   5793   5794   5795
5796   5797   5798   5799
5800   5801   5802   5803
5804   5805   5806   5807
5808   5809   5810   5811
5812   5813   5814   5815
5816   5817   5818   5819
5820   5821   5822   5823
5824   5825   5826   5827
5828   5829   5830   5831
5832   5833   5834   5835
5836   5837   5838   5839
5840   5841   5842   5843
5844   5845   5846   5847
5848   5849   5850   5851
5852   5853   5854   5855
5856   5857   5858   5859
5860   5861   5862   5863
5864   5865   5866   5867
5868   5869   5870   5871
5872   5873   5874   5875
5876   5877   5878   5879
5880   5881   5882   5883
5884   5885   5886   5887
5888   5889   5890   5891
5892   5893   5894   5895
5896   5897   5898   5899
5900   5901   5902   5903
5904   5905   5906   5907
5908   5909   5910   5911
5912   5913   5914   5915
5916   5917   5918   5919
5920   5921   5922   5923
5924   5925   5926   5927
5928   5929   5930   5931
5932   5933   5934   5935
5936   5937   5938   5939
5940   5941   5942   5943
5944   5945   5946   5947
5948   5949   5950   5951
5952   5953   5954   5955
5956   5957   5958   5959
5960   5961   5962   5963
5964   5965   5966   5967
5968   5969   5970   5971
5972   5973   5974   5975
5976   5977   5978   5979
5980   5981   5982   5983
5984   5985   5986   5987
5988   5989   5990   5991
5992   5993   5994   5995
5996   5997   5998   5999
              </DataArray>   
              <DataArray type="Int32" Name="offsets" format="ascii">   
4
8
12
16
20
24
28
32
36
40
44
48
52
56
60
64
68
72
76
80
84
88
92
96
100
104
108
112
116
120
124
128
132
136
140
144
148
152
156
160
164
168
172
176
180
184
188
192
196
200
204
208
212
216
220
224
228
232
236
240
244
248
252
256
260
264
268
272
276
280
284
288
292
296
300
304
308
312
316
320
324
328
332
336
340
344
348
352
356
360
364
368
372
376
380
384
388
392
396
400
404
408
412
416
420
424
428
432
436
440
444
448
452
456
460
464
468
472
476
480
484
488
492
496
500
504
508
512
516
520
524
528
532
536
540
544
548
552
556
560
564
568
572
576
580
584
588
592
596
600
604
608
612
616
620
624
628
632
636
640
644
648
652
656
660
664
668
672
676
680
684
688
692
696
700
704
708
712
716
720
724
728
732
736
740
744
748
752
756
760
764
768
772
776
780
784
788
792
796
800
804
808
812
816
820
824
828
832
836
840
844
848
852
856
860
864
868
872
876
880
884
888
892
896
900
904
908
912
916
920
924
928
932
936
940
944
948
952
956
960
964
968
972
976
980
984
988
992
996
1000
1004
1008
1012
1016
1020
1024
1028
1032
1036
1040
1044
1048
1052
1056
1060
1064
1068
1072
1076
1080
1084
1088
1092
1096
1100
1104
1108
1112
1116
1120
1124
1128
1132
1136
1140
1144
1148
1152
1156
1160
1164
1168
1172
1176
1180
1184
1188
1192
1196
1200
1204
1208
1212
1216
1220
1224
1228
1232
1236
1240
1244
1248
1252
1256
1260
1264
1268
1272
1276
1280
1284
1288
1292
1296
1300
1304
1308
1312
1316
1320
1324
1328
1332
1336
1340
1344
1348
1352
1356
1360
1364
1368
1372
1376
1380
1384
1388
1392
1396
1400
1404
1408
1412
1416
1420
1424
1428
1432
1436
1440
1444
1448
1452
1456
1460
1464
1468
1472
1476
1480
1484
1488
1492
1496
1500
1504
1508
1512
1516
1520
1524
1528
1532
1536
1540
1544
1548
1552
1556
1560
1564
1568
1572
1576
1580
1584
1588
1592
1596
1600
1604
1608
1612
1616
1620
1624
1628
1632
1636
1640
1644
1648
1652
1656
1660
1664
1668
1672
1676
1680
1684
1688
1692
1696
1700
1704
1708
1712
1716
1720
1724
1728
1732
1736
1740
1744
1748
1752
1756
1760
1764
1768
1772
1776
1780
1784
1788
1792
1796
1800
1804
1808
1812
1816
1820
1824
1828
1832
1836
1840
1844
1848
1852
1856
1860
1864
1868
1872
1876
1880
1884
1888
1892
1896
1900
1904
1908
1912
1916
1920
1924
1928
1932
1936
1940
1944
1948
1952
1956
1960
1964
1968
1972
1976
1980
1984
1988
1992
1996
2000
2004
2008
2012
2016
2020
2024
2028
2032
2036
2040
2044
2048
2052
2056
2060
2064
2068
2072
2076
2080
2084
2088
2092
2096
2100
2104
2108
2112
2116
2120
2124
2128
2132
2136
2140
2144
2148
2152
2156
2160
2164
2168
2172
2176
2180
2184
2188
2192
2196
2200
2204
2208
2212
2216
2220
2224
2228
2232
2236
2240
2244
2248
2252
2256
2260
2264
2268
2272
2276
2280
2284
2288
2292
2296
2300
2304
2308
2312
2316
2320
2324
2328
2332
2336
2340
2344
2348
2352
2356
2360
2364
2368
2372
2376
2380
2384
2388
2392
2396
2400
2404
2408
2412
2416
2420
2424
2428
2432
2436
2440
2444
2448
2452
2456
2460
2464
2468
2472
2476
2480
2484
2488
2492
2496
2500
2504
2508
2512
2516
2520
2524
2528
2532
2536
2540
2544
2548
2552
2556
2560
2564
2568
2572
2576
2580
2584
2588
2592
2596
2600
2604
2608
2612
2616
2620
2624
2628
2632
2636
2640
2644
2648
2652
2656
2660
2664
2668
2672
2676
2680
2684
2688
2692
2696
2700
2704
2708
2712
2716
2720
2724
2728
2732
2736
2740
2744
2748
2752
2756
2760
2764
2768
2772
2776
2780
2784
2788
2792
2796
2800
2804
2808
2812
2816
2820
2824
2828
2832
2836
2840
2844
2848
2852
2856
2860
2864
2868
2872
2876
2880
2884
2888
2892
2896
2900
2904
2908
2912
2916
2920
2924
2928
2932
2936
2940
2944
2948
2952
2956
2960
2964
2968
2972
2976
2980
2984
2988
2992
2996
3000
3004
3008
3012
3016
3020
3024
3028
3032
3036
3040
3044
3048
3052
3056
3060
3064
3068
3072
3076
3080
3084
3088
3092
3096
3100
3104
3108
3112
3116
3120
3124
3128
3132
3136
3140
3144
3148
3152
3156
3160
3164
3168
3172
3176
3180
3184
3188
3192
3196
3200
3204
3208
3212
3216
3220
3224
3228
3232
3236
3240
3244
3248
3252
3256
3260
3264
3268
3272
3276
3280
3284
3288
3292
3296
3300
3304
3308
3312
3316
3320
3324
3328
3332
3336
3340
3344
3348
3352
3356
3360
3364
3368
3372
3376
3380
3384
3388
3392
3396
3400
3404
3408
3412
3416
3420
3424
3428
3432
3436
3440
3444
3448
3452
3456
3460
3464
3468
3472
3476
3480
3484
3488
3492
3496
3500
3504
3508
3512
3516
3520
3524
3528
3532
3536
3540
3544
3548
3552
3556
3560
3564
3568
3572
3576
3580
3584
3588
3592
3596
3600
3604
3608
3612
3616
3620
3624
3628
3632
3636
3640
3644
3648
3652
3656
3660
3664
3668
3672
3676
3680
3684
3688
3692
3696
3700
3704
3708
3712
3716
3720
3724
3728
3732
3736
3740
3744
3748
3752
3756
3760
3764
3768
3772
3776
3780
3784
3788
3792
3796
3800
3804
3808
3812
3816
3820
3824
3828
3832
3836
3840
3844
3848
3852
3856
3860
3864
3868
3872
3876
3880
3884
3888
3892
3896
3900
3904
3908
3912
3916
3920
3924
3928
3932
3936
3940
3944
3948
3952
3956
3960
3964
3968
3972
3976
3980
3984
3988
3992
3996
4000
4004
4008
4012
4016
4020
4024
4028
4032
4036
4040
4044
4048
4052
4056
4060
4064
4068
4072
4076
4080
4084
4088
4092
4096
4100
4104
4108
4112
4116
4120
4124
4128
4132
4136
4140
4144
4148
4152
4156
4160
4164
4168
4172
4176
4180
4184
4188
4192
4196
4200
4204
4208
4212
4216
4220
4224
4228
4232
4236
4240
4244
4248
4252
4256
4260
4264
4268
4272
4276
4280
4284
4288
4292
4296
4300
4304
4308
4312
4316
4320
4324
4328
4332
4336
4340
4344
4348
4352
4356
4360
4364
4368
4372
4376
4380
4384
4388
4392
4396
4400
4404
4408
4412
4416
4420
4424
4428
4432
4436
4440
4444
4448
4452
4456
4460
4464
4468
4472
4476
4480
4484
4488
4492
4496
4500
4504
4508
4512
4516
4520
4524
4528
4532
4536
4540
4544
4548
4552
4556
4560
4564
4568
4572
4576
4580
4584
4588
4592
4596
4600
4604
4608
4612
4616
4620
4624
4628
4632
4636
4640
4644
4648
4652
4656
4660
4664
4668
4672
4676
4680
4684
4688
4692
4696
4700
4704
4708
4712
4716
4720
4724
4728
4732
4736
4740
4744
4748
4752
4756
4760
4764
4768
4772
4776
4780
4784
4788
4792
4796
4800
4804
4808
4812
4816
4820
4824
4828
4832
4836
4840
4844
4848
4852
4856
4860
4864
4868
4872
4876
4880
4884
4888
4892
4896
4900
4904
4908
4912
4916
4920
4924
4928
4932
4936
4940
4944
4948
4952
4956
4960
4964
4968
4972
4976
4980
4984
4988
4992
4996
5000
5004
5008
5012
5016
5020
5024
5028
5032
5036
5040
5044
5048
5052
5056
5060
5064
5068
5072
5076
5080
5084
5088
5092
5096
5100
5104
5108
5112
5116
5120
5124
5128
5132
5136
5140
5144
5148
5152
5156
5160
5164
5168
5172
5176
5180
5184
5188
5192
5196
5200
5204
5208
5212
5216
5220
5224
5228
5232
5236
5240
5244
5248
5252
5256
5260
5264
5268
5272
5276
5280
5284
5288
5292
5296
5300
5304
5308
5312
5316
5320
5324
5328
5332
5336
5340
5344
5348
5352
5356
5360
5364
5368
5372
5376
5380
5384
5388
5392
5396
5400
5404
5408
5412
5416
5420
5424
5428
5432
5436
5440
5444
5448
5452
5456
5460
5464
5468
5472
5476
5480
5484
5488
5492
5496
5500
5504
5508
5512
5516
5520
5524
5528
5532
5536
5540
5544
5548
5552
5556
5560
5564
5568
5572
5576
5580
5584
5588
5592
5596
5600
5604
5608
5612
5616
5620
5624
5628
5632
5636
5640
5644
5648
5652
5656
5660
5664
5668
5672
5676
5680
5684
5688
5692
5696
5700
5704
5708
5712
5716
5720
5724
5728
5732
5736
5740
5744
5748
5752
5756
5760
5764
5768
5772
5776
5780
5784
5788
5792
5796
5800
5804
5808
5812
5816
5820
5824
5828
5832
5836
5840
5844
5848
5852
5856
5860
5864
5868
5872
5876
5880
5884
5888
5892
5896
5900
5904
5908
5912
5916
5920
5924
5928
5932
5936
5940
5944
5948
5952
5956
5960
5964
5968
5972
5976
5980
5984
5988
5992
5996
6000
              </DataArray>   
              <DataArray type="UInt8" Name="types" format="ascii">   
10
10
10
10
10
10
10
10
10
10
10
10
10
10
10
10
10
10
10
10
10
10
10
10
10
10
10
10
10
10
10
10
10
10
10
10
10
10
10
10
10
10
10
10
10
10
10
10
10
10
10
10
10
10
10
10
10
10
10
10
10
10
10
10
10
10
10
10
10
10
10
10
10
10
10
10
10
10
10
10
10
10
10
10
10
10
10
10
10
10
10
10
10
10
10
10
10
10
10
10
10
10
10
10
10
10
10
10
10
10
10
10
10
10
10
10
10
10
10
10
10
10
10
10
10
10
10
10
10
10
10
10
10
10
10
10
10
10
10
10
10
10
10
10
10
10
10
10
10
10
10
10
10
10
10
10
10
10
10
10
10
10
10
10
10
10
10
10
10
10
10
10
10
10
10
10
10
10
10
10
10
10
10
10
10
10
10
10
10
10
10
10
10
10
10
10
10
10
10
10
10
10
10
10
10
10
10
10
10
10
10
10
10
10
10
10
10
10
10
10
10
10
10
10
10
10
10
10
10
10
10
10
10
10
10
10
10
10
10
10
10
10
10
10
10
10
10
10
10
10
10
10
10
10
10
10
10
10
10
10
10
10
10
10
10
10
10
10
10
10
10
10
10
10
10
10
10
10
10
10
10
10
10
10
10
10
10
10
10
10
10
10
10
10
10
10
10
10
10
10
10
10
10
10
10
10
10
10
10
10
10
10
10
10
10
10
10
10
10
10
10
10
10
10
10
10
10
10
10
10
10
10
10
10
10
10
10
10
10
10
10
10
10
10
10
10
10
10
10
10
10
10
10
10
10
10
10
10
10
10
10
10
10
10
10
10
10
10
10
10
10
10
10
10
10
10
10
10
10
10
10
10
10
10
10
10
10
10
10
10
10
10
10
10
10
10
10
10
10
10
10
10
10
10
10
10
10
10
10
10
10
10
10
10
10
10
10
10
10
10
10
10
10
10
10
10
10
10
10
10
10
10
10
10
10
10
10
10
10
10
10
10
10
10
10
10
10
10
10
10
10
10
10
10
10
10
10
10
10
10
10
10
10
10
10
10
10
10
10
10
10
10
10
10
10
10
10
10
10
10
10
10
10
10
10
10
10
10
10
10
10
10
10
10
10
10
10
10
10
10
10
10
10
10
10
10
10
10
10
10
10
10
10
10
10
10
10
10
10
10
10
10
10
10
10
10
10
10
10
10
10
10
10
10
10
10
10
10
10
10
10
10
10
10
10
10
10
10
10
10
10
10
10
10
10
10
10
10
10
10
10
10
10
10
10
10
10
10
10
10
10
10
10
10
10
10
10
10
10
10
10
10
10
10
10
10
10
10
10
10
10
10
10
10
10
10
10
10
10
10
10
10
10
10
10
10
10
10
10
10
10
10
10
10
10
10
10
10
10
10
10
10
10
10
10
10
10
10
10
10
10
10
10
10
10
10
10
10
10
10
10
10
10
10
10
10
10
10
10
10
10
10
10
10
10
10
10
10
10
10
10
10
10
10
10
10
10
10
10
10
10
10
10
10
10
10
10
10
10
10
10
10
10
10
10
10
10
10
10
10
10
10
10
10
10
10
10
10
10
10
10
10
10
10
10
10
10
10
10
10
10
10
10
10
10
10
10
10
10
10
10
10
10
10
10
10
10
10
10
10
10
10
10
10
10
10
10
10
10
10
10
10
10
10
10
10
10
10
10
10
10
10
10
10
10
10
10
10
10
10
10
10
10
10
10
10
10
10
10
10
10
10
10
10
10
10
10
10
10
10
10
10
10
10
10
10
10
10
10
10
10
10
10
10
10
10
10
10
10
10
10
10
10
10
10
10
10
10
10
10
10
10
10
10
10
10
10
10
10
10
10
10
10
10
10
10
10
10
10
10
10
10
10
10
10
10
10
10
10
10
10
10
10
10
10
10
10
10
10
10
10
10
10
10
10
10
10
10
10
10
10
10
10
10
10
10
10
10
10
10
10
10
10
10
10
10
10
10
10
10
10
10
10
10
10
10
10
10
10
10
10
10
10
10
10
10
10
10
10
10
10
10
10
10
10
10
10
10
10
10
10
10
10
10
10
10
10
10
10
10
10
10
10
10
10
10
10
10
10
10
10
10
10
10
10
10
10
10
10
10
10
10
10
10
10
10
10
10
10
10
10
10
10
10
10
10
10
10
10
10
10
10
10
10
10
10
10
10
10
10
10
10
10
10
10
10
10
10
10
10
10
10
10
10
10
10
10
10
10
10
10
10
10
10
10
10
10
10
10
10
10
10
10
10
10
10
10
10
10
10
10
10
10
10
10
10
10
10
10
10
10
10
10
10
10
10
10
10
10
10
10
10
10
10
10
10
10
10
10
10
10
10
10
10
10
10
10
10
10
10
10
10
10
10
10
10
10
10
10
10
10
10
10
10
10
10
10
10
10
10
10
10
10
10
10
10
10
10
10
10
10
10
10
10
10
10
10
10
10
10
10
10
10
10
10
10
10
10
10
10
10
10
10
10
10
10
10
10
10
10
10
10
10
10
10
10
10
10
10
10
10
10
10
10
10
10
10
10
10
10
10
10
10
10
10
10
10
10
10
10
10
10
10
10
10
10
10
10
10
10
10
10
10
10
10
10
10
10
10
10
10
10
10
10
10
10
10
10
10
10
10
10
10
10
10
10
10
10
10
10
10
10
10
10
10
10
10
10
10
10
10
10
10
10
10
10
10
10
10
10
10
10
10
10
10
10
10
10
10
10
10
10
10
10
10
10
10
10
10
10
10
10
10
10
10
10
10
10
10
10
10
10
10
10
10
10
10
10
10
10
10
10
10
10
10
10
10
10
10
10
10
10
10
10
10
10
10
10
10
10
10
10
10
10
10
10
10
10
10
10
10
10
10
10
10
10
10
10
10
10
10
10
10
10
10
10
10
10
10
10
10
10
10
10
10
10
10
10
10
10
10
10
10
10
10
10
10
10
10
10
10
10
10
10
10
10
10
10
10
10
10
10
10
10
10
10
10
10
10
10
10
10
10
10
10
10
10
10
10
10
10
10
10
10
10
10
10
10
10
10
10
10
10
10
10
10
10
10
10
10
10
10
10
10
10
10
10
10
10
10
10
10
10
10
10
10
10
10
10
10
10
10
10
10
10
10
10
10
10
10
10
10
10
10
10
10
10
10
10
10
10
10
10
10
10
10
10
10
10
10
10
10
10
10
10
10
10
10
10
10
10
10
10
10
10
10
10
10
10
10
10
10
10
10
10
10
10
10
10
10
10
10
10
10
10
10
10
10
10
10
10
10
10
10
10
10
10
10
10
10
10
10
10
10
10
10
10
10
10
10
10
10
10
10
10
10
10
10
10
10
10
10
10
10
10
10
10
10
10
10
10
10
10
10
10
10
10
10
10
10
              </DataArray>   
          </Cells>  
          <PointData>  
             <DataArray type="Float64" NumberOfComponents="3" Name="Strains" format="ascii">   
-0.0003760100737903978   0.0   -0.00024599612812169615
-0.0003760100737903978   0.0   -0.00024599612812169615
-0.0003760100737903978   0.0   -0.00024599612812169615
-0.0003760100737903978   0.0   -0.00024599612812169615
-0.00023933964718531321   4.1758196881524405e-05   6.842834349025592e-06
-0.00023933964718531321   4.1758196881524405e-05   6.842834349025592e-06
-0.00023933964718531321   4.1758196881524405e-05   6.842834349025592e-06
-0.00023933964718531321   4.1758196881524405e-05   6.842834349025592e-06
-0.00023466034591180179   0.0   -0.0002320690929597754
-0.00023466034591180179   0.0   -0.0002320690929597754
-0.00023466034591180179   0.0   -0.0002320690929597754
-0.00023466034591180179   0.0   -0.0002320690929597754
-0.0003935791912424537   5.006258581285105e-05   2.7580977702681758e-06
-0.0003935791912424537   5.006258581285105e-05   2.7580977702681758e-06
-0.0003935791912424537   5.006258581285105e-05   2.7580977702681758e-06
-0.0003935791912424537   5.006258581285105e-05   2.7580977702681758e-06
-0.0003053352098510993   1.1605862634933952e-05   -0.00012124117064190546
-0.0003053352098510993   1.1605862634933952e-05   -0.00012124117064190546
-0.0003053352098510993   1.1605862634933952e-05   -0.00012124117064190546
-0.0003053352098510993   1.1605862634933952e-05   -0.00012124117064190546
-0.0003935791912424544   0.0   -0.0002621066444474861
-0.0003935791912424544   0.0   -0.0002621066444474861
-0.0003935791912424544   0.0   -0.0002621066444474861
-0.0003935791912424544   0.0   -0.0002621066444474861
-0.00023466034591180179   5.0062585812851105e-05   3.279564925797883e-05
-0.00023466034591180179   5.0062585812851105e-05   3.279564925797883e-05
-0.00023466034591180179   5.0062585812851105e-05   3.279564925797883e-05
-0.00023466034591180179   5.0062585812851105e-05   3.279564925797883e-05
-0.00023538058881676565   0.0   -0.00023776506391551182
-0.00023538058881676565   0.0   -0.00023776506391551182
-0.00023538058881676565   0.0   -0.00023776506391551182
-0.00023538058881676565   0.0   -0.00023776506391551182
-0.00040594464774150024   5.3621063865259984e-05   1.4335729306557614e-05
-0.00040594464774150024   5.3621063865259984e-05   1.4335729306557614e-05
-0.00040594464774150024   5.3621063865259984e-05   1.4335729306557614e-05
-0.00040594464774150024   5.3621063865259984e-05   1.4335729306557614e-05
-0.00031447989002960947   2.0284650443311893e-05   -0.00011810368549342474
-0.00031447989002960947   2.0284650443311893e-05   -0.00011810368549342474
-0.00031447989002960947   2.0284650443311893e-05   -0.00011810368549342474
-0.00031447989002960947   2.0284650443311893e-05   -0.00011810368549342474
-0.00040594464774150094   0.0   -0.00026993770223466786
-0.00040594464774150094   0.0   -0.00026993770223466786
-0.00040594464774150094   0.0   -0.00026993770223466786
-0.00040594464774150094   0.0   -0.00026993770223466786
-0.00023538058881676565   5.362106386526009e-05   4.650836762571368e-05
-0.00023538058881676565   5.362106386526009e-05   4.650836762571368e-05
-0.00023538058881676565   5.362106386526009e-05   4.650836762571368e-05
-0.00023538058881676565   5.362106386526009e-05   4.650836762571368e-05
-0.00023532276743219396   0.0   -0.00023921948287683527
-0.00023532276743219396   0.0   -0.00023921948287683527
-0.00023532276743219396   0.0   -0.00023921948287683527
-0.00023532276743219396   0.0   -0.00023921948287683527
-0.0004325252332588154   6.10433764611101e-05   5.282526762420215e-05
-0.0004325252332588154   6.10433764611101e-05   5.282526762420215e-05
-0.0004325252332588154   6.10433764611101e-05   5.282526762420215e-05
-0.0004325252332588154   6.10433764611101e-05   5.282526762420215e-05
-0.0003206337075868469   2.5598516131527133e-05   -0.00011239369229799545
-0.0003206337075868469   2.5598516131527133e-05   -0.00011239369229799545
-0.0003206337075868469   2.5598516131527133e-05   -0.00011239369229799545
-0.0003206337075868469   2.5598516131527133e-05   -0.00011239369229799545
-0.00023933964718531365   0.0   -0.00022094120999278152
-0.00023933964718531365   0.0   -0.00022094120999278152
-0.00023933964718531365   0.0   -0.00022094120999278152
-0.00023933964718531365   0.0   -0.00022094120999278152
-0.00010892896576864652   1.533523254971115e-05   5.61106523149017e-06
-0.00010892896576864652   1.533523254971115e-05   5.61106523149017e-06
-0.00010892896576864652   1.533523254971115e-05   5.61106523149017e-06
-0.00010892896576864652   1.533523254971115e-05   5.61106523149017e-06
-0.00010482331481379775   0.0   -0.00021898997612217642
-0.00010482331481379775   0.0   -0.00021898997612217642
-0.00010482331481379775   0.0   -0.00021898997612217642
-0.00010482331481379775   0.0   -0.00021898997612217642
-0.00023466034591180179   2.1798528062665003e-05   -1.567404112976867e-05
-0.00023466034591180179   2.1798528062665003e-05   -1.567404112976867e-05
-0.00023466034591180179   2.1798528062665003e-05   -1.567404112976867e-05
-0.00023466034591180179   2.1798528062665003e-05   -1.567404112976867e-05
-0.00017208148099955538   1.626028225504251e-06   -0.00010786864941454881
-0.00017208148099955538   1.626028225504251e-06   -0.00010786864941454881
-0.00017208148099955538   1.626028225504251e-06   -0.00010786864941454881
-0.00017208148099955538   1.626028225504251e-06   -0.00010786864941454881
-0.0002346603459118016   0.0   -0.0002320690929597752
-0.0002346603459118016   0.0   -0.0002320690929597752
-0.0002346603459118016   0.0   -0.0002320690929597752
-0.0002346603459118016   0.0   -0.0002320690929597752
-0.00010482331481379775   2.1798528062665003e-05   -2.5949242921697072e-06
-0.00010482331481379775   2.1798528062665003e-05   -2.5949242921697072e-06
-0.00010482331481379775   2.1798528062665003e-05   -2.5949242921697072e-06
-0.00010482331481379775   2.1798528062665003e-05   -2.5949242921697072e-06
-0.00010254135147882408   0.0   -0.0002217509805798548
-0.00010254135147882408   0.0   -0.0002217509805798548
-0.00010254135147882408   0.0   -0.0002217509805798548
-0.00010254135147882408   0.0   -0.0002217509805798548
-0.00023538058881676565   2.6690138892761662e-05   -1.6366335018942572e-05
-0.00023538058881676565   2.6690138892761662e-05   -1.6366335018942572e-05
-0.00023538058881676565   2.6690138892761662e-05   -1.6366335018942572e-05
-0.00023538058881676565   2.6690138892761662e-05   -1.6366335018942572e-05
-0.0001686008486953126   8.598426983267145e-06   -0.0001168108747423333
-0.0001686008486953126   8.598426983267145e-06   -0.0001168108747423333
-0.0001686008486953126   8.598426983267145e-06   -0.0001168108747423333
-0.0001686008486953126   8.598426983267145e-06   -0.0001168108747423333
-0.00023538058881676565   0.0   -0.00023776506391551182
-0.00023538058881676565   0.0   -0.00023776506391551182
-0.00023538058881676565   0.0   -0.00023776506391551182
-0.00023538058881676565   0.0   -0.00023776506391551182
-0.00010254135147882408   2.6690138892761662e-05   -3.522516832855807e-07
-0.00010254135147882408   2.6690138892761662e-05   -3.522516832855807e-07
-0.00010254135147882408   2.6690138892761662e-05   -3.522516832855807e-07
-0.00010254135147882408   2.6690138892761662e-05   -3.522516832855807e-07
-0.00010047310225219182   0.0   -0.0002205935477768742
-0.00010047310225219182   0.0   -0.0002205935477768742
-0.00010047310225219182   0.0   -0.0002205935477768742
-0.00010047310225219182   0.0   -0.0002205935477768742
-0.00023532276743219334   3.104322516660142e-05   -1.4470040910165001e-05
-0.00023532276743219334   3.104322516660142e-05   -1.4470040910165001e-05
-0.00023532276743219334   3.104322516660142e-05   -1.4470040910165001e-05
-0.00023532276743219334   3.104322516660142e-05   -1.4470040910165001e-05
-0.0001679268455344787   1.430959678219788e-05   -0.00011675640037571483
-0.0001679268455344787   1.430959678219788e-05   -0.00011675640037571483
-0.0001679268455344787   1.430959678219788e-05   -0.00011675640037571483
-0.0001679268455344787   1.430959678219788e-05   -0.00011675640037571483
-0.0001089289657686467   0.0   -0.0002117400704629548
-0.0001089289657686467   0.0   -0.0002117400704629548
-0.0001089289657686467   0.0   -0.0002117400704629548
-0.0001089289657686467   0.0   -0.0002117400704629548
1.4334590963228408e-05   -1.9496397582992385e-06   -7.470593098142272e-06
1.4334590963228408e-05   -1.9496397582992385e-06   -7.470593098142272e-06
1.4334590963228408e-05   -1.9496397582992385e-06   -7.470593098142272e-06
1.4334590963228408e-05   -1.9496397582992385e-06   -7.470593098142272e-06
1.6928122086146156e-05   0.0   -0.00021667519330673306
1.6928122086146156e-05   0.0   -0.00021667519330673306
1.6928122086146156e-05   0.0   -0.00021667519330673306
1.6928122086146156e-05   0.0   -0.00021667519330673306
-0.00010482331481379757   3.857971359071046e-06   -1.6070914622269794e-05
-0.00010482331481379757   3.857971359071046e-06   -1.6070914622269794e-05
-0.00010482331481379757   3.857971359071046e-06   -1.6070914622269794e-05
-0.00010482331481379757   3.857971359071046e-06   -1.6070914622269794e-05
-4.600042184125009e-05   -4.112602369815829e-06   -0.0001093267253391831
-4.600042184125009e-05   -4.112602369815829e-06   -0.0001093267253391831
-4.600042184125009e-05   -4.112602369815829e-06   -0.0001093267253391831
-4.600042184125009e-05   -4.112602369815829e-06   -0.0001093267253391831
-0.00010482331481379775   0.0   -0.00021898997612217642
-0.00010482331481379775   0.0   -0.00021898997612217642
-0.00010482331481379775   0.0   -0.00021898997612217642
-0.00010482331481379775   0.0   -0.00021898997612217642
1.6928122086146183e-05   3.857971359071046e-06   -1.37561318068272e-05
1.6928122086146183e-05   3.857971359071046e-06   -1.37561318068272e-05
1.6928122086146183e-05   3.857971359071046e-06   -1.37561318068272e-05
1.6928122086146183e-05   3.857971359071046e-06   -1.37561318068272e-05
1.8967374439217096e-05   0.0   -0.00021636969603726114
1.8967374439217096e-05   0.0   -0.00021636969603726114
1.8967374439217096e-05   0.0   -0.00021636969603726114
1.8967374439217096e-05   0.0   -0.00021636969603726114
-0.00010254135147882371   8.9688075709888e-06   -1.9236437383119445e-05
-0.00010254135147882371   8.9688075709888e-06   -1.9236437383119445e-05
-0.00010254135147882371   8.9688075709888e-06   -1.9236437383119445e-05
-0.00010254135147882371   8.9688075709888e-06   -1.9236437383119445e-05
-4.292797018729024e-05   2.18356673742907e-06   -0.00011452092836887295
-4.292797018729024e-05   2.18356673742907e-06   -0.00011452092836887295
-4.292797018729024e-05   2.18356673742907e-06   -0.00011452092836887295
-4.292797018729024e-05   2.18356673742907e-06   -0.00011452092836887295
-0.00010254135147882408   0.0   -0.0002217509805798548
-0.00010254135147882408   0.0   -0.0002217509805798548
-0.00010254135147882408   0.0   -0.0002217509805798548
-0.00010254135147882408   0.0   -0.0002217509805798548
1.896737443921713e-05   8.968807570988854e-06   -1.3855152840526207e-05
1.896737443921713e-05   8.968807570988854e-06   -1.3855152840526207e-05
1.896737443921713e-05   8.968807570988854e-06   -1.3855152840526207e-05
1.896737443921713e-05   8.968807570988854e-06   -1.3855152840526207e-05
2.17306041133893e-05   0.0   -0.0002116583872379358
2.17306041133893e-05   0.0   -0.0002116583872379358
2.17306041133893e-05   0.0   -0.0002116583872379358
2.17306041133893e-05   0.0   -0.0002116583872379358
-0.00010047310225219156   1.4891934231563641e-05   -1.692070383423896e-05
-0.00010047310225219156   1.4891934231563641e-05   -1.692070383423896e-05
-0.00010047310225219156   1.4891934231563641e-05   -1.692070383423896e-05
-0.00010047310225219156   1.4891934231563641e-05   -1.692070383423896e-05
-4.04053736827173e-05   8.410494451598869e-06   -0.00011314472091538404
-4.04053736827173e-05   8.410494451598869e-06   -0.00011314472091538404
-4.04053736827173e-05   8.410494451598869e-06   -0.00011314472091538404
-4.04053736827173e-05   8.410494451598869e-06   -0.00011314472091538404
1.4334590963228432e-05   0.0   -0.00021290985431793435
1.4334590963228432e-05   0.0   -0.00021290985431793435
1.4334590963228432e-05   0.0   -0.00021290985431793435
1.4334590963228432e-05   0.0   -0.00021290985431793435
0.000148085581077893   -1.7368618081039285e-05   -4.1270830878351516e-07
0.000148085581077893   -1.7368618081039285e-05   -4.1270830878351516e-07
0.000148085581077893   -1.7368618081039285e-05   -4.1270830878351516e-07
0.000148085581077893   -1.7368618081039285e-05   -4.1270830878351516e-07
0.00014827320312369168   0.0   -0.00022454126384194688
0.00014827320312369168   0.0   -0.00022454126384194688
0.00014827320312369168   0.0   -0.00022454126384194688
0.00014827320312369168   0.0   -0.00022454126384194688
1.6928122086146214e-05   -1.3110117558688466e-05   2.233275089175252e-06
1.6928122086146214e-05   -1.3110117558688466e-05   2.233275089175252e-06
1.6928122086146214e-05   -1.3110117558688466e-05   2.233275089175252e-06
1.6928122086146214e-05   -1.3110117558688466e-05   2.233275089175252e-06
8.130389704346005e-05   -9.692841270010443e-06   -0.00010711004894622116
8.130389704346005e-05   -9.692841270010443e-06   -0.00010711004894622116
8.130389704346005e-05   -9.692841270010443e-06   -0.00010711004894622116
8.130389704346005e-05   -9.692841270010443e-06   -0.00010711004894622116
1.6928122086146214e-05   0.0   -0.0002166751933067338
1.6928122086146214e-05   0.0   -0.0002166751933067338
1.6928122086146214e-05   0.0   -0.0002166751933067338
1.6928122086146214e-05   0.0   -0.0002166751933067338
0.00014827320312369168   -1.3110117558688466e-05   -5.632795446037803e-06
0.00014827320312369168   -1.3110117558688466e-05   -5.632795446037803e-06
0.00014827320312369168   -1.3110117558688466e-05   -5.632795446037803e-06
0.00014827320312369168   -1.3110117558688466e-05   -5.632795446037803e-06
0.00014757293451086312   0.0   -0.00022133435705529284
0.00014757293451086312   0.0   -0.00022133435705529284
0.00014757293451086312   0.0   -0.00022133435705529284
0.00014757293451086312   0.0   -0.00022133435705529284
1.896737443921713e-05   -8.274435030052247e-06   -2.027095917851535e-06
1.896737443921713e-05   -8.274435030052247e-06   -2.027095917851535e-06
1.896737443921713e-05   -8.274435030052247e-06   -2.027095917851535e-06
1.896737443921713e-05   -8.274435030052247e-06   -2.027095917851535e-06
8.225052829850467e-05   -3.882636457132549e-06   -0.00011013409816041582
8.225052829850467e-05   -3.882636457132549e-06   -0.00011013409816041582
8.225052829850467e-05   -3.882636457132549e-06   -0.00011013409816041582
8.225052829850467e-05   -3.882636457132549e-06   -0.00011013409816041582
1.8967374439217113e-05   0.0   -0.00021636969603726133
1.8967374439217113e-05   0.0   -0.00021636969603726133
1.8967374439217113e-05   0.0   -0.00021636969603726133
1.8967374439217113e-05   0.0   -0.00021636969603726133
0.00014757293451086312   -8.274435030052247e-06   -6.991756935882871e-06
0.00014757293451086312   -8.274435030052247e-06   -6.991756935882871e-06
0.00014757293451086312   -8.274435030052247e-06   -6.991756935882871e-06
0.00014757293451086312   -8.274435030052247e-06   -6.991756935882871e-06
0.00015036829507793478   0.0   -0.00021272181646841385
0.00015036829507793478   0.0   -0.00021272181646841385
0.00015036829507793478   0.0   -0.00021272181646841385
0.00015036829507793478   0.0   -0.00021272181646841385
2.173060411338934e-05   -1.7723820507961467e-06   2.7377643696395074e-06
2.173060411338934e-05   -1.7723820507961467e-06   2.7377643696395074e-06
2.173060411338934e-05   -1.7723820507961467e-06   2.7377643696395074e-06
2.173060411338934e-05   -1.7723820507961467e-06   2.7377643696395074e-06
8.466783475857588e-05   3.0398996407063686e-06   -0.00010504498905390615
8.466783475857588e-05   3.0398996407063686e-06   -0.00010504498905390615
8.466783475857588e-05   3.0398996407063686e-06   -0.00010504498905390615
8.466783475857588e-05   3.0398996407063686e-06   -0.00010504498905390615
0.000148085581077893   0.0   -0.00022333102516655792
0.000148085581077893   0.0   -0.00022333102516655792
0.000148085581077893   0.0   -0.00022333102516655792
0.000148085581077893   0.0   -0.00022333102516655792
0.0003339240953829407   -4.397844102026427e-05   6.001276739636479e-05
0.0003339240953829407   -4.397844102026427e-05   6.001276739636479e-05
0.0003339240953829407   -4.397844102026427e-05   6.001276739636479e-05
0.0003339240953829407   -4.397844102026427e-05   6.001276739636479e-05
0.0003135102862086903   0.0   -0.0002470164462900186
0.0003135102862086903   0.0   -0.0002470164462900186
0.0003135102862086903   0.0   -0.0002470164462900186
0.0003135102862086903   0.0   -0.0002470164462900186
0.00014827320312369168   -3.745863741345278e-05   5.0853874633050836e-05
0.00014827320312369168   -3.745863741345278e-05   5.0853874633050836e-05
0.00014827320312369168   -3.745863741345278e-05   5.0853874633050836e-05
0.00014827320312369168   -3.745863741345278e-05   5.0853874633050836e-05
0.00023079793364329165   -1.973785093621722e-05   -9.731981478595706e-05
0.00023079793364329165   -1.973785093621722e-05   -9.731981478595706e-05
0.00023079793364329165   -1.973785093621722e-05   -9.731981478595706e-05
0.00023079793364329165   -1.973785093621722e-05   -9.731981478595706e-05
0.00014827320312369157   0.0   -0.0002245412638419467
0.00014827320312369157   0.0   -0.0002245412638419467
0.00014827320312369157   0.0   -0.0002245412638419467
0.00014827320312369157   0.0   -0.0002245412638419467
0.0003135102862086892   -3.7458637413452674e-05   2.837869218497895e-05
0.0003135102862086892   -3.7458637413452674e-05   2.837869218497895e-05
0.0003135102862086892   -3.7458637413452674e-05   2.837869218497895e-05
0.0003135102862086892   -3.7458637413452674e-05   2.837869218497895e-05
0.00030406719612558787   0.0   -0.0002418801240721718
0.00030406719612558787   0.0   -0.0002418801240721718
0.00030406719612558787   0.0   -0.0002418801240721718
0.00030406719612558787   0.0   -0.0002418801240721718
0.00014757293451086312   -3.424294502813157e-05   3.94894123025817e-05
0.00014757293451086312   -3.424294502813157e-05   3.94894123025817e-05
0.00014757293451086312   -3.424294502813157e-05   3.94894123025817e-05
0.00014757293451086312   -3.424294502813157e-05   3.94894123025817e-05
0.00022617019962463964   -1.4449050191854101e-05   -0.00010338236645547892
0.00022617019962463964   -1.4449050191854101e-05   -0.00010338236645547892
0.00022617019962463964   -1.4449050191854101e-05   -0.00010338236645547892
0.00022617019962463964   -1.4449050191854101e-05   -0.00010338236645547892
0.00014757293451086312   0.0   -0.00022133435705529284
0.00014757293451086312   0.0   -0.00022133435705529284
0.00014757293451086312   0.0   -0.00022133435705529284
0.00014757293451086312   0.0   -0.00022133435705529284
0.00030406719612558684   -3.424294502813141e-05   1.894364528570269e-05
0.00030406719612558684   -3.424294502813141e-05   1.894364528570269e-05
0.00030406719612558684   -3.424294502813141e-05   1.894364528570269e-05
0.00030406719612558684   -3.424294502813141e-05   1.894364528570269e-05
0.000290054687418406   0.0   -0.00022871867880069386
0.000290054687418406   0.0   -0.00022871867880069386
0.000290054687418406   0.0   -0.00022871867880069386
0.000290054687418406   0.0   -0.00022871867880069386
0.00015036829507793478   -2.666143722046733e-05   2.0088837432372282e-05
0.00015036829507793478   -2.666143722046733e-05   2.0088837432372282e-05
0.00015036829507793478   -2.666143722046733e-05   2.0088837432372282e-05
0.00015036829507793478   -2.666143722046733e-05   2.0088837432372282e-05
0.0002188138109646348   -6.1536014545011735e-06   -0.00010629172383837401
0.0002188138109646348   -6.1536014545011735e-06   -0.00010629172383837401
0.0002188138109646348   -6.1536014545011735e-06   -0.00010629172383837401
0.0002188138109646348   -6.1536014545011735e-06   -0.00010629172383837401
-0.00032681957853306033   4.17581968815243e-05   -0.0002139171627131427
-0.00032681957853306033   4.17581968815243e-05   -0.0002139171627131427
-0.00032681957853306033   4.17581968815243e-05   -0.0002139171627131427
-0.00032681957853306033   4.17581968815243e-05   -0.0002139171627131427
-0.00020927335391730047   3.7587388591953704e-05   -2.0509273327284894e-05
-0.00020927335391730047   3.7587388591953704e-05   -2.0509273327284894e-05
-0.00020927335391730047   3.7587388591953704e-05   -2.0509273327284894e-05
-0.00020927335391730047   3.7587388591953704e-05   -2.0509273327284894e-05
-0.00021457111522005088   5.006258581285105e-05   -0.00017960682903008212
-0.00021457111522005088   5.006258581285105e-05   -0.00017960682903008212
-0.00021457111522005088   5.006258581285105e-05   -0.00017960682903008212
-0.00021457111522005088   5.006258581285105e-05   -0.00017960682903008212
-0.00033042519595258973   4.5081600598180765e-05   1.6471896652952298e-05
-0.00033042519595258973   4.5081600598180765e-05   1.6471896652952298e-05
-0.00033042519595258973   4.5081600598180765e-05   1.6471896652952298e-05
-0.00033042519595258973   4.5081600598180765e-05   1.6471896652952298e-05
-0.00025957113751377185   4.360175451978204e-05   -0.00010073029309804003
-0.00025957113751377185   4.360175451978204e-05   -0.00010073029309804003
-0.00025957113751377185   4.360175451978204e-05   -0.00010073029309804003
-0.00025957113751377185   4.360175451978204e-05   -0.00010073029309804003
-0.00033042519595258973   5.006258581285105e-05   -0.00017661823790127986
-0.00033042519595258973   5.006258581285105e-05   -0.00017661823790127986
-0.00033042519595258973   5.006258581285105e-05   -0.00017661823790127986
-0.00033042519595258973   5.006258581285105e-05   -0.00017661823790127986
-0.00021457111522005164   4.508160059818098e-05   1.3483305524150256e-05
-0.00021457111522005164   4.508160059818098e-05   1.3483305524150256e-05
-0.00021457111522005164   4.508160059818098e-05   1.3483305524150256e-05
-0.00021457111522005164   4.508160059818098e-05   1.3483305524150256e-05
-0.00021571518976238092   5.362106386525993e-05   -0.00016144103498943487
-0.00021571518976238092   5.362106386525993e-05   -0.00016144103498943487
-0.00021571518976238092   5.362106386525993e-05   -0.00016144103498943487
-0.00021571518976238092   5.362106386525993e-05   -0.00016144103498943487
-0.0003328091067855287   4.846271355625335e-05   3.6810503567881155e-05
-0.0003328091067855287   4.846271355625335e-05   3.6810503567881155e-05
-0.0003328091067855287   4.846271355625335e-05   3.6810503567881155e-05
-0.0003328091067855287   4.846271355625335e-05   3.6810503567881155e-05
-0.00026724758606044445   4.831558616270079e-05   -7.237042120446019e-05
-0.00026724758606044445   4.831558616270079e-05   -7.237042120446019e-05
-0.00026724758606044445   4.831558616270079e-05   -7.237042120446019e-05
-0.00026724758606044445   4.831558616270079e-05   -7.237042120446019e-05
-0.0003328091067855282   5.362106386525993e-05   -0.00015834602480403076
-0.0003328091067855282   5.362106386525993e-05   -0.00015834602480403076
-0.0003328091067855282   5.362106386525993e-05   -0.00015834602480403076
-0.0003328091067855282   5.362106386525993e-05   -0.00015834602480403076
-0.00021571518976238127   4.846271355625335e-05   3.371549338247715e-05
-0.00021571518976238127   4.846271355625335e-05   3.371549338247715e-05
-0.00021571518976238127   4.846271355625335e-05   3.371549338247715e-05
-0.00021571518976238127   4.846271355625335e-05   3.371549338247715e-05
-0.00021452768578888412   6.104337646111005e-05   -0.00011917665511536812
-0.00021452768578888412   6.104337646111005e-05   -0.00011917665511536812
-0.00021452768578888412   6.104337646111005e-05   -0.00011917665511536812
-0.00021452768578888412   6.104337646111005e-05   -0.00011917665511536812
-0.0003236657392406654   5.1134206003959105e-05   6.866560291188999e-05
-0.0003236657392406654   5.1134206003959105e-05   6.866560291188999e-05
-0.0003236657392406654   5.1134206003959105e-05   6.866560291188999e-05
-0.0003236657392406654   5.1134206003959105e-05   6.866560291188999e-05
-0.00026034919283626323   5.2975574206672147e-05   -3.7966795350407776e-05
-0.00026034919283626323   5.2975574206672147e-05   -3.7966795350407776e-05
-0.00026034919283626323   5.2975574206672147e-05   -3.7966795350407776e-05
-0.00026034919283626323   5.2975574206672147e-05   -3.7966795350407776e-05
-0.00020927335391730047   1.533523254971115e-05   -0.00022685255633424694
-0.00020927335391730047   1.533523254971115e-05   -0.00022685255633424694
-0.00020927335391730047   1.533523254971115e-05   -0.00022685255633424694
-0.00020927335391730047   1.533523254971115e-05   -0.00022685255633424694
-9.907292585774497e-05   1.748889378249503e-05   -4.189297949531717e-05
-9.907292585774497e-05   1.748889378249503e-05   -4.189297949531717e-05
-9.907292585774497e-05   1.748889378249503e-05   -4.189297949531717e-05
-9.907292585774497e-05   1.748889378249503e-05   -4.189297949531717e-05
-0.0001014744322823121   2.1798528062664895e-05   -0.00022652700221287726
-0.0001014744322823121   2.1798528062664895e-05   -0.00022652700221287726
-0.0001014744322823121   2.1798528062664895e-05   -0.00022652700221287726
-0.0001014744322823121   2.1798528062664895e-05   -0.00022652700221287726
-0.00021457111522005088   2.438105673758552e-05   -3.958204785493109e-05
-0.00021457111522005088   2.438105673758552e-05   -3.958204785493109e-05
-0.00021457111522005088   2.438105673758552e-05   -3.958204785493109e-05
-0.00021457111522005088   2.438105673758552e-05   -3.958204785493109e-05
-0.000155660718259138   1.963491196102778e-05   -0.0001349183559238526
-0.000155660718259138   1.963491196102778e-05   -0.0001349183559238526
-0.000155660718259138   1.963491196102778e-05   -0.0001349183559238526
-0.000155660718259138   1.963491196102778e-05   -0.0001349183559238526
-0.0002145711152200507   2.1798528062664895e-05   -0.0002280765194178291
-0.0002145711152200507   2.1798528062664895e-05   -0.0002280765194178291
-0.0002145711152200507   2.1798528062664895e-05   -0.0002280765194178291
-0.0002145711152200507   2.1798528062664895e-05   -0.0002280765194178291
-0.00010147443228231227   2.4381056737585302e-05   -3.80325306499788e-05
-0.00010147443228231227   2.4381056737585302e-05   -3.80325306499788e-05
-0.00010147443228231227   2.4381056737585302e-05   -3.80325306499788e-05
-0.00010147443228231227   2.4381056737585302e-05   -3.80325306499788e-05
-0.0001022564262898385   2.6690138892761608e-05   -0.00022228062287266712
-0.0001022564262898385   2.6690138892761608e-05   -0.00022228062287266712
-0.0001022564262898385   2.6690138892761608e-05   -0.00022228062287266712
-0.0001022564262898385   2.6690138892761608e-05   -0.00022228062287266712
-0.00021571518976238092   3.0081996828467588e-05   -3.5217798513187035e-05
-0.00021571518976238092   3.0081996828467588e-05   -3.5217798513187035e-05
-0.00021571518976238092   3.0081996828467588e-05   -3.5217798513187035e-05
-0.00021571518976238092   3.0081996828467588e-05   -3.5217798513187035e-05
-0.0001569126676349761   2.4904516376546737e-05   -0.00013011551378770865
-0.0001569126676349761   2.4904516376546737e-05   -0.00013011551378770865
-0.0001569126676349761   2.4904516376546737e-05   -0.00013011551378770865
-0.0001569126676349761   2.4904516376546737e-05   -0.00013011551378770865
-0.00021571518976238092   2.6690138892761608e-05   -0.0002243157376340908
-0.00021571518976238092   2.6690138892761608e-05   -0.0002243157376340908
-0.00021571518976238092   2.6690138892761608e-05   -0.0002243157376340908
-0.00021571518976238092   2.6690138892761608e-05   -0.0002243157376340908
-0.00010225642628983884   3.0081996828467805e-05   -3.3182683751763374e-05
-0.00010225642628983884   3.0081996828467805e-05   -3.3182683751763374e-05
-0.00010225642628983884   3.0081996828467805e-05   -3.3182683751763374e-05
-0.00010225642628983884   3.0081996828467805e-05   -3.3182683751763374e-05
-0.00010204411946416949   3.104322516660137e-05   -0.00021999633202131937
-0.00010204411946416949   3.104322516660137e-05   -0.00021999633202131937
-0.00010204411946416949   3.104322516660137e-05   -0.00021999633202131937
-0.00010204411946416949   3.104322516660137e-05   -0.00021999633202131937
-0.00021452768578888396   3.6212654341737354e-05   -3.562537898521014e-05
-0.00021452768578888396   3.6212654341737354e-05   -3.562537898521014e-05
-0.00021452768578888396   3.6212654341737354e-05   -3.562537898521014e-05
-0.00021452768578888396   3.6212654341737354e-05   -3.562537898521014e-05
-0.00015787444069224513   2.9673925815240144e-05   -0.0001261242170303772
-0.00015787444069224513   2.9673925815240144e-05   -0.0001261242170303772
-0.00015787444069224513   2.9673925815240144e-05   -0.0001261242170303772
-0.00015787444069224513   2.9673925815240144e-05   -0.0001261242170303772
-9.907292585774479e-05   -1.9496397582992385e-06   -0.00023747223406922962
-9.907292585774479e-05   -1.9496397582992385e-06   -0.00023747223406922962
-9.907292585774479e-05   -1.9496397582992385e-06   -0.00023747223406922962
-9.907292585774479e-05   -1.9496397582992385e-06   -0.00023747223406922962
9.743305863590443e-06   -5.116768922049618e-07   -5.524907014734762e-05
9.743305863590443e-06   -5.116768922049618e-07   -5.524907014734762e-05
9.743305863590443e-06   -5.116768922049618e-07   -5.524907014734762e-05
9.743305863590443e-06   -5.116768922049618e-07   -5.524907014734762e-05
9.260121875247639e-06   3.857971359070992e-06   -0.00023881577457086868
9.260121875247639e-06   3.857971359070992e-06   -0.00023881577457086868
9.260121875247639e-06   3.857971359070992e-06   -0.00023881577457086868
9.260121875247639e-06   3.857971359070992e-06   -0.00023881577457086868
-0.0001014744322823121   5.836667979252589e-06   -5.54454022803773e-05
-0.0001014744322823121   5.836667979252589e-06   -5.54454022803773e-05
-0.0001014744322823121   5.836667979252589e-06   -5.54454022803773e-05
-0.0001014744322823121   5.836667979252589e-06   -5.54454022803773e-05
-4.5662461907214176e-05   1.934715148924548e-06   -0.00014612418120734416
-4.5662461907214176e-05   1.934715148924548e-06   -0.00014612418120734416
-4.5662461907214176e-05   1.934715148924548e-06   -0.00014612418120734416
-4.5662461907214176e-05   1.934715148924548e-06   -0.00014612418120734416
-0.0001014744322823121   3.857971359070992e-06   -0.0002400029925429773
-0.0001014744322823121   3.857971359070992e-06   -0.0002400029925429773
-0.0001014744322823121   3.857971359070992e-06   -0.0002400029925429773
-0.0001014744322823121   3.857971359070992e-06   -0.0002400029925429773
9.260121875247639e-06   5.836667979252806e-06   -5.425818430826836e-05
9.260121875247639e-06   5.836667979252806e-06   -5.425818430826836e-05
9.260121875247639e-06   5.836667979252806e-06   -5.425818430826836e-05
9.260121875247639e-06   5.836667979252806e-06   -5.425818430826836e-05
8.61213351487723e-06   8.968807570988854e-06   -0.00023932312191412072
8.61213351487723e-06   8.968807570988854e-06   -0.00023932312191412072
8.61213351487723e-06   8.968807570988854e-06   -0.00023932312191412072
8.61213351487723e-06   8.968807570988854e-06   -0.00023932312191412072
-0.0001022564262898385   1.203828533495599e-05   -5.6383875564641696e-05
-0.0001022564262898385   1.203828533495599e-05   -5.6383875564641696e-05
-0.0001022564262898385   1.203828533495599e-05   -5.6383875564641696e-05
-0.0001022564262898385   1.203828533495599e-05   -5.6383875564641696e-05
-4.6552504874668816e-05   7.317046908386854e-06   -0.00014639100153398242
-4.6552504874668816e-05   7.317046908386854e-06   -0.00014639100153398242
-4.6552504874668816e-05   7.317046908386854e-06   -0.00014639100153398242
-4.6552504874668816e-05   7.317046908386854e-06   -0.00014639100153398242
-0.0001022564262898385   8.968807570988854e-06   -0.00024116480857250107
-0.0001022564262898385   8.968807570988854e-06   -0.00024116480857250107
-0.0001022564262898385   8.968807570988854e-06   -0.00024116480857250107
-0.0001022564262898385   8.968807570988854e-06   -0.00024116480857250107
8.612133514877243e-06   1.203828533495599e-05   -5.4542188906261436e-05
8.612133514877243e-06   1.203828533495599e-05   -5.4542188906261436e-05
8.612133514877243e-06   1.203828533495599e-05   -5.4542188906261436e-05
8.612133514877243e-06   1.203828533495599e-05   -5.4542188906261436e-05
7.34825639071154e-06   1.4891934231563641e-05   -0.00023890738833461068
7.34825639071154e-06   1.4891934231563641e-05   -0.00023890738833461068
7.34825639071154e-06   1.4891934231563641e-05   -0.00023890738833461068
7.34825639071154e-06   1.4891934231563641e-05   -0.00023890738833461068
-0.0001020441194641696   1.8501170416136475e-05   -5.8752303620552713e-05
-0.0001020441194641696   1.8501170416136475e-05   -5.8752303620552713e-05
-0.0001020441194641696   1.8501170416136475e-05   -5.8752303620552713e-05
-0.0001020441194641696   1.8501170416136475e-05   -5.8752303620552713e-05
-4.710659472579345e-05   1.2846303811268195e-05   -0.00014692192488825843
-4.710659472579345e-05   1.2846303811268195e-05   -0.00014692192488825843
-4.710659472579345e-05   1.2846303811268195e-05   -0.00014692192488825843
-4.710659472579345e-05   1.2846303811268195e-05   -0.00014692192488825843
9.743305863590443e-06   -1.736861808103923e-05   -0.00021913040071159075
9.743305863590443e-06   -1.736861808103923e-05   -0.00021913040071159075
9.743305863590443e-06   -1.736861808103923e-05   -0.00021913040071159075
9.743305863590443e-06   -1.736861808103923e-05   -0.00021913040071159075
0.00012188174730308891   -1.7859561887195253e-05   -3.252756459612015e-05
0.00012188174730308891   -1.7859561887195253e-05   -3.252756459612015e-05
0.00012188174730308891   -1.7859561887195253e-05   -3.252756459612015e-05
0.00012188174730308891   -1.7859561887195253e-05   -3.252756459612015e-05
0.00012283795380109056   -1.3110117558688412e-05   -0.00022221896400833566
0.00012283795380109056   -1.3110117558688412e-05   -0.00022221896400833566
0.00012283795380109056   -1.3110117558688412e-05   -0.00022221896400833566
0.00012283795380109056   -1.3110117558688412e-05   -0.00022221896400833566
9.260121875247639e-06   -1.2097778114472137e-05   -3.352998113179346e-05
9.260121875247639e-06   -1.2097778114472137e-05   -3.352998113179346e-05
9.260121875247639e-06   -1.2097778114472137e-05   -3.352998113179346e-05
9.260121875247639e-06   -1.2097778114472137e-05   -3.352998113179346e-05
6.508767529378108e-05   -1.4471630182264178e-05   -0.00012515159225534112
6.508767529378108e-05   -1.4471630182264178e-05   -0.00012515159225534112
6.508767529378108e-05   -1.4471630182264178e-05   -0.00012515159225534112
6.508767529378108e-05   -1.4471630182264178e-05   -0.00012515159225534112
9.260121875247622e-06   -1.3110117558688412e-05   -0.00022282636767486587
9.260121875247622e-06   -1.3110117558688412e-05   -0.00022282636767486587
9.260121875247622e-06   -1.3110117558688412e-05   -0.00022282636767486587
9.260121875247622e-06   -1.3110117558688412e-05   -0.00022282636767486587
0.0001228379538010908   -1.2097778114472137e-05   -3.292257746526366e-05
0.0001228379538010908   -1.2097778114472137e-05   -3.292257746526366e-05
0.0001228379538010908   -1.2097778114472137e-05   -3.292257746526366e-05
0.0001228379538010908   -1.2097778114472137e-05   -3.292257746526366e-05
0.00012218572573995844   -8.274435030052193e-06   -0.00022640033076821469
0.00012218572573995844   -8.274435030052193e-06   -0.00022640033076821469
0.00012218572573995844   -8.274435030052193e-06   -0.00022640033076821469
0.00012218572573995844   -8.274435030052193e-06   -0.00022640033076821469
8.61213351487723e-06   -6.4498779913338845e-06   -3.8205744616310706e-05
8.61213351487723e-06   -6.4498779913338845e-06   -3.8205744616310706e-05
8.61213351487723e-06   -6.4498779913338845e-06   -3.8205744616310706e-05
8.61213351487723e-06   -6.4498779913338845e-06   -3.8205744616310706e-05
6.43531633246534e-05   -9.865688641745151e-06   -0.00012905797457569052
6.43531633246534e-05   -9.865688641745151e-06   -0.00012905797457569052
6.43531633246534e-05   -9.865688641745151e-06   -0.00012905797457569052
6.43531633246534e-05   -9.865688641745151e-06   -0.00012905797457569052
8.612133514877219e-06   -8.274435030052247e-06   -0.00022749506499144582
8.612133514877219e-06   -8.274435030052247e-06   -0.00022749506499144582
8.612133514877219e-06   -8.274435030052247e-06   -0.00022749506499144582
8.612133514877219e-06   -8.274435030052247e-06   -0.00022749506499144582
0.00012218572573995885   -6.4498779913338845e-06   -3.711101039307956e-05
0.00012218572573995885   -6.4498779913338845e-06   -3.711101039307956e-05
0.00012218572573995885   -6.4498779913338845e-06   -3.711101039307956e-05
0.00012218572573995885   -6.4498779913338845e-06   -3.711101039307956e-05
0.00011857913921331216   -1.7723820507961467e-06   -0.0002267961658957465
0.00011857913921331216   -1.7723820507961467e-06   -0.0002267961658957465
0.00011857913921331216   -1.7723820507961467e-06   -0.0002267961658957465
0.00011857913921331216   -1.7723820507961467e-06   -0.0002267961658957465
7.34825639071154e-06   5.408092390761857e-07   -4.2799275965335864e-05
7.34825639071154e-06   5.408092390761857e-07   -4.2799275965335864e-05
7.34825639071154e-06   5.408092390761857e-07   -4.2799275965335864e-05
7.34825639071154e-06   5.408092390761857e-07   -4.2799275965335864e-05
6.36117018105445e-05   -4.4856188674795424e-06   -0.00013355582813445705
6.36117018105445e-05   -4.4856188674795424e-06   -0.00013355582813445705
6.36117018105445e-05   -4.4856188674795424e-06   -0.00013355582813445705
6.36117018105445e-05   -4.4856188674795424e-06   -0.00013355582813445705
0.00012188174730308891   -4.397844102026427e-05   -0.0001326124266779776
0.00012188174730308891   -4.397844102026427e-05   -0.0001326124266779776
0.00012188174730308891   -4.397844102026427e-05   -0.0001326124266779776
0.00012188174730308891   -4.397844102026427e-05   -0.0001326124266779776
0.0002326323751641346   -3.3225863968671136e-05   5.842349932138778e-05
0.0002326323751641346   -3.3225863968671136e-05   5.842349932138778e-05
0.0002326323751641346   -3.3225863968671136e-05   5.842349932138778e-05
0.0002326323751641346   -3.3225863968671136e-05   5.842349932138778e-05
0.00024137381141904217   -3.745863741345273e-05   -0.0001613610987169486
0.00024137381141904217   -3.745863741345273e-05   -0.0001613610987169486
0.00024137381141904217   -3.745863741345273e-05   -0.0001613610987169486
0.00024137381141904217   -3.745863741345273e-05   -0.0001613610987169486
0.00012283795380109097   -3.017331205962064e-05   3.1827468767337995e-05
0.00012283795380109097   -3.017331205962064e-05   3.1827468767337995e-05
0.00012283795380109097   -3.017331205962064e-05   3.1827468767337995e-05
0.00012283795380109097   -3.017331205962064e-05   3.1827468767337995e-05
0.0001713270637510405   -3.606266699926475e-05   -4.545410151879175e-05
0.0001713270637510405   -3.606266699926475e-05   -4.545410151879175e-05
0.0001713270637510405   -3.606266699926475e-05   -4.545410151879175e-05
0.0001713270637510405   -3.606266699926475e-05   -4.545410151879175e-05
0.00012283795380109064   -3.7458637413452674e-05   -0.00016573229392924727
0.00012283795380109064   -3.7458637413452674e-05   -0.00016573229392924727
0.00012283795380109064   -3.7458637413452674e-05   -0.00016573229392924727
0.00012283795380109064   -3.7458637413452674e-05   -0.00016573229392924727
0.00024137381141904217   -3.017331205962064e-05   3.619866397963742e-05
0.00024137381141904217   -3.017331205962064e-05   3.619866397963742e-05
0.00024137381141904217   -3.017331205962064e-05   3.619866397963742e-05
0.00024137381141904217   -3.017331205962064e-05   3.619866397963742e-05
0.00024039796341128873   -3.424294502813157e-05   -0.0001755267408207526
0.00024039796341128873   -3.424294502813157e-05   -0.0001755267408207526
0.00024039796341128873   -3.424294502813157e-05   -0.0001755267408207526
0.00024039796341128873   -3.424294502813157e-05   -0.0001755267408207526
0.00012218572573995885   -2.6922243846467728e-05   1.7101234589131863e-05
0.00012218572573995885   -2.6922243846467728e-05   1.7101234589131863e-05
0.00012218572573995885   -2.6922243846467728e-05   1.7101234589131863e-05
0.00012218572573995885   -2.6922243846467728e-05   1.7101234589131863e-05
0.00017724654787105271   -3.187002269944327e-05   -7.16981349842391e-05
0.00017724654787105271   -3.187002269944327e-05   -7.16981349842391e-05
0.00017724654787105271   -3.187002269944327e-05   -7.16981349842391e-05
0.00017724654787105271   -3.187002269944327e-05   -7.16981349842391e-05
0.00012218572573995863   -3.424294502813146e-05   -0.00017991916152975063
0.00012218572573995863   -3.424294502813146e-05   -0.00017991916152975063
0.00012218572573995863   -3.424294502813146e-05   -0.00017991916152975063
0.00012218572573995863   -3.424294502813146e-05   -0.00017991916152975063
0.00024039796341128873   -2.6922243846467728e-05   2.1493655298130245e-05
0.00024039796341128873   -2.6922243846467728e-05   2.1493655298130245e-05
0.00024039796341128873   -2.6922243846467728e-05   2.1493655298130245e-05
0.00024039796341128873   -2.6922243846467728e-05   2.1493655298130245e-05
0.00023886016889982455   -2.6661437220467277e-05   -0.00020433875741694685
0.00023886016889982455   -2.6661437220467277e-05   -0.00020433875741694685
0.00023886016889982455   -2.6661437220467277e-05   -0.00020433875741694685
0.00023886016889982455   -2.6661437220467277e-05   -0.00020433875741694685
0.00011857913921331257   -1.992326024448398e-05   -7.91328079168365e-06
0.00011857913921331257   -1.992326024448398e-05   -7.91328079168365e-06
0.00011857913921331257   -1.992326024448398e-05   -7.91328079168365e-06
0.00011857913921331257   -1.992326024448398e-05   -7.91328079168365e-06
0.0001721190126827652   -2.745759148272244e-05   -9.262580449782826e-05
0.0001721190126827652   -2.745759148272244e-05   -9.262580449782826e-05
0.0001721190126827652   -2.745759148272244e-05   -9.262580449782826e-05
0.0001721190126827652   -2.745759148272244e-05   -9.262580449782826e-05
-0.00026081635858665026   3.7587388591953704e-05   -0.00017966934210458818
-0.00026081635858665026   3.7587388591953704e-05   -0.00017966934210458818
-0.00026081635858665026   3.7587388591953704e-05   -0.00017966934210458818
-0.00026081635858665026   3.7587388591953704e-05   -0.00017966934210458818
-0.00017087425178090624   2.8761707591819317e-05   -3.506123936176199e-05
-0.00017087425178090624   2.8761707591819317e-05   -3.506123936176199e-05
-0.00017087425178090624   2.8761707591819317e-05   -3.506123936176199e-05
-0.00017087425178090624   2.8761707591819317e-05   -3.506123936176199e-05
-0.00017172052310476148   4.5081600598180765e-05   -0.00014915862425086707
-0.00017172052310476148   4.5081600598180765e-05   -0.00014915862425086707
-0.00017172052310476148   4.5081600598180765e-05   -0.00014915862425086707
-0.00017172052310476148   4.5081600598180765e-05   -0.00014915862425086707
-0.00025692342598818325   3.477113766250754e-05   -9.675083504267958e-07
-0.00025692342598818325   3.477113766250754e-05   -9.675083504267958e-07
-0.00025692342598818325   3.477113766250754e-05   -9.675083504267958e-07
-0.00025692342598818325   3.477113766250754e-05   -9.675083504267958e-07
-0.0002059903034245325   3.820971108101892e-05   -8.791919000761912e-05
-0.0002059903034245325   3.820971108101892e-05   -8.791919000761912e-05
-0.0002059903034245325   3.820971108101892e-05   -8.791919000761912e-05
-0.0002059903034245325   3.820971108101892e-05   -8.791919000761912e-05
-0.00025692342598818325   4.5081600598180765e-05   -0.0001429723464894631
-0.00025692342598818325   4.5081600598180765e-05   -0.0001429723464894631
-0.00025692342598818325   4.5081600598180765e-05   -0.0001429723464894631
-0.00025692342598818325   4.5081600598180765e-05   -0.0001429723464894631
-0.00017172052310476148   3.477113766250754e-05   -7.1537861118302305e-06
-0.00017172052310476148   3.477113766250754e-05   -7.1537861118302305e-06
-0.00017172052310476148   3.477113766250754e-05   -7.1537861118302305e-06
-0.00017172052310476148   3.477113766250754e-05   -7.1537861118302305e-06
-0.0001715680578153824   4.846271355625335e-05   -0.00012759133384648933
-0.0001715680578153824   4.846271355625335e-05   -0.00012759133384648933
-0.0001715680578153824   4.846271355625335e-05   -0.00012759133384648933
-0.0001715680578153824   4.846271355625335e-05   -0.00012759133384648933
-0.0002531175646744157   3.740756461477696e-05   1.4957600283451106e-05
-0.0002531175646744157   3.740756461477696e-05   1.4957600283451106e-05
-0.0002531175646744157   3.740756461477696e-05   1.4957600283451106e-05
-0.0002531175646744157   3.740756461477696e-05   1.4957600283451106e-05
-0.00020780321695943732   4.1693764995402944e-05   -6.313803280321947e-05
-0.00020780321695943732   4.1693764995402944e-05   -6.313803280321947e-05
-0.00020780321695943732   4.1693764995402944e-05   -6.313803280321947e-05
-0.00020780321695943732   4.1693764995402944e-05   -6.313803280321947e-05
-0.0002531175646744157   4.846271355625335e-05   -0.00012095824448160369
-0.0002531175646744157   4.846271355625335e-05   -0.00012095824448160369
-0.0002531175646744157   4.846271355625335e-05   -0.00012095824448160369
-0.0002531175646744157   4.846271355625335e-05   -0.00012095824448160369
-0.00017156805781538267   3.740756461477739e-05   8.324510918566444e-06
-0.00017156805781538267   3.740756461477739e-05   8.324510918566444e-06
-0.00017156805781538267   3.740756461477739e-05   8.324510918566444e-06
-0.00017156805781538267   3.740756461477739e-05   8.324510918566444e-06
-0.00017175877788177445   5.1134206003959105e-05   -9.735837307994939e-05
-0.00017175877788177445   5.1134206003959105e-05   -9.735837307994939e-05
-0.00017175877788177445   5.1134206003959105e-05   -9.735837307994939e-05
-0.00017175877788177445   5.1134206003959105e-05   -9.735837307994939e-05
-0.00024813192305628306   3.998991490513672e-05   3.661677687019074e-05
-0.00024813192305628306   3.998991490513672e-05   3.661677687019074e-05
-0.00024813192305628306   3.998991490513672e-05   3.661677687019074e-05
-0.00024813192305628306   3.998991490513672e-05   3.661677687019074e-05
-0.00020309689961283493   4.351704243354135e-05   -4.055787205259624e-05
-0.00020309689961283493   4.351704243354135e-05   -4.055787205259624e-05
-0.00020309689961283493   4.351704243354135e-05   -4.055787205259624e-05
-0.00020309689961283493   4.351704243354135e-05   -4.055787205259624e-05
-0.00017087425178090624   1.748889378249503e-05   -0.00020764065361237108
-0.00017087425178090624   1.748889378249503e-05   -0.00020764065361237108
-0.00017087425178090624   1.748889378249503e-05   -0.00020764065361237108
-0.00017087425178090624   1.748889378249503e-05   -0.00020764065361237108
-8.6844197857405e-05   1.4325927656517069e-05   -6.948834341545572e-05
-8.6844197857405e-05   1.4325927656517069e-05   -6.948834341545572e-05
-8.6844197857405e-05   1.4325927656517069e-05   -6.948834341545572e-05
-8.6844197857405e-05   1.4325927656517069e-05   -6.948834341545572e-05
-8.7915874969041e-05   2.438105673758552e-05   -0.00020471290606628267
-8.7915874969041e-05   2.438105673758552e-05   -0.00020471290606628267
-8.7915874969041e-05   2.438105673758552e-05   -0.00020471290606628267
-8.7915874969041e-05   2.438105673758552e-05   -0.00020471290606628267
-0.00017172052310476116   2.0232842677027785e-05   -6.254956407041371e-05
-0.00017172052310476116   2.0232842677027785e-05   -6.254956407041371e-05
-0.00017172052310476116   2.0232842677027785e-05   -6.254956407041371e-05
-0.00017172052310476116   2.0232842677027785e-05   -6.254956407041371e-05
-0.0001282337610952135   2.0148925215780506e-05   -0.00013497715027624532
-0.0001282337610952135   2.0148925215780506e-05   -0.00013497715027624532
-0.0001282337610952135   2.0148925215780506e-05   -0.00013497715027624532
-0.0001282337610952135   2.0148925215780506e-05   -0.00013497715027624532
-0.00017172052310476132   2.438105673758552e-05   -0.00020222397762994756
-0.00017172052310476132   2.438105673758552e-05   -0.00020222397762994756
-0.00017172052310476132   2.438105673758552e-05   -0.00020222397762994756
-0.00017172052310476132   2.438105673758552e-05   -0.00020222397762994756
-8.791587496904111e-05   2.0232842677027785e-05   -6.50384925067482e-05
-8.791587496904111e-05   2.0232842677027785e-05   -6.50384925067482e-05
-8.791587496904111e-05   2.0232842677027785e-05   -6.50384925067482e-05
-8.791587496904111e-05   2.0232842677027785e-05   -6.50384925067482e-05
-8.861666114462754e-05   3.0081996828467588e-05   -0.00019928836714244312
-8.861666114462754e-05   3.0081996828467588e-05   -0.00019928836714244312
-8.861666114462754e-05   3.0081996828467588e-05   -0.00019928836714244312
-8.861666114462754e-05   3.0081996828467588e-05   -0.00019928836714244312
-0.0001715680578153824   2.5475761161318066e-05   -5.8272297957562974e-05
-0.0001715680578153824   2.5475761161318066e-05   -5.8272297957562974e-05
-0.0001715680578153824   2.5475761161318066e-05   -5.8272297957562974e-05
-0.0001715680578153824   2.5475761161318066e-05   -5.8272297957562974e-05
-0.00012848644873732386   2.50052483354744e-05   -0.00012979267205881853
-0.00012848644873732386   2.50052483354744e-05   -0.00012979267205881853
-0.00012848644873732386   2.50052483354744e-05   -0.00012979267205881853
-0.00012848644873732386   2.50052483354744e-05   -0.00012979267205881853
-0.0001715680578153824   3.0081996828467805e-05   -0.00019652462574215363
-0.0001715680578153824   3.0081996828467805e-05   -0.00019652462574215363
-0.0001715680578153824   3.0081996828467805e-05   -0.00019652462574215363
-0.0001715680578153824   3.0081996828467805e-05   -0.00019652462574215363
-8.861666114462781e-05   2.5475761161318066e-05   -6.103603935785193e-05
-8.861666114462781e-05   2.5475761161318066e-05   -6.103603935785193e-05
-8.861666114462781e-05   2.5475761161318066e-05   -6.103603935785193e-05
-8.861666114462781e-05   2.5475761161318066e-05   -6.103603935785193e-05
-8.951720429809635e-05   3.621265434173757e-05   -0.00019880279456980826
-8.951720429809635e-05   3.621265434173757e-05   -0.00019880279456980826
-8.951720429809635e-05   3.621265434173757e-05   -0.00019880279456980826
-8.951720429809635e-05   3.621265434173757e-05   -0.00019880279456980826
-0.00017175877788177434   3.104775122998943e-05   -5.863456339662916e-05
-0.00017175877788177434   3.104775122998943e-05   -5.863456339662916e-05
-0.00017175877788177434   3.104775122998943e-05   -5.863456339662916e-05
-0.00017175877788177434   3.104775122998943e-05   -5.863456339662916e-05
-0.00013002501570962287   2.9811031153401286e-05   -0.00012744880163759425
-0.00013002501570962287   2.9811031153401286e-05   -0.00012744880163759425
-0.00013002501570962287   2.9811031153401286e-05   -0.00012744880163759425
-0.00013002501570962287   2.9811031153401286e-05   -0.00012744880163759425
-8.684419785740484e-05   -5.116768922051786e-07   -0.00022375730165964496
-8.684419785740484e-05   -5.116768922051786e-07   -0.00022375730165964496
-8.684419785740484e-05   -5.116768922051786e-07   -0.00022375730165964496
-8.684419785740484e-05   -5.116768922051786e-07   -0.00022375730165964496
-3.7722726617991893e-06   7.596648757342457e-07   -8.454128793953858e-05
-3.7722726617991893e-06   7.596648757342457e-07   -8.454128793953858e-05
-3.7722726617991893e-06   7.596648757342457e-07   -8.454128793953858e-05
-3.7722726617991893e-06   7.596648757342457e-07   -8.454128793953858e-05
-4.634285371981928e-06   5.836667979252806e-06   -0.0002216859606051938
-4.634285371981928e-06   5.836667979252806e-06   -0.0002216859606051938
-4.634285371981928e-06   5.836667979252806e-06   -0.0002216859606051938
-4.634285371981928e-06   5.836667979252806e-06   -0.0002216859606051938
-8.7915874969041e-05   6.569696465064546e-06   -8.332312836824935e-05
-8.7915874969041e-05   6.569696465064546e-06   -8.332312836824935e-05
-8.7915874969041e-05   6.569696465064546e-06   -8.332312836824935e-05
-8.7915874969041e-05   6.569696465064546e-06   -8.332312836824935e-05
-4.553614031254674e-05   3.824442805158788e-06   -0.000152308867266463
-4.553614031254674e-05   3.824442805158788e-06   -0.000152308867266463
-4.553614031254674e-05   3.824442805158788e-06   -0.000152308867266463
-4.553614031254674e-05   3.824442805158788e-06   -0.000152308867266463
-8.7915874969041e-05   5.836667979252589e-06   -0.00022212577769668113
-8.7915874969041e-05   5.836667979252589e-06   -0.00022212577769668113
-8.7915874969041e-05   5.836667979252589e-06   -0.00022212577769668113
-8.7915874969041e-05   5.836667979252589e-06   -0.00022212577769668113
-4.634285371981935e-06   6.569696465064546e-06   -8.288331127676192e-05
-4.634285371981935e-06   6.569696465064546e-06   -8.288331127676192e-05
-4.634285371981935e-06   6.569696465064546e-06   -8.288331127676192e-05
-4.634285371981935e-06   6.569696465064546e-06   -8.288331127676192e-05
-5.26304013502461e-06   1.203828533495599e-05   -0.00022229535714123213
-5.26304013502461e-06   1.203828533495599e-05   -0.00022229535714123213
-5.26304013502461e-06   1.203828533495599e-05   -0.00022229535714123213
-5.26304013502461e-06   1.203828533495599e-05   -0.00022229535714123213
-8.861666114462767e-05   1.2361955025104801e-05   -8.356685727265063e-05
-8.861666114462767e-05   1.2361955025104801e-05   -8.356685727265063e-05
-8.861666114462767e-05   1.2361955025104801e-05   -8.356685727265063e-05
-8.861666114462767e-05   1.2361955025104801e-05   -8.356685727265063e-05
-4.664381021940619e-05   8.947140084905299e-06   -0.00015147271985056543
-4.664381021940619e-05   8.947140084905299e-06   -0.00015147271985056543
-4.664381021940619e-05   8.947140084905299e-06   -0.00015147271985056543
-4.664381021940619e-05   8.947140084905299e-06   -0.00015147271985056543
-8.861666114462767e-05   1.203828533495599e-05   -0.00022248955895532178
-8.861666114462767e-05   1.203828533495599e-05   -0.00022248955895532178
-8.861666114462767e-05   1.203828533495599e-05   -0.00022248955895532178
-8.861666114462767e-05   1.203828533495599e-05   -0.00022248955895532178
-5.2630401350246206e-06   1.2361955025104801e-05   -8.337265545856033e-05
-5.2630401350246206e-06   1.2361955025104801e-05   -8.337265545856033e-05
-5.2630401350246206e-06   1.2361955025104801e-05   -8.337265545856033e-05
-5.2630401350246206e-06   1.2361955025104801e-05   -8.337265545856033e-05
-6.241314278405519e-06   1.8501170416136475e-05   -0.00022515846359495066
-6.241314278405519e-06   1.8501170416136475e-05   -0.00022515846359495066
-6.241314278405519e-06   1.8501170416136475e-05   -0.00022515846359495066
-6.241314278405519e-06   1.8501170416136475e-05   -0.00022515846359495066
-8.95172042980963e-05   1.8289358941605063e-05   -8.623822667741478e-05
-8.95172042980963e-05   1.8289358941605063e-05   -8.623822667741478e-05
-8.95172042980963e-05   1.8289358941605063e-05   -8.623822667741478e-05
-8.95172042980963e-05   1.8289358941605063e-05   -8.623822667741478e-05
-4.781958946266387e-05   1.4130645540154536e-05   -0.00015323902336226373
-4.781958946266387e-05   1.4130645540154536e-05   -0.00015323902336226373
-4.781958946266387e-05   1.4130645540154536e-05   -0.00015323902336226373
-4.781958946266387e-05   1.4130645540154536e-05   -0.00015323902336226373
-3.772272661799196e-06   -1.7859561887195253e-05   -0.0001999784247639603
-3.772272661799196e-06   -1.7859561887195253e-05   -0.0001999784247639603
-3.772272661799196e-06   -1.7859561887195253e-05   -0.0001999784247639603
-3.772272661799196e-06   -1.7859561887195253e-05   -0.0001999784247639603
7.891117257074131e-05   -1.2001759508277216e-05   -5.865800128237574e-05
7.891117257074131e-05   -1.2001759508277216e-05   -5.865800128237574e-05
7.891117257074131e-05   -1.2001759508277216e-05   -5.865800128237574e-05
7.891117257074131e-05   -1.2001759508277216e-05   -5.865800128237574e-05
7.883382588263018e-05   -1.2097778114472137e-05   -0.00019770854288775135
7.883382588263018e-05   -1.2097778114472137e-05   -0.00019770854288775135
7.883382588263018e-05   -1.2097778114472137e-05   -0.00019770854288775135
7.883382588263018e-05   -1.2097778114472137e-05   -0.00019770854288775135
-4.634285371981935e-06   -6.682420546191663e-06   -6.18442386710327e-05
-4.634285371981935e-06   -6.682420546191663e-06   -6.18442386710327e-05
-4.634285371981935e-06   -6.682420546191663e-06   -6.18442386710327e-05
-4.634285371981935e-06   -6.682420546191663e-06   -6.18442386710327e-05
3.704751731502822e-05   -1.1744714839028196e-05   -0.0001282765332403478
3.704751731502822e-05   -1.1744714839028196e-05   -0.0001282765332403478
3.704751731502822e-05   -1.1744714839028196e-05   -0.0001282765332403478
3.704751731502822e-05   -1.1744714839028196e-05   -0.0001282765332403478
-4.634285371981935e-06   -1.2097778114472137e-05   -0.00020095775742871933
-4.634285371981935e-06   -1.2097778114472137e-05   -0.00020095775742871933
-4.634285371981935e-06   -1.2097778114472137e-05   -0.00020095775742871933
-4.634285371981935e-06   -1.2097778114472137e-05   -0.00020095775742871933
7.883382588263018e-05   -6.6824205461920964e-06   -5.859502413006388e-05
7.883382588263018e-05   -6.6824205461920964e-06   -5.859502413006388e-05
7.883382588263018e-05   -6.6824205461920964e-06   -5.859502413006388e-05
7.883382588263018e-05   -6.6824205461920964e-06   -5.859502413006388e-05
7.918182013726398e-05   -6.4498779913338845e-06   -0.00020295905726857612
7.918182013726398e-05   -6.4498779913338845e-06   -0.00020295905726857612
7.918182013726398e-05   -6.4498779913338845e-06   -0.00020295905726857612
7.918182013726398e-05   -6.4498779913338845e-06   -0.00020295905726857612
-5.263040135024627e-06   -1.4501186868238862e-06   -6.521747906413494e-05
-5.263040135024627e-06   -1.4501186868238862e-06   -6.521747906413494e-05
-5.263040135024627e-06   -1.4501186868238862e-06   -6.521747906413494e-05
-5.263040135024627e-06   -1.4501186868238862e-06   -6.521747906413494e-05
3.590188704931037e-05   -7.130799215752763e-06   -0.00013041728272066803
3.590188704931037e-05   -7.130799215752763e-06   -0.00013041728272066803
3.590188704931037e-05   -7.130799215752763e-06   -0.00013041728272066803
3.590188704931037e-05   -7.130799215752763e-06   -0.00013041728272066803
-5.263040135024614e-06   -6.4498779913338845e-06   -0.00020595891285128123
-5.263040135024614e-06   -6.4498779913338845e-06   -0.00020595891285128123
-5.263040135024614e-06   -6.4498779913338845e-06   -0.00020595891285128123
-5.263040135024614e-06   -6.4498779913338845e-06   -0.00020595891285128123
7.918182013726398e-05   -1.4501186868238862e-06   -6.221762348142799e-05
7.918182013726398e-05   -1.4501186868238862e-06   -6.221762348142799e-05
7.918182013726398e-05   -1.4501186868238862e-06   -6.221762348142799e-05
7.918182013726398e-05   -1.4501186868238862e-06   -6.221762348142799e-05
7.855471123034371e-05   5.408092390761857e-07   -0.00020889151007334858
7.855471123034371e-05   5.408092390761857e-07   -0.00020889151007334858
7.855471123034371e-05   5.408092390761857e-07   -0.00020889151007334858
7.855471123034371e-05   5.408092390761857e-07   -0.00020889151007334858
-6.2413142784055325e-06   4.673255200958633e-06   -7.004426846922985e-05
-6.2413142784055325e-06   4.673255200958633e-06   -7.004426846922985e-05
-6.2413142784055325e-06   4.673255200958633e-06   -7.004426846922985e-05
-6.2413142784055325e-06   4.673255200958633e-06   -7.004426846922985e-05
3.54905462928688e-05   -2.1892285756539443e-06   -0.00013547987915538492
3.54905462928688e-05   -2.1892285756539443e-06   -0.00013547987915538492
3.54905462928688e-05   -2.1892285756539443e-06   -0.00013547987915538492
3.54905462928688e-05   -2.1892285756539443e-06   -0.00013547987915538492
7.89111725707412e-05   -3.322586396867092e-05   -0.00011196422565005765
7.89111725707412e-05   -3.322586396867092e-05   -0.00011196422565005765
7.89111725707412e-05   -3.322586396867092e-05   -0.00011196422565005765
7.89111725707412e-05   -3.322586396867092e-05   -0.00011196422565005765
0.00015645604278710266   -2.1807124605294822e-05   2.41284683285708e-05
0.00015645604278710266   -2.1807124605294822e-05   2.41284683285708e-05
0.00015645604278710266   -2.1807124605294822e-05   2.41284683285708e-05
0.00015645604278710266   -2.1807124605294822e-05   2.41284683285708e-05
0.00016166878446899054   -3.0173312059620424e-05   -0.00012610550858904019
0.00016166878446899054   -3.0173312059620424e-05   -0.00012610550858904019
0.00016166878446899054   -3.0173312059620424e-05   -0.00012610550858904019
0.00016166878446899054   -3.0173312059620424e-05   -0.00012610550858904019
7.883382588263002e-05   -1.875166528277246e-05   5.099767655451955e-06
7.883382588263002e-05   -1.875166528277246e-05   5.099767655451955e-06
7.883382588263002e-05   -1.875166528277246e-05   5.099767655451955e-06
7.883382588263002e-05   -1.875166528277246e-05   5.099767655451955e-06
0.00011388187778829355   -2.568371065337499e-05   -4.91544249649592e-05
0.00011388187778829355   -2.568371065337499e-05   -4.91544249649592e-05
0.00011388187778829355   -2.568371065337499e-05   -4.91544249649592e-05
0.00011388187778829355   -2.568371065337499e-05   -4.91544249649592e-05
7.883382588262997e-05   -3.0173312059620424e-05   -0.00013295849665514883
7.883382588262997e-05   -3.0173312059620424e-05   -0.00013295849665514883
7.883382588262997e-05   -3.0173312059620424e-05   -0.00013295849665514883
7.883382588262997e-05   -3.0173312059620424e-05   -0.00013295849665514883
0.00016166878446899054   -1.8751665282772025e-05   1.1952755721561254e-05
0.00016166878446899054   -1.8751665282772025e-05   1.1952755721561254e-05
0.00016166878446899054   -1.8751665282772025e-05   1.1952755721561254e-05
0.00016166878446899054   -1.8751665282772025e-05   1.1952755721561254e-05
0.0001656635512735261   -2.6922243846467728e-05   -0.0001422654102636134
0.0001656635512735261   -2.6922243846467728e-05   -0.0001422654102636134
0.0001656635512735261   -2.6922243846467728e-05   -0.0001422654102636134
0.0001656635512735261   -2.6922243846467728e-05   -0.0001422654102636134
7.918182013726377e-05   -1.6119907141882647e-05   -4.610593725927633e-06
7.918182013726377e-05   -1.6119907141882647e-05   -4.610593725927633e-06
7.918182013726377e-05   -1.6119907141882647e-05   -4.610593725927633e-06
7.918182013726377e-05   -1.6119907141882647e-05   -4.610593725927633e-06
0.00011771546786963014   -2.371125954774185e-05   -6.427852850302224e-05
0.00011771546786963014   -2.371125954774185e-05   -6.427852850302224e-05
0.00011771546786963014   -2.371125954774185e-05   -6.427852850302224e-05
0.00011771546786963014   -2.371125954774185e-05   -6.427852850302224e-05
7.918182013726387e-05   -2.6922243846467728e-05   -0.0001487468122863642
7.918182013726387e-05   -2.6922243846467728e-05   -0.0001487468122863642
7.918182013726387e-05   -2.6922243846467728e-05   -0.0001487468122863642
7.918182013726387e-05   -2.6922243846467728e-05   -0.0001487468122863642
0.00016566355127352577   -1.611990714188308e-05   1.8708082968239576e-06
0.00016566355127352577   -1.611990714188308e-05   1.8708082968239576e-06
0.00016566355127352577   -1.611990714188308e-05   1.8708082968239576e-06
0.00016566355127352577   -1.611990714188308e-05   1.8708082968239576e-06
0.00016991045827317245   -1.992326024448398e-05   -0.00016973287209817142
0.00016991045827317245   -1.992326024448398e-05   -0.00016973287209817142
0.00016991045827317245   -1.992326024448398e-05   -0.00016973287209817142
0.00016991045827317245   -1.992326024448398e-05   -0.00016973287209817142
7.855471123034344e-05   -1.048899761873709e-05   -2.3133851268905244e-05
7.855471123034344e-05   -1.048899761873709e-05   -2.3133851268905244e-05
7.855471123034344e-05   -1.048899761873709e-05   -2.3133851268905244e-05
7.855471123034344e-05   -1.048899761873709e-05   -2.3133851268905244e-05
0.00011717660057568272   -2.0440194584382286e-05   -8.153294866508284e-05
0.00011717660057568272   -2.0440194584382286e-05   -8.153294866508284e-05
0.00011717660057568272   -2.0440194584382286e-05   -8.153294866508284e-05
0.00011717660057568272   -2.0440194584382286e-05   -8.153294866508284e-05
-0.0001878250518500122   2.8761707591819317e-05   -0.0001426378786219811
-0.0001878250518500122   2.8761707591819317e-05   -0.0001426378786219811
-0.0001878250518500122   2.8761707591819317e-05   -0.0001426378786219811
-0.0001878250518500122   2.8761707591819317e-05   -0.0001426378786219811
-0.00012773566284054853   1.8334446924506576e-05   -4.874525333992919e-05
-0.00012773566284054853   1.8334446924506576e-05   -4.874525333992919e-05
-0.00012773566284054853   1.8334446924506576e-05   -4.874525333992919e-05
-0.00012773566284054853   1.8334446924506576e-05   -4.874525333992919e-05
-0.0001272737274385724   3.477113766250754e-05   -0.0001211693127305606
-0.0001272737274385724   3.477113766250754e-05   -0.0001211693127305606
-0.0001272737274385724   3.477113766250754e-05   -0.0001211693127305606
-0.0001272737274385724   3.477113766250754e-05   -0.0001211693127305606
-0.00018224396823165903   2.331728675066501e-05   -2.2679934194976643e-05
-0.00018224396823165903   2.331728675066501e-05   -2.2679934194976643e-05
-0.00018224396823165903   2.331728675066501e-05   -2.2679934194976643e-05
-0.00018224396823165903   2.331728675066501e-05   -2.2679934194976643e-05
-0.00014964085418427972   2.768874014775699e-05   -7.964132964553123e-05
-0.00014964085418427972   2.768874014775699e-05   -7.964132964553123e-05
-0.00014964085418427972   2.768874014775699e-05   -7.964132964553123e-05
-0.00014964085418427972   2.768874014775699e-05   -7.964132964553123e-05
-0.00018224396823165903   3.477113766250754e-05   -0.00011429700218345477
-0.00018224396823165903   3.477113766250754e-05   -0.00011429700218345477
-0.00018224396823165903   3.477113766250754e-05   -0.00011429700218345477
-0.00018224396823165903   3.477113766250754e-05   -0.00011429700218345477
-0.0001272737274385726   2.331728675066501e-05   -2.9552244742082623e-05
-0.0001272737274385726   2.331728675066501e-05   -2.9552244742082623e-05
-0.0001272737274385726   2.331728675066501e-05   -2.9552244742082623e-05
-0.0001272737274385726   2.331728675066501e-05   -2.9552244742082623e-05
-0.00012631055911147037   3.740756461477696e-05   -0.00010565642654041191
-0.00012631055911147037   3.740756461477696e-05   -0.00010565642654041191
-0.00012631055911147037   3.740756461477696e-05   -0.00010565642654041191
-0.00012631055911147037   3.740756461477696e-05   -0.00010565642654041191
-0.00017806552436194583   2.5633740261621265e-05   -1.2333856511059348e-05
-0.00017806552436194583   2.5633740261621265e-05   -1.2333856511059348e-05
-0.00017806552436194583   2.5633740261621265e-05   -1.2333856511059348e-05
-0.00017806552436194583   2.5633740261621265e-05   -1.2333856511059348e-05
-0.00014966143674141375   3.046808936853565e-05   -6.257461200942852e-05
-0.00014966143674141375   3.046808936853565e-05   -6.257461200942852e-05
-0.00014966143674141375   3.046808936853565e-05   -6.257461200942852e-05
-0.00014966143674141375   3.046808936853565e-05   -6.257461200942852e-05
-0.00017806552436194583   3.740756461477696e-05   -9.859213192851867e-05
-0.00017806552436194583   3.740756461477696e-05   -9.859213192851867e-05
-0.00017806552436194583   3.740756461477696e-05   -9.859213192851867e-05
-0.00017806552436194583   3.740756461477696e-05   -9.859213192851867e-05
-0.00012631055911147058   2.5633740261621265e-05   -1.9398151122952524e-05
-0.00012631055911147058   2.5633740261621265e-05   -1.9398151122952524e-05
-0.00012631055911147058   2.5633740261621265e-05   -1.9398151122952524e-05
-0.00012631055911147058   2.5633740261621265e-05   -1.9398151122952524e-05
-0.0001259207983668717   3.998991490513672e-05   -8.416324180628588e-05
-0.0001259207983668717   3.998991490513672e-05   -8.416324180628588e-05
-0.0001259207983668717   3.998991490513672e-05   -8.416324180628588e-05
-0.0001259207983668717   3.998991490513672e-05   -8.416324180628588e-05
-0.00017259089902902118   2.8538680268735267e-05   4.91000079138118e-07
-0.00017259089902902118   2.8538680268735267e-05   4.91000079138118e-07
-0.00017259089902902118   2.8538680268735267e-05   4.91000079138118e-07
-0.00017259089902902118   2.8538680268735267e-05   4.91000079138118e-07
-0.00014524007054141118   3.19642292423792e-05   -4.714904345106568e-05
-0.00014524007054141118   3.19642292423792e-05   -4.714904345106568e-05
-0.00014524007054141118   3.19642292423792e-05   -4.714904345106568e-05
-0.00014524007054141118   3.19642292423792e-05   -4.714904345106568e-05
-0.00012773566284054831   1.4325927656517069e-05   -0.0001814235594004758
-0.00012773566284054831   1.4325927656517069e-05   -0.0001814235594004758
-0.00012773566284054831   1.4325927656517069e-05   -0.0001814235594004758
-0.00012773566284054831   1.4325927656517069e-05   -0.0001814235594004758
-7.331802337746577e-05   9.453823957184578e-06   -9.365075584827115e-05
-7.331802337746577e-05   9.453823957184578e-06   -9.365075584827115e-05
-7.331802337746577e-05   9.453823957184578e-06   -9.365075584827115e-05
-7.331802337746577e-05   9.453823957184578e-06   -9.365075584827115e-05
-7.335215401569316e-05   2.0232842677027785e-05   -0.00017987832115557573
-7.335215401569316e-05   2.0232842677027785e-05   -0.00017987832115557573
-7.335215401569316e-05   2.0232842677027785e-05   -0.00017987832115557573
-7.335215401569316e-05   2.0232842677027785e-05   -0.00017987832115557573
-0.0001272737274385724   1.4710791899640724e-05   -8.669580165101111e-05
-0.0001272737274385724   1.4710791899640724e-05   -8.669580165101111e-05
-0.0001272737274385724   1.4710791899640724e-05   -8.669580165101111e-05
-0.0001272737274385724   1.4710791899640724e-05   -8.669580165101111e-05
-9.949530904225116e-05   1.5654307632328827e-05   -0.00013355927508449327
-9.949530904225116e-05   1.5654307632328827e-05   -0.00013355927508449327
-9.949530904225116e-05   1.5654307632328827e-05   -0.00013355927508449327
-9.949530904225116e-05   1.5654307632328827e-05   -0.00013355927508449327
-0.00012727372743857228   2.0232842677027785e-05   -0.00017656509068914288
-0.00012727372743857228   2.0232842677027785e-05   -0.00017656509068914288
-0.00012727372743857228   2.0232842677027785e-05   -0.00017656509068914288
-0.00012727372743857228   2.0232842677027785e-05   -0.00017656509068914288
-7.335215401569316e-05   1.4710791899641158e-05   -9.00090321174433e-05
-7.335215401569316e-05   1.4710791899641158e-05   -9.00090321174433e-05
-7.335215401569316e-05   1.4710791899641158e-05   -9.00090321174433e-05
-7.335215401569316e-05   1.4710791899641158e-05   -9.00090321174433e-05
-7.329564149791509e-05   2.5475761161318066e-05   -0.00017584523004692204
-7.329564149791509e-05   2.5475761161318066e-05   -0.00017584523004692204
-7.329564149791509e-05   2.5475761161318066e-05   -0.00017584523004692204
-7.329564149791509e-05   2.5475761161318066e-05   -0.00017584523004692204
-0.00012631055911147037   1.948910344401521e-05   -8.389503939394867e-05
-0.00012631055911147037   1.948910344401521e-05   -8.389503939394867e-05
-0.00012631055911147037   1.948910344401521e-05   -8.389503939394867e-05
-0.00012631055911147037   1.948910344401521e-05   -8.389503939394867e-05
-9.902916681335587e-05   1.9966636746335947e-05   -0.0001296505465388639
-9.902916681335587e-05   1.9966636746335947e-05   -0.0001296505465388639
-9.902916681335587e-05   1.9966636746335947e-05   -0.0001296505465388639
-9.902916681335587e-05   1.9966636746335947e-05   -0.0001296505465388639
-0.00012631055911147037   2.5475761161318066e-05   -0.00017225323541654046
-0.00012631055911147037   2.5475761161318066e-05   -0.00017225323541654046
-0.00012631055911147037   2.5475761161318066e-05   -0.00017225323541654046
-0.00012631055911147037   2.5475761161318066e-05   -0.00017225323541654046
-7.32956414979152e-05   1.9489103444015644e-05   -8.74870340243296e-05
-7.32956414979152e-05   1.9489103444015644e-05   -8.74870340243296e-05
-7.32956414979152e-05   1.9489103444015644e-05   -8.74870340243296e-05
-7.32956414979152e-05   1.9489103444015644e-05   -8.74870340243296e-05
-7.335090461248894e-05   3.1047751229989e-05   -0.00017655220554913236
-7.335090461248894e-05   3.1047751229989e-05   -0.00017655220554913236
-7.335090461248894e-05   3.1047751229989e-05   -0.00017655220554913236
-7.335090461248894e-05   3.1047751229989e-05   -0.00017655220554913236
-0.0001259207983668718   2.4674087671123102e-05   -8.511151782317422e-05
-0.0001259207983668718   2.4674087671123102e-05   -8.511151782317422e-05
-0.0001259207983668718   2.4674087671123102e-05   -8.511151782317422e-05
-0.0001259207983668718   2.4674087671123102e-05   -8.511151782317422e-05
-9.966802805840138e-05   2.4227326075221007e-05   -0.00012859807804641672
-9.966802805840138e-05   2.4227326075221007e-05   -0.00012859807804641672
-9.966802805840138e-05   2.4227326075221007e-05   -0.00012859807804641672
-9.966802805840138e-05   2.4227326075221007e-05   -0.00012859807804641672
-7.331802337746571e-05   7.596648757342457e-07   -0.00020016257120492173
-7.331802337746571e-05   7.596648757342457e-07   -0.00020016257120492173
-7.331802337746571e-05   7.596648757342457e-07   -0.00020016257120492173
-7.331802337746571e-05   7.596648757342457e-07   -0.00020016257120492173
-1.9679639631496954e-05   1.6119485051306615e-06   -0.0001102538947840028
-1.9679639631496954e-05   1.6119485051306615e-06   -0.0001102538947840028
-1.9679639631496954e-05   1.6119485051306615e-06   -0.0001102538947840028
-1.9679639631496954e-05   1.6119485051306615e-06   -0.0001102538947840028
-1.9714496760448807e-05   6.569696465064546e-06   -0.0001979695578388013
-1.9714496760448807e-05   6.569696465064546e-06   -0.0001979695578388013
-1.9714496760448807e-05   6.569696465064546e-06   -0.0001979695578388013
-1.9714496760448807e-05   6.569696465064546e-06   -0.0001979695578388013
-7.335215401569299e-05   6.892028428856587e-06   -0.00010876686159166959
-7.335215401569299e-05   6.892028428856587e-06   -0.00010876686159166959
-7.335215401569299e-05   6.892028428856587e-06   -0.00010876686159166959
-7.335215401569299e-05   6.892028428856587e-06   -0.00010876686159166959
-4.6208326566083896e-05   4.636820967518062e-06   -0.0001526534495308819
-4.6208326566083896e-05   4.636820967518062e-06   -0.0001526534495308819
-4.6208326566083896e-05   4.636820967518062e-06   -0.0001526534495308819
-4.6208326566083896e-05   4.636820967518062e-06   -0.0001526534495308819
-7.335215401569299e-05   6.569696465064546e-06   -0.00019816295701707647
-7.335215401569299e-05   6.569696465064546e-06   -0.00019816295701707647
-7.335215401569299e-05   6.569696465064546e-06   -0.00019816295701707647
-7.335215401569299e-05   6.569696465064546e-06   -0.00019816295701707647
-1.9714496760448807e-05   6.892028428856587e-06   -0.0001085734624133943
-1.9714496760448807e-05   6.892028428856587e-06   -0.0001085734624133943
-1.9714496760448807e-05   6.892028428856587e-06   -0.0001085734624133943
-1.9714496760448807e-05   6.892028428856587e-06   -0.0001085734624133943
-1.96422129851147e-05   1.2361955025104801e-05   -0.0001984798792859057
-1.96422129851147e-05   1.2361955025104801e-05   -0.0001984798792859057
-1.96422129851147e-05   1.2361955025104801e-05   -0.0001984798792859057
-1.96422129851147e-05   1.2361955025104801e-05   -0.0001984798792859057
-7.329564149791509e-05   1.2188902818128632e-05   -0.00010895366710705272
-7.329564149791509e-05   1.2188902818128632e-05   -0.00010895366710705272
-7.329564149791509e-05   1.2188902818128632e-05   -0.00010895366710705272
-7.329564149791509e-05   1.2188902818128632e-05   -0.00010895366710705272
-4.6515520461505244e-05   9.252659857453358e-06   -0.0001518254563913305
-4.6515520461505244e-05   9.252659857453358e-06   -0.0001518254563913305
-4.6515520461505244e-05   9.252659857453358e-06   -0.0001518254563913305
-4.6515520461505244e-05   9.252659857453358e-06   -0.0001518254563913305
-7.329564149791509e-05   1.2361955025104801e-05   -0.00019837604796172
-7.329564149791509e-05   1.2361955025104801e-05   -0.00019837604796172
-7.329564149791509e-05   1.2361955025104801e-05   -0.00019837604796172
-7.329564149791509e-05   1.2361955025104801e-05   -0.00019837604796172
-1.9642212985114733e-05   1.2188902818128632e-05   -0.0001090574984312382
-1.9642212985114733e-05   1.2188902818128632e-05   -0.0001090574984312382
-1.9642212985114733e-05   1.2188902818128632e-05   -0.0001090574984312382
-1.9642212985114733e-05   1.2188902818128632e-05   -0.0001090574984312382
-1.9672155216093736e-05   1.8289358941605497e-05   -0.0002014835078070626
-1.9672155216093736e-05   1.8289358941605497e-05   -0.0002014835078070626
-1.9672155216093736e-05   1.8289358941605497e-05   -0.0002014835078070626
-1.9672155216093736e-05   1.8289358941605497e-05   -0.0002014835078070626
-7.335090461248883e-05   1.7578390867948983e-05   -0.00011159234463554329
-7.335090461248883e-05   1.7578390867948983e-05   -0.00011159234463554329
-7.335090461248883e-05   1.7578390867948983e-05   -0.00011159234463554329
-7.335090461248883e-05   1.7578390867948983e-05   -0.00011159234463554329
-4.691336560310781e-05   1.3929071684746011e-05   -0.00015346531814125638
-4.691336560310781e-05   1.3929071684746011e-05   -0.00015346531814125638
-4.691336560310781e-05   1.3929071684746011e-05   -0.00015346531814125638
-4.691336560310781e-05   1.3929071684746011e-05   -0.00015346531814125638
-1.967963963149692e-05   -1.2001759508277216e-05   -0.00017728259579747187
-1.967963963149692e-05   -1.2001759508277216e-05   -0.00017728259579747187
-1.967963963149692e-05   -1.2001759508277216e-05   -0.00017728259579747187
-1.967963963149692e-05   -1.2001759508277216e-05   -0.00017728259579747187
3.3213651666857285e-05   -5.564195032711772e-06   -8.526457161487548e-05
3.3213651666857285e-05   -5.564195032711772e-06   -8.526457161487548e-05
3.3213651666857285e-05   -5.564195032711772e-06   -8.526457161487548e-05
3.3213651666857285e-05   -5.564195032711772e-06   -8.526457161487548e-05
3.364679746354363e-05   -6.682420546191663e-06   -0.00017327885314521855
3.364679746354363e-05   -6.682420546191663e-06   -0.00017327885314521855
3.364679746354363e-05   -6.682420546191663e-06   -0.00017327885314521855
3.364679746354363e-05   -6.682420546191663e-06   -0.00017327885314521855
-1.9714496760448807e-05   -5.963670664369848e-07   -8.799499485975084e-05
-1.9714496760448807e-05   -5.963670664369848e-07   -8.799499485975084e-05
-1.9714496760448807e-05   -5.963670664369848e-07   -8.799499485975084e-05
-1.9714496760448807e-05   -5.963670664369848e-07   -8.799499485975084e-05
6.892652631671969e-06   -5.753064804936425e-06   -0.000129246225203519
6.892652631671969e-06   -5.753064804936425e-06   -0.000129246225203519
6.892652631671969e-06   -5.753064804936425e-06   -0.000129246225203519
6.892652631671969e-06   -5.753064804936425e-06   -0.000129246225203519
-1.9714496760448807e-05   -6.682420546191663e-06   -0.00017693048523307188
-1.9714496760448807e-05   -6.682420546191663e-06   -0.00017693048523307188
-1.9714496760448807e-05   -6.682420546191663e-06   -0.00017693048523307188
-1.9714496760448807e-05   -6.682420546191663e-06   -0.00017693048523307188
3.364679746354374e-05   -5.963670664365511e-07   -8.43433627718982e-05
3.364679746354374e-05   -5.963670664365511e-07   -8.43433627718982e-05
3.364679746354374e-05   -5.963670664365511e-07   -8.43433627718982e-05
3.364679746354374e-05   -5.963670664365511e-07   -8.43433627718982e-05
3.46587558168263e-05   -1.4501186868238862e-06   -0.00017694187399233414
3.46587558168263e-05   -1.4501186868238862e-06   -0.00017694187399233414
3.46587558168263e-05   -1.4501186868238862e-06   -0.00017694187399233414
3.46587558168263e-05   -1.4501186868238862e-06   -0.00017694187399233414
-1.9642212985114733e-05   4.187929478417091e-06   -8.982308822157737e-05
-1.9642212985114733e-05   4.187929478417091e-06   -8.982308822157737e-05
-1.9642212985114733e-05   4.187929478417091e-06   -8.982308822157737e-05
-1.9642212985114733e-05   4.187929478417091e-06   -8.982308822157737e-05
6.588623703696473e-06   -1.6215774034152725e-06   -0.0001300554452404966
6.588623703696473e-06   -1.6215774034152725e-06   -0.0001300554452404966
6.588623703696473e-06   -1.6215774034152725e-06   -0.0001300554452404966
6.588623703696473e-06   -1.6215774034152725e-06   -0.0001300554452404966
-1.964221298511472e-05   -1.4501186868238862e-06   -0.00018032470289147846
-1.964221298511472e-05   -1.4501186868238862e-06   -0.00018032470289147846
-1.964221298511472e-05   -1.4501186868238862e-06   -0.00018032470289147846
-1.964221298511472e-05   -1.4501186868238862e-06   -0.00018032470289147846
3.465875581682646e-05   4.187929478417091e-06   -8.644025932243236e-05
3.465875581682646e-05   4.187929478417091e-06   -8.644025932243236e-05
3.465875581682646e-05   4.187929478417091e-06   -8.644025932243236e-05
3.465875581682646e-05   4.187929478417091e-06   -8.644025932243236e-05
3.515176338751458e-05   4.673255200958633e-06   -0.00018216016900763688
3.515176338751458e-05   4.673255200958633e-06   -0.00018216016900763688
3.515176338751458e-05   4.673255200958633e-06   -0.00018216016900763688
3.515176338751458e-05   4.673255200958633e-06   -0.00018216016900763688
-1.9672155216093702e-05   9.677078045161516e-06   -9.378926504147769e-05
-1.9672155216093702e-05   9.677078045161516e-06   -9.378926504147769e-05
-1.9672155216093702e-05   9.677078045161516e-06   -9.378926504147769e-05
-1.9672155216093702e-05   9.677078045161516e-06   -9.378926504147769e-05
6.7750685646395264e-06   2.803420484047761e-06   -0.00013374377680603125
6.7750685646395264e-06   2.803420484047761e-06   -0.00013374377680603125
6.7750685646395264e-06   2.803420484047761e-06   -0.00013374377680603125
6.7750685646395264e-06   2.803420484047761e-06   -0.00013374377680603125
3.321365166685723e-05   -2.1807124605294822e-05   -9.748483111921176e-05
3.321365166685723e-05   -2.1807124605294822e-05   -9.748483111921176e-05
3.321365166685723e-05   -2.1807124605294822e-05   -9.748483111921176e-05
3.321365166685723e-05   -2.1807124605294822e-05   -9.748483111921176e-05
8.032287447310067e-05   -1.0255937640430823e-05   -1.2038747596553913e-05
8.032287447310067e-05   -1.0255937640430823e-05   -1.2038747596553913e-05
8.032287447310067e-05   -1.0255937640430823e-05   -1.2038747596553913e-05
8.032287447310067e-05   -1.0255937640430823e-05   -1.2038747596553913e-05
8.587110523913214e-05   -1.8751665282772025e-05   -0.0001024719890893609
8.587110523913214e-05   -1.8751665282772025e-05   -0.0001024719890893609
8.587110523913214e-05   -1.8751665282772025e-05   -0.0001024719890893609
8.587110523913214e-05   -1.8751665282772025e-05   -0.0001024719890893609
3.364679746354368e-05   -6.898211498869173e-06   -2.2543548400388662e-05
3.364679746354368e-05   -6.898211498869173e-06   -2.2543548400388662e-05
3.364679746354368e-05   -6.898211498869173e-06   -2.2543548400388662e-05
3.364679746354368e-05   -6.898211498869173e-06   -2.2543548400388662e-05
5.577932190642195e-05   -1.3982425067567139e-05   -5.518056099730042e-05
5.577932190642195e-05   -1.3982425067567139e-05   -5.518056099730042e-05
5.577932190642195e-05   -1.3982425067567139e-05   -5.518056099730042e-05
5.577932190642195e-05   -1.3982425067567139e-05   -5.518056099730042e-05
3.364679746354363e-05   -1.875166528277246e-05   -0.00010958406135970163
3.364679746354363e-05   -1.875166528277246e-05   -0.00010958406135970163
3.364679746354363e-05   -1.875166528277246e-05   -0.00010958406135970163
3.364679746354363e-05   -1.875166528277246e-05   -0.00010958406135970163
8.587110523913181e-05   -6.898211498869607e-06   -1.543147613004706e-05
8.587110523913181e-05   -6.898211498869607e-06   -1.543147613004706e-05
8.587110523913181e-05   -6.898211498869607e-06   -1.543147613004706e-05
8.587110523913181e-05   -6.898211498869607e-06   -1.543147613004706e-05
9.013602828787811e-05   -1.611990714188308e-05   -0.00011240719464099052
9.013602828787811e-05   -1.611990714188308e-05   -0.00011240719464099052
9.013602828787811e-05   -1.611990714188308e-05   -0.00011240719464099052
9.013602828787811e-05   -1.611990714188308e-05   -0.00011240719464099052
3.465875581682646e-05   -4.5738244821447865e-06   -2.687272345174756e-05
3.465875581682646e-05   -4.5738244821447865e-06   -2.687272345174756e-05
3.465875581682646e-05   -4.5738244821447865e-06   -2.687272345174756e-05
3.465875581682646e-05   -4.5738244821447865e-06   -2.687272345174756e-05
5.918157844221356e-05   -1.2261079409243026e-05   -6.313174153780036e-05
5.918157844221356e-05   -1.2261079409243026e-05   -6.313174153780036e-05
5.918157844221356e-05   -1.2261079409243026e-05   -6.313174153780036e-05
5.918157844221356e-05   -1.2261079409243026e-05   -6.313174153780036e-05
3.465875581682641e-05   -1.611990714188308e-05   -0.00011933484423683367
3.465875581682641e-05   -1.611990714188308e-05   -0.00011933484423683367
3.465875581682641e-05   -1.611990714188308e-05   -0.00011933484423683367
3.465875581682641e-05   -1.611990714188308e-05   -0.00011933484423683367
9.013602828787778e-05   -4.573824482144353e-06   -1.9945073855903977e-05
9.013602828787778e-05   -4.573824482144353e-06   -1.9945073855903977e-05
9.013602828787778e-05   -4.573824482144353e-06   -1.9945073855903977e-05
9.013602828787778e-05   -4.573824482144353e-06   -1.9945073855903977e-05
9.579589369620707e-05   -1.048899761873709e-05   -0.0001314312911531863
9.579589369620707e-05   -1.048899761873709e-05   -0.0001314312911531863
9.579589369620707e-05   -1.048899761873709e-05   -0.0001314312911531863
9.579589369620707e-05   -1.048899761873709e-05   -0.0001314312911531863
3.5151763387514636e-05   7.549433356235369e-09   -3.6655668869954344e-05
3.5151763387514636e-05   7.549433356235369e-09   -3.6655668869954344e-05
3.5151763387514636e-05   7.549433356235369e-09   -3.6655668869954344e-05
3.5151763387514636e-05   7.549433356235369e-09   -3.6655668869954344e-05
6.029479408026464e-05   -9.68335070990374e-06   -7.274617993858221e-05
6.029479408026464e-05   -9.68335070990374e-06   -7.274617993858221e-05
6.029479408026464e-05   -9.68335070990374e-06   -7.274617993858221e-05
6.029479408026464e-05   -9.68335070990374e-06   -7.274617993858221e-05
-0.00011404071240442726   1.8334446924506576e-05   -0.00010664520658546124
-0.00011404071240442726   1.8334446924506576e-05   -0.00010664520658546124
-0.00011404071240442726   1.8334446924506576e-05   -0.00010664520658546124
-0.00011404071240442726   1.8334446924506576e-05   -0.00010664520658546124
-8.400893540437809e-05   7.5028645165984426e-06   -6.309119436345755e-05
-8.400893540437809e-05   7.5028645165984426e-06   -6.309119436345755e-05
-8.400893540437809e-05   7.5028645165984426e-06   -6.309119436345755e-05
-8.400893540437809e-05   7.5028645165984426e-06   -6.309119436345755e-05
-8.276244393020488e-05   2.331728675066501e-05   -9.407908062394627e-05
-8.276244393020488e-05   2.331728675066501e-05   -9.407908062394627e-05
-8.276244393020488e-05   2.331728675066501e-05   -9.407908062394627e-05
-8.276244393020488e-05   2.331728675066501e-05   -9.407908062394627e-05
-0.00010786829016698235   1.1656126016887543e-05   -4.523930712238252e-05
-0.00010786829016698235   1.1656126016887543e-05   -4.523930712238252e-05
-0.00010786829016698235   1.1656126016887543e-05   -4.523930712238252e-05
-0.00010786829016698235   1.1656126016887543e-05   -4.523930712238252e-05
-9.305261681549228e-05   1.6439412494888977e-05   -7.280206792833902e-05
-9.305261681549228e-05   1.6439412494888977e-05   -7.280206792833902e-05
-9.305261681549228e-05   1.6439412494888977e-05   -7.280206792833902e-05
-9.305261681549228e-05   1.6439412494888977e-05   -7.280206792833902e-05
-0.00010786829016698235   2.331728675066501e-05   -8.70823841836797e-05
-0.00010786829016698235   2.331728675066501e-05   -8.70823841836797e-05
-0.00010786829016698235   2.331728675066501e-05   -8.70823841836797e-05
-0.00010786829016698235   2.331728675066501e-05   -8.70823841836797e-05
-8.276244393020499e-05   1.1656126016887543e-05   -5.223600356265006e-05
-8.276244393020499e-05   1.1656126016887543e-05   -5.223600356265006e-05
-8.276244393020499e-05   1.1656126016887543e-05   -5.223600356265006e-05
-8.276244393020499e-05   1.1656126016887543e-05   -5.223600356265006e-05
-8.098675359538587e-05   2.5633740261621265e-05   -8.40121118647879e-05
-8.098675359538587e-05   2.5633740261621265e-05   -8.40121118647879e-05
-8.098675359538587e-05   2.5633740261621265e-05   -8.40121118647879e-05
-8.098675359538587e-05   2.5633740261621265e-05   -8.40121118647879e-05
-0.00010293501688873083   1.3748480502785189e-05   -4.030051718724318e-05
-0.00010293501688873083   1.3748480502785189e-05   -4.030051718724318e-05
-0.00010293501688873083   1.3748480502785189e-05   -4.030051718724318e-05
-0.00010293501688873083   1.3748480502785189e-05   -4.030051718724318e-05
-9.141933272233859e-05   1.8677992775092966e-05   -6.245103149461577e-05
-9.141933272233859e-05   1.8677992775092966e-05   -6.245103149461577e-05
-9.141933272233859e-05   1.8677992775092966e-05   -6.245103149461577e-05
-9.141933272233859e-05   1.8677992775092966e-05   -6.245103149461577e-05
-0.0001029350168887304   2.5633740261621265e-05   -7.688095600948564e-05
-0.0001029350168887304   2.5633740261621265e-05   -7.688095600948564e-05
-0.0001029350168887304   2.5633740261621265e-05   -7.688095600948564e-05
-0.0001029350168887304   2.5633740261621265e-05   -7.688095600948564e-05
-8.098675359538598e-05   1.3748480502785189e-05   -4.743167304254543e-05
-8.098675359538598e-05   1.3748480502785189e-05   -4.743167304254543e-05
-8.098675359538598e-05   1.3748480502785189e-05   -4.743167304254543e-05
-8.098675359538598e-05   1.3748480502785189e-05   -4.743167304254543e-05
-7.976823735913931e-05   2.8538680268734833e-05   -7.108440569433827e-05
-7.976823735913931e-05   2.8538680268734833e-05   -7.108440569433827e-05
-7.976823735913931e-05   2.8538680268734833e-05   -7.108440569433827e-05
-7.976823735913931e-05   2.8538680268734833e-05   -7.108440569433827e-05
-9.665082136975085e-05   1.7059874012880123e-05   -3.6059481923138726e-05
-9.665082136975085e-05   1.7059874012880123e-05   -3.6059481923138726e-05
-9.665082136975085e-05   1.7059874012880123e-05   -3.6059481923138726e-05
-9.665082136975085e-05   1.7059874012880123e-05   -3.6059481923138726e-05
-8.714096859510054e-05   2.022039516992504e-05   -5.38055492417856e-05
-8.714096859510054e-05   2.022039516992504e-05   -5.38055492417856e-05
-8.714096859510054e-05   2.022039516992504e-05   -5.38055492417856e-05
-8.714096859510054e-05   2.022039516992504e-05   -5.38055492417856e-05
-8.400893540437809e-05   9.453823957184145e-06   -0.00015512639631894837
-8.400893540437809e-05   9.453823957184145e-06   -0.00015512639631894837
-8.400893540437809e-05   9.453823957184145e-06   -0.00015512639631894837
-8.400893540437809e-05   9.453823957184145e-06   -0.00015512639631894837
-5.9631669651737205e-05   4.274707164594535e-06   -0.0001176050901401009
-5.9631669651737205e-05   4.274707164594535e-06   -0.0001176050901401009
-5.9631669651737205e-05   4.274707164594535e-06   -0.0001176050901401009
-5.9631669651737205e-05   4.274707164594535e-06   -0.0001176050901401009
-5.8808031327637895e-05   1.4710791899640724e-05   -0.00015462886607211113
-5.8808031327637895e-05   1.4710791899640724e-05   -0.00015462886607211113
-5.8808031327637895e-05   1.4710791899640724e-05   -0.00015462886607211113
-5.8808031327637895e-05   1.4710791899640724e-05   -0.00015462886607211113
-8.276244393020499e-05   9.03374433424732e-06   -0.00011129861652859523
-8.276244393020499e-05   9.03374433424732e-06   -0.00011129861652859523
-8.276244393020499e-05   9.03374433424732e-06   -0.00011129861652859523
-8.276244393020499e-05   9.03374433424732e-06   -0.00011129861652859523
-7.060791700024e-05   1.0273121006973418e-05   -0.00013229978741550986
-7.060791700024e-05   1.0273121006973418e-05   -0.00013229978741550986
-7.060791700024e-05   1.0273121006973418e-05   -0.00013229978741550986
-7.060791700024e-05   1.0273121006973418e-05   -0.00013229978741550986
-8.276244393020478e-05   1.4710791899640724e-05   -0.00015122263753287448
-8.276244393020478e-05   1.4710791899640724e-05   -0.00015122263753287448
-8.276244393020478e-05   1.4710791899640724e-05   -0.00015122263753287448
-8.276244393020478e-05   1.4710791899640724e-05   -0.00015122263753287448
-5.8808031327637895e-05   9.033744334248188e-06   -0.00011470484506783188
-5.8808031327637895e-05   9.033744334248188e-06   -0.00011470484506783188
-5.8808031327637895e-05   9.033744334248188e-06   -0.00011470484506783188
-5.8808031327637895e-05   9.033744334248188e-06   -0.00011470484506783188
-5.78994207579017e-05   1.948910344401521e-05   -0.00015213018644986802
-5.78994207579017e-05   1.948910344401521e-05   -0.00015213018644986802
-5.78994207579017e-05   1.948910344401521e-05   -0.00015213018644986802
-5.78994207579017e-05   1.948910344401521e-05   -0.00015213018644986802
-8.09867535953862e-05   1.3453792920540934e-05   -0.00011003011207330821
-8.09867535953862e-05   1.3453792920540934e-05   -0.00011003011207330821
-8.09867535953862e-05   1.3453792920540934e-05   -0.00011003011207330821
-8.09867535953862e-05   1.3453792920540934e-05   -0.00011003011207330821
-6.952874259382754e-05   1.4115352045929175e-05   -0.00012952373255113812
-6.952874259382754e-05   1.4115352045929175e-05   -0.00012952373255113812
-6.952874259382754e-05   1.4115352045929175e-05   -0.00012952373255113812
-6.952874259382754e-05   1.4115352045929175e-05   -0.00012952373255113812
-8.098675359538587e-05   1.948910344401521e-05   -0.00014850900013578224
-8.098675359538587e-05   1.948910344401521e-05   -0.00014850900013578224
-8.098675359538587e-05   1.948910344401521e-05   -0.00014850900013578224
-8.098675359538587e-05   1.948910344401521e-05   -0.00014850900013578224
-5.789942075790154e-05   1.3453792920540067e-05   -0.00011365129838739269
-5.789942075790154e-05   1.3453792920540067e-05   -0.00011365129838739269
-5.789942075790154e-05   1.3453792920540067e-05   -0.00011365129838739269
-5.789942075790154e-05   1.3453792920540067e-05   -0.00011365129838739269
-5.708846308640685e-05   2.4674087671123102e-05   -0.0001536044996173951
-5.708846308640685e-05   2.4674087671123102e-05   -0.0001536044996173951
-5.708846308640685e-05   2.4674087671123102e-05   -0.0001536044996173951
-5.708846308640685e-05   2.4674087671123102e-05   -0.0001536044996173951
-7.976823735913953e-05   1.8360226333480854e-05   -0.00011201655902692061
-7.976823735913953e-05   1.8360226333480854e-05   -0.00011201655902692061
-7.976823735913953e-05   1.8360226333480854e-05   -0.00011201655902692061
-7.976823735913953e-05   1.8360226333480854e-05   -0.00011201655902692061
-6.909741646690443e-05   1.8001479672913497e-05   -0.00012958601251764046
-6.909741646690443e-05   1.8001479672913497e-05   -0.00012958601251764046
-6.909741646690443e-05   1.8001479672913497e-05   -0.00012958601251764046
-6.909741646690443e-05   1.8001479672913497e-05   -0.00012958601251764046
-5.963166965173699e-05   1.6119485051310951e-06   -0.0001753483755078714
-5.963166965173699e-05   1.6119485051310951e-06   -0.0001753483755078714
-5.963166965173699e-05   1.6119485051310951e-06   -0.0001753483755078714
-5.963166965173699e-05   1.6119485051310951e-06   -0.0001753483755078714
-3.5897539728720706e-05   2.4281663454066987e-06   -0.00013530176159867995
-3.5897539728720706e-05   2.4281663454066987e-06   -0.00013530176159867995
-3.5897539728720706e-05   2.4281663454066987e-06   -0.00013530176159867995
-3.5897539728720706e-05   2.4281663454066987e-06   -0.00013530176159867995
-3.5093057538470825e-05   6.892028428856153e-06   -0.00017316015349820406
-3.5093057538470825e-05   6.892028428856153e-06   -0.00017316015349820406
-3.5093057538470825e-05   6.892028428856153e-06   -0.00017316015349820406
-3.5093057538470825e-05   6.892028428856153e-06   -0.00017316015349820406
-5.8808031327637895e-05   7.269598509078955e-06   -0.00013386173923105764
-5.8808031327637895e-05   7.269598509078955e-06   -0.00013386173923105764
-5.8808031327637895e-05   7.269598509078955e-06   -0.00013386173923105764
-5.8808031327637895e-05   7.269598509078955e-06   -0.00013386173923105764
-4.7054793337592926e-05   5.22114498196103e-06   -0.00015222139709819863
-4.7054793337592926e-05   5.22114498196103e-06   -0.00015222139709819863
-4.7054793337592926e-05   5.22114498196103e-06   -0.00015222139709819863
-4.7054793337592926e-05   5.22114498196103e-06   -0.00015222139709819863
-5.880803132763779e-05   6.892028428856587e-06   -0.00017338669554633687
-5.880803132763779e-05   6.892028428856587e-06   -0.00017338669554633687
-5.880803132763779e-05   6.892028428856587e-06   -0.00017338669554633687
-5.880803132763779e-05   6.892028428856587e-06   -0.00017338669554633687
-3.5093057538470825e-05   7.269598509078955e-06   -0.00013363519718292516
-3.5093057538470825e-05   7.269598509078955e-06   -0.00013363519718292516
-3.5093057538470825e-05   7.269598509078955e-06   -0.00013363519718292516
-3.5093057538470825e-05   7.269598509078955e-06   -0.00013363519718292516
-3.419117115690716e-05   1.2188902818128632e-05   -0.0001736179374307767
-3.419117115690716e-05   1.2188902818128632e-05   -0.0001736179374307767
-3.419117115690716e-05   1.2188902818128632e-05   -0.0001736179374307767
-3.419117115690716e-05   1.2188902818128632e-05   -0.0001736179374307767
-5.789942075790154e-05   1.2153706321150863e-05   -0.00013408307019759905
-5.789942075790154e-05   1.2153706321150863e-05   -0.00013408307019759905
-5.789942075790154e-05   1.2153706321150863e-05   -0.00013408307019759905
-5.789942075790154e-05   1.2153706321150863e-05   -0.00013408307019759905
-4.651005257459583e-05   9.376795531802935e-06   -0.00015139920402949944
-4.651005257459583e-05   9.376795531802935e-06   -0.00015139920402949944
-4.651005257459583e-05   9.376795531802935e-06   -0.00015139920402949944
-4.651005257459583e-05   9.376795531802935e-06   -0.00015139920402949944
-5.789942075790143e-05   1.2188902818128199e-05   -0.00017359681953258961
-5.789942075790143e-05   1.2188902818128199e-05   -0.00017359681953258961
-5.789942075790143e-05   1.2188902818128199e-05   -0.00017359681953258961
-5.789942075790143e-05   1.2188902818128199e-05   -0.00017359681953258961
-3.419117115690722e-05   1.2153706321149996e-05   -0.00013410418809578582
-3.419117115690722e-05   1.2153706321149996e-05   -0.00013410418809578582
-3.419117115690722e-05   1.2153706321149996e-05   -0.00013410418809578582
-3.419117115690722e-05   1.2153706321149996e-05   -0.00013410418809578582
-3.3379967924130745e-05   1.7578390867949416e-05   -0.00017654143160037708
-3.3379967924130745e-05   1.7578390867949416e-05   -0.00017654143160037708
-3.3379967924130745e-05   1.7578390867949416e-05   -0.00017654143160037708
-3.3379967924130745e-05   1.7578390867949416e-05   -0.00017654143160037708
-5.7088463086406955e-05   1.7111218691395064e-05   -0.0001367469696906497
-5.7088463086406955e-05   1.7111218691395064e-05   -0.0001367469696906497
-5.7088463086406955e-05   1.7111218691395064e-05   -0.0001367469696906497
-5.7088463086406955e-05   1.7111218691395064e-05   -0.0001367469696906497
-4.6056501145322134e-05   1.3587600131842459e-05   -0.0001530194017900614
-4.6056501145322134e-05   1.3587600131842459e-05   -0.0001530194017900614
-4.6056501145322134e-05   1.3587600131842459e-05   -0.0001530194017900614
-4.6056501145322134e-05   1.3587600131842459e-05   -0.0001530194017900614
-3.5897539728720584e-05   -5.564195032711772e-06   -0.00015373186031991887
-3.5897539728720584e-05   -5.564195032711772e-06   -0.00015373186031991887
-3.5897539728720584e-05   -5.564195032711772e-06   -0.00015373186031991887
-3.5897539728720584e-05   -5.564195032711772e-06   -0.00015373186031991887
-1.2840572394529255e-05   9.98824381376849e-07   -0.0001113657697811468
-1.2840572394529255e-05   9.98824381376849e-07   -0.0001113657697811468
-1.2840572394529255e-05   9.98824381376849e-07   -0.0001113657697811468
-1.2840572394529255e-05   9.98824381376849e-07   -0.0001113657697811468
-1.1646270510848235e-05   -5.963670664369848e-07   -0.00014881340045854114
-1.1646270510848235e-05   -5.963670664369848e-07   -0.00014881340045854114
-1.1646270510848235e-05   -5.963670664369848e-07   -0.00014881340045854114
-1.1646270510848235e-05   -5.963670664369848e-07   -0.00014881340045854114
-3.5093057538470764e-05   5.684108743595449e-06   -0.00011350370756518845
-3.5093057538470764e-05   5.684108743595449e-06   -0.00011350370756518845
-3.5093057538470764e-05   5.684108743595449e-06   -0.00011350370756518845
-3.5093057538470764e-05   5.684108743595449e-06   -0.00011350370756518845
-2.3628829941316685e-05   6.210044502710094e-07   -0.00012957289098445342
-2.3628829941316685e-05   6.210044502710094e-07   -0.00012957289098445342
-2.3628829941316685e-05   6.210044502710094e-07   -0.00012957289098445342
-2.3628829941316685e-05   6.210044502710094e-07   -0.00012957289098445342
-3.50930575384707e-05   -5.963670664369848e-07   -0.00015258168594456
-3.50930575384707e-05   -5.963670664369848e-07   -0.00015258168594456
-3.50930575384707e-05   -5.963670664369848e-07   -0.00015258168594456
-3.50930575384707e-05   -5.963670664369848e-07   -0.00015258168594456
-1.164627051084829e-05   5.684108743594582e-06   -0.00010973542207916992
-1.164627051084829e-05   5.684108743594582e-06   -0.00010973542207916992
-1.164627051084829e-05   5.684108743594582e-06   -0.00010973542207916992
-1.164627051084829e-05   5.684108743594582e-06   -0.00010973542207916992
-9.885581987674908e-06   4.187929478417524e-06   -0.00015083407261476953
-9.885581987674908e-06   4.187929478417524e-06   -0.00015083407261476953
-9.885581987674908e-06   4.187929478417524e-06   -0.00015083407261476953
-9.885581987674908e-06   4.187929478417524e-06   -0.00015083407261476953
-3.419117115690716e-05   1.010368715566052e-05   -0.00011387421193906154
-3.419117115690716e-05   1.010368715566052e-05   -0.00011387421193906154
-3.419117115690716e-05   1.010368715566052e-05   -0.00011387421193906154
-3.419117115690716e-05   1.010368715566052e-05   -0.00011387421193906154
-2.2902988298590865e-05   4.401204912810042e-06   -0.00012926636069054542
-2.2902988298590865e-05   4.401204912810042e-06   -0.00012926636069054542
-2.2902988298590865e-05   4.401204912810042e-06   -0.00012926636069054542
-2.2902988298590865e-05   4.401204912810042e-06   -0.00012926636069054542
-3.419117115690707e-05   4.187929478417524e-06   -0.00015438352722111498
-3.419117115690707e-05   4.187929478417524e-06   -0.00015438352722111498
-3.419117115690707e-05   4.187929478417524e-06   -0.00015438352722111498
-3.419117115690707e-05   4.187929478417524e-06   -0.00015438352722111498
-9.885581987674962e-06   1.010368715566052e-05   -0.00011032475733271582
-9.885581987674962e-06   1.010368715566052e-05   -0.00011032475733271582
-9.885581987674962e-06   1.010368715566052e-05   -0.00011032475733271582
-9.885581987674962e-06   1.010368715566052e-05   -0.00011032475733271582
-8.654148743525826e-06   9.677078045161516e-06   -0.00015505402011700047
-8.654148743525826e-06   9.677078045161516e-06   -0.00015505402011700047
-8.654148743525826e-06   9.677078045161516e-06   -0.00015505402011700047
-8.654148743525826e-06   9.677078045161516e-06   -0.00015505402011700047
-3.3379967924130745e-05   1.5106663120356342e-05   -0.0001171020725277757
-3.3379967924130745e-05   1.5106663120356342e-05   -0.0001171020725277757
-3.3379967924130745e-05   1.5106663120356342e-05   -0.0001171020725277757
-3.3379967924130745e-05   1.5106663120356342e-05   -0.0001171020725277757
-2.214089168594335e-05   8.36884783668012e-06   -0.00013179117708788214
-2.214089168594335e-05   8.36884783668012e-06   -0.00013179117708788214
-2.214089168594335e-05   8.36884783668012e-06   -0.00013179117708788214
-2.214089168594335e-05   8.36884783668012e-06   -0.00013179117708788214
-1.2840572394529255e-05   -1.0255937640430823e-05   -8.349893683206244e-05
-1.2840572394529255e-05   -1.0255937640430823e-05   -8.349893683206244e-05
-1.2840572394529255e-05   -1.0255937640430823e-05   -8.349893683206244e-05
-1.2840572394529255e-05   -1.0255937640430823e-05   -8.349893683206244e-05
4.374155349919258e-06   1.3413902032032715e-06   -4.7849327218468015e-05
4.374155349919258e-06   1.3413902032032715e-06   -4.7849327218468015e-05
4.374155349919258e-06   1.3413902032032715e-06   -4.7849327218468015e-05
4.374155349919258e-06   1.3413902032032715e-06   -4.7849327218468015e-05
1.0594769729517701e-05   -6.898211498869607e-06   -7.985123286089455e-05
1.0594769729517701e-05   -6.898211498869607e-06   -7.985123286089455e-05
1.0594769729517701e-05   -6.898211498869607e-06   -7.985123286089455e-05
1.0594769729517701e-05   -6.898211498869607e-06   -7.985123286089455e-05
-1.1646270510848235e-05   5.0390438780262975e-06   -4.994518568642058e-05
-1.1646270510848235e-05   5.0390438780262975e-06   -4.994518568642058e-05
-1.1646270510848235e-05   5.0390438780262975e-06   -4.994518568642058e-05
-1.1646270510848235e-05   5.0390438780262975e-06   -4.994518568642058e-05
-2.32841539440611e-06   -2.1886710884011853e-06   -6.113831523396954e-05
-2.32841539440611e-06   -2.1886710884011853e-06   -6.113831523396954e-05
-2.32841539440611e-06   -2.1886710884011853e-06   -6.113831523396954e-05
-2.32841539440611e-06   -2.1886710884011853e-06   -6.113831523396954e-05
-1.1646270510848235e-05   -6.898211498869173e-06   -8.701358608703127e-05
-1.1646270510848235e-05   -6.898211498869173e-06   -8.701358608703127e-05
-1.1646270510848235e-05   -6.898211498869173e-06   -8.701358608703127e-05
-1.1646270510848235e-05   -6.898211498869173e-06   -8.701358608703127e-05
1.0594769729517701e-05   5.0390438780262975e-06   -4.278283246028332e-05
1.0594769729517701e-05   5.0390438780262975e-06   -4.278283246028332e-05
1.0594769729517701e-05   5.0390438780262975e-06   -4.278283246028332e-05
1.0594769729517701e-05   5.0390438780262975e-06   -4.278283246028332e-05
1.550466875044343e-05   -4.5738244821447865e-06   -8.424934674533513e-05
1.550466875044343e-05   -4.5738244821447865e-06   -8.424934674533513e-05
1.550466875044343e-05   -4.5738244821447865e-06   -8.424934674533513e-05
1.550466875044343e-05   -4.5738244821447865e-06   -8.424934674533513e-05
-9.885581987674962e-06   7.121492182438592e-06   -4.894945218055348e-05
-9.885581987674962e-06   7.121492182438592e-06   -4.894945218055348e-05
-9.885581987674962e-06   7.121492182438592e-06   -4.894945218055348e-05
-9.885581987674962e-06   7.121492182438592e-06   -4.894945218055348e-05
8.458470340319405e-07   -4.231738564113019e-07   -6.230836759342116e-05
8.458470340319405e-07   -4.231738564113019e-07   -6.230836759342116e-05
8.458470340319405e-07   -4.231738564113019e-07   -6.230836759342116e-05
8.458470340319405e-07   -4.231738564113019e-07   -6.230836759342116e-05
-9.885581987674908e-06   -4.573824482144353e-06   -9.126653674408451e-05
-9.885581987674908e-06   -4.573824482144353e-06   -9.126653674408451e-05
-9.885581987674908e-06   -4.573824482144353e-06   -9.126653674408451e-05
-9.885581987674908e-06   -4.573824482144353e-06   -9.126653674408451e-05
1.550466875044343e-05   7.121492182438592e-06   -4.1932262181803345e-05
1.550466875044343e-05   7.121492182438592e-06   -4.1932262181803345e-05
1.550466875044343e-05   7.121492182438592e-06   -4.1932262181803345e-05
1.550466875044343e-05   7.121492182438592e-06   -4.1932262181803345e-05
2.168848616304858e-05   7.549433356235369e-09   -9.443046679378088e-05
2.168848616304858e-05   7.549433356235369e-09   -9.443046679378088e-05
2.168848616304858e-05   7.549433356235369e-09   -9.443046679378088e-05
2.168848616304858e-05   7.549433356235369e-09   -9.443046679378088e-05
-8.65414874352588e-06   1.0827967530387117e-05   -5.035165947437389e-05
-8.65414874352588e-06   1.0827967530387117e-05   -5.035165947437389e-05
-8.65414874352588e-06   1.0827967530387117e-05   -5.035165947437389e-05
-8.65414874352588e-06   1.0827967530387117e-05   -5.035165947437389e-05
3.5523503302550493e-06   1.6055367603913517e-06   -6.516236613534547e-05
3.5523503302550493e-06   1.6055367603913517e-06   -6.516236613534547e-05
3.5523503302550493e-06   1.6055367603913517e-06   -6.516236613534547e-05
3.5523503302550493e-06   1.6055367603913517e-06   -6.516236613534547e-05
-4.008926936729918e-05   7.5028645165984426e-06   -7.136021250516225e-05
-4.008926936729918e-05   7.5028645165984426e-06   -7.136021250516225e-05
-4.008926936729918e-05   7.5028645165984426e-06   -7.136021250516225e-05
-4.008926936729918e-05   7.5028645165984426e-06   -7.136021250516225e-05
-4.0281586622792744e-05   -3.436794855237943e-06   -7.824453688742026e-05
-4.0281586622792744e-05   -3.436794855237943e-06   -7.824453688742026e-05
-4.0281586622792744e-05   -3.436794855237943e-06   -7.824453688742026e-05
-4.0281586622792744e-05   -3.436794855237943e-06   -7.824453688742026e-05
-3.8243776755191505e-05   1.1656126016887543e-05   -6.703959885117836e-05
-3.8243776755191505e-05   1.1656126016887543e-05   -6.703959885117836e-05
-3.8243776755191505e-05   1.1656126016887543e-05   -6.703959885117836e-05
-3.8243776755191505e-05   1.1656126016887543e-05   -6.703959885117836e-05
-3.31468114727093e-05   -7.015564877383557e-08   -6.849877198925134e-05
-3.31468114727093e-05   -7.015564877383557e-08   -6.849877198925134e-05
-3.31468114727093e-05   -7.015564877383557e-08   -6.849877198925134e-05
-3.31468114727093e-05   -7.015564877383557e-08   -6.849877198925134e-05
-3.6280527091057404e-05   5.163351172315055e-06   -6.641601671799452e-05
-3.6280527091057404e-05   5.163351172315055e-06   -6.641601671799452e-05
-3.6280527091057404e-05   5.163351172315055e-06   -6.641601671799452e-05
-3.6280527091057404e-05   5.163351172315055e-06   -6.641601671799452e-05
-3.314681147270908e-05   1.1656126016887543e-05   -6.0003829851781355e-05
-3.314681147270908e-05   1.1656126016887543e-05   -6.0003829851781355e-05
-3.314681147270908e-05   1.1656126016887543e-05   -6.0003829851781355e-05
-3.314681147270908e-05   1.1656126016887543e-05   -6.0003829851781355e-05
-3.8243776755191613e-05   -7.015564877383557e-08   -7.553454098864899e-05
-3.8243776755191613e-05   -7.015564877383557e-08   -7.553454098864899e-05
-3.8243776755191613e-05   -7.015564877383557e-08   -7.553454098864899e-05
-3.8243776755191613e-05   -7.015564877383557e-08   -7.553454098864899e-05
-3.5677381616183116e-05   1.3748480502785189e-05   -6.221641526523922e-05
-3.5677381616183116e-05   1.3748480502785189e-05   -6.221641526523922e-05
-3.5677381616183116e-05   1.3748480502785189e-05   -6.221641526523922e-05
-3.5677381616183116e-05   1.3748480502785189e-05   -6.221641526523922e-05
-2.7394036737058087e-05   1.8272950219454936e-06   -6.886927877527635e-05
-2.7394036737058087e-05   1.8272950219454936e-06   -6.886927877527635e-05
-2.7394036737058087e-05   1.8272950219454936e-06   -6.886927877527635e-05
-2.7394036737058087e-05   1.8272950219454936e-06   -6.886927877527635e-05
-3.2982698857316937e-05   6.887932951038164e-06   -6.259122466563708e-05
-3.2982698857316937e-05   6.887932951038164e-06   -6.259122466563708e-05
-3.2982698857316937e-05   6.887932951038164e-06   -6.259122466563708e-05
-3.2982698857316937e-05   6.887932951038164e-06   -6.259122466563708e-05
-2.7394036737058087e-05   1.3748480502785189e-05   -5.506370397673557e-05
-2.7394036737058087e-05   1.3748480502785189e-05   -5.506370397673557e-05
-2.7394036737058087e-05   1.3748480502785189e-05   -5.506370397673557e-05
-2.7394036737058087e-05   1.3748480502785189e-05   -5.506370397673557e-05
-3.5677381616183224e-05   1.8272950219446263e-06   -7.602199006378043e-05
-3.5677381616183224e-05   1.8272950219446263e-06   -7.602199006378043e-05
-3.5677381616183224e-05   1.8272950219446263e-06   -7.602199006378043e-05
-3.5677381616183224e-05   1.8272950219446263e-06   -7.602199006378043e-05
-3.3665974704376344e-05   1.7059874012880123e-05   -5.7717842125068995e-05
-3.3665974704376344e-05   1.7059874012880123e-05   -5.7717842125068995e-05
-3.3665974704376344e-05   1.7059874012880123e-05   -5.7717842125068995e-05
-3.3665974704376344e-05   1.7059874012880123e-05   -5.7717842125068995e-05
-2.0291223342806027e-05   5.614067609393918e-06   -7.314161055226118e-05
-2.0291223342806027e-05   5.614067609393918e-06   -7.314161055226118e-05
-2.0291223342806027e-05   5.614067609393918e-06   -7.314161055226118e-05
-2.0291223342806027e-05   5.614067609393918e-06   -7.314161055226118e-05
-2.8852186833249393e-05   8.531787446810872e-06   -6.06239699706382e-05
-2.8852186833249393e-05   8.531787446810872e-06   -6.06239699706382e-05
-2.8852186833249393e-05   8.531787446810872e-06   -6.06239699706382e-05
-2.8852186833249393e-05   8.531787446810872e-06   -6.06239699706382e-05
-4.0281586622792635e-05   4.274707164594535e-06   -0.0001293304338293535
-4.0281586622792635e-05   4.274707164594535e-06   -0.0001293304338293535
-4.0281586622792635e-05   4.274707164594535e-06   -0.0001293304338293535
-4.0281586622792635e-05   4.274707164594535e-06   -0.0001293304338293535
-4.614419194693748e-05   -7.673959038102113e-07   -0.00014212670454397157
-4.614419194693748e-05   -7.673959038102113e-07   -0.00014212670454397157
-4.614419194693748e-05   -7.673959038102113e-07   -0.00014212670454397157
-4.614419194693748e-05   -7.673959038102113e-07   -0.00014212670454397157
-4.44900031143264e-05   9.03374433424732e-06   -0.00012943692838552744
-4.44900031143264e-05   9.03374433424732e-06   -0.00012943692838552744
-4.44900031143264e-05   9.03374433424732e-06   -0.00012943692838552744
-4.44900031143264e-05   9.03374433424732e-06   -0.00012943692838552744
-3.824377675519172e-05   3.4758833869115435e-06   -0.00013651258908234853
-3.824377675519172e-05   3.4758833869115435e-06   -0.00013651258908234853
-3.824377675519172e-05   3.4758833869115435e-06   -0.00013651258908234853
-3.824377675519172e-05   3.4758833869115435e-06   -0.00013651258908234853
-4.1796655077828575e-05   4.928980867244595e-06   -0.00013146298369948943
-4.1796655077828575e-05   4.928980867244595e-06   -0.00013146298369948943
-4.1796655077828575e-05   4.928980867244595e-06   -0.00013146298369948943
-4.1796655077828575e-05   4.928980867244595e-06   -0.00013146298369948943
-3.8243776755191505e-05   9.03374433424732e-06   -0.00012610221181712363
-3.8243776755191505e-05   9.03374433424732e-06   -0.00012610221181712363
-3.8243776755191505e-05   9.03374433424732e-06   -0.00012610221181712363
-3.8243776755191505e-05   9.03374433424732e-06   -0.00012610221181712363
-4.449000311432629e-05   3.475883386910676e-06   -0.00013984730565075104
-4.449000311432629e-05   3.475883386910676e-06   -0.00013984730565075104
-4.449000311432629e-05   3.475883386910676e-06   -0.00013984730565075104
-4.449000311432629e-05   3.475883386910676e-06   -0.00013984730565075104
-4.277024949584854e-05   1.3453792920540934e-05   -0.00012835317670693847
-4.277024949584854e-05   1.3453792920540934e-05   -0.00012835317670693847
-4.277024949584854e-05   1.3453792920540934e-05   -0.00012835317670693847
-4.277024949584854e-05   1.3453792920540934e-05   -0.00012835317670693847
-3.5677381616183224e-05   7.556588902313775e-06   -0.0001366363007621102
-3.5677381616183224e-05   7.556588902313775e-06   -0.0001366363007621102
-3.5677381616183224e-05   7.556588902313775e-06   -0.0001366363007621102
-3.5677381616183224e-05   7.556588902313775e-06   -0.0001366363007621102
-4.0138363257835596e-05   8.343937142314337e-06   -0.00012967374030335645
-4.0138363257835596e-05   8.343937142314337e-06   -0.00012967374030335645
-4.0138363257835596e-05   8.343937142314337e-06   -0.00012967374030335645
-4.0138363257835596e-05   8.343937142314337e-06   -0.00012967374030335645
-3.5677381616183116e-05   1.3453792920540934e-05   -0.00012481485429600156
-3.5677381616183116e-05   1.3453792920540934e-05   -0.00012481485429600156
-3.5677381616183116e-05   1.3453792920540934e-05   -0.00012481485429600156
-3.5677381616183116e-05   1.3453792920540934e-05   -0.00012481485429600156
-4.2770249495848486e-05   7.556588902314643e-06   -0.00014017462317304557
-4.2770249495848486e-05   7.556588902314643e-06   -0.00014017462317304557
-4.2770249495848486e-05   7.556588902314643e-06   -0.00014017462317304557
-4.2770249495848486e-05   7.556588902314643e-06   -0.00014017462317304557
-4.114786932158044e-05   1.8360226333480854e-05   -0.00013047683484916986
-4.114786932158044e-05   1.8360226333480854e-05   -0.00013047683484916986
-4.114786932158044e-05   1.8360226333480854e-05   -0.00013047683484916986
-4.114786932158044e-05   1.8360226333480854e-05   -0.00013047683484916986
-3.366597470437645e-05   1.221156071042756e-05   -0.00013925745983734404
-3.366597470437645e-05   1.221156071042756e-05   -0.00013925745983734404
-3.366597470437645e-05   1.221156071042756e-05   -0.00013925745983734404
-3.366597470437645e-05   1.221156071042756e-05   -0.00013925745983734404
-3.86762128772658e-05   1.1920879744881444e-05   -0.0001307326543032012
-3.86762128772658e-05   1.1920879744881444e-05   -0.0001307326543032012
-3.86762128772658e-05   1.1920879744881444e-05   -0.0001307326543032012
-3.86762128772658e-05   1.1920879744881444e-05   -0.0001307326543032012
-4.614419194693732e-05   2.4281663454066987e-06   -0.0001505420978331405
-4.614419194693732e-05   2.4281663454066987e-06   -0.0001505420978331405
-4.614419194693732e-05   2.4281663454066987e-06   -0.0001505420978331405
-4.614419194693732e-05   2.4281663454066987e-06   -0.0001505420978331405
-5.235411484678309e-05   3.4870666954503124e-06   -0.00016025662912285766
-5.235411484678309e-05   3.4870666954503124e-06   -0.00016025662912285766
-5.235411484678309e-05   3.4870666954503124e-06   -0.00016025662912285766
-5.235411484678309e-05   3.4870666954503124e-06   -0.00016025662912285766
-5.0726629595407806e-05   7.269598509078955e-06   -0.00014823545513909442
-5.0726629595407806e-05   7.269598509078955e-06   -0.00014823545513909442
-5.0726629595407806e-05   7.269598509078955e-06   -0.00014823545513909442
-5.0726629595407806e-05   7.269598509078955e-06   -0.00014823545513909442
-4.449000311432629e-05   7.866877525176258e-06   -0.00015898820001722142
-4.449000311432629e-05   7.866877525176258e-06   -0.00015898820001722142
-4.449000311432629e-05   7.866877525176258e-06   -0.00015898820001722142
-4.449000311432629e-05   7.866877525176258e-06   -0.00015898820001722142
-4.8137418580586184e-05   5.943328587316651e-06   -0.00015175504487740772
-4.8137418580586184e-05   5.943328587316651e-06   -0.00015175504487740772
-4.8137418580586184e-05   5.943328587316651e-06   -0.00015175504487740772
-4.8137418580586184e-05   5.943328587316651e-06   -0.00015175504487740772
-4.4490003114326237e-05   7.269598509078955e-06   -0.00014859382254875245
-4.4490003114326237e-05   7.269598509078955e-06   -0.00014859382254875245
-4.4490003114326237e-05   7.269598509078955e-06   -0.00014859382254875245
-4.4490003114326237e-05   7.269598509078955e-06   -0.00014859382254875245
-5.0726629595407894e-05   7.866877525176258e-06   -0.0001586298326075636
-5.0726629595407894e-05   7.866877525176258e-06   -0.0001586298326075636
-5.0726629595407894e-05   7.866877525176258e-06   -0.0001586298326075636
-5.0726629595407894e-05   7.866877525176258e-06   -0.0001586298326075636
-4.9017609502683853e-05   1.2153706321150863e-05   -0.00014867082216846964
-4.9017609502683853e-05   1.2153706321150863e-05   -0.00014867082216846964
-4.9017609502683853e-05   1.2153706321150863e-05   -0.00014867082216846964
-4.9017609502683853e-05   1.2153706321150863e-05   -0.00014867082216846964
-4.277024949584854e-05   1.2343916902274321e-05   -0.0001591972151952024
-4.277024949584854e-05   1.2343916902274321e-05   -0.0001591972151952024
-4.277024949584854e-05   1.2343916902274321e-05   -0.0001591972151952024
-4.277024949584854e-05   1.2343916902274321e-05   -0.0001591972151952024
-4.6767619734914775e-05   9.685856694263868e-06   -0.00015094009533862134
-4.6767619734914775e-05   9.685856694263868e-06   -0.00015094009533862134
-4.6767619734914775e-05   9.685856694263868e-06   -0.00015094009533862134
-4.6767619734914775e-05   9.685856694263868e-06   -0.00015094009533862134
-4.2770249495848486e-05   1.2153706321150863e-05   -0.00014878494851714363
-4.2770249495848486e-05   1.2153706321150863e-05   -0.00014878494851714363
-4.2770249495848486e-05   1.2153706321150863e-05   -0.00014878494851714363
-4.2770249495848486e-05   1.2153706321150863e-05   -0.00014878494851714363
-4.9017609502683853e-05   1.2343916902274321e-05   -0.00015908308884652776
-4.9017609502683853e-05   1.2343916902274321e-05   -0.00015908308884652776
-4.9017609502683853e-05   1.2343916902274321e-05   -0.00015908308884652776
-4.9017609502683853e-05   1.2343916902274321e-05   -0.00015908308884652776
-4.7405060036593716e-05   1.7111218691395064e-05   -0.00015155618556611647
-4.7405060036593716e-05   1.7111218691395064e-05   -0.00015155618556611647
-4.7405060036593716e-05   1.7111218691395064e-05   -0.00015155618556611647
-4.7405060036593716e-05   1.7111218691395064e-05   -0.00015155618556611647
-4.114786932158049e-05   1.6882457265055863e-05   -0.00016184757990200132
-4.114786932158049e-05   1.6882457265055863e-05   -0.00016184757990200132
-4.114786932158049e-05   1.6882457265055863e-05   -0.00016184757990200132
-4.114786932158049e-05   1.6882457265055863e-05   -0.00016184757990200132
-4.5504338789886285e-05   1.3480553920087492e-05   -0.00015254565544784446
-4.5504338789886285e-05   1.3480553920087492e-05   -0.00015254565544784446
-4.5504338789886285e-05   1.3480553920087492e-05   -0.00015254565544784446
-4.5504338789886285e-05   1.3480553920087492e-05   -0.00015254565544784446
-5.23541148467829e-05   9.98824381376849e-07   -0.00012990857745403487
-5.23541148467829e-05   9.98824381376849e-07   -0.00012990857745403487
-5.23541148467829e-05   9.98824381376849e-07   -0.00012990857745403487
-5.23541148467829e-05   9.98824381376849e-07   -0.00012990857745403487
-5.888571698559682e-05   7.7631927801209e-06   -0.00013673595997947853
-5.888571698559682e-05   7.7631927801209e-06   -0.00013673595997947853
-5.888571698559682e-05   7.7631927801209e-06   -0.00013673595997947853
-5.888571698559682e-05   7.7631927801209e-06   -0.00013673595997947853
-5.692182602192911e-05   5.684108743595449e-06   -0.00012422165132633693
-5.692182602192911e-05   5.684108743595449e-06   -0.00012422165132633693
-5.692182602192911e-05   5.684108743595449e-06   -0.00012422165132633693
-5.692182602192911e-05   5.684108743595449e-06   -0.00012422165132633693
-5.0726629595407806e-05   1.215463240196446e-05   -0.00013842929289889324
-5.0726629595407806e-05   1.215463240196446e-05   -0.00013842929289889324
-5.0726629595407806e-05   1.215463240196446e-05   -0.00013842929289889324
-5.0726629595407806e-05   1.215463240196446e-05   -0.00013842929289889324
-5.4299985409172774e-05   7.141724376723106e-06   -0.00012946595506080913
-5.4299985409172774e-05   7.141724376723106e-06   -0.00012946595506080913
-5.4299985409172774e-05   7.141724376723106e-06   -0.00012946595506080913
-5.4299985409172774e-05   7.141724376723106e-06   -0.00012946595506080913
-5.072662959540771e-05   5.684108743595449e-06   -0.00012810396552135825
-5.072662959540771e-05   5.684108743595449e-06   -0.00012810396552135825
-5.072662959540771e-05   5.684108743595449e-06   -0.00012810396552135825
-5.072662959540771e-05   5.684108743595449e-06   -0.00012810396552135825
-5.692182602192911e-05   1.215463240196446e-05   -0.000134546978703872
-5.692182602192911e-05   1.215463240196446e-05   -0.000134546978703872
-5.692182602192911e-05   1.215463240196446e-05   -0.000134546978703872
-5.692182602192911e-05   1.215463240196446e-05   -0.000134546978703872
-5.439610768481442e-05   1.0103687155659652e-05   -0.00012477727618999792
-5.439610768481442e-05   1.0103687155659652e-05   -0.00012477727618999792
-5.439610768481442e-05   1.0103687155659652e-05   -0.00012477727618999792
-5.439610768481442e-05   1.0103687155659652e-05   -0.00012477727618999792
-4.901760950268377e-05   1.620963685857249e-05   -0.0001374050096486292
-4.901760950268377e-05   1.620963685857249e-05   -0.0001374050096486292
-4.901760950268377e-05   1.620963685857249e-05   -0.0001374050096486292
-4.901760950268377e-05   1.620963685857249e-05   -0.0001374050096486292
-5.2545636104824284e-05   1.062243757218341e-05   -0.00012817264573989707
-5.2545636104824284e-05   1.062243757218341e-05   -0.00012817264573989707
-5.2545636104824284e-05   1.062243757218341e-05   -0.00012817264573989707
-5.2545636104824284e-05   1.062243757218341e-05   -0.00012817264573989707
-4.9017609502683637e-05   1.0103687155659652e-05   -0.00012844084601174423
-4.9017609502683637e-05   1.0103687155659652e-05   -0.00012844084601174423
-4.9017609502683637e-05   1.0103687155659652e-05   -0.00012844084601174423
-4.9017609502683637e-05   1.0103687155659652e-05   -0.00012844084601174423
-5.439610768481453e-05   1.6209636858573358e-05   -0.0001337414398268821
-5.439610768481453e-05   1.6209636858573358e-05   -0.0001337414398268821
-5.439610768481453e-05   1.6209636858573358e-05   -0.0001337414398268821
-5.439610768481453e-05   1.6209636858573358e-05   -0.0001337414398268821
-5.24088204772817e-05   1.5106663120356342e-05   -0.00012823893535734206
-5.24088204772817e-05   1.5106663120356342e-05   -0.00012823893535734206
-5.24088204772817e-05   1.5106663120356342e-05   -0.00012823893535734206
-5.24088204772817e-05   1.5106663120356342e-05   -0.00012823893535734206
-4.7405060036593716e-05   2.0760079353635517e-05   -0.00013997058583178925
-4.7405060036593716e-05   2.0760079353635517e-05   -0.00013997058583178925
-4.7405060036593716e-05   2.0760079353635517e-05   -0.00013997058583178925
-4.7405060036593716e-05   2.0760079353635517e-05   -0.00013997058583178925
-5.1221331720023184e-05   1.4184869377900818e-05   -0.00012966500704063126
-5.1221331720023184e-05   1.4184869377900818e-05   -0.00012966500704063126
-5.1221331720023184e-05   1.4184869377900818e-05   -0.00012966500704063126
-5.1221331720023184e-05   1.4184869377900818e-05   -0.00012966500704063126
-5.88857169855966e-05   1.3413902032032715e-06   -6.92919105582902e-05
-5.88857169855966e-05   1.3413902032032715e-06   -6.92919105582902e-05
-5.88857169855966e-05   1.3413902032032715e-06   -6.92919105582902e-05
-5.88857169855966e-05   1.3413902032032715e-06   -6.92919105582902e-05
-7.108865540634516e-05   1.3021891851264927e-05   -8.262184027070085e-05
-7.108865540634516e-05   1.3021891851264927e-05   -8.262184027070085e-05
-7.108865540634516e-05   1.3021891851264927e-05   -8.262184027070085e-05
-7.108865540634516e-05   1.3021891851264927e-05   -8.262184027070085e-05
-6.419199561190033e-05   5.0390438780262975e-06   -5.725613384604698e-05
-6.419199561190033e-05   5.0390438780262975e-06   -5.725613384604698e-05
-6.419199561190033e-05   5.0390438780262975e-06   -5.725613384604698e-05
-6.419199561190033e-05   5.0390438780262975e-06   -5.725613384604698e-05
-5.6921826021929004e-05   1.6997845690596043e-05   -7.654836425020635e-05
-5.6921826021929004e-05   1.6997845690596043e-05   -7.654836425020635e-05
-5.6921826021929004e-05   1.6997845690596043e-05   -7.654836425020635e-05
-5.6921826021929004e-05   1.6997845690596043e-05   -7.654836425020635e-05
-6.023121411269014e-05   9.587691561764589e-06   -6.658662495497404e-05
-6.023121411269014e-05   9.587691561764589e-06   -6.658662495497404e-05
-6.023121411269014e-05   9.587691561764589e-06   -6.658662495497404e-05
-6.023121411269014e-05   9.587691561764589e-06   -6.658662495497404e-05
-5.692182602192884e-05   5.0390438780262975e-06   -6.44314149335877e-05
-5.692182602192884e-05   5.0390438780262975e-06   -6.44314149335877e-05
-5.692182602192884e-05   5.0390438780262975e-06   -6.44314149335877e-05
-5.692182602192884e-05   5.0390438780262975e-06   -6.44314149335877e-05
-6.419199561190022e-05   1.6997845690595176e-05   -6.93730831626653e-05
-6.419199561190022e-05   1.6997845690595176e-05   -6.93730831626653e-05
-6.419199561190022e-05   1.6997845690595176e-05   -6.93730831626653e-05
-6.419199561190022e-05   1.6997845690595176e-05   -6.93730831626653e-05
-5.8582519159083185e-05   7.1214921824394595e-06   -5.638358428454579e-05
-5.8582519159083185e-05   7.1214921824394595e-06   -5.638358428454579e-05
-5.8582519159083185e-05   7.1214921824394595e-06   -5.638358428454579e-05
-5.8582519159083185e-05   7.1214921824394595e-06   -5.638358428454579e-05
-5.439610768481442e-05   1.881880343792327e-05   -7.037932349495042e-05
-5.439610768481442e-05   1.881880343792327e-05   -7.037932349495042e-05
-5.439610768481442e-05   1.881880343792327e-05   -7.037932349495042e-05
-5.439610768481442e-05   1.881880343792327e-05   -7.037932349495042e-05
-5.726091942739558e-05   1.1422201451345704e-05   -6.116667606536957e-05
-5.726091942739558e-05   1.1422201451345704e-05   -6.116667606536957e-05
-5.726091942739558e-05   1.1422201451345704e-05   -6.116667606536957e-05
-5.726091942739558e-05   1.1422201451345704e-05   -6.116667606536957e-05
-5.439610768481431e-05   7.1214921824394595e-06   -6.34019710378359e-05
-5.439610768481431e-05   7.1214921824394595e-06   -6.34019710378359e-05
-5.439610768481431e-05   7.1214921824394595e-06   -6.34019710378359e-05
-5.439610768481431e-05   7.1214921824394595e-06   -6.34019710378359e-05
-5.8582519159083185e-05   1.8818803437922402e-05   -6.336093674165922e-05
-5.8582519159083185e-05   1.8818803437922402e-05   -6.336093674165922e-05
-5.8582519159083185e-05   1.8818803437922402e-05   -6.336093674165922e-05
-5.8582519159083185e-05   1.8818803437922402e-05   -6.336093674165922e-05
-5.173506113294508e-05   1.0827967530387984e-05   -5.8249971852759094e-05
-5.173506113294508e-05   1.0827967530387984e-05   -5.8249971852759094e-05
-5.173506113294508e-05   1.0827967530387984e-05   -5.8249971852759094e-05
-5.173506113294508e-05   1.0827967530387984e-05   -5.8249971852759094e-05
-5.240882047728159e-05   2.1655136690884938e-05   -6.362334110849655e-05
-5.240882047728159e-05   2.1655136690884938e-05   -6.362334110849655e-05
-5.240882047728159e-05   2.1655136690884938e-05   -6.362334110849655e-05
-5.240882047728159e-05   2.1655136690884938e-05   -6.362334110849655e-05
-5.2938494082083474e-05   1.29150338250986e-05   -5.749649004768882e-05
-5.2938494082083474e-05   1.29150338250986e-05   -5.749649004768882e-05
-5.2938494082083474e-05   1.29150338250986e-05   -5.749649004768882e-05
-5.2938494082083474e-05   1.29150338250986e-05   -5.749649004768882e-05
3.466720227489968e-05   -3.436794855237943e-06   -3.64538508881131e-05
3.466720227489968e-05   -3.436794855237943e-06   -3.64538508881131e-05
3.466720227489968e-05   -3.436794855237943e-06   -3.64538508881131e-05
3.466720227489968e-05   -3.436794855237943e-06   -3.64538508881131e-05
3.4931143148888557e-06   -1.4603418097931462e-05   -9.51106381004139e-05
3.4931143148888557e-06   -1.4603418097931462e-05   -9.51106381004139e-05
3.4931143148888557e-06   -1.4603418097931462e-05   -9.51106381004139e-05
3.4931143148888557e-06   -1.4603418097931462e-05   -9.51106381004139e-05
6.291699057238702e-06   -7.015564877383557e-08   -4.019790318512701e-05
6.291699057238702e-06   -7.015564877383557e-08   -4.019790318512701e-05
6.291699057238702e-06   -7.015564877383557e-08   -4.019790318512701e-05
6.291699057238702e-06   -7.015564877383557e-08   -4.019790318512701e-05
4.241936103156546e-05   -1.1992326329643595e-05   -9.325737073381671e-05
4.241936103156546e-05   -1.1992326329643595e-05   -9.325737073381671e-05
4.241936103156546e-05   -1.1992326329643595e-05   -9.325737073381671e-05
4.241936103156546e-05   -1.1992326329643595e-05   -9.325737073381671e-05
2.0913122622762917e-05   -6.0781631569997024e-06   -6.096213795606532e-05
2.0913122622762917e-05   -6.0781631569997024e-06   -6.096213795606532e-05
2.0913122622762917e-05   -6.0781631569997024e-06   -6.096213795606532e-05
2.0913122622762917e-05   -6.0781631569997024e-06   -6.096213795606532e-05
4.241936103156546e-05   -7.015564877383557e-08   -3.3044600776605416e-05
4.241936103156546e-05   -7.015564877383557e-08   -3.3044600776605416e-05
4.241936103156546e-05   -7.015564877383557e-08   -3.3044600776605416e-05
4.241936103156546e-05   -7.015564877383557e-08   -3.3044600776605416e-05
6.291699057238702e-06   -1.1992326329642727e-05   -0.00010041067314233917
6.291699057238702e-06   -1.1992326329642727e-05   -0.00010041067314233917
6.291699057238702e-06   -1.1992326329642727e-05   -0.00010041067314233917
6.291699057238702e-06   -1.1992326329642727e-05   -0.00010041067314233917
9.587074931956719e-06   1.8272950219454936e-06   -4.0480639944668294e-05
9.587074931956719e-06   1.8272950219454936e-06   -4.0480639944668294e-05
9.587074931956719e-06   1.8272950219454936e-06   -4.0480639944668294e-05
9.587074931956719e-06   1.8272950219454936e-06   -4.0480639944668294e-05
4.898424440272285e-05   -1.0259738340359648e-05   -9.889036904522875e-05
4.898424440272285e-05   -1.0259738340359648e-05   -9.889036904522875e-05
4.898424440272285e-05   -1.0259738340359648e-05   -9.889036904522875e-05
4.898424440272285e-05   -1.0259738340359648e-05   -9.889036904522875e-05
2.5839425870569e-05   -4.8631515334914e-06   -6.35536235757629e-05
2.5839425870569e-05   -4.8631515334914e-06   -6.35536235757629e-05
2.5839425870569e-05   -4.8631515334914e-06   -6.35536235757629e-05
2.5839425870569e-05   -4.8631515334914e-06   -6.35536235757629e-05
4.898424440272285e-05   1.8272950219454936e-06   -3.3228419927285816e-05
4.898424440272285e-05   1.8272950219454936e-06   -3.3228419927285816e-05
4.898424440272285e-05   1.8272950219454936e-06   -3.3228419927285816e-05
4.898424440272285e-05   1.8272950219454936e-06   -3.3228419927285816e-05
9.58707493195661e-06   -1.0259738340359648e-05   -0.0001061425890626121
9.58707493195661e-06   -1.0259738340359648e-05   -0.0001061425890626121
9.58707493195661e-06   -1.0259738340359648e-05   -0.0001061425890626121
9.58707493195661e-06   -1.0259738340359648e-05   -0.0001061425890626121
1.2309280949539194e-05   5.614067609393918e-06   -4.4289498914005035e-05
1.2309280949539194e-05   5.614067609393918e-06   -4.4289498914005035e-05
1.2309280949539194e-05   5.614067609393918e-06   -4.4289498914005035e-05
1.2309280949539194e-05   5.614067609393918e-06   -4.4289498914005035e-05
5.6869256629703355e-05   -5.886064111041214e-06   -0.00011165604601535116
5.6869256629703355e-05   -5.886064111041214e-06   -0.00011165604601535116
5.6869256629703355e-05   -5.886064111041214e-06   -0.00011165604601535116
5.6869256629703355e-05   -5.886064111041214e-06   -0.00011165604601535116
2.977887832237609e-05   -3.0860946350587046e-06   -6.818539718873146e-05
2.977887832237609e-05   -3.0860946350587046e-06   -6.818539718873146e-05
2.977887832237609e-05   -3.0860946350587046e-06   -6.818539718873146e-05
2.977887832237609e-05   -3.0860946350587046e-06   -6.818539718873146e-05
3.4931143148888557e-06   -7.673959038110786e-07   -0.00010401073064923716
3.4931143148888557e-06   -7.673959038110786e-07   -0.00010401073064923716
3.4931143148888557e-06   -7.673959038110786e-07   -0.00010401073064923716
3.4931143148888557e-06   -7.673959038110786e-07   -0.00010401073064923716
-3.3038659752465e-05   -5.81002012494964e-06   -0.00016792259529417684
-3.3038659752465e-05   -5.81002012494964e-06   -0.00016792259529417684
-3.3038659752465e-05   -5.81002012494964e-06   -0.00016792259529417684
-3.3038659752465e-05   -5.81002012494964e-06   -0.00016792259529417684
-3.057672141570087e-05   3.475883386910676e-06   -0.00010460492612325394
-3.057672141570087e-05   3.475883386910676e-06   -0.00010460492612325394
-3.057672141570087e-05   3.475883386910676e-06   -0.00010460492612325394
-3.057672141570087e-05   3.475883386910676e-06   -0.00010460492612325394
6.291699057238702e-06   -2.2390746871343153e-06   -0.00016262331873372667
6.291699057238702e-06   -2.2390746871343153e-06   -0.00016262331873372667
6.291699057238702e-06   -2.2390746871343153e-06   -0.00016262331873372667
6.291699057238702e-06   -2.2390746871343153e-06   -0.00016262331873372667
-1.3144474277169982e-05   -2.4461157911888354e-07   -0.000131426374374521
-1.3144474277169982e-05   -2.4461157911888354e-07   -0.000131426374374521
-1.3144474277169982e-05   -2.4461157911888354e-07   -0.000131426374374521
-1.3144474277169982e-05   -2.4461157911888354e-07   -0.000131426374374521
6.291699057238702e-06   3.4758833869115435e-06   -0.00010117595127882677
6.291699057238702e-06   3.4758833869115435e-06   -0.00010117595127882677
6.291699057238702e-06   3.4758833869115435e-06   -0.00010117595127882677
6.291699057238702e-06   3.4758833869115435e-06   -0.00010117595127882677
-3.057672141570087e-05   -2.2390746871351827e-06   -0.0001660522935781547
-3.057672141570087e-05   -2.2390746871351827e-06   -0.0001660522935781547
-3.057672141570087e-05   -2.2390746871351827e-06   -0.0001660522935781547
-3.057672141570087e-05   -2.2390746871351827e-06   -0.0001660522935781547
-2.8101039451971957e-05   7.556588902314643e-06   -0.00010475861169756406
-2.8101039451971957e-05   7.556588902314643e-06   -0.00010475861169756406
-2.8101039451971957e-05   7.556588902314643e-06   -0.00010475861169756406
-2.8101039451971957e-05   7.556588902314643e-06   -0.00010475861169756406
9.587074931956719e-06   1.450487144703111e-06   -0.0001639084746162128
9.587074931956719e-06   1.450487144703111e-06   -0.0001639084746162128
9.587074931956719e-06   1.450487144703111e-06   -0.0001639084746162128
9.587074931956719e-06   1.450487144703111e-06   -0.0001639084746162128
-1.0959341089947412e-05   2.682549386164544e-06   -0.0001304036852579156
-1.0959341089947412e-05   2.682549386164544e-06   -0.0001304036852579156
-1.0959341089947412e-05   2.682549386164544e-06   -0.0001304036852579156
-1.0959341089947412e-05   2.682549386164544e-06   -0.0001304036852579156
9.587074931956719e-06   7.556588902313775e-06   -0.00010109495064299827
9.587074931956719e-06   7.556588902313775e-06   -0.00010109495064299827
9.587074931956719e-06   7.556588902313775e-06   -0.00010109495064299827
9.587074931956719e-06   7.556588902313775e-06   -0.00010109495064299827
-2.8101039451971957e-05   1.450487144703111e-06   -0.00016757213567077925
-2.8101039451971957e-05   1.450487144703111e-06   -0.00016757213567077925
-2.8101039451971957e-05   1.450487144703111e-06   -0.00016757213567077925
-2.8101039451971957e-05   1.450487144703111e-06   -0.00016757213567077925
-2.5733095758173803e-05   1.2211560710426693e-05   -0.00010737553281229498
-2.5733095758173803e-05   1.2211560710426693e-05   -0.00010737553281229498
-2.5733095758173803e-05   1.2211560710426693e-05   -0.00010737553281229498
-2.5733095758173803e-05   1.2211560710426693e-05   -0.00010737553281229498
1.2309280949539194e-05   5.815446618262499e-06   -0.0001669418255365177
1.2309280949539194e-05   5.815446618262499e-06   -0.0001669418255365177
1.2309280949539194e-05   5.815446618262499e-06   -0.0001669418255365177
1.2309280949539194e-05   5.815446618262499e-06   -0.0001669418255365177
-8.531111190261795e-06   5.922758490713165e-06   -0.00013227222576032158
-8.531111190261795e-06   5.922758490713165e-06   -0.00013227222576032158
-8.531111190261795e-06   5.922758490713165e-06   -0.00013227222576032158
-8.531111190261795e-06   5.922758490713165e-06   -0.00013227222576032158
-3.303865975246505e-05   3.4870666954503124e-06   -0.00012580156997083316
-3.303865975246505e-05   3.4870666954503124e-06   -0.00012580156997083316
-3.303865975246505e-05   3.4870666954503124e-06   -0.00012580156997083316
-3.303865975246505e-05   3.4870666954503124e-06   -0.00012580156997083316
-6.926627835279171e-05   4.3977721809673395e-06   -0.00018563451101340092
-6.926627835279171e-05   4.3977721809673395e-06   -0.00018563451101340092
-6.926627835279171e-05   4.3977721809673395e-06   -0.00018563451101340092
-6.926627835279171e-05   4.3977721809673395e-06   -0.00018563451101340092
-6.678526166147696e-05   7.866877525176258e-06   -0.00012356385076203649
-6.678526166147696e-05   7.866877525176258e-06   -0.00012356385076203649
-6.678526166147696e-05   7.866877525176258e-06   -0.00012356385076203649
-6.678526166147696e-05   7.866877525176258e-06   -0.00012356385076203649
-3.057672141570093e-05   8.170160404656623e-06   -0.0001840933875660195
-3.057672141570093e-05   8.170160404656623e-06   -0.0001840933875660195
-3.057672141570093e-05   8.170160404656623e-06   -0.0001840933875660195
-3.057672141570093e-05   8.170160404656623e-06   -0.0001840933875660195
-4.962732030700259e-05   6.751070339952765e-06   -0.00015149093537502765
-4.962732030700259e-05   6.751070339952765e-06   -0.00015149093537502765
-4.962732030700259e-05   6.751070339952765e-06   -0.00015149093537502765
-4.962732030700259e-05   6.751070339952765e-06   -0.00015149093537502765
-3.057672141570093e-05   7.866877525176258e-06   -0.00012374582048972583
-3.057672141570093e-05   7.866877525176258e-06   -0.00012374582048972583
-3.057672141570093e-05   7.866877525176258e-06   -0.00012374582048972583
-3.057672141570093e-05   7.866877525176258e-06   -0.00012374582048972583
-6.678526166147696e-05   8.17016040465749e-06   -0.00018391141783833135
-6.678526166147696e-05   8.17016040465749e-06   -0.00018391141783833135
-6.678526166147696e-05   8.17016040465749e-06   -0.00018391141783833135
-6.678526166147696e-05   8.17016040465749e-06   -0.00018391141783833135
-6.426663134679267e-05   1.2343916902274321e-05   -0.00012388753543494512
-6.426663134679267e-05   1.2343916902274321e-05   -0.00012388753543494512
-6.426663134679267e-05   1.2343916902274321e-05   -0.00012388753543494512
-6.426663134679267e-05   1.2343916902274321e-05   -0.00012388753543494512
-2.8101039451972065e-05   1.216669737689937e-05   -0.0001840571902110889
-2.8101039451972065e-05   1.216669737689937e-05   -0.0001840571902110889
-2.8101039451972065e-05   1.216669737689937e-05   -0.0001840571902110889
-2.8101039451972065e-05   1.216669737689937e-05   -0.0001840571902110889
-4.7440856570533354e-05   1.0040579729612628e-05   -0.00015054849109178347
-4.7440856570533354e-05   1.0040579729612628e-05   -0.00015054849109178347
-4.7440856570533354e-05   1.0040579729612628e-05   -0.00015054849109178347
-4.7440856570533354e-05   1.0040579729612628e-05   -0.00015054849109178347
-2.8101039451972065e-05   1.2343916902274321e-05   -0.0001237812037197211
-2.8101039451972065e-05   1.2343916902274321e-05   -0.0001237812037197211
-2.8101039451972065e-05   1.2343916902274321e-05   -0.0001237812037197211
-2.8101039451972065e-05   1.2343916902274321e-05   -0.0001237812037197211
-6.426663134679257e-05   1.216669737689937e-05   -0.000184163521926314
-6.426663134679257e-05   1.216669737689937e-05   -0.000184163521926314
-6.426663134679257e-05   1.216669737689937e-05   -0.000184163521926314
-6.426663134679257e-05   1.216669737689937e-05   -0.000184163521926314
-6.18645387272306e-05   1.6882457265055863e-05   -0.00012666671639679616
-6.18645387272306e-05   1.6882457265055863e-05   -0.00012666671639679616
-6.18645387272306e-05   1.6882457265055863e-05   -0.00012666671639679616
-6.18645387272306e-05   1.6882457265055863e-05   -0.00012666671639679616
-2.5733095758173857e-05   1.623201910892942e-05   -0.00018649552511821536
-2.5733095758173857e-05   1.623201910892942e-05   -0.00018649552511821536
-2.5733095758173857e-05   1.623201910892942e-05   -0.00018649552511821536
-2.5733095758173857e-05   1.623201910892942e-05   -0.00018649552511821536
-4.5404388467355445e-05   1.3379702568748833e-05   -0.00015199864734547364
-4.5404388467355445e-05   1.3379702568748833e-05   -0.00015199864734547364
-4.5404388467355445e-05   1.3379702568748833e-05   -0.00015199864734547364
-4.5404388467355445e-05   1.3379702568748833e-05   -0.00015199864734547364
-6.926627835279184e-05   7.763192780121768e-06   -0.00010579309857539076
-6.926627835279184e-05   7.763192780121768e-06   -0.00010579309857539076
-6.926627835279184e-05   7.763192780121768e-06   -0.00010579309857539076
-6.926627835279184e-05   7.763192780121768e-06   -0.00010579309857539076
-0.00010501241372268689   1.429076708015474e-05   -0.0001614534462785278
-0.00010501241372268689   1.429076708015474e-05   -0.0001614534462785278
-0.00010501241372268689   1.429076708015474e-05   -0.0001614534462785278
-0.00010501241372268689   1.429076708015474e-05   -0.0001614534462785278
-0.00010218155338003482   1.215463240196446e-05   -9.966591058794931e-05
-0.00010218155338003482   1.215463240196446e-05   -9.966591058794931e-05
-0.00010218155338003482   1.215463240196446e-05   -9.966591058794931e-05
-0.00010218155338003482   1.215463240196446e-05   -9.966591058794931e-05
-6.678526166147696e-05   1.8316966510994494e-05   -0.00016235713058429708
-6.678526166147696e-05   1.8316966510994494e-05   -0.00016235713058429708
-6.678526166147696e-05   1.8316966510994494e-05   -0.00016235713058429708
-6.678526166147696e-05   1.8316966510994494e-05   -0.00016235713058429708
-8.521772798508368e-05   1.3658825132438664e-05   -0.00012884146855115294
-8.521772798508368e-05   1.3658825132438664e-05   -0.00012884146855115294
-8.521772798508368e-05   1.3658825132438664e-05   -0.00012884146855115294
-8.521772798508368e-05   1.3658825132438664e-05   -0.00012884146855115294
-6.678526166147705e-05   1.215463240196446e-05   -0.00010336331105336707
-6.678526166147705e-05   1.215463240196446e-05   -0.00010336331105336707
-6.678526166147705e-05   1.215463240196446e-05   -0.00010336331105336707
-6.678526166147705e-05   1.215463240196446e-05   -0.00010336331105336707
-0.00010218155338003501   1.8316966510994494e-05   -0.00015865973011888052
-0.00010218155338003501   1.8316966510994494e-05   -0.00015865973011888052
-0.00010218155338003501   1.8316966510994494e-05   -0.00015865973011888052
-0.00010218155338003501   1.8316966510994494e-05   -0.00015865973011888052
-9.880319973467743e-05   1.6209636858573358e-05   -9.876723257641346e-05
-9.880319973467743e-05   1.6209636858573358e-05   -9.876723257641346e-05
-9.880319973467743e-05   1.6209636858573358e-05   -9.876723257641346e-05
-9.880319973467743e-05   1.6209636858573358e-05   -9.876723257641346e-05
-6.426663134679267e-05   2.1946676292961854e-05   -0.00015977040355018816
-6.426663134679267e-05   2.1946676292961854e-05   -0.00015977040355018816
-6.426663134679267e-05   2.1946676292961854e-05   -0.00015977040355018816
-6.426663134679267e-05   2.1946676292961854e-05   -0.00015977040355018816
-8.237014904059515e-05   1.683419542360988e-05   -0.00012653038553890844
-8.237014904059515e-05   1.683419542360988e-05   -0.00012653038553890844
-8.237014904059515e-05   1.683419542360988e-05   -0.00012653038553890844
-8.237014904059515e-05   1.683419542360988e-05   -0.00012653038553890844
-6.42666313467926e-05   1.6209636858573358e-05   -0.00010220945623704621
-6.42666313467926e-05   1.6209636858573358e-05   -0.00010220945623704621
-6.42666313467926e-05   1.6209636858573358e-05   -0.00010220945623704621
-6.42666313467926e-05   1.6209636858573358e-05   -0.00010220945623704621
-9.880319973467743e-05   2.1946676292961854e-05   -0.00015632817988955536
-9.880319973467743e-05   2.1946676292961854e-05   -0.00015632817988955536
-9.880319973467743e-05   2.1946676292961854e-05   -0.00015632817988955536
-9.880319973467743e-05   2.1946676292961854e-05   -0.00015632817988955536
-9.598575872355817e-05   2.0760079353635517e-05   -0.00010149981924987552
-9.598575872355817e-05   2.0760079353635517e-05   -0.00010149981924987552
-9.598575872355817e-05   2.0760079353635517e-05   -0.00010149981924987552
-9.598575872355817e-05   2.0760079353635517e-05   -0.00010149981924987552
-6.18645387272306e-05   2.6014489721812133e-05   -0.0001615211654646599
-6.18645387272306e-05   2.6014489721812133e-05   -0.0001615211654646599
-6.18645387272306e-05   2.6014489721812133e-05   -0.0001615211654646599
-6.18645387272306e-05   2.6014489721812133e-05   -0.0001615211654646599
-8.044694289449453e-05   1.9967188537963962e-05   -0.00012692211114224538
-8.044694289449453e-05   1.9967188537963962e-05   -0.00012692211114224538
-8.044694289449453e-05   1.9967188537963962e-05   -0.00012692211114224538
-8.044694289449453e-05   1.9967188537963962e-05   -0.00012692211114224538
-0.00010501241372268689   1.3021891851264927e-05   -5.4770735275429944e-05
-0.00010501241372268689   1.3021891851264927e-05   -5.4770735275429944e-05
-0.00010501241372268689   1.3021891851264927e-05   -5.4770735275429944e-05
-0.00010501241372268689   1.3021891851264927e-05   -5.4770735275429944e-05
-0.00014569732760630306   2.455972922308855e-05   -0.00011565622265836267
-0.00014569732760630306   2.455972922308855e-05   -0.00011565622265836267
-0.00014569732760630306   2.455972922308855e-05   -0.00011565622265836267
-0.00014569732760630306   2.455972922308855e-05   -0.00011565622265836267
-0.00013798670779258918   1.6997845690595176e-05   -3.462542111534652e-05
-0.00013798670779258918   1.6997845690595176e-05   -3.462542111534652e-05
-0.00013798670779258918   1.6997845690595176e-05   -3.462542111534652e-05
-0.00013798670779258918   1.6997845690595176e-05   -3.462542111534652e-05
-0.00010218155338003482   2.8734304055492467e-05   -0.0001013425534885416
-0.00010218155338003482   2.8734304055492467e-05   -0.0001013425534885416
-0.00010218155338003482   2.8734304055492467e-05   -0.0001013425534885416
-0.00010218155338003482   2.8734304055492467e-05   -0.0001013425534885416
-0.00011772553415619104   2.1314223344757327e-05   -7.098387043517397e-05
-0.00011772553415619104   2.1314223344757327e-05   -7.098387043517397e-05
-0.00011772553415619104   2.1314223344757327e-05   -7.098387043517397e-05
-0.00011772553415619104   2.1314223344757327e-05   -7.098387043517397e-05
-0.00010218155338003493   1.6997845690595176e-05   -4.1667296134283334e-05
-0.00010218155338003493   1.6997845690595176e-05   -4.1667296134283334e-05
-0.00010218155338003493   1.6997845690595176e-05   -4.1667296134283334e-05
-0.00010218155338003493   1.6997845690595176e-05   -4.1667296134283334e-05
-0.00013798670779258874   2.8734304055492467e-05   -9.43006784696037e-05
-0.00013798670779258874   2.8734304055492467e-05   -9.43006784696037e-05
-0.00013798670779258874   2.8734304055492467e-05   -9.43006784696037e-05
-0.00013798670779258874   2.8734304055492467e-05   -9.43006784696037e-05
-0.00013161335727002383   1.881880343792327e-05   -2.855941725942628e-05
-0.00013161335727002383   1.881880343792327e-05   -2.855941725942628e-05
-0.00013161335727002383   1.881880343792327e-05   -2.855941725942628e-05
-0.00013161335727002383   1.881880343792327e-05   -2.855941725942628e-05
-9.880319973467727e-05   3.022830174634946e-05   -9.008871213672594e-05
-9.880319973467727e-05   3.022830174634946e-05   -9.008871213672594e-05
-9.880319973467727e-05   3.022830174634946e-05   -9.008871213672594e-05
-9.880319973467727e-05   3.022830174634946e-05   -9.008871213672594e-05
-0.00011486432310406747   2.3183967457298706e-05   -5.9093572614312166e-05
-0.00011486432310406747   2.3183967457298706e-05   -5.9093572614312166e-05
-0.00011486432310406747   2.3183967457298706e-05   -5.9093572614312166e-05
-0.00011486432310406747   2.3183967457298706e-05   -5.9093572614312166e-05
-9.880319973467743e-05   1.8818803437922402e-05   -3.5405116244481994e-05
-9.880319973467743e-05   1.8818803437922402e-05   -3.5405116244481994e-05
-9.880319973467743e-05   1.8818803437922402e-05   -3.5405116244481994e-05
-9.880319973467743e-05   1.8818803437922402e-05   -3.5405116244481994e-05
-0.0001316133572700236   3.0228301746348593e-05   -8.324301315167093e-05
-0.0001316133572700236   3.0228301746348593e-05   -8.324301315167093e-05
-0.0001316133572700236   3.0228301746348593e-05   -8.324301315167093e-05
-0.0001316133572700236   3.0228301746348593e-05   -8.324301315167093e-05
-0.00012409058308570633   2.1655136690885805e-05   -2.2254355927283937e-05
-0.00012409058308570633   2.1655136690885805e-05   -2.2254355927283937e-05
-0.00012409058308570633   2.1655136690885805e-05   -2.2254355927283937e-05
-0.00012409058308570633   2.1655136690885805e-05   -2.2254355927283937e-05
-9.598575872355817e-05   3.213891725633005e-05   -7.538599820346441e-05
-9.598575872355817e-05   3.213891725633005e-05   -7.538599820346441e-05
-9.598575872355817e-05   3.213891725633005e-05   -7.538599820346441e-05
-9.598575872355817e-05   3.213891725633005e-05   -7.538599820346441e-05
-0.00010888971567409267   2.4092671061791936e-05   -4.905165556918427e-05
-0.00010888971567409267   2.4092671061791936e-05   -4.905165556918427e-05
-0.00010888971567409267   2.4092671061791936e-05   -4.905165556918427e-05
-0.00010888971567409267   2.4092671061791936e-05   -4.905165556918427e-05
0.000111151585116909   -1.4603418097931462e-05   -1.4005693664753335e-06
0.000111151585116909   -1.4603418097931462e-05   -1.4005693664753335e-06
0.000111151585116909   -1.4603418097931462e-05   -1.4005693664753335e-06
0.000111151585116909   -1.4603418097931462e-05   -1.4005693664753335e-06
4.746877362142728e-05   -2.641722073547237e-05   -0.00011462687010813663
4.746877362142728e-05   -2.641722073547237e-05   -0.00011462687010813663
4.746877362142728e-05   -2.641722073547237e-05   -0.00011462687010813663
4.746877362142728e-05   -2.641722073547237e-05   -0.00011462687010813663
5.0885742876089174e-05   -1.1992326329643595e-05   -1.3117693018433428e-05
5.0885742876089174e-05   -1.1992326329643595e-05   -1.3117693018433428e-05
5.0885742876089174e-05   -1.1992326329643595e-05   -1.3117693018433428e-05
5.0885742876089174e-05   -1.1992326329643595e-05   -1.3117693018433428e-05
0.00011965092899196106   -2.455955768892147e-05   -0.00012018599772932134
0.00011965092899196106   -2.455955768892147e-05   -0.00012018599772932134
0.00011965092899196106   -2.455955768892147e-05   -0.00012018599772932134
0.00011965092899196106   -2.455955768892147e-05   -0.00012018599772932134
7.897554894603469e-05   -1.7386822339129394e-05   -5.6697338862652e-05
7.897554894603469e-05   -1.7386822339129394e-05   -5.6697338862652e-05
7.897554894603469e-05   -1.7386822339129394e-05   -5.6697338862652e-05
7.897554894603469e-05   -1.7386822339129394e-05   -5.6697338862652e-05
0.00011965092899196127   -1.1992326329643595e-05   -5.577354202867223e-06
0.00011965092899196127   -1.1992326329643595e-05   -5.577354202867223e-06
0.00011965092899196127   -1.1992326329643595e-05   -5.577354202867223e-06
0.00011965092899196127   -1.1992326329643595e-05   -5.577354202867223e-06
5.0885742876089065e-05   -2.455955768892147e-05   -0.00012772633654488733
5.0885742876089065e-05   -2.455955768892147e-05   -0.00012772633654488733
5.0885742876089065e-05   -2.455955768892147e-05   -0.00012772633654488733
5.0885742876089065e-05   -2.455955768892147e-05   -0.00012772633654488733
5.4668120890852896e-05   -1.0259738340359648e-05   -1.823934947838956e-05
5.4668120890852896e-05   -1.0259738340359648e-05   -1.823934947838956e-05
5.4668120890852896e-05   -1.0259738340359648e-05   -1.823934947838956e-05
5.4668120890852896e-05   -1.0259738340359648e-05   -1.823934947838956e-05
0.00012680254376152395   -2.297392132617239e-05   -0.00013083487780468856
0.00012680254376152395   -2.297392132617239e-05   -0.00013083487780468856
0.00012680254376152395   -2.297392132617239e-05   -0.00013083487780468856
0.00012680254376152395   -2.297392132617239e-05   -0.00013083487780468856
8.536097908199515e-05   -1.6681734344015445e-05   -6.554091552810081e-05
8.536097908199515e-05   -1.6681734344015445e-05   -6.554091552810081e-05
8.536097908199515e-05   -1.6681734344015445e-05   -6.554091552810081e-05
8.536097908199515e-05   -1.6681734344015445e-05   -6.554091552810081e-05
0.00012680254376152417   -1.0259738340359648e-05   -1.0610839686902782e-05
0.00012680254376152417   -1.0259738340359648e-05   -1.0610839686902782e-05
0.00012680254376152417   -1.0259738340359648e-05   -1.0610839686902782e-05
0.00012680254376152417   -1.0259738340359648e-05   -1.0610839686902782e-05
5.466812089085279e-05   -2.297392132617239e-05   -0.00013846338759617577
5.466812089085279e-05   -2.297392132617239e-05   -0.00013846338759617577
5.466812089085279e-05   -2.297392132617239e-05   -0.00013846338759617577
5.466812089085279e-05   -2.297392132617239e-05   -0.00013846338759617577
5.780383722753387e-05   -5.886064111041214e-06   -3.0095645012062806e-05
5.780383722753387e-05   -5.886064111041214e-06   -3.0095645012062806e-05
5.780383722753387e-05   -5.886064111041214e-06   -3.0095645012062806e-05
5.780383722753387e-05   -5.886064111041214e-06   -3.0095645012062806e-05
0.00013510470659873052   -1.7947285493924436e-05   -0.00015169369446766073
0.00013510470659873052   -1.7947285493924436e-05   -0.00015169369446766073
0.00013510470659873052   -1.7947285493924436e-05   -0.00015169369446766073
0.00013510470659873052   -1.7947285493924436e-05   -0.00015169369446766073
8.885390303607507e-05   -1.4728884945410664e-05   -7.654006219234648e-05
8.885390303607507e-05   -1.4728884945410664e-05   -7.654006219234648e-05
8.885390303607507e-05   -1.4728884945410664e-05   -7.654006219234648e-05
8.885390303607507e-05   -1.4728884945410664e-05   -7.654006219234648e-05
4.746877362142739e-05   -5.81002012494964e-06   -7.827523361008011e-05
4.746877362142739e-05   -5.81002012494964e-06   -7.827523361008011e-05
4.746877362142739e-05   -5.81002012494964e-06   -7.827523361008011e-05
4.746877362142739e-05   -5.81002012494964e-06   -7.827523361008011e-05
-2.004753908796495e-05   -1.2427829807534069e-05   -0.00019477310726861811
-2.004753908796495e-05   -1.2427829807534069e-05   -0.00019477310726861811
-2.004753908796495e-05   -1.2427829807534069e-05   -0.00019477310726861811
-2.004753908796495e-05   -1.2427829807534069e-05   -0.00019477310726861811
-1.686176998559575e-05   -2.2390746871343153e-06   -7.990586924368562e-05
-1.686176998559575e-05   -2.2390746871343153e-06   -7.990586924368562e-05
-1.686176998559575e-05   -2.2390746871343153e-06   -7.990586924368562e-05
-1.686176998559575e-05   -2.2390746871343153e-06   -7.990586924368562e-05
5.0885742876089065e-05   -9.864959076906488e-06   -0.00018824286004596297
5.0885742876089065e-05   -9.864959076906488e-06   -0.00018824286004596297
5.0885742876089065e-05   -9.864959076906488e-06   -0.00018824286004596297
5.0885742876089065e-05   -9.864959076906488e-06   -0.00018824286004596297
1.5532507888358933e-05   -6.019538407498609e-06   -0.00013162805413472422
1.5532507888358933e-05   -6.019538407498609e-06   -0.00013162805413472422
1.5532507888358933e-05   -6.019538407498609e-06   -0.00013162805413472422
1.5532507888358933e-05   -6.019538407498609e-06   -0.00013162805413472422
5.0885742876089174e-05   -2.2390746871343153e-06   -7.53303386098218e-05
5.0885742876089174e-05   -2.2390746871343153e-06   -7.53303386098218e-05
5.0885742876089174e-05   -2.2390746871343153e-06   -7.53303386098218e-05
5.0885742876089174e-05   -2.2390746871343153e-06   -7.53303386098218e-05
-1.686176998559575e-05   -9.864959076906488e-06   -0.000192818390679827
-1.686176998559575e-05   -9.864959076906488e-06   -0.000192818390679827
-1.686176998559575e-05   -9.864959076906488e-06   -0.000192818390679827
-1.686176998559575e-05   -9.864959076906488e-06   -0.000192818390679827
-1.3819780770788176e-05   1.450487144703111e-06   -8.091387814793561e-05
-1.3819780770788176e-05   1.450487144703111e-06   -8.091387814793561e-05
-1.3819780770788176e-05   1.450487144703111e-06   -8.091387814793561e-05
-1.3819780770788176e-05   1.450487144703111e-06   -8.091387814793561e-05
5.466812089085279e-05   -6.730584715205004e-06   -0.0001901517378013922
5.466812089085279e-05   -6.730584715205004e-06   -0.0001901517378013922
5.466812089085279e-05   -6.730584715205004e-06   -0.0001901517378013922
5.466812089085279e-05   -6.730584715205004e-06   -0.0001901517378013922
1.806846320457511e-05   -3.7569160305436777e-06   -0.0001309365095350562
1.806846320457511e-05   -3.7569160305436777e-06   -0.0001309365095350562
1.806846320457511e-05   -3.7569160305436777e-06   -0.0001309365095350562
1.806846320457511e-05   -3.7569160305436777e-06   -0.0001309365095350562
5.4668120890852896e-05   1.450487144703111e-06   -7.600523503199091e-05
5.4668120890852896e-05   1.450487144703111e-06   -7.600523503199091e-05
5.4668120890852896e-05   1.450487144703111e-06   -7.600523503199091e-05
5.4668120890852896e-05   1.450487144703111e-06   -7.600523503199091e-05
-1.3819780770788176e-05   -6.730584715205004e-06   -0.00019506038091733797
-1.3819780770788176e-05   -6.730584715205004e-06   -0.00019506038091733797
-1.3819780770788176e-05   -6.730584715205004e-06   -0.00019506038091733797
-1.3819780770788176e-05   -6.730584715205004e-06   -0.00019506038091733797
-1.0960059795140698e-05   5.815446618262499e-06   -8.364494155403777e-05
-1.0960059795140698e-05   5.815446618262499e-06   -8.364494155403777e-05
-1.0960059795140698e-05   5.815446618262499e-06   -8.364494155403777e-05
-1.0960059795140698e-05   5.815446618262499e-06   -8.364494155403777e-05
5.780383722753387e-05   -2.7905468035181735e-06   -0.0001930878405387601
5.780383722753387e-05   -2.7905468035181735e-06   -0.0001930878405387601
5.780383722753387e-05   -2.7905468035181735e-06   -0.0001930878405387601
5.780383722753387e-05   -2.7905468035181735e-06   -0.0001930878405387601
2.1218798608810632e-05   -9.68922056209659e-07   -0.00013320575102260842
2.1218798608810632e-05   -9.68922056209659e-07   -0.00013320575102260842
2.1218798608810632e-05   -9.68922056209659e-07   -0.00013320575102260842
2.1218798608810632e-05   -9.68922056209659e-07   -0.00013320575102260842
-2.004753908796495e-05   4.3977721809673395e-06   -0.00010050425843016568
-2.004753908796495e-05   4.3977721809673395e-06   -0.00010050425843016568
-2.004753908796495e-05   4.3977721809673395e-06   -0.00010050425843016568
-2.004753908796495e-05   4.3977721809673395e-06   -0.00010050425843016568
-8.637506750963707e-05   2.150527548705483e-06   -0.00021239848591230858
-8.637506750963707e-05   2.150527548705483e-06   -0.00021239848591230858
-8.637506750963707e-05   2.150527548705483e-06   -0.00021239848591230858
-8.637506750963707e-05   2.150527548705483e-06   -0.00021239848591230858
-8.294521403729666e-05   8.170160404656623e-06   -9.983413170478513e-05
-8.294521403729666e-05   8.170160404656623e-06   -9.983413170478513e-05
-8.294521403729666e-05   8.170160404656623e-06   -9.983413170478513e-05
-8.294521403729666e-05   8.170160404656623e-06   -9.983413170478513e-05
-1.686176998559575e-05   5.024879615931482e-06   -0.00020808603665105178
-1.686176998559575e-05   5.024879615931482e-06   -0.00020808603665105178
-1.686176998559575e-05   5.024879615931482e-06   -0.00020808603665105178
-1.686176998559575e-05   5.024879615931482e-06   -0.00020808603665105178
-5.120219698538703e-05   6.02523973828456e-06   -0.0001514522077248107
-5.120219698538703e-05   6.02523973828456e-06   -0.0001514522077248107
-5.120219698538703e-05   6.02523973828456e-06   -0.0001514522077248107
-5.120219698538703e-05   6.02523973828456e-06   -0.0001514522077248107
-1.686176998559575e-05   8.170160404656623e-06   -9.794696323155074e-05
-1.686176998559575e-05   8.170160404656623e-06   -9.794696323155074e-05
-1.686176998559575e-05   8.170160404656623e-06   -9.794696323155074e-05
-1.686176998559575e-05   8.170160404656623e-06   -9.794696323155074e-05
-8.294521403729666e-05   5.024879615931482e-06   -0.0002099732051242878
-8.294521403729666e-05   5.024879615931482e-06   -0.0002099732051242878
-8.294521403729666e-05   5.024879615931482e-06   -0.0002099732051242878
-8.294521403729666e-05   5.024879615931482e-06   -0.0002099732051242878
-7.963852490704308e-05   1.216669737689937e-05   -9.968325923901365e-05
-7.963852490704308e-05   1.216669737689937e-05   -9.968325923901365e-05
-7.963852490704308e-05   1.216669737689937e-05   -9.968325923901365e-05
-7.963852490704308e-05   1.216669737689937e-05   -9.968325923901365e-05
-1.3819780770788176e-05   8.359486458952431e-06   -0.0002070968395820041
-1.3819780770788176e-05   8.359486458952431e-06   -0.0002070968395820041
-1.3819780770788176e-05   8.359486458952431e-06   -0.0002070968395820041
-1.3819780770788176e-05   8.359486458952431e-06   -0.0002070968395820041
-4.824785346012821e-05   8.715143367360803e-06   -0.00014993011257814944
-4.824785346012821e-05   8.715143367360803e-06   -0.00014993011257814944
-4.824785346012821e-05   8.715143367360803e-06   -0.00014993011257814944
-4.824785346012821e-05   8.715143367360803e-06   -0.00014993011257814944
-1.3819780770788176e-05   1.216669737689937e-05   -9.739893268824549e-05
-1.3819780770788176e-05   1.216669737689937e-05   -9.739893268824549e-05
-1.3819780770788176e-05   1.216669737689937e-05   -9.739893268824549e-05
-1.3819780770788176e-05   1.216669737689937e-05   -9.739893268824549e-05
-7.963852490704308e-05   8.359486458952431e-06   -0.00020938116613277227
-7.963852490704308e-05   8.359486458952431e-06   -0.00020938116613277227
-7.963852490704308e-05   8.359486458952431e-06   -0.00020938116613277227
-7.963852490704308e-05   8.359486458952431e-06   -0.00020938116613277227
-7.658271464268743e-05   1.623201910892942e-05   -0.0001020160815777462
-7.658271464268743e-05   1.623201910892942e-05   -0.0001020160815777462
-7.658271464268743e-05   1.623201910892942e-05   -0.0001020160815777462
-7.658271464268743e-05   1.623201910892942e-05   -0.0001020160815777462
-1.0960059795140698e-05   1.180683761341228e-05   -0.0002087320640930143
-1.0960059795140698e-05   1.180683761341228e-05   -0.0002087320640930143
-1.0960059795140698e-05   1.180683761341228e-05   -0.0002087320640930143
-1.0960059795140698e-05   1.180683761341228e-05   -0.0002087320640930143
-4.560577262160998e-05   1.147541448741525e-05   -0.00015079035550663675
-4.560577262160998e-05   1.147541448741525e-05   -0.00015079035550663675
-4.560577262160998e-05   1.147541448741525e-05   -0.00015079035550663675
-4.560577262160998e-05   1.147541448741525e-05   -0.00015079035550663675
-8.637506750963723e-05   1.429076708015474e-05   -8.158808505466953e-05
-8.637506750963723e-05   1.429076708015474e-05   -8.158808505466953e-05
-8.637506750963723e-05   1.429076708015474e-05   -8.158808505466953e-05
-8.637506750963723e-05   1.429076708015474e-05   -8.158808505466953e-05
-0.0001514099873613557   1.724828958109617e-05   -0.00018820510464030282
-0.0001514099873613557   1.724828958109617e-05   -0.00018820510464030282
-0.0001514099873613557   1.724828958109617e-05   -0.00018820510464030282
-0.0001514099873613557   1.724828958109617e-05   -0.00018820510464030282
-0.0001472799767197474   1.8316966510994494e-05   -7.672643763498993e-05
-0.0001472799767197474   1.8316966510994494e-05   -7.672643763498993e-05
-0.0001472799767197474   1.8316966510994494e-05   -7.672643763498993e-05
-0.0001472799767197474   1.8316966510994494e-05   -7.672643763498993e-05
-8.294521403729682e-05   2.0905977870598613e-05   -0.00018550444892150453
-8.294521403729682e-05   2.0905977870598613e-05   -0.00018550444892150453
-8.294521403729682e-05   2.0905977870598613e-05   -0.00018550444892150453
-8.294521403729682e-05   2.0905977870598613e-05   -0.00018550444892150453
-0.0001161464124076943   1.8463268236980183e-05   -0.00012870349252400376
-0.0001161464124076943   1.8463268236980183e-05   -0.00012870349252400376
-0.0001161464124076943   1.8463268236980183e-05   -0.00012870349252400376
-0.0001161464124076943   1.8463268236980183e-05   -0.00012870349252400376
-8.294521403729682e-05   1.8316966510994494e-05   -7.827984445075292e-05
-8.294521403729682e-05   1.8316966510994494e-05   -7.827984445075292e-05
-8.294521403729682e-05   1.8316966510994494e-05   -7.827984445075292e-05
-8.294521403729682e-05   1.8316966510994494e-05   -7.827984445075292e-05
-0.0001472799767197476   2.0905977870598613e-05   -0.00018395104210574154
-0.0001472799767197476   2.0905977870598613e-05   -0.00018395104210574154
-0.0001472799767197476   2.0905977870598613e-05   -0.00018395104210574154
-0.0001472799767197476   2.0905977870598613e-05   -0.00018395104210574154
-0.00014271882874075512   2.1946676292961854e-05   -7.402387130976858e-05
-0.00014271882874075512   2.1946676292961854e-05   -7.402387130976858e-05
-0.00014271882874075512   2.1946676292961854e-05   -7.402387130976858e-05
-0.00014271882874075512   2.1946676292961854e-05   -7.402387130976858e-05
-7.963852490704325e-05   2.4057125548163083e-05   -0.00018042398058574181
-7.963852490704325e-05   2.4057125548163083e-05   -0.00018042398058574181
-7.963852490704325e-05   2.4057125548163083e-05   -0.00018042398058574181
-7.963852490704325e-05   2.4057125548163083e-05   -0.00018042398058574181
-0.00011197807806620727   2.1306400900524165e-05   -0.0001248742905318851
-0.00011197807806620727   2.1306400900524165e-05   -0.0001248742905318851
-0.00011197807806620727   2.1306400900524165e-05   -0.0001248742905318851
-0.00011197807806620727   2.1306400900524165e-05   -0.0001248742905318851
-7.963852490704319e-05   2.1946676292961854e-05   -7.529014086288862e-05
-7.963852490704319e-05   2.1946676292961854e-05   -7.529014086288862e-05
-7.963852490704319e-05   2.1946676292961854e-05   -7.529014086288862e-05
-7.963852490704319e-05   2.1946676292961854e-05   -7.529014086288862e-05
-0.00014271882874075512   2.4057125548163083e-05   -0.0001791577110326209
-0.00014271882874075512   2.4057125548163083e-05   -0.0001791577110326209
-0.00014271882874075512   2.4057125548163083e-05   -0.0001791577110326209
-0.00014271882874075512   2.4057125548163083e-05   -0.0001791577110326209
-0.00013886232654407505   2.6014489721812133e-05   -7.57306502093746e-05
-0.00013886232654407505   2.6014489721812133e-05   -7.57306502093746e-05
-0.00013886232654407505   2.6014489721812133e-05   -7.57306502093746e-05
-0.00013886232654407505   2.6014489721812133e-05   -7.57306502093746e-05
-7.658271464268756e-05   2.7549171090379687e-05   -0.0001804508121994948
-7.658271464268756e-05   2.7549171090379687e-05   -0.0001804508121994948
-7.658271464268756e-05   2.7549171090379687e-05   -0.0001804508121994948
-7.658271464268756e-05   2.7549171090379687e-05   -0.0001804508121994948
-0.00010936349938909962   2.392758539514553e-05   -0.0001236432195383351
-0.00010936349938909962   2.392758539514553e-05   -0.0001236432195383351
-0.00010936349938909962   2.392758539514553e-05   -0.0001236432195383351
-0.00010936349938909962   2.392758539514553e-05   -0.0001236432195383351
-0.0001514099873613557   2.4559729223089417e-05   -4.093905035703477e-05
-0.0001514099873613557   2.4559729223089417e-05   -4.093905035703477e-05
-0.0001514099873613557   2.4559729223089417e-05   -4.093905035703477e-05
-0.0001514099873613557   2.4559729223089417e-05   -4.093905035703477e-05
-0.00021982487715585964   3.3989311270301095e-05   -0.0001493061174528817
-0.00021982487715585964   3.3989311270301095e-05   -0.0001493061174528817
-0.00021982487715585964   3.3989311270301095e-05   -0.0001493061174528817
-0.00021982487715585964   3.3989311270301095e-05   -0.0001493061174528817
-0.00021040086556372488   2.8734304055492467e-05   -1.3340999643683508e-05
-0.00021040086556372488   2.8734304055492467e-05   -1.3340999643683508e-05
-0.00021040086556372488   2.8734304055492467e-05   -1.3340999643683508e-05
-0.00021040086556372488   2.8734304055492467e-05   -1.3340999643683508e-05
-0.0001472799767197474   3.8848072990439395e-05   -0.00012461074241128147
-0.0001472799767197474   3.8848072990439395e-05   -0.00012461074241128147
-0.0001472799767197474   3.8848072990439395e-05   -0.00012461074241128147
-0.0001472799767197474   3.8848072990439395e-05   -0.00012461074241128147
-0.00017469152012556196   3.238454129769926e-05   -7.504671771927946e-05
-0.00017469152012556196   3.238454129769926e-05   -7.504671771927946e-05
-0.00017469152012556196   3.238454129769926e-05   -7.504671771927946e-05
-0.00017469152012556196   3.238454129769926e-05   -7.504671771927946e-05
-0.0001472799767197475   2.8734304055492467e-05   -1.9409261004651665e-05
-0.0001472799767197475   2.8734304055492467e-05   -1.9409261004651665e-05
-0.0001472799767197475   2.8734304055492467e-05   -1.9409261004651665e-05
-0.0001472799767197475   2.8734304055492467e-05   -1.9409261004651665e-05
-0.0002104008655637245   3.8848072990439395e-05   -0.00011854248105031256
-0.0002104008655637245   3.8848072990439395e-05   -0.00011854248105031256
-0.0002104008655637245   3.8848072990439395e-05   -0.00011854248105031256
-0.0002104008655637245   3.8848072990439395e-05   -0.00011854248105031256
-0.00020264468147194483   3.022830174634946e-05   -1.8477937057921959e-06
-0.00020264468147194483   3.022830174634946e-05   -1.8477937057921959e-06
-0.00020264468147194483   3.022830174634946e-05   -1.8477937057921959e-06
-0.00020264468147194483   3.022830174634946e-05   -1.8477937057921959e-06
-0.00014271882874075512   4.012265149826166e-05   -0.00010766082477558874
-0.00014271882874075512   4.012265149826166e-05   -0.00010766082477558874
-0.00014271882874075512   4.012265149826166e-05   -0.00010766082477558874
-0.00014271882874075512   4.012265149826166e-05   -0.00010766082477558874
-0.0001714316984362805   3.4308551595621864e-05   -5.6317582008127195e-05
-0.0001714316984362805   3.4308551595621864e-05   -5.6317582008127195e-05
-0.0001714316984362805   3.4308551595621864e-05   -5.6317582008127195e-05
-0.0001714316984362805   3.4308551595621864e-05   -5.6317582008127195e-05
-0.00014271882874075512   3.022830174634946e-05   -7.784403556938997e-06
-0.00014271882874075512   3.022830174634946e-05   -7.784403556938997e-06
-0.00014271882874075512   3.022830174634946e-05   -7.784403556938997e-06
-0.00014271882874075512   3.022830174634946e-05   -7.784403556938997e-06
-0.00020264468147194412   4.012265149826166e-05   -0.00010172421492444118
-0.00020264468147194412   4.012265149826166e-05   -0.00010172421492444118
-0.00020264468147194412   4.012265149826166e-05   -0.00010172421492444118
-0.00020264468147194412   4.012265149826166e-05   -0.00010172421492444118
-0.00019429272294713606   3.213891725633005e-05   1.271190154642117e-05
-0.00019429272294713606   3.213891725633005e-05   1.271190154642117e-05
-0.00019429272294713606   3.213891725633005e-05   1.271190154642117e-05
-0.00019429272294713606   3.213891725633005e-05   1.271190154642117e-05
-0.00013886232654407505   4.123896844883922e-05   -8.513212317418542e-05
-0.00013886232654407505   4.123896844883922e-05   -8.513212317418542e-05
-0.00013886232654407505   4.123896844883922e-05   -8.513212317418542e-05
-0.00013886232654407505   4.123896844883922e-05   -8.513212317418542e-05
-0.00016359593352124736   3.462541285775226e-05   -3.9941311524248607e-05
-0.00016359593352124736   3.462541285775226e-05   -3.9941311524248607e-05
-0.00016359593352124736   3.462541285775226e-05   -3.9941311524248607e-05
-0.00016359593352124736   3.462541285775226e-05   -3.9941311524248607e-05
0.00018921456359586848   -2.641722073547237e-05   3.695009875092411e-05
0.00018921456359586848   -2.641722073547237e-05   3.695009875092411e-05
0.00018921456359586848   -2.641722073547237e-05   3.695009875092411e-05
0.00018921456359586848   -2.641722073547237e-05   3.695009875092411e-05
9.131137421405867e-05   -3.9201376265785015e-05   -0.00013389237687027808
9.131137421405867e-05   -3.9201376265785015e-05   -0.00013389237687027808
9.131137421405867e-05   -3.9201376265785015e-05   -0.00013389237687027808
9.131137421405867e-05   -3.9201376265785015e-05   -0.00013389237687027808
9.510174072590812e-05   -2.455955768892147e-05   1.752253435443902e-05
9.510174072590812e-05   -2.455955768892147e-05   1.752253435443902e-05
9.510174072590812e-05   -2.455955768892147e-05   1.752253435443902e-05
9.510174072590812e-05   -2.455955768892147e-05   1.752253435443902e-05
0.00019796410241862796   -3.8275837310771874e-05   -0.00014568496736031803
0.00019796410241862796   -3.8275837310771874e-05   -0.00014568496736031803
0.00019796410241862796   -3.8275837310771874e-05   -0.00014568496736031803
0.00019796410241862796   -3.8275837310771874e-05   -0.00014568496736031803
0.00013757384980022866   -2.8943852985213736e-05   -5.0633736924986326e-05
0.00013757384980022866   -2.8943852985213736e-05   -5.0633736924986326e-05
0.00013757384980022866   -2.8943852985213736e-05   -5.0633736924986326e-05
0.00013757384980022866   -2.8943852985213736e-05   -5.0633736924986326e-05
0.00019796410241862828   -2.455955768892147e-05   2.5752302127549087e-05
0.00019796410241862828   -2.455955768892147e-05   2.5752302127549087e-05
0.00019796410241862828   -2.455955768892147e-05   2.5752302127549087e-05
0.00019796410241862828   -2.455955768892147e-05   2.5752302127549087e-05
9.510174072590802e-05   -3.8275837310771874e-05   -0.00015391473513342874
9.510174072590802e-05   -3.8275837310771874e-05   -0.00015391473513342874
9.510174072590802e-05   -3.8275837310771874e-05   -0.00015391473513342874
9.510174072590802e-05   -3.8275837310771874e-05   -0.00015391473513342874
9.887097353356098e-05   -2.297392132617239e-05   8.04131273517486e-06
9.887097353356098e-05   -2.297392132617239e-05   8.04131273517486e-06
9.887097353356098e-05   -2.297392132617239e-05   8.04131273517486e-06
9.887097353356098e-05   -2.297392132617239e-05   8.04131273517486e-06
0.0002046877177686009   -3.695039192059234e-05   -0.00015993404529990578
0.0002046877177686009   -3.695039192059234e-05   -0.00015993404529990578
0.0002046877177686009   -3.695039192059234e-05   -0.00015993404529990578
0.0002046877177686009   -3.695039192059234e-05   -0.00015993404529990578
0.00014493437373928327   -2.8850441121160836e-05   -6.520510906403605e-05
0.00014493437373928327   -2.8850441121160836e-05   -6.520510906403605e-05
0.00014493437373928327   -2.8850441121160836e-05   -6.520510906403605e-05
0.00014493437373928327   -2.8850441121160836e-05   -6.520510906403605e-05
0.0002046877177686009   -2.297392132617239e-05   1.642719509182839e-05
0.0002046877177686009   -2.297392132617239e-05   1.642719509182839e-05
0.0002046877177686009   -2.297392132617239e-05   1.642719509182839e-05
0.0002046877177686009   -2.297392132617239e-05   1.642719509182839e-05
9.887097353356098e-05   -3.695039192059234e-05   -0.00016831992765655845
9.887097353356098e-05   -3.695039192059234e-05   -0.00016831992765655845
9.887097353356098e-05   -3.695039192059234e-05   -0.00016831992765655845
9.887097353356098e-05   -3.695039192059234e-05   -0.00016831992765655845
0.00010143966435528762   -1.7947285493924436e-05   -1.1095797338540707e-05
0.00010143966435528762   -1.7947285493924436e-05   -1.1095797338540707e-05
0.00010143966435528762   -1.7947285493924436e-05   -1.1095797338540707e-05
0.00010143966435528762   -1.7947285493924436e-05   -1.1095797338540707e-05
0.0002117946653606257   -3.1768256450162916e-05   -0.0001867282164403621
0.0002117946653606257   -3.1768256450162916e-05   -0.0001867282164403621
0.0002117946653606257   -3.1768256450162916e-05   -0.0001867282164403621
0.0002117946653606257   -3.1768256450162916e-05   -0.0001867282164403621
0.0001470311803532279   -2.6639456244479873e-05   -8.186635488477748e-05
0.0001470311803532279   -2.6639456244479873e-05   -8.186635488477748e-05
0.0001470311803532279   -2.6639456244479873e-05   -8.186635488477748e-05
0.0001470311803532279   -2.6639456244479873e-05   -8.186635488477748e-05
9.131137421405878e-05   -1.2427829807534069e-05   -4.6895945918192655e-05
9.131137421405878e-05   -1.2427829807534069e-05   -4.6895945918192655e-05
9.131137421405878e-05   -1.2427829807534069e-05   -4.6895945918192655e-05
9.131137421405878e-05   -1.2427829807534069e-05   -4.6895945918192655e-05
-5.297434878399703e-06   -2.5542826538622193e-05   -0.00021577962577761043
-5.297434878399703e-06   -2.5542826538622193e-05   -0.00021577962577761043
-5.297434878399703e-06   -2.5542826538622193e-05   -0.00021577962577761043
-5.297434878399703e-06   -2.5542826538622193e-05   -0.00021577962577761043
-1.401647224334398e-06   -9.864959076906488e-06   -5.167860206794009e-05
-1.401647224334398e-06   -9.864959076906488e-06   -5.167860206794009e-05
-1.401647224334398e-06   -9.864959076906488e-06   -5.167860206794009e-05
-1.401647224334398e-06   -9.864959076906488e-06   -5.167860206794009e-05
9.510174072590812e-05   -2.433931394574436e-05   -0.00020383296906370855
9.510174072590812e-05   -2.433931394574436e-05   -0.00020383296906370855
9.510174072590812e-05   -2.433931394574436e-05   -0.00020383296906370855
9.510174072590812e-05   -2.433931394574436e-05   -0.00020383296906370855
4.5068269489159066e-05   -1.544695788450144e-05   -0.00012577926397253948
4.5068269489159066e-05   -1.544695788450144e-05   -0.00012577926397253948
4.5068269489159066e-05   -1.544695788450144e-05   -0.00012577926397253948
4.5068269489159066e-05   -1.544695788450144e-05   -0.00012577926397253948
9.510174072590802e-05   -9.864959076906488e-06   -4.2993989146636845e-05
9.510174072590802e-05   -9.864959076906488e-06   -4.2993989146636845e-05
9.510174072590802e-05   -9.864959076906488e-06   -4.2993989146636845e-05
9.510174072590802e-05   -9.864959076906488e-06   -4.2993989146636845e-05
-1.401647224334398e-06   -2.433931394574436e-05   -0.00021251758198501114
-1.401647224334398e-06   -2.433931394574436e-05   -0.00021251758198501114
-1.401647224334398e-06   -2.433931394574436e-05   -0.00021251758198501114
-1.401647224334398e-06   -2.433931394574436e-05   -0.00021251758198501114
2.032096088627625e-06   -6.730584715205004e-06   -5.285935762524511e-05
2.032096088627625e-06   -6.730584715205004e-06   -5.285935762524511e-05
2.032096088627625e-06   -6.730584715205004e-06   -5.285935762524511e-05
2.032096088627625e-06   -6.730584715205004e-06   -5.285935762524511e-05
9.887097353356098e-05   -2.2084451640544747e-05   -0.00020504516654493133
9.887097353356098e-05   -2.2084451640544747e-05   -0.00020504516654493133
9.887097353356098e-05   -2.2084451640544747e-05   -0.00020504516654493133
9.887097353356098e-05   -2.2084451640544747e-05   -0.00020504516654493133
4.773220615921441e-05   -1.4200267161413455e-05   -0.00012454439827516229
4.773220615921441e-05   -1.4200267161413455e-05   -0.00012454439827516229
4.773220615921441e-05   -1.4200267161413455e-05   -0.00012454439827516229
4.773220615921441e-05   -1.4200267161413455e-05   -0.00012454439827516229
9.887097353356098e-05   -6.730584715205004e-06   -4.364703747004178e-05
9.887097353356098e-05   -6.730584715205004e-06   -4.364703747004178e-05
9.887097353356098e-05   -6.730584715205004e-06   -4.364703747004178e-05
9.887097353356098e-05   -6.730584715205004e-06   -4.364703747004178e-05
2.032096088627625e-06   -2.2084451640543012e-05   -0.00021425748670013487
2.032096088627625e-06   -2.2084451640543012e-05   -0.00021425748670013487
2.032096088627625e-06   -2.2084451640543012e-05   -0.00021425748670013487
2.032096088627625e-06   -2.2084451640543012e-05   -0.00021425748670013487
4.481319422331115e-06   -2.7905468035199082e-06   -5.490531965568566e-05
4.481319422331115e-06   -2.7905468035199082e-06   -5.490531965568566e-05
4.481319422331115e-06   -2.7905468035199082e-06   -5.490531965568566e-05
4.481319422331115e-06   -2.7905468035199082e-06   -5.490531965568566e-05
0.00010143966435528784   -1.8877395263143873e-05   -0.0002068504521348395
0.00010143966435528784   -1.8877395263143873e-05   -0.0002068504521348395
0.00010143966435528784   -1.8877395263143873e-05   -0.0002068504521348395
0.00010143966435528784   -1.8877395263143873e-05   -0.0002068504521348395
5.090291685838383e-05   -1.1994607526398526e-05   -0.00012675221228205082
5.090291685838383e-05   -1.1994607526398526e-05   -0.00012675221228205082
5.090291685838383e-05   -1.1994607526398526e-05   -0.00012675221228205082
5.090291685838383e-05   -1.1994607526398526e-05   -0.00012675221228205082
-5.297434878399703e-06   2.150527548705483e-06   -7.104197582118079e-05
-5.297434878399703e-06   2.150527548705483e-06   -7.104197582118079e-05
-5.297434878399703e-06   2.150527548705483e-06   -7.104197582118079e-05
-5.297434878399703e-06   2.150527548705483e-06   -7.104197582118079e-05
-0.00010047843792801976   -1.3628226339384639e-05   -0.0002391442332367339
-0.00010047843792801976   -1.3628226339384639e-05   -0.0002391442332367339
-0.00010047843792801976   -1.3628226339384639e-05   -0.0002391442332367339
-0.00010047843792801976   -1.3628226339384639e-05   -0.0002391442332367339
-9.580609041765065e-05   5.024879615931482e-06   -7.729092344428007e-05
-9.580609041765065e-05   5.024879615931482e-06   -7.729092344428007e-05
-9.580609041765065e-05   5.024879615931482e-06   -7.729092344428007e-05
-9.580609041765065e-05   5.024879615931482e-06   -7.729092344428007e-05
-1.401647224334398e-06   -1.221624605926043e-05   -0.00022428698669469142
-1.401647224334398e-06   -1.221624605926043e-05   -0.00022428698669469142
-1.401647224334398e-06   -1.221624605926043e-05   -0.00022428698669469142
-1.401647224334398e-06   -1.221624605926043e-05   -0.00022428698669469142
-5.01355408857957e-05   -2.7759243320137073e-06   -0.0001487280236286046
-5.01355408857957e-05   -2.7759243320137073e-06   -0.0001487280236286046
-5.01355408857957e-05   -2.7759243320137073e-06   -0.0001487280236286046
-5.01355408857957e-05   -2.7759243320137073e-06   -0.0001487280236286046
-1.401647224334398e-06   5.024879615931482e-06   -6.694624803916475e-05
-1.401647224334398e-06   5.024879615931482e-06   -6.694624803916475e-05
-1.401647224334398e-06   5.024879615931482e-06   -6.694624803916475e-05
-1.401647224334398e-06   5.024879615931482e-06   -6.694624803916475e-05
-9.580609041765065e-05   -1.221624605926043e-05   -0.00023463166209980717
-9.580609041765065e-05   -1.221624605926043e-05   -0.00023463166209980717
-9.580609041765065e-05   -1.221624605926043e-05   -0.00023463166209980717
-9.580609041765065e-05   -1.221624605926043e-05   -0.00023463166209980717
-9.151922422641364e-05   8.359486458952431e-06   -7.591012800094773e-05
-9.151922422641364e-05   8.359486458952431e-06   -7.591012800094773e-05
-9.151922422641364e-05   8.359486458952431e-06   -7.591012800094773e-05
-9.151922422641364e-05   8.359486458952431e-06   -7.591012800094773e-05
2.032096088627625e-06   -9.997699726108089e-06   -0.00022081468348164666
2.032096088627625e-06   -9.997699726108089e-06   -0.00022081468348164666
2.032096088627625e-06   -9.997699726108089e-06   -0.00022081468348164666
2.032096088627625e-06   -9.997699726108089e-06   -0.00022081468348164666
-4.6325791781459815e-05   -1.1517278860270763e-06   -0.00014552578680221678
-4.6325791781459815e-05   -1.1517278860270763e-06   -0.00014552578680221678
-4.6325791781459815e-05   -1.1517278860270763e-06   -0.00014552578680221678
-4.6325791781459815e-05   -1.1517278860270763e-06   -0.00014552578680221678
2.032096088627625e-06   8.359486458952431e-06   -6.489581628991124e-05
2.032096088627625e-06   8.359486458952431e-06   -6.489581628991124e-05
2.032096088627625e-06   8.359486458952431e-06   -6.489581628991124e-05
2.032096088627625e-06   8.359486458952431e-06   -6.489581628991124e-05
-9.151922422641378e-05   -9.997699726109824e-06   -0.00023182899519268337
-9.151922422641378e-05   -9.997699726109824e-06   -0.00023182899519268337
-9.151922422641378e-05   -9.997699726109824e-06   -0.00023182899519268337
-9.151922422641378e-05   -9.997699726109824e-06   -0.00023182899519268337
-8.862705472632509e-05   1.180683761341228e-05   -7.720810390600234e-05
-8.862705472632509e-05   1.180683761341228e-05   -7.720810390600234e-05
-8.862705472632509e-05   1.180683761341228e-05   -7.720810390600234e-05
-8.862705472632509e-05   1.180683761341228e-05   -7.720810390600234e-05
4.481319422331115e-06   -7.89675696847257e-06   -0.00022056657073796563
4.481319422331115e-06   -7.89675696847257e-06   -0.00022056657073796563
4.481319422331115e-06   -7.89675696847257e-06   -0.00022056657073796563
4.481319422331115e-06   -7.89675696847257e-06   -0.00022056657073796563
-4.3603959589366825e-05   6.742564408745988e-07   -0.00014556704709741287
-4.3603959589366825e-05   6.742564408745988e-07   -0.00014556704709741287
-4.3603959589366825e-05   6.742564408745988e-07   -0.00014556704709741287
-4.3603959589366825e-05   6.742564408745988e-07   -0.00014556704709741287
-0.0001004784379280196   1.724828958109617e-05   -5.809036038259118e-05
-0.0001004784379280196   1.724828958109617e-05   -5.809036038259118e-05
-0.0001004784379280196   1.724828958109617e-05   -5.809036038259118e-05
-0.0001004784379280196   1.724828958109617e-05   -5.809036038259118e-05
-0.00019695800603017723   2.9962785748904874e-06   -0.00022744084715657815
-0.00019695800603017723   2.9962785748904874e-06   -0.00022744084715657815
-0.00019695800603017723   2.9962785748904874e-06   -0.00022744084715657815
-0.00019695800603017723   2.9962785748904874e-06   -0.00022744084715657815
-0.0001903086835610053   2.0905977870598613e-05   -6.198417283569731e-05
-0.0001903086835610053   2.0905977870598613e-05   -6.198417283569731e-05
-0.0001903086835610053   2.0905977870598613e-05   -6.198417283569731e-05
-0.0001903086835610053   2.0905977870598613e-05   -6.198417283569731e-05
-9.580609041765046e-05   5.63596854693052e-06   -0.00021032648914708757
-9.580609041765046e-05   5.63596854693052e-06   -0.00021032648914708757
-9.580609041765046e-05   5.63596854693052e-06   -0.00021032648914708757
-9.580609041765046e-05   5.63596854693052e-06   -0.00021032648914708757
-0.00014436237245288048   1.2967878093725349e-05   -0.00013379849814978148
-0.00014436237245288048   1.2967878093725349e-05   -0.00013379849814978148
-0.00014436237245288048   1.2967878093725349e-05   -0.00013379849814978148
-0.00014436237245288048   1.2967878093725349e-05   -0.00013379849814978148
-9.580609041765046e-05   2.0905977870598613e-05   -5.282216724149594e-05
-9.580609041765046e-05   2.0905977870598613e-05   -5.282216724149594e-05
-9.580609041765046e-05   2.0905977870598613e-05   -5.282216724149594e-05
-9.580609041765046e-05   2.0905977870598613e-05   -5.282216724149594e-05
-0.00019030868356100563   5.63596854693052e-06   -0.00021948849474128906
-0.00019030868356100563   5.63596854693052e-06   -0.00021948849474128906
-0.00019030868356100563   5.63596854693052e-06   -0.00021948849474128906
-0.00019030868356100563   5.63596854693052e-06   -0.00021948849474128906
-0.0001838904738868421   2.4057125548163083e-05   -5.6545829336033734e-05
-0.0001838904738868421   2.4057125548163083e-05   -5.6545829336033734e-05
-0.0001838904738868421   2.4057125548163083e-05   -5.6545829336033734e-05
-0.0001838904738868421   2.4057125548163083e-05   -5.6545829336033734e-05
-9.151922422641378e-05   8.068980744636509e-06   -0.00020090502522129806
-9.151922422641378e-05   8.068980744636509e-06   -0.00020090502522129806
-9.151922422641378e-05   8.068980744636509e-06   -0.00020090502522129806
-9.151922422641378e-05   8.068980744636509e-06   -0.00020090502522129806
-0.00013836710940505812   1.5264131221744484e-05   -0.00012714230687648842
-0.00013836710940505812   1.5264131221744484e-05   -0.00012714230687648842
-0.00013836710940505812   1.5264131221744484e-05   -0.00012714230687648842
-0.00013836710940505812   1.5264131221744484e-05   -0.00012714230687648842
-9.151922422641356e-05   2.4057125548163083e-05   -4.69529424539164e-05
-9.151922422641356e-05   2.4057125548163083e-05   -4.69529424539164e-05
-9.151922422641356e-05   2.4057125548163083e-05   -4.69529424539164e-05
-9.151922422641356e-05   2.4057125548163083e-05   -4.69529424539164e-05
-0.00018389047388684242   8.068980744638243e-06   -0.00021049791210341496
-0.00018389047388684242   8.068980744638243e-06   -0.00021049791210341496
-0.00018389047388684242   8.068980744638243e-06   -0.00021049791210341496
-0.00018389047388684242   8.068980744638243e-06   -0.00021049791210341496
-0.0001790077818854575   2.7549171090379687e-05   -5.672114335335005e-05
-0.0001790077818854575   2.7549171090379687e-05   -5.672114335335005e-05
-0.0001790077818854575   2.7549171090379687e-05   -5.672114335335005e-05
-0.0001790077818854575   2.7549171090379687e-05   -5.672114335335005e-05
-8.862705472632525e-05   1.0133504026749868e-05   -0.00019690628838039427
-8.862705472632525e-05   1.0133504026749868e-05   -0.00019690628838039427
-8.862705472632525e-05   1.0133504026749868e-05   -0.00019690628838039427
-8.862705472632525e-05   1.0133504026749868e-05   -0.00019690628838039427
-0.00013497623075331373   1.686500228467898e-05   -0.0001236965606235033
-0.00013497623075331373   1.686500228467898e-05   -0.0001236965606235033
-0.00013497623075331373   1.686500228467898e-05   -0.0001236965606235033
-0.00013497623075331373   1.686500228467898e-05   -0.0001236965606235033
-0.00019695800603017723   3.3989311270301095e-05   -3.340032902722067e-05
-0.00019695800603017723   3.3989311270301095e-05   -3.340032902722067e-05
-0.00019695800603017723   3.3989311270301095e-05   -3.340032902722067e-05
-0.00019695800603017723   3.3989311270301095e-05   -3.340032902722067e-05
-0.0002976755216752432   3.199882478439019e-05   -0.00020245714699387938
-0.0002976755216752432   3.199882478439019e-05   -0.00020245714699387938
-0.0002976755216752432   3.199882478439019e-05   -0.00020245714699387938
-0.0002976755216752432   3.199882478439019e-05   -0.00020245714699387938
-0.0002846350724135267   3.8848072990439395e-05   -1.574408842473611e-06
-0.0002846350724135267   3.8848072990439395e-05   -1.574408842473611e-06
-0.0002846350724135267   3.8848072990439395e-05   -1.574408842473611e-06
-0.0002846350724135267   3.8848072990439395e-05   -1.574408842473611e-06
-0.00019030868356100498   4.063051348838012e-05   -0.00015985452122877395
-0.00019030868356100498   4.063051348838012e-05   -0.00015985452122877395
-0.00019030868356100498   4.063051348838012e-05   -0.00015985452122877395
-0.00019030868356100498   4.063051348838012e-05   -0.00015985452122877395
-0.00023193563240961026   3.8326662250322274e-05   -8.909396240493065e-05
-0.00023193563240961026   3.8326662250322274e-05   -8.909396240493065e-05
-0.00023193563240961026   3.8326662250322274e-05   -8.909396240493065e-05
-0.00023193563240961026   3.8326662250322274e-05   -8.909396240493065e-05
-0.00019030868356100547   3.8848072990439395e-05   -2.643873141237353e-06
-0.00019030868356100547   3.8848072990439395e-05   -2.643873141237353e-06
-0.00019030868356100547   3.8848072990439395e-05   -2.643873141237353e-06
-0.00019030868356100547   3.8848072990439395e-05   -2.643873141237353e-06
-0.0002846350724135267   4.063051348838012e-05   -0.00015878505693001001
-0.0002846350724135267   4.063051348838012e-05   -0.00015878505693001001
-0.0002846350724135267   4.063051348838012e-05   -0.00015878505693001001
-0.0002846350724135267   4.063051348838012e-05   -0.00015878505693001001
-0.00027380777663683887   4.012265149826166e-05   1.6416378990121404e-05
-0.00027380777663683887   4.012265149826166e-05   1.6416378990121404e-05
-0.00027380777663683887   4.012265149826166e-05   1.6416378990121404e-05
-0.00027380777663683887   4.012265149826166e-05   1.6416378990121404e-05
-0.0001838904738868421   4.256485494679753e-05   -0.0001349111143289959
-0.0001838904738868421   4.256485494679753e-05   -0.0001349111143289959
-0.0001838904738868421   4.256485494679753e-05   -0.0001349111143289959
-0.0001838904738868421   4.256485494679753e-05   -0.0001349111143289959
-0.00022693008138296232   4.1124048142816144e-05   -6.231395108640455e-05
-0.00022693008138296232   4.1124048142816144e-05   -6.231395108640455e-05
-0.00022693008138296232   4.1124048142816144e-05   -6.231395108640455e-05
-0.00022693008138296232   4.1124048142816144e-05   -6.231395108640455e-05
-0.00018389047388684242   4.012265149826166e-05   1.4951056920999191e-05
-0.00018389047388684242   4.012265149826166e-05   1.4951056920999191e-05
-0.00018389047388684242   4.012265149826166e-05   1.4951056920999191e-05
-0.00018389047388684242   4.012265149826166e-05   1.4951056920999191e-05
-0.00027380777663683843   4.2564854946795794e-05   -0.0001334457922598743
-0.00027380777663683843   4.2564854946795794e-05   -0.0001334457922598743
-0.00027380777663683843   4.2564854946795794e-05   -0.0001334457922598743
-0.00027380777663683843   4.2564854946795794e-05   -0.0001334457922598743
-0.0002624963227526912   4.123896844883922e-05   4.048750793445976e-05
-0.0002624963227526912   4.123896844883922e-05   4.048750793445976e-05
-0.0002624963227526912   4.123896844883922e-05   4.048750793445976e-05
-0.0002624963227526912   4.123896844883922e-05   4.048750793445976e-05
-0.0001790077818854575   4.592358692157364e-05   -0.00010147083126123884
-0.0001790077818854575   4.592358692157364e-05   -0.00010147083126123884
-0.0001790077818854575   4.592358692157364e-05   -0.00010147083126123884
-0.0001790077818854575   4.592358692157364e-05   -0.00010147083126123884
-0.0002160358278330043   4.20790455770894e-05   -3.7450696541972174e-05
-0.0002160358278330043   4.20790455770894e-05   -3.7450696541972174e-05
-0.0002160358278330043   4.20790455770894e-05   -3.7450696541972174e-05
-0.0002160358278330043   4.20790455770894e-05   -3.7450696541972174e-05
0.000260583166181007   -3.9201376265785015e-05   8.845266395378273e-05
0.000260583166181007   -3.9201376265785015e-05   8.845266395378273e-05
0.000260583166181007   -3.9201376265785015e-05   8.845266395378273e-05
0.000260583166181007   -3.9201376265785015e-05   8.845266395378273e-05
0.00013112055987145278   -4.964314529003373e-05   -0.00013358340797669024
0.00013112055987145278   -4.964314529003373e-05   -0.00013358340797669024
0.00013112055987145278   -4.964314529003373e-05   -0.00013358340797669024
0.00013112055987145278   -4.964314529003373e-05   -0.00013358340797669024
0.00013436941893748904   -3.827583731077014e-05   6.333804831156701e-05
0.00013436941893748904   -3.827583731077014e-05   6.333804831156701e-05
0.00013436941893748904   -3.827583731077014e-05   6.333804831156701e-05
0.00013436941893748904   -3.827583731077014e-05   6.333804831156701e-05
0.00026713519367089946   -5.0884560163557205e-05   -0.00015037300919911183
0.00026713519367089946   -5.0884560163557205e-05   -0.00015037300919911183
0.00026713519367089946   -5.0884560163557205e-05   -0.00015037300919911183
0.00026713519367089946   -5.0884560163557205e-05   -0.00015037300919911183
0.0001904124040431333   -4.004554061202807e-05   -2.9005104883753074e-05
0.0001904124040431333   -4.004554061202807e-05   -2.9005104883753074e-05
0.0001904124040431333   -4.004554061202807e-05   -2.9005104883753074e-05
0.0001904124040431333   -4.004554061202807e-05   -2.9005104883753074e-05
0.00026713519367089946   -3.827583731077014e-05   7.090328202323873e-05
0.00026713519367089946   -3.827583731077014e-05   7.090328202323873e-05
0.00026713519367089946   -3.827583731077014e-05   7.090328202323873e-05
0.00026713519367089946   -3.827583731077014e-05   7.090328202323873e-05
0.00013436941893748904   -5.0884560163557205e-05   -0.00015793824291078333
0.00013436941893748904   -5.0884560163557205e-05   -0.00015793824291078333
0.00013436941893748904   -5.0884560163557205e-05   -0.00015793824291078333
0.00013436941893748904   -5.0884560163557205e-05   -0.00015793824291078333
0.00013711656726907617   -3.695039192059234e-05   4.99190022228797e-05
0.00013711656726907617   -3.695039192059234e-05   4.99190022228797e-05
0.00013711656726907617   -3.695039192059234e-05   4.99190022228797e-05
0.00013711656726907617   -3.695039192059234e-05   4.99190022228797e-05
0.00027122308380680407   -5.043239519884023e-05   -0.00016550265670638533
0.00027122308380680407   -5.043239519884023e-05   -0.00016550265670638533
0.00027122308380680407   -5.043239519884023e-05   -0.00016550265670638533
0.00027122308380680407   -5.043239519884023e-05   -0.00016550265670638533
0.00019716552496201658   -4.132124914939424e-05   -4.7540079594740516e-05
0.00019716552496201658   -4.132124914939424e-05   -4.7540079594740516e-05
0.00019716552496201658   -4.132124914939424e-05   -4.7540079594740516e-05
0.00019716552496201658   -4.132124914939424e-05   -4.7540079594740516e-05
0.00027122308380680407   -3.695039192059234e-05   5.800820418982826e-05
0.00027122308380680407   -3.695039192059234e-05   5.800820418982826e-05
0.00027122308380680407   -3.695039192059234e-05   5.800820418982826e-05
0.00027122308380680407   -3.695039192059234e-05   5.800820418982826e-05
0.00013711656726907617   -5.043239519884023e-05   -0.00017359185867333368
0.00013711656726907617   -5.043239519884023e-05   -0.00017359185867333368
0.00013711656726907617   -5.043239519884023e-05   -0.00017359185867333368
0.00013711656726907617   -5.043239519884023e-05   -0.00017359185867333368
0.00013999334890164427   -3.176825645016118e-05   2.382961121483e-05
0.00013999334890164427   -3.176825645016118e-05   2.382961121483e-05
0.00013999334890164427   -3.176825645016118e-05   2.382961121483e-05
0.00013999334890164427   -3.176825645016118e-05   2.382961121483e-05
0.00027524770681255613   -4.7652427117452975e-05   -0.00019206381623631478
0.00027524770681255613   -4.7652427117452975e-05   -0.00019206381623631478
0.00027524770681255613   -4.7652427117452975e-05   -0.00019206381623631478
0.00027524770681255613   -4.7652427117452975e-05   -0.00019206381623631478
0.00019730657726035845   -3.978137640380658e-05   -6.688456407750879e-05
0.00019730657726035845   -3.978137640380658e-05   -6.688456407750879e-05
0.00019730657726035845   -3.978137640380658e-05   -6.688456407750879e-05
0.00019730657726035845   -3.978137640380658e-05   -6.688456407750879e-05
0.00013112055987145278   -2.5542826538623928e-05   8.169351670554367e-06
0.00013112055987145278   -2.5542826538623928e-05   8.169351670554367e-06
0.00013112055987145278   -2.5542826538623928e-05   8.169351670554367e-06
0.00013112055987145278   -2.5542826538623928e-05   8.169351670554367e-06
1.5922636971693084e-05   -5.013929083286066e-05   -0.0001985850650722534
1.5922636971693084e-05   -5.013929083286066e-05   -0.0001985850650722534
1.5922636971693084e-05   -5.013929083286066e-05   -0.0001985850650722534
1.5922636971693084e-05   -5.013929083286066e-05   -0.0001985850650722534
1.9713495099415545e-05   -2.433931394574436e-05   -1.916004705148841e-06
1.9713495099415545e-05   -2.433931394574436e-05   -1.916004705148841e-06
1.9713495099415545e-05   -2.433931394574436e-05   -1.916004705148841e-06
1.9713495099415545e-05   -2.433931394574436e-05   -1.916004705148841e-06
0.00013436941893748915   -4.989901242313799e-05   -0.0001776733920155028
0.00013436941893748915   -4.989901242313799e-05   -0.0001776733920155028
0.00013436941893748915   -4.989901242313799e-05   -0.0001776733920155028
0.00013436941893748915   -4.989901242313799e-05   -0.0001776733920155028
7.558314405083896e-05   -3.3806968792507094e-05   -8.935149338279783e-05
7.558314405083896e-05   -3.3806968792507094e-05   -8.935149338279783e-05
7.558314405083896e-05   -3.3806968792507094e-05   -8.935149338279783e-05
7.558314405083896e-05   -3.3806968792507094e-05   -8.935149338279783e-05
0.00013436941893748883   -2.4339313945746094e-05   1.341981438128699e-05
0.00013436941893748883   -2.4339313945746094e-05   1.341981438128699e-05
0.00013436941893748883   -2.4339313945746094e-05   1.341981438128699e-05
0.00013436941893748883   -2.4339313945746094e-05   1.341981438128699e-05
1.9713495099415437e-05   -4.989901242313799e-05   -0.00019300921110193894
1.9713495099415437e-05   -4.989901242313799e-05   -0.00019300921110193894
1.9713495099415437e-05   -4.989901242313799e-05   -0.00019300921110193894
1.9713495099415437e-05   -4.989901242313799e-05   -0.00019300921110193894
2.3135913515245248e-05   -2.2084451640543012e-05   -3.1067846073106614e-06
2.3135913515245248e-05   -2.2084451640543012e-05   -3.1067846073106614e-06
2.3135913515245248e-05   -2.2084451640543012e-05   -3.1067846073106614e-06
2.3135913515245248e-05   -2.2084451640543012e-05   -3.1067846073106614e-06
0.00013711656726907617   -4.925203154357294e-05   -0.00017677399292187815
0.00013711656726907617   -4.925203154357294e-05   -0.00017677399292187815
0.00013711656726907617   -4.925203154357294e-05   -0.00017677399292187815
0.00013711656726907617   -4.925203154357294e-05   -0.00017677399292187815
7.775020923096835e-05   -3.419944585197898e-05   -8.686161427331899e-05
7.775020923096835e-05   -3.419944585197898e-05   -8.686161427331899e-05
7.775020923096835e-05   -3.419944585197898e-05   -8.686161427331899e-05
7.775020923096835e-05   -3.419944585197898e-05   -8.686161427331899e-05
0.00013711656726907617   -2.2084451640543012e-05   1.3193763334507468e-05
0.00013711656726907617   -2.2084451640543012e-05   1.3193763334507468e-05
0.00013711656726907617   -2.2084451640543012e-05   1.3193763334507468e-05
0.00013711656726907617   -2.2084451640543012e-05   1.3193763334507468e-05
2.3135913515245085e-05   -4.925203154357294e-05   -0.00019307454086369552
2.3135913515245085e-05   -4.925203154357294e-05   -0.00019307454086369552
2.3135913515245085e-05   -4.925203154357294e-05   -0.00019307454086369552
2.3135913515245085e-05   -4.925203154357294e-05   -0.00019307454086369552
2.8240132342353833e-05   -1.8877395263145608e-05   -5.440409124870052e-06
2.8240132342353833e-05   -1.8877395263145608e-05   -5.440409124870052e-06
2.8240132342353833e-05   -1.8877395263145608e-05   -5.440409124870052e-06
2.8240132342353833e-05   -1.8877395263145608e-05   -5.440409124870052e-06
0.00013999334890164427   -4.794467396142081e-05   -0.00017425540283805448
0.00013999334890164427   -4.794467396142081e-05   -0.00017425540283805448
0.00013999334890164427   -4.794467396142081e-05   -0.00017425540283805448
0.00013999334890164427   -4.794467396142081e-05   -0.00017425540283805448
8.184538644214119e-05   -3.369561338028605e-05   -8.589156842089699e-05
8.184538644214119e-05   -3.369561338028605e-05   -8.589156842089699e-05
8.184538644214119e-05   -3.369561338028605e-05   -8.589156842089699e-05
8.184538644214119e-05   -3.369561338028605e-05   -8.589156842089699e-05
1.5922636971693084e-05   -1.3628226339382904e-05   -2.0485882032256035e-05
1.5922636971693084e-05   -1.3628226339382904e-05   -2.0485882032256035e-05
1.5922636971693084e-05   -1.3628226339382904e-05   -2.0485882032256035e-05
1.5922636971693084e-05   -1.3628226339382904e-05   -2.0485882032256035e-05
-9.809937978586463e-05   -6.0842182664324826e-05   -0.0002388509504231513
-9.809937978586463e-05   -6.0842182664324826e-05   -0.0002388509504231513
-9.809937978586463e-05   -6.0842182664324826e-05   -0.0002388509504231513
-9.809937978586463e-05   -6.0842182664324826e-05   -0.0002388509504231513
-9.219836085832135e-05   -1.2216246059258695e-05   -4.36840674630113e-05
-9.219836085832135e-05   -1.2216246059258695e-05   -4.36840674630113e-05
-9.219836085832135e-05   -1.2216246059258695e-05   -4.36840674630113e-05
-9.219836085832135e-05   -1.2216246059258695e-05   -4.36840674630113e-05
1.9713495099415437e-05   -6.22140094728961e-05   -0.00020020516934439198
1.9713495099415437e-05   -6.22140094728961e-05   -0.00020020516934439198
1.9713495099415437e-05   -6.22140094728961e-05   -0.00020020516934439198
1.9713495099415437e-05   -6.22140094728961e-05   -0.00020020516934439198
-3.7333360252932835e-05   -3.448878430934235e-05   -0.00012176221218860965
-3.7333360252932835e-05   -3.448878430934235e-05   -0.00012176221218860965
-3.7333360252932835e-05   -3.448878430934235e-05   -0.00012176221218860965
-3.7333360252932835e-05   -3.448878430934235e-05   -0.00012176221218860965
1.9713495099415437e-05   -1.2216246059258695e-05   -1.3685409414830423e-05
1.9713495099415437e-05   -1.2216246059258695e-05   -1.3685409414830423e-05
1.9713495099415437e-05   -1.2216246059258695e-05   -1.3685409414830423e-05
1.9713495099415437e-05   -1.2216246059258695e-05   -1.3685409414830423e-05
-9.219836085832146e-05   -6.22140094728961e-05   -0.00023020382739257373
-9.219836085832146e-05   -6.22140094728961e-05   -0.00023020382739257373
-9.219836085832146e-05   -6.22140094728961e-05   -0.00023020382739257373
-9.219836085832146e-05   -6.22140094728961e-05   -0.00023020382739257373
-8.711787172450264e-05   -9.997699726109824e-06   -4.083816339220739e-05
-8.711787172450264e-05   -9.997699726109824e-06   -4.083816339220739e-05
-8.711787172450264e-05   -9.997699726109824e-06   -4.083816339220739e-05
-8.711787172450264e-05   -9.997699726109824e-06   -4.083816339220739e-05
2.3135913515245085e-05   -6.195466973175044e-05   -0.00019342029012173656
2.3135913515245085e-05   -6.195466973175044e-05   -0.00019342029012173656
2.3135913515245085e-05   -6.195466973175044e-05   -0.00019342029012173656
2.3135913515245085e-05   -6.195466973175044e-05   -0.00019342029012173656
-3.3140982929492e-05   -3.529317171564218e-05   -0.0001156223615235057
-3.3140982929492e-05   -3.529317171564218e-05   -0.0001156223615235057
-3.3140982929492e-05   -3.529317171564218e-05   -0.0001156223615235057
-3.3140982929492e-05   -3.529317171564218e-05   -0.0001156223615235057
2.3135913515245085e-05   -9.997699726109824e-06   -9.663981388823538e-06
2.3135913515245085e-05   -9.997699726109824e-06   -9.663981388823538e-06
2.3135913515245085e-05   -9.997699726109824e-06   -9.663981388823538e-06
2.3135913515245085e-05   -9.997699726109824e-06   -9.663981388823538e-06
-8.711787172450297e-05   -6.195466973175218e-05   -0.00022459447212512182
-8.711787172450297e-05   -6.195466973175218e-05   -0.00022459447212512182
-8.711787172450297e-05   -6.195466973175218e-05   -0.00022459447212512182
-8.711787172450297e-05   -6.195466973175218e-05   -0.00022459447212512182
-7.835501319553836e-05   -7.89675696847257e-06   -4.065797565209247e-05
-7.835501319553836e-05   -7.89675696847257e-06   -4.065797565209247e-05
-7.835501319553836e-05   -7.89675696847257e-06   -4.065797565209247e-05
-7.835501319553836e-05   -7.89675696847257e-06   -4.065797565209247e-05
2.8240132342353887e-05   -5.9819351968259243e-05   -0.00018716299454870765
2.8240132342353887e-05   -5.9819351968259243e-05   -0.00018716299454870765
2.8240132342353887e-05   -5.9819351968259243e-05   -0.00018716299454870765
2.8240132342353887e-05   -5.9819351968259243e-05   -0.00018716299454870765
-2.769455702747228e-05   -3.4539425824110445e-05   -0.00010910646795215303
-2.769455702747228e-05   -3.4539425824110445e-05   -0.00010910646795215303
-2.769455702747228e-05   -3.4539425824110445e-05   -0.00010910646795215303
-2.769455702747228e-05   -3.4539425824110445e-05   -0.00010910646795215303
-9.809937978586447e-05   2.9962785748904874e-06   -2.8559663143341504e-05
-9.809937978586447e-05   2.9962785748904874e-06   -2.8559663143341504e-05
-9.809937978586447e-05   2.9962785748904874e-06   -2.8559663143341504e-05
-9.809937978586447e-05   2.9962785748904874e-06   -2.8559663143341504e-05
-0.0002254544478175411   -7.62092403365517e-05   -0.00028834142120966796
-0.0002254544478175411   -7.62092403365517e-05   -0.00028834142120966796
-0.0002254544478175411   -7.62092403365517e-05   -0.00028834142120966796
-0.0002254544478175411   -7.62092403365517e-05   -0.00028834142120966796
-0.00021843454108443698   5.635968546928785e-06   -7.373232887491511e-05
-0.00021843454108443698   5.635968546928785e-06   -7.373232887491511e-05
-0.00021843454108443698   5.635968546928785e-06   -7.373232887491511e-05
-0.00021843454108443698   5.635968546928785e-06   -7.373232887491511e-05
-9.219836085832135e-05   -8.495308872744078e-05   -0.00022977252822048465
-9.219836085832135e-05   -8.495308872744078e-05   -0.00022977252822048465
-9.219836085832135e-05   -8.495308872744078e-05   -0.00022977252822048465
-9.219836085832135e-05   -8.495308872744078e-05   -0.00022977252822048465
-0.00015624728466411735   -3.893797502382661e-05   -0.00015063339009965988
-0.00015624728466411735   -3.893797502382661e-05   -0.00015063339009965988
-0.00015624728466411735   -3.893797502382661e-05   -0.00015063339009965988
-0.00015624728466411735   -3.893797502382661e-05   -0.00015063339009965988
-9.219836085832135e-05   5.635968546928785e-06   -1.9378894510292677e-05
-9.219836085832135e-05   5.635968546928785e-06   -1.9378894510292677e-05
-9.219836085832135e-05   5.635968546928785e-06   -1.9378894510292677e-05
-9.219836085832135e-05   5.635968546928785e-06   -1.9378894510292677e-05
-0.00021843454108443698   -8.495308872744078e-05   -0.00028412596258510763
-0.00021843454108443698   -8.495308872744078e-05   -0.00028412596258510763
-0.00021843454108443698   -8.495308872744078e-05   -0.00028412596258510763
-0.00021843454108443698   -8.495308872744078e-05   -0.00028412596258510763
-0.00021170226590043928   8.068980744638243e-06   -6.603109257316032e-05
-0.00021170226590043928   8.068980744638243e-06   -6.603109257316032e-05
-0.00021170226590043928   8.068980744638243e-06   -6.603109257316032e-05
-0.00021170226590043928   8.068980744638243e-06   -6.603109257316032e-05
-8.71178717245028e-05   -8.54591845092581e-05   -0.00021755485038071757
-8.71178717245028e-05   -8.54591845092581e-05   -0.00021755485038071757
-8.71178717245028e-05   -8.54591845092581e-05   -0.00021755485038071757
-8.71178717245028e-05   -8.54591845092581e-05   -0.00021755485038071757
-0.00014940346889072897   -3.9098925097305615e-05   -0.00014156167741751283
-0.00014940346889072897   -3.9098925097305615e-05   -0.00014156167741751283
-0.00014940346889072897   -3.9098925097305615e-05   -0.00014156167741751283
-0.00014940346889072897   -3.9098925097305615e-05   -0.00014156167741751283
-8.71178717245027e-05   8.068980744638243e-06   -9.914193420824252e-06
-8.71178717245027e-05   8.068980744638243e-06   -9.914193420824252e-06
-8.71178717245027e-05   8.068980744638243e-06   -9.914193420824252e-06
-8.71178717245027e-05   8.068980744638243e-06   -9.914193420824252e-06
-0.0002117022659004396   -8.54591845092581e-05   -0.0002736717495330559
-0.0002117022659004396   -8.54591845092581e-05   -0.0002736717495330559
-0.0002117022659004396   -8.54591845092581e-05   -0.0002736717495330559
-0.0002117022659004396   -8.54591845092581e-05   -0.0002736717495330559
-0.0002006885433413969   1.0133504026751602e-05   -5.816507921125799e-05
-0.0002006885433413969   1.0133504026751602e-05   -5.816507921125799e-05
-0.0002006885433413969   1.0133504026751602e-05   -5.816507921125799e-05
-0.0002006885433413969   1.0133504026751602e-05   -5.816507921125799e-05
-7.835501319553863e-05   -7.818240041636455e-05   -0.0002090647534551542
-7.835501319553863e-05   -7.818240041636455e-05   -0.0002090647534551542
-7.835501319553863e-05   -7.818240041636455e-05   -0.0002090647534551542
-7.835501319553863e-05   -7.818240041636455e-05   -0.0002090647534551542
-0.00014262067397967994   -3.4670422309861226e-05   -0.0001280625056788165
-0.00014262067397967994   -3.4670422309861226e-05   -0.0001280625056788165
-0.00014262067397967994   -3.4670422309861226e-05   -0.0001280625056788165
-0.00014262067397967994   -3.4670422309861226e-05   -0.0001280625056788165
-0.0002254544478175411   3.199882478438845e-05   -4.990498243596323e-05
-0.0002254544478175411   3.199882478438845e-05   -4.990498243596323e-05
-0.0002254544478175411   3.199882478438845e-05   -4.990498243596323e-05
-0.0002254544478175411   3.199882478438845e-05   -4.990498243596323e-05
-0.0003889318041962628   0.0   -0.0003415665379377991
-0.0003889318041962628   0.0   -0.0003415665379377991
-0.0003889318041962628   0.0   -0.0003415665379377991
-0.0003889318041962628   0.0   -0.0003415665379377991
-0.00037863566099813833   4.063051348838012e-05   -3.847666345542858e-05
-0.00037863566099813833   4.063051348838012e-05   -3.847666345542858e-05
-0.00037863566099813833   4.063051348838012e-05   -3.847666345542858e-05
-0.00037863566099813833   4.063051348838012e-05   -3.847666345542858e-05
-0.0002184345410844366   0.0   -0.0002811002218852365
-0.0002184345410844366   0.0   -0.0002811002218852365
-0.0002184345410844366   0.0   -0.0002811002218852365
-0.0002184345410844366   0.0   -0.0002811002218852365
-0.0002899885841993253   1.2348073263179077e-05   -0.0001692523273183295
-0.0002899885841993253   1.2348073263179077e-05   -0.0001692523273183295
-0.0002899885841993253   1.2348073263179077e-05   -0.0001692523273183295
-0.0002899885841993253   1.2348073263179077e-05   -0.0001692523273183295
-0.00021843454108443677   4.063051348838012e-05   -1.4098355362399811e-05
-0.00021843454108443677   4.063051348838012e-05   -1.4098355362399811e-05
-0.00021843454108443677   4.063051348838012e-05   -1.4098355362399811e-05
-0.00021843454108443677   4.063051348838012e-05   -1.4098355362399811e-05
-0.0003786356609981376   0.0   -0.00030547852997826405
-0.0003786356609981376   0.0   -0.00030547852997826405
-0.0003786356609981376   0.0   -0.00030547852997826405
-0.0003786356609981376   0.0   -0.00030547852997826405
-0.00036994142216278166   4.2564854946795794e-05   -1.5983207766820905e-05
-0.00036994142216278166   4.2564854946795794e-05   -1.5983207766820905e-05
-0.00036994142216278166   4.2564854946795794e-05   -1.5983207766820905e-05
-0.00036994142216278166   4.2564854946795794e-05   -1.5983207766820905e-05
-0.0002117022659004396   0.0   -0.0002541762219026469
-0.0002117022659004396   0.0   -0.0002541762219026469
-0.0002117022659004396   0.0   -0.0002541762219026469
-0.0002117022659004396   0.0   -0.0002541762219026469
-0.00028685528985638665   1.9658385638285716e-05   -0.00014071621335903697
-0.00028685528985638665   1.9658385638285716e-05   -0.00014071621335903697
-0.00028685528985638665   1.9658385638285716e-05   -0.00014071621335903697
-0.00028685528985638665   1.9658385638285716e-05   -0.00014071621335903697
-0.0002117022659004396   4.256485494679753e-05   9.555705201257265e-06
-0.0002117022659004396   4.256485494679753e-05   9.555705201257265e-06
-0.0002117022659004396   4.256485494679753e-05   9.555705201257265e-06
-0.0002117022659004396   4.256485494679753e-05   9.555705201257265e-06
-0.000369941422162781   0.0   -0.0002797151348707238
-0.000369941422162781   0.0   -0.0002797151348707238
-0.000369941422162781   0.0   -0.0002797151348707238
-0.000369941422162781   0.0   -0.0002797151348707238
-0.00035261075956665886   4.592358692157364e-05   2.01656259931288e-05
-0.00035261075956665886   4.592358692157364e-05   2.01656259931288e-05
-0.00035261075956665886   4.592358692157364e-05   2.01656259931288e-05
-0.00035261075956665886   4.592358692157364e-05   2.01656259931288e-05
-0.0002006885433413973   0.0   -0.00020548391556269707
-0.0002006885433413973   0.0   -0.00020548391556269707
-0.0002006885433413973   0.0   -0.00020548391556269707
-0.0002006885433413973   0.0   -0.00020548391556269707
-0.0002717845613054052   2.4274845404789053e-05   -0.0001015554595322236
-0.0002717845613054052   2.4274845404789053e-05   -0.0001015554595322236
-0.0002717845613054052   2.4274845404789053e-05   -0.0001015554595322236
-0.0002717845613054052   2.4274845404789053e-05   -0.0001015554595322236
0.0002883047246421688   -4.964314529003373e-05   0.0001723470051596251
0.0002883047246421688   -4.964314529003373e-05   0.0001723470051596251
0.0002883047246421688   -4.964314529003373e-05   0.0001723470051596251
0.0002883047246421688   -4.964314529003373e-05   0.0001723470051596251
0.0001497474919443258   -3.812679961672644e-05   -5.167190859946356e-05
0.0001497474919443258   -3.812679961672644e-05   -5.167190859946356e-05
0.0001497474919443258   -3.812679961672644e-05   -5.167190859946356e-05
0.0001497474919443258   -3.812679961672644e-05   -5.167190859946356e-05
0.00014594651651441348   -5.0884560163557205e-05   0.00015236272631090775
0.00014594651651441348   -5.0884560163557205e-05   0.00015236272631090775
0.00014594651651441348   -5.0884560163557205e-05   0.00015236272631090775
0.00014594651651441348   -5.0884560163557205e-05   0.00015236272631090775
0.00028517453021394037   -4.194279145696214e-05   -8.504902441226108e-05
0.00028517453021394037   -4.194279145696214e-05   -8.504902441226108e-05
0.00028517453021394037   -4.194279145696214e-05   -8.504902441226108e-05
0.00028517453021394037   -4.194279145696214e-05   -8.504902441226108e-05
0.0002084101478502483   -4.2707771967274294e-05   4.335060116674632e-05
0.0002084101478502483   -4.2707771967274294e-05   4.335060116674632e-05
0.0002084101478502483   -4.2707771967274294e-05   4.335060116674632e-05
0.0002084101478502483   -4.2707771967274294e-05   4.335060116674632e-05
0.00028517453021394037   -5.0884560163557205e-05   0.0001469976650869502
0.00028517453021394037   -5.0884560163557205e-05   0.0001469976650869502
0.00028517453021394037   -5.0884560163557205e-05   0.0001469976650869502
0.00028517453021394037   -5.0884560163557205e-05   0.0001469976650869502
0.00014594651651441348   -4.194279145696214e-05   -7.968396318830395e-05
0.00014594651651441348   -4.194279145696214e-05   -7.968396318830395e-05
0.00014594651651441348   -4.194279145696214e-05   -7.968396318830395e-05
0.00014594651651441348   -4.194279145696214e-05   -7.968396318830395e-05
0.00014251121121182863   -5.043239519884023e-05   0.00013687100947843995
0.00014251121121182863   -5.043239519884023e-05   0.00013687100947843995
0.00014251121121182863   -5.043239519884023e-05   0.00013687100947843995
0.00014251121121182863   -5.043239519884023e-05   0.00013687100947843995
0.0002815664726873821   -4.2303466498541664e-05   -9.976511686766185e-05
0.0002815664726873821   -4.2303466498541664e-05   -9.976511686766185e-05
0.0002815664726873821   -4.2303466498541664e-05   -9.976511686766185e-05
0.0002815664726873821   -4.2303466498541664e-05   -9.976511686766185e-05
0.00020821214430275452   -4.34564506601523e-05   2.3183887603683666e-05
0.00020821214430275452   -4.34564506601523e-05   2.3183887603683666e-05
0.00020821214430275452   -4.34564506601523e-05   2.3183887603683666e-05
0.00020821214430275452   -4.34564506601523e-05   2.3183887603683666e-05
0.00028156647268738264   -5.043239519884023e-05   0.00013199365225825994
0.00028156647268738264   -5.043239519884023e-05   0.00013199365225825994
0.00028156647268738264   -5.043239519884023e-05   0.00013199365225825994
0.00028156647268738264   -5.043239519884023e-05   0.00013199365225825994
0.00014251121121182863   -4.2303466498541664e-05   -9.488775964748217e-05
0.00014251121121182863   -4.2303466498541664e-05   -9.488775964748217e-05
0.00014251121121182863   -4.2303466498541664e-05   -9.488775964748217e-05
0.00014251121121182863   -4.2303466498541664e-05   -9.488775964748217e-05
0.00013832174702432343   -4.7652427117452975e-05   0.00011166775892096619
0.00013832174702432343   -4.7652427117452975e-05   0.00011166775892096619
0.00013832174702432343   -4.7652427117452975e-05   0.00011166775892096619
0.00013832174702432343   -4.7652427117452975e-05   0.00011166775892096619
0.0002759143953843002   -4.14532130802326e-05   -0.00012137285010132713
0.0002759143953843002   -4.14532130802326e-05   -0.00012137285010132713
0.0002759143953843002   -4.14532130802326e-05   -0.00012137285010132713
0.0002759143953843002   -4.14532130802326e-05   -0.00012137285010132713
0.00020106855007539514   -4.132632288239915e-05   3.2940912948137627e-06
0.00020106855007539514   -4.132632288239915e-05   3.2940912948137627e-06
0.00020106855007539514   -4.132632288239915e-05   3.2940912948137627e-06
0.00020106855007539514   -4.132632288239915e-05   3.2940912948137627e-06
0.0001497474919443258   -5.013929083286066e-05   0.00012901303404458647
0.0001497474919443258   -5.013929083286066e-05   0.00012901303404458647
0.0001497474919443258   -5.013929083286066e-05   0.00012901303404458647
0.0001497474919443258   -5.013929083286066e-05   0.00012901303404458647
3.2363519511930696e-05   -2.372040735117674e-05   -5.077558992039495e-05
3.2363519511930696e-05   -2.372040735117674e-05   -5.077558992039495e-05
3.2363519511930696e-05   -2.372040735117674e-05   -5.077558992039495e-05
3.2363519511930696e-05   -2.372040735117674e-05   -5.077558992039495e-05
2.6347210074355396e-05   -4.989901242313799e-05   0.00014746559770745064
2.6347210074355396e-05   -4.989901242313799e-05   0.00014746559770745064
2.6347210074355396e-05   -4.989901242313799e-05   0.00014746559770745064
2.6347210074355396e-05   -4.989901242313799e-05   0.00014746559770745064
0.00014594651651441348   -2.5168978254368896e-05   -6.670460019390825e-05
0.00014594651651441348   -2.5168978254368896e-05   -6.670460019390825e-05
0.00014594651651441348   -2.5168978254368896e-05   -6.670460019390825e-05
0.00014594651651441348   -2.5168978254368896e-05   -6.670460019390825e-05
8.84844671055885e-05   -3.585622662074725e-05   3.5477831173959425e-05
8.84844671055885e-05   -3.585622662074725e-05   3.5477831173959425e-05
8.84844671055885e-05   -3.585622662074725e-05   3.5477831173959425e-05
8.84844671055885e-05   -3.585622662074725e-05   3.5477831173959425e-05
0.00014594651651441364   -4.989901242313799e-05   0.00013262757720618884
0.00014594651651441364   -4.989901242313799e-05   0.00013262757720618884
0.00014594651651441364   -4.989901242313799e-05   0.00013262757720618884
0.00014594651651441364   -4.989901242313799e-05   0.00013262757720618884
2.6347210074355396e-05   -2.5168978254368896e-05   -5.1866579692646554e-05
2.6347210074355396e-05   -2.5168978254368896e-05   -5.1866579692646554e-05
2.6347210074355396e-05   -2.5168978254368896e-05   -5.1866579692646554e-05
2.6347210074355396e-05   -2.5168978254368896e-05   -5.1866579692646554e-05
2.2062043852398106e-05   -4.925203154357294e-05   0.00014774464089760582
2.2062043852398106e-05   -4.925203154357294e-05   0.00014774464089760582
2.2062043852398106e-05   -4.925203154357294e-05   0.00014774464089760582
2.2062043852398106e-05   -4.925203154357294e-05   0.00014774464089760582
0.00014251121121182863   -2.5825755430721603e-05   -6.705973703582252e-05
0.00014251121121182863   -2.5825755430721603e-05   -6.705973703582252e-05
0.00014251121121182863   -2.5825755430721603e-05   -6.705973703582252e-05
0.00014251121121182863   -2.5825755430721603e-05   -6.705973703582252e-05
8.33394582301282e-05   -3.5131241259180046e-05   3.7143142764089945e-05
8.33394582301282e-05   -3.5131241259180046e-05   3.7143142764089945e-05
8.33394582301282e-05   -3.5131241259180046e-05   3.7143142764089945e-05
8.33394582301282e-05   -3.5131241259180046e-05   3.7143142764089945e-05
0.0001425112112118289   -4.925203154357294e-05   0.00013368887522989623
0.0001425112112118289   -4.925203154357294e-05   0.00013368887522989623
0.0001425112112118289   -4.925203154357294e-05   0.00013368887522989623
0.0001425112112118289   -4.925203154357294e-05   0.00013368887522989623
2.2062043852398106e-05   -2.5825755430721603e-05   -5.30039713681112e-05
2.2062043852398106e-05   -2.5825755430721603e-05   -5.30039713681112e-05
2.2062043852398106e-05   -2.5825755430721603e-05   -5.30039713681112e-05
2.2062043852398106e-05   -2.5825755430721603e-05   -5.30039713681112e-05
1.729309562592551e-05   -4.794467396142081e-05   0.00015261391959605144
1.729309562592551e-05   -4.794467396142081e-05   0.00015261391959605144
1.729309562592551e-05   -4.794467396142081e-05   0.00015261391959605144
1.729309562592551e-05   -4.794467396142081e-05   0.00015261391959605144
0.0001383217470243232   -2.526593250067044e-05   -6.27077442777274e-05
0.0001383217470243232   -2.526593250067044e-05   -6.27077442777274e-05
0.0001383217470243232   -2.526593250067044e-05   -6.27077442777274e-05
0.0001383217470243232   -2.526593250067044e-05   -6.27077442777274e-05
8.018290865257363e-05   -3.360735809652439e-05   3.9195175032700254e-05
8.018290865257363e-05   -3.360735809652439e-05   3.9195175032700254e-05
8.018290865257363e-05   -3.360735809652439e-05   3.9195175032700254e-05
8.018290865257363e-05   -3.360735809652439e-05   3.9195175032700254e-05
3.2363519511930696e-05   -6.0842182664324826e-05   0.00013292685257766494
3.2363519511930696e-05   -6.0842182664324826e-05   0.00013292685257766494
3.2363519511930696e-05   -6.0842182664324826e-05   0.00013292685257766494
3.2363519511930696e-05   -6.0842182664324826e-05   0.00013292685257766494
-8.0365187102352e-05   -1.0199449146007511e-05   -2.4568685001815672e-05
-8.0365187102352e-05   -1.0199449146007511e-05   -2.4568685001815672e-05
-8.0365187102352e-05   -1.0199449146007511e-05   -2.4568685001815672e-05
-8.0365187102352e-05   -1.0199449146007511e-05   -2.4568685001815672e-05
-8.972811057047088e-05   -6.22140094728961e-05   0.00017113171968347052
-8.972811057047088e-05   -6.22140094728961e-05   0.00017113171968347052
-8.972811057047088e-05   -6.22140094728961e-05   0.00017113171968347052
-8.972811057047088e-05   -6.22140094728961e-05   0.00017113171968347052
2.634721007435545e-05   -1.0777209108773708e-05   -5.318922827638015e-05
2.634721007435545e-05   -1.0777209108773708e-05   -5.318922827638015e-05
2.634721007435545e-05   -1.0777209108773708e-05   -5.318922827638015e-05
2.634721007435545e-05   -1.0777209108773708e-05   -5.318922827638015e-05
-2.6822713438978327e-05   -3.4856212620138285e-05   4.9874713019328575e-05
-2.6822713438978327e-05   -3.4856212620138285e-05   4.9874713019328575e-05
-2.6822713438978327e-05   -3.4856212620138285e-05   4.9874713019328575e-05
-2.6822713438978327e-05   -3.4856212620138285e-05   4.9874713019328575e-05
2.6347210074355396e-05   -6.22140094728961e-05   0.00014026963946499674
2.6347210074355396e-05   -6.22140094728961e-05   0.00014026963946499674
2.6347210074355396e-05   -6.22140094728961e-05   0.00014026963946499674
2.6347210074355396e-05   -6.22140094728961e-05   0.00014026963946499674
-8.972811057047071e-05   -1.0777209108773708e-05   -2.232714805790615e-05
-8.972811057047071e-05   -1.0777209108773708e-05   -2.232714805790615e-05
-8.972811057047071e-05   -1.0777209108773708e-05   -2.232714805790615e-05
-8.972811057047071e-05   -1.0777209108773708e-05   -2.232714805790615e-05
-9.54422988545475e-05   -6.195466973175218e-05   0.0001776828267445402
-9.54422988545475e-05   -6.195466973175218e-05   0.0001776828267445402
-9.54422988545475e-05   -6.195466973175218e-05   0.0001776828267445402
-9.54422988545475e-05   -6.195466973175218e-05   0.0001776828267445402
2.2062043852398106e-05   -1.148144455679484e-05   -4.844167953867661e-05
2.2062043852398106e-05   -1.148144455679484e-05   -4.844167953867661e-05
2.2062043852398106e-05   -1.148144455679484e-05   -4.844167953867661e-05
2.2062043852398106e-05   -1.148144455679484e-05   -4.844167953867661e-05
-3.315730364804992e-05   -3.47684633750546e-05   5.756277758635917e-05
-3.315730364804992e-05   -3.47684633750546e-05   5.756277758635917e-05
-3.315730364804992e-05   -3.47684633750546e-05   5.756277758635917e-05
-3.315730364804992e-05   -3.47684633750546e-05   5.756277758635917e-05
2.2062043852397997e-05   -6.195466973175044e-05   0.00014739889163956597
2.2062043852397997e-05   -6.195466973175044e-05   0.00014739889163956597
2.2062043852397997e-05   -6.195466973175044e-05   0.00014739889163956597
2.2062043852397997e-05   -6.195466973175044e-05   0.00014739889163956597
-9.544229885454734e-05   -1.148144455679484e-05   -1.8157744433702598e-05
-9.544229885454734e-05   -1.148144455679484e-05   -1.8157744433702598e-05
-9.544229885454734e-05   -1.148144455679484e-05   -1.8157744433702598e-05
-9.544229885454734e-05   -1.148144455679484e-05   -1.8157744433702598e-05
-0.00010217307510854221   -5.9819351968259243e-05   0.00018617917286916762
-0.00010217307510854221   -5.9819351968259243e-05   0.00018617917286916762
-0.00010217307510854221   -5.9819351968259243e-05   0.00018617917286916762
-0.00010217307510854221   -5.9819351968259243e-05   0.00018617917286916762
1.729309562592551e-05   -1.1431889026920772e-05   -4.196358945308227e-05
1.729309562592551e-05   -1.1431889026920772e-05   -4.196358945308227e-05
1.729309562592551e-05   -1.1431889026920772e-05   -4.196358945308227e-05
1.729309562592551e-05   -1.1431889026920772e-05   -4.196358945308227e-05
-3.831120296446977e-05   -3.341542277978879e-05   6.390036178263074e-05
-3.831120296446977e-05   -3.341542277978879e-05   6.390036178263074e-05
-3.831120296446977e-05   -3.341542277978879e-05   6.390036178263074e-05
-3.831120296446977e-05   -3.341542277978879e-05   6.390036178263074e-05
-8.03651871023521e-05   -7.62092403365517e-05   0.00016134533324900328
-8.03651871023521e-05   -7.62092403365517e-05   0.00016134533324900328
-8.03651871023521e-05   -7.62092403365517e-05   0.00016134533324900328
-8.03651871023521e-05   -7.62092403365517e-05   0.00016134533324900328
-0.00020898514828264665   1.0325372436002442e-05   -1.1005010546209434e-06
-0.00020898514828264665   1.0325372436002442e-05   -1.1005010546209434e-06
-0.00020898514828264665   1.0325372436002442e-05   -1.1005010546209434e-06
-0.00020898514828264665   1.0325372436002442e-05   -1.1005010546209434e-06
-0.00022020487083730103   -8.495308872744078e-05   0.000228325165937647
-0.00022020487083730103   -8.495308872744078e-05   0.000228325165937647
-0.00022020487083730103   -8.495308872744078e-05   0.000228325165937647
-0.00022020487083730103   -8.495308872744078e-05   0.000228325165937647
-8.972811057047071e-05   9.650489742706395e-06   -4.589824825582383e-05
-8.972811057047071e-05   9.650489742706395e-06   -4.589824825582383e-05
-8.972811057047071e-05   9.650489742706395e-06   -4.589824825582383e-05
-8.972811057047071e-05   9.650489742706395e-06   -4.589824825582383e-05
-0.0001477059092960129   -3.1928858607609134e-05   7.567902529693462e-05
-0.0001477059092960129   -3.1928858607609134e-05   7.567902529693462e-05
-0.0001477059092960129   -3.1928858607609134e-05   7.567902529693462e-05
-0.0001477059092960129   -3.1928858607609134e-05   7.567902529693462e-05
-8.972811057047088e-05   -8.495308872744078e-05   0.00017156301885555905
-8.972811057047088e-05   -8.495308872744078e-05   0.00017156301885555905
-8.972811057047088e-05   -8.495308872744078e-05   0.00017156301885555905
-8.972811057047088e-05   -8.495308872744078e-05   0.00017156301885555905
-0.00022020487083730103   9.65048974270466e-06   1.0863898826263263e-05
-0.00022020487083730103   9.65048974270466e-06   1.0863898826263263e-05
-0.00022020487083730103   9.65048974270466e-06   1.0863898826263263e-05
-0.00022020487083730103   9.65048974270466e-06   1.0863898826263263e-05
-0.00022704969672744776   -8.54591845092581e-05   0.00024106614373988616
-0.00022704969672744776   -8.54591845092581e-05   0.00024106614373988616
-0.00022704969672744776   -8.54591845092581e-05   0.00024106614373988616
-0.00022704969672744776   -8.54591845092581e-05   0.00024106614373988616
-9.544229885454734e-05   8.446974242312319e-06   -3.462321463255599e-05
-9.544229885454734e-05   8.446974242312319e-06   -3.462321463255599e-05
-9.544229885454734e-05   8.446974242312319e-06   -3.462321463255599e-05
-9.544229885454734e-05   8.446974242312319e-06   -3.462321463255599e-05
-0.00015501616613521833   -3.665558119735762e-05   9.172809743236308e-05
-0.00015501616613521833   -3.665558119735762e-05   9.172809743236308e-05
-0.00015501616613521833   -3.665558119735762e-05   9.172809743236308e-05
-0.00015501616613521833   -3.665558119735762e-05   9.172809743236308e-05
-9.544229885454728e-05   -8.54591845092581e-05   0.0001847224484889439
-9.544229885454728e-05   -8.54591845092581e-05   0.0001847224484889439
-9.544229885454728e-05   -8.54591845092581e-05   0.0001847224484889439
-9.544229885454728e-05   -8.54591845092581e-05   0.0001847224484889439
-0.00022704969672744744   8.446974242312319e-06   2.1720480618384747e-05
-0.00022704969672744744   8.446974242312319e-06   2.1720480618384747e-05
-0.00022704969672744744   8.446974242312319e-06   2.1720480618384747e-05
-0.00022704969672744744   8.446974242312319e-06   2.1720480618384747e-05
-0.0002344174377199136   -7.818240041636455e-05   0.0002465941664226883
-0.0002344174377199136   -7.818240041636455e-05   0.0002465941664226883
-0.0002344174377199136   -7.818240041636455e-05   0.0002465941664226883
-0.0002344174377199136   -7.818240041636455e-05   0.0002465941664226883
-0.00010217307510854189   7.089592017126348e-06   -2.4976300056358896e-05
-0.00010217307510854189   7.089592017126348e-06   -2.4976300056358896e-05
-0.00010217307510854189   7.089592017126348e-06   -2.4976300056358896e-05
-0.00010217307510854189   7.089592017126348e-06   -2.4976300056358896e-05
-0.00016252190271892123   -3.694982076332502e-05   0.00010202872696254755
-0.00016252190271892123   -3.694982076332502e-05   0.00010202872696254755
-0.00016252190271892123   -3.694982076332502e-05   0.00010202872696254755
-0.00016252190271892123   -3.694982076332502e-05   0.00010202872696254755
-0.00020898514828264584   0.0   0.0001792402790550358
-0.00020898514828264584   0.0   0.0001792402790550358
-0.00020898514828264584   0.0   0.0001792402790550358
-0.00020898514828264584   0.0   0.0001792402790550358
-0.0003688181720597078   4.827328592672993e-05   -5.818412235069487e-05
-0.0003688181720597078   4.827328592672993e-05   -5.818412235069487e-05
-0.0003688181720597078   4.827328592672993e-05   -5.818412235069487e-05
-0.0003688181720597078   4.827328592672993e-05   -5.818412235069487e-05
-0.00038435095621880226   0.0   0.00025926317981121456
-0.00038435095621880226   0.0   0.00025926317981121456
-0.00038435095621880226   0.0   0.00025926317981121456
-0.00038435095621880226   0.0   0.00025926317981121456
-0.00022020487083730065   4.652045528949662e-05   -4.222590233165255e-05
-0.00022020487083730065   4.652045528949662e-05   -4.222590233165255e-05
-0.00022020487083730065   4.652045528949662e-05   -4.222590233165255e-05
-0.00022020487083730065   4.652045528949662e-05   -4.222590233165255e-05
-0.0002829734638096998   2.8645227182856614e-05   7.311355615299527e-05
-0.0002829734638096998   2.8645227182856614e-05   7.311355615299527e-05
-0.0002829734638096998   2.8645227182856614e-05   7.311355615299527e-05
-0.0002829734638096998   2.8645227182856614e-05   7.311355615299527e-05
-0.00022020487083730054   0.0   0.00023135090663751762
-0.00022020487083730054   0.0   0.00023135090663751762
-0.00022020487083730054   0.0   0.00023135090663751762
-0.00022020487083730054   0.0   0.00023135090663751762
-0.00038435095621880297   4.652045528949662e-05   -1.4313629157955941e-05
-0.00038435095621880297   4.652045528949662e-05   -1.4313629157955941e-05
-0.00038435095621880297   4.652045528949662e-05   -1.4313629157955941e-05
-0.00038435095621880297   4.652045528949662e-05   -1.4313629157955941e-05
-0.0003921810906019827   0.0   0.00028774232079468304
-0.0003921810906019827   0.0   0.00028774232079468304
-0.0003921810906019827   0.0   0.00028774232079468304
-0.0003921810906019827   0.0   0.00028774232079468304
-0.00022704969672744744   4.530108237398196e-05   -1.4657318420599193e-05
-0.00022704969672744744   4.530108237398196e-05   -1.4657318420599193e-05
-0.00022704969672744744   4.530108237398196e-05   -1.4657318420599193e-05
-0.00022704969672744744   4.530108237398196e-05   -1.4657318420599193e-05
-0.00029787930712673965   2.3899307372909212e-05   0.00011623309724553485
-0.00029787930712673965   2.3899307372909212e-05   0.00011623309724553485
-0.00029787930712673965   2.3899307372909212e-05   0.00011623309724553485
-0.00029787930712673965   2.3899307372909212e-05   0.00011623309724553485
-0.00022704969672744744   0.0   0.0002605616713702947
-0.00022704969672744744   0.0   0.0002605616713702947
-0.00022704969672744744   0.0   0.0002605616713702947
-0.00022704969672744744   0.0   0.0002605616713702947
-0.00039218109060198405   4.53010823739837e-05   1.2523331003789877e-05
-0.00039218109060198405   4.53010823739837e-05   1.2523331003789877e-05
-0.00039218109060198405   4.53010823739837e-05   1.2523331003789877e-05
-0.00039218109060198405   4.53010823739837e-05   1.2523331003789877e-05
-0.0004009284920526917   0.0   0.00032573344977209883
-0.0004009284920526917   0.0   0.00032573344977209883
-0.0004009284920526917   0.0   0.00032573344977209883
-0.0004009284920526917   0.0   0.00032573344977209883
-0.0002344174377199136   3.761483798514313e-05   2.564612309304817e-05
-0.0002344174377199136   3.761483798514313e-05   2.564612309304817e-05
-0.0002344174377199136   3.761483798514313e-05   2.564612309304817e-05
-0.0002344174377199136   3.761483798514313e-05   2.564612309304817e-05
-0.00030045867294338583   1.672531131627006e-05   0.00014824856446682627
-0.00030045867294338583   1.672531131627006e-05   0.00014824856446682627
-0.00030045867294338583   1.672531131627006e-05   0.00014824856446682627
-0.00030045867294338583   1.672531131627006e-05   0.00014824856446682627
0.0002530247135965776   -3.812679961672817e-05   0.00018012304915332195
0.0002530247135965776   -3.812679961672817e-05   0.00018012304915332195
0.0002530247135965776   -3.812679961672817e-05   0.00018012304915332195
0.0002530247135965776   -3.812679961672817e-05   0.00018012304915332195
0.00012808518355649824   -2.8650916187851136e-05   -2.2423970856149528e-05
0.00012808518355649824   -2.8650916187851136e-05   -2.2423970856149528e-05
0.00012808518355649824   -2.8650916187851136e-05   -2.2423970856149528e-05
0.00012808518355649824   -2.8650916187851136e-05   -2.2423970856149528e-05
0.00012467266097705314   -4.194279145696214e-05   0.00015733226108881598
0.00012467266097705314   -4.194279145696214e-05   0.00015733226108881598
0.00012467266097705314   -4.194279145696214e-05   0.00015733226108881598
0.00012467266097705314   -4.194279145696214e-05   0.00015733226108881598
0.00024691795732974817   -3.2500448936519447e-05   -5.207530501127327e-05
0.00024691795732974817   -3.2500448936519447e-05   -5.207530501127327e-05
0.00024691795732974817   -3.2500448936519447e-05   -5.207530501127327e-05
0.00024691795732974817   -3.2500448936519447e-05   -5.207530501127327e-05
0.00017979782405793066   -3.3885832177029535e-05   6.062281371939588e-05
0.00017979782405793066   -3.3885832177029535e-05   6.062281371939588e-05
0.00017979782405793066   -3.3885832177029535e-05   6.062281371939588e-05
0.00017979782405793066   -3.3885832177029535e-05   6.062281371939588e-05
0.00024691795732974774   -4.194279145696214e-05   0.0001516668555765514
0.00024691795732974774   -4.194279145696214e-05   0.0001516668555765514
0.00024691795732974774   -4.194279145696214e-05   0.0001516668555765514
0.00024691795732974774   -4.194279145696214e-05   0.0001516668555765514
0.0001246726609770533   -3.2500448936519447e-05   -4.640989949900899e-05
0.0001246726609770533   -3.2500448936519447e-05   -4.640989949900899e-05
0.0001246726609770533   -3.2500448936519447e-05   -4.640989949900899e-05
0.0001246726609770533   -3.2500448936519447e-05   -4.640989949900899e-05
0.00012027478667573683   -4.230346649853993e-05   0.00014128697662489208
0.00012027478667573683   -4.230346649853993e-05   0.00014128697662489208
0.00012027478667573683   -4.230346649853993e-05   0.00014128697662489208
0.00012027478667573683   -4.230346649853993e-05   0.00014128697662489208
0.00024074841390128092   -3.3079410645195026e-05   -6.503683559635576e-05
0.00024074841390128092   -3.3079410645195026e-05   -6.503683559635576e-05
0.00024074841390128092   -3.3079410645195026e-05   -6.503683559635576e-05
0.00024074841390128092   -3.3079410645195026e-05   -6.503683559635576e-05
0.00017805202170459894   -3.537205505373467e-05   4.0832738043238264e-05
0.00017805202170459894   -3.537205505373467e-05   4.0832738043238264e-05
0.00017805202170459894   -3.537205505373467e-05   4.0832738043238264e-05
0.00017805202170459894   -3.537205505373467e-05   4.0832738043238264e-05
0.00024074841390128092   -4.2303466498541664e-05   0.0001357525431128848
0.00024074841390128092   -4.2303466498541664e-05   0.0001357525431128848
0.00024074841390128092   -4.2303466498541664e-05   0.0001357525431128848
0.00024074841390128092   -4.2303466498541664e-05   0.0001357525431128848
0.00012027478667573683   -3.3079410645195026e-05   -5.950240208434793e-05
0.00012027478667573683   -3.3079410645195026e-05   -5.950240208434793e-05
0.00012027478667573683   -3.3079410645195026e-05   -5.950240208434793e-05
0.00012027478667573683   -3.3079410645195026e-05   -5.950240208434793e-05
0.00011566308931421564   -4.1453213080234336e-05   0.0001175116586081184
0.00011566308931421564   -4.1453213080234336e-05   0.0001175116586081184
0.00011566308931421564   -4.1453213080234336e-05   0.0001175116586081184
0.00011566308931421564   -4.1453213080234336e-05   0.0001175116586081184
0.00023302750355219302   -3.2900242184483175e-05   -8.322748099262782e-05
0.00023302750355219302   -3.2900242184483175e-05   -8.322748099262782e-05
0.00023302750355219302   -3.2900242184483175e-05   -8.322748099262782e-05
0.00023302750355219302   -3.2900242184483175e-05   -8.322748099262782e-05
0.00017006149838507935   -3.445615125816266e-05   2.264940639677259e-05
0.00017006149838507935   -3.445615125816266e-05   2.264940639677259e-05
0.00017006149838507935   -3.445615125816266e-05   2.264940639677259e-05
0.00017006149838507935   -3.445615125816266e-05   2.264940639677259e-05
0.00012808518355649846   -2.3720407351175005e-05   0.00017085356780070868
0.00012808518355649846   -2.3720407351175005e-05   0.00017085356780070868
0.00012808518355649846   -2.3720407351175005e-05   0.00017085356780070868
0.00012808518355649846   -2.3720407351175005e-05   0.00017085356780070868
1.4322678875702442e-05   -1.0145673912997921e-05   -1.0605766604378404e-05
1.4322678875702442e-05   -1.0145673912997921e-05   -1.0605766604378404e-05
1.4322678875702442e-05   -1.0145673912997921e-05   -1.0605766604378404e-05
1.4322678875702442e-05   -1.0145673912997921e-05   -1.0605766604378404e-05
1.0936014455746677e-05   -2.516897825437063e-05   0.0001780805017715893
1.0936014455746677e-05   -2.516897825437063e-05   0.0001780805017715893
1.0936014455746677e-05   -2.516897825437063e-05   0.0001780805017715893
1.0936014455746677e-05   -2.516897825437063e-05   0.0001780805017715893
0.0001246726609770533   -1.2220848773740814e-05   -1.9249453452299084e-05
0.0001246726609770533   -1.2220848773740814e-05   -1.9249453452299084e-05
0.0001246726609770533   -1.2220848773740814e-05   -1.9249453452299084e-05
0.0001246726609770533   -1.2220848773740814e-05   -1.9249453452299084e-05
6.88400480985388e-05   -1.655960641708254e-05   7.64081559312302e-05
6.88400480985388e-05   -1.655960641708254e-05   7.64081559312302e-05
6.88400480985388e-05   -1.655960641708254e-05   7.64081559312302e-05
6.88400480985388e-05   -1.655960641708254e-05   7.64081559312302e-05
0.00012467266097705324   -2.516897825437063e-05   0.00017031162408321157
0.00012467266097705324   -2.516897825437063e-05   0.00017031162408321157
0.00012467266097705324   -2.516897825437063e-05   0.00017031162408321157
0.00012467266097705324   -2.516897825437063e-05   0.00017031162408321157
1.0936014455746677e-05   -1.2220848773740814e-05   -1.1480575763922127e-05
1.0936014455746677e-05   -1.2220848773740814e-05   -1.1480575763922127e-05
1.0936014455746677e-05   -1.2220848773740814e-05   -1.1480575763922127e-05
1.0936014455746677e-05   -1.2220848773740814e-05   -1.1480575763922127e-05
6.609295682691362e-06   -2.5825755430721603e-05   0.00017645608332737296
6.609295682691362e-06   -2.5825755430721603e-05   0.00017645608332737296
6.609295682691362e-06   -2.5825755430721603e-05   0.00017645608332737296
6.609295682691362e-06   -2.5825755430721603e-05   0.00017645608332737296
0.00012027478667573683   -1.3590615279352597e-05   -2.032748575185638e-05
0.00012027478667573683   -1.3590615279352597e-05   -2.032748575185638e-05
0.00012027478667573683   -1.3590615279352597e-05   -2.032748575185638e-05
0.00012027478667573683   -1.3590615279352597e-05   -2.032748575185638e-05
6.455122591690851e-05   -1.7349894103067462e-05   7.480068280708765e-05
6.455122591690851e-05   -1.7349894103067462e-05   7.480068280708765e-05
6.455122591690851e-05   -1.7349894103067462e-05   7.480068280708765e-05
6.455122591690851e-05   -1.7349894103067462e-05   7.480068280708765e-05
0.00012027478667573662   -2.5825755430721603e-05   0.0001691149992365526
0.00012027478667573662   -2.5825755430721603e-05   0.0001691149992365526
0.00012027478667573662   -2.5825755430721603e-05   0.0001691149992365526
0.00012027478667573662   -2.5825755430721603e-05   0.0001691149992365526
6.609295682691362e-06   -1.3590615279352597e-05   -1.2986401661037317e-05
6.609295682691362e-06   -1.3590615279352597e-05   -1.2986401661037317e-05
6.609295682691362e-06   -1.3590615279352597e-05   -1.2986401661037317e-05
6.609295682691362e-06   -1.3590615279352597e-05   -1.2986401661037317e-05
1.829224726963125e-06   -2.5265932500668706e-05   0.00017910247564546875
1.829224726963125e-06   -2.5265932500668706e-05   0.00017910247564546875
1.829224726963125e-06   -2.5265932500668706e-05   0.00017910247564546875
1.829224726963125e-06   -2.5265932500668706e-05   0.00017910247564546875
0.00011566308931421554   -1.4190533107196271e-05   -1.7265871636035408e-05
0.00011566308931421554   -1.4190533107196271e-05   -1.7265871636035408e-05
0.00011566308931421554   -1.4190533107196271e-05   -1.7265871636035408e-05
0.00011566308931421554   -1.4190533107196271e-05   -1.7265871636035408e-05
6.104301891556279e-05   -1.719798366440692e-05   7.557204936271518e-05
6.104301891556279e-05   -1.719798366440692e-05   7.557204936271518e-05
6.104301891556279e-05   -1.719798366440692e-05   7.557204936271518e-05
6.104301891556279e-05   -1.719798366440692e-05   7.557204936271518e-05
1.4322678875702496e-05   -1.0199449146007511e-05   0.000174819672671204
1.4322678875702496e-05   -1.0199449146007511e-05   0.000174819672671204
1.4322678875702496e-05   -1.0199449146007511e-05   0.000174819672671204
1.4322678875702496e-05   -1.0199449146007511e-05   0.000174819672671204
-9.586129995820078e-05   8.938134686732255e-06   2.6622582476746107e-06
-9.586129995820078e-05   8.938134686732255e-06   2.6622582476746107e-06
-9.586129995820078e-05   8.938134686732255e-06   2.6622582476746107e-06
-9.586129995820078e-05   8.938134686732255e-06   2.6622582476746107e-06
-9.967577675302857e-05   -1.0777209108773708e-05   0.00018762709927608572
-9.967577675302857e-05   -1.0777209108773708e-05   0.00018762709927608572
-9.967577675302857e-05   -1.0777209108773708e-05   0.00018762709927608572
-9.967577675302857e-05   -1.0777209108773708e-05   0.00018762709927608572
1.0936014455746677e-05   7.338201038275399e-06   -7.595132160102412e-06
1.0936014455746677e-05   7.338201038275399e-06   -7.595132160102412e-06
1.0936014455746677e-05   7.338201038275399e-06   -7.595132160102412e-06
1.0936014455746677e-05   7.338201038275399e-06   -7.595132160102412e-06
-4.249027386364298e-05   -3.3290438726692184e-07   8.605134496087255e-05
-4.249027386364298e-05   -3.3290438726692184e-07   8.605134496087255e-05
-4.249027386364298e-05   -3.3290438726692184e-07   8.605134496087255e-05
-4.249027386364298e-05   -3.3290438726692184e-07   8.605134496087255e-05
1.0936014455746677e-05   -1.0777209108773708e-05   0.00017675785318785678
1.0936014455746677e-05   -1.0777209108773708e-05   0.00017675785318785678
1.0936014455746677e-05   -1.0777209108773708e-05   0.00017675785318785678
1.0936014455746677e-05   -1.0777209108773708e-05   0.00017675785318785678
-9.967577675302857e-05   7.338201038275399e-06   3.2741139281275075e-06
-9.967577675302857e-05   7.338201038275399e-06   3.2741139281275075e-06
-9.967577675302857e-05   7.338201038275399e-06   3.2741139281275075e-06
-9.967577675302857e-05   7.338201038275399e-06   3.2741139281275075e-06
-0.00010479758142135736   -1.148144455679484e-05   0.00019141649259971343
-0.00010479758142135736   -1.148144455679484e-05   0.00019141649259971343
-0.00010479758142135736   -1.148144455679484e-05   0.00019141649259971343
-0.00010479758142135736   -1.148144455679484e-05   0.00019141649259971343
6.609295682691362e-06   5.848751181380257e-06   -4.659753349939896e-06
6.609295682691362e-06   5.848751181380257e-06   -4.659753349939896e-06
6.609295682691362e-06   5.848751181380257e-06   -4.659753349939896e-06
6.609295682691362e-06   5.848751181380257e-06   -4.659753349939896e-06
-4.625505377181885e-05   -7.908209645329789e-07   8.743123902845784e-05
-4.625505377181885e-05   -7.908209645329789e-07   8.743123902845784e-05
-4.625505377181885e-05   -7.908209645329789e-07   8.743123902845784e-05
-4.625505377181885e-05   -7.908209645329789e-07   8.743123902845784e-05
6.609295682691362e-06   -1.148144455679484e-05   0.00018101837515680733
6.609295682691362e-06   -1.148144455679484e-05   0.00018101837515680733
6.609295682691362e-06   -1.148144455679484e-05   0.00018101837515680733
6.609295682691362e-06   -1.148144455679484e-05   0.00018101837515680733
-0.00010479758142135714   5.848751181380257e-06   5.73836409296577e-06
-0.00010479758142135714   5.848751181380257e-06   5.73836409296577e-06
-0.00010479758142135714   5.848751181380257e-06   5.73836409296577e-06
-0.00010479758142135714   5.848751181380257e-06   5.73836409296577e-06
-0.00011025469575193816   -1.1431889026920772e-05   0.00019596233204258792
-0.00011025469575193816   -1.1431889026920772e-05   0.00019596233204258792
-0.00011025469575193816   -1.1431889026920772e-05   0.00019596233204258792
-0.00011025469575193816   -1.1431889026920772e-05   0.00019596233204258792
1.829224726963125e-06   4.773021721282342e-06   -5.671485378364732e-07
1.829224726963125e-06   4.773021721282342e-06   -5.671485378364732e-07
1.829224726963125e-06   4.773021721282342e-06   -5.671485378364732e-07
1.829224726963125e-06   4.773021721282342e-06   -5.671485378364732e-07
-5.105930138478215e-05   -1.123921192152516e-06   9.111856072980228e-05
-5.105930138478215e-05   -1.123921192152516e-06   9.111856072980228e-05
-5.105930138478215e-05   -1.123921192152516e-06   9.111856072980228e-05
-5.105930138478215e-05   -1.123921192152516e-06   9.111856072980228e-05
-9.586129995820057e-05   1.0325372436002442e-05   0.00015784963925450854
-9.586129995820057e-05   1.0325372436002442e-05   0.00015784963925450854
-9.586129995820057e-05   1.0325372436002442e-05   0.00015784963925450854
-9.586129995820057e-05   1.0325372436002442e-05   0.00015784963925450854
-0.00020371405930858725   2.9220268816606068e-05   -1.0568021834441235e-05
-0.00020371405930858725   2.9220268816606068e-05   -1.0568021834441235e-05
-0.00020371405930858725   2.9220268816606068e-05   -1.0568021834441235e-05
-0.00020371405930858725   2.9220268816606068e-05   -1.0568021834441235e-05
-0.00020928636236083322   9.65048974270466e-06   0.0001748316112788655
-0.00020928636236083322   9.65048974270466e-06   0.0001748316112788655
-0.00020928636236083322   9.65048974270466e-06   0.0001748316112788655
-0.00020928636236083322   9.65048974270466e-06   0.0001748316112788655
-9.967577675302813e-05   2.760984341053721e-05   -1.8628310268173917e-05
-9.967577675302813e-05   2.760984341053721e-05   -1.8628310268173917e-05
-9.967577675302813e-05   2.760984341053721e-05   -1.8628310268173917e-05
-9.967577675302813e-05   2.760984341053721e-05   -1.8628310268173917e-05
-0.00015092311102897092   1.95542407470245e-05   7.161727512317115e-05
-0.00015092311102897092   1.95542407470245e-05   7.161727512317115e-05
-0.00015092311102897092   1.95542407470245e-05   7.161727512317115e-05
-0.00015092311102897092   1.95542407470245e-05   7.161727512317115e-05
-9.967577675302835e-05   9.650489742706395e-06   0.00016405599907816804
-9.967577675302835e-05   9.650489742706395e-06   0.00016405599907816804
-9.967577675302835e-05   9.650489742706395e-06   0.00016405599907816804
-9.967577675302835e-05   9.650489742706395e-06   0.00016405599907816804
-0.0002092863623608329   2.760984341053721e-05   -7.852698067474517e-06
-0.0002092863623608329   2.760984341053721e-05   -7.852698067474517e-06
-0.0002092863623608329   2.760984341053721e-05   -7.852698067474517e-06
-0.0002092863623608329   2.760984341053721e-05   -7.852698067474517e-06
-0.00021610948635870518   8.446974242312319e-06   0.00018555867171020628
-0.00021610948635870518   8.446974242312319e-06   0.00018555867171020628
-0.00021610948635870518   8.446974242312319e-06   0.00018555867171020628
-0.00021610948635870518   8.446974242312319e-06   0.00018555867171020628
-0.00010479758142135714   2.6126389757888738e-05   -1.0568819161386805e-05
-0.00010479758142135714   2.6126389757888738e-05   -1.0568819161386805e-05
-0.00010479758142135714   2.6126389757888738e-05   -1.0568819161386805e-05
-0.00010479758142135714   2.6126389757888738e-05   -1.0568819161386805e-05
-0.00015508521284516116   1.9169240545024308e-05   7.741818940600487e-05
-0.00015508521284516116   1.9169240545024308e-05   7.741818940600487e-05
-0.00015508521284516116   1.9169240545024308e-05   7.741818940600487e-05
-0.00015508521284516116   1.9169240545024308e-05   7.741818940600487e-05
-0.00010479758142135703   8.446974242312319e-06   0.0001749510224008594
-0.00010479758142135703   8.446974242312319e-06   0.0001749510224008594
-0.00010479758142135703   8.446974242312319e-06   0.0001749510224008594
-0.00010479758142135703   8.446974242312319e-06   0.0001749510224008594
-0.00021610948635870518   2.6126389757888738e-05   3.8830147959870165e-08
-0.00021610948635870518   2.6126389757888738e-05   3.8830147959870165e-08
-0.00021610948635870518   2.6126389757888738e-05   3.8830147959870165e-08
-0.00021610948635870518   2.6126389757888738e-05   3.8830147959870165e-08
-0.00022333539790450553   7.089592017128082e-06   0.0001941467616347909
-0.00022333539790450553   7.089592017128082e-06   0.0001941467616347909
-0.00022333539790450553   7.089592017128082e-06   0.0001941467616347909
-0.00022333539790450553   7.089592017128082e-06   0.0001941467616347909
-0.00011025469575193778   2.413895528426656e-05   -4.550693246438637e-06
-0.00011025469575193778   2.413895528426656e-05   -4.550693246438637e-06
-0.00011025469575193778   2.413895528426656e-05   -4.550693246438637e-06
-0.00011025469575193778   2.413895528426656e-05   -4.550693246438637e-06
-0.00016197700646385785   1.796061249390718e-05   8.536016361431571e-05
-0.00016197700646385785   1.796061249390718e-05   8.536016361431571e-05
-0.00016197700646385785   1.796061249390718e-05   8.536016361431571e-05
-0.00016197700646385785   1.796061249390718e-05   8.536016361431571e-05
-0.00020371405930858725   4.827328592673166e-05   8.313898423075762e-05
-0.00020371405930858725   4.827328592673166e-05   8.313898423075762e-05
-0.00020371405930858725   4.827328592673166e-05   8.313898423075762e-05
-0.00020371405930858725   4.827328592673166e-05   8.313898423075762e-05
-0.0003068926665411425   4.75213515925485e-05   -8.927652175734404e-05
-0.0003068926665411425   4.75213515925485e-05   -8.927652175734404e-05
-0.0003068926665411425   4.75213515925485e-05   -8.927652175734404e-05
-0.0003068926665411425   4.75213515925485e-05   -8.927652175734404e-05
-0.0003168859404044834   4.652045528949836e-05   0.00012287128686931052
-0.0003168859404044834   4.652045528949836e-05   0.00012287128686931052
-0.0003168859404044834   4.652045528949836e-05   0.00012287128686931052
-0.0003168859404044834   4.652045528949836e-05   0.00012287128686931052
-0.0002092863623608329   4.8402916536766094e-05   -5.7590819951802794e-05
-0.0002092863623608329   4.8402916536766094e-05   -5.7590819951802794e-05
-0.0002092863623608329   4.8402916536766094e-05   -5.7590819951802794e-05
-0.0002092863623608329   4.8402916536766094e-05   -5.7590819951802794e-05
-0.000248761942217731   4.8456962699117145e-05   8.169385445617409e-06
-0.000248761942217731   4.8456962699117145e-05   8.169385445617409e-06
-0.000248761942217731   4.8456962699117145e-05   8.169385445617409e-06
-0.000248761942217731   4.8456962699117145e-05   8.169385445617409e-06
-0.00020928636236083268   4.652045528949662e-05   0.00012174181012094935
-0.00020928636236083268   4.652045528949662e-05   0.00012174181012094935
-0.00020928636236083268   4.652045528949662e-05   0.00012174181012094935
-0.00020928636236083268   4.652045528949662e-05   0.00012174181012094935
-0.0003168859404044834   4.8402916536766094e-05   -5.646134320344033e-05
-0.0003168859404044834   4.8402916536766094e-05   -5.646134320344033e-05
-0.0003168859404044834   4.8402916536766094e-05   -5.646134320344033e-05
-0.0003168859404044834   4.8402916536766094e-05   -5.646134320344033e-05
-0.00032668652737642093   4.530108237398196e-05   0.00015082683140480238
-0.00032668652737642093   4.530108237398196e-05   0.00015082683140480238
-0.00032668652737642093   4.530108237398196e-05   0.00015082683140480238
-0.00032668652737642093   4.530108237398196e-05   0.00015082683140480238
-0.00021610948635870464   4.804434692995234e-05   -3.511419569164013e-05
-0.00021610948635870464   4.804434692995234e-05   -3.511419569164013e-05
-0.00021610948635870464   4.804434692995234e-05   -3.511419569164013e-05
-0.00021610948635870464   4.804434692995234e-05   -3.511419569164013e-05
-0.0002601654255222415   4.842323282832489e-05   3.8085038041900995e-05
-0.0002601654255222415   4.842323282832489e-05   3.8085038041900995e-05
-0.0002601654255222415   4.842323282832489e-05   3.8085038041900995e-05
-0.0002601654255222415   4.842323282832489e-05   3.8085038041900995e-05
-0.00021610948635870464   4.530108237398196e-05   0.00014918087267122224
-0.00021610948635870464   4.530108237398196e-05   0.00014918087267122224
-0.00021610948635870464   4.530108237398196e-05   0.00014918087267122224
-0.00021610948635870464   4.530108237398196e-05   0.00014918087267122224
-0.00032668652737642093   4.8044346929950604e-05   -3.346823695805825e-05
-0.00032668652737642093   4.8044346929950604e-05   -3.346823695805825e-05
-0.00032668652737642093   4.8044346929950604e-05   -3.346823695805825e-05
-0.00032668652737642093   4.8044346929950604e-05   -3.346823695805825e-05
-0.0003382398253319299   3.761483798514313e-05   0.00019755593152846057
-0.0003382398253319299   3.761483798514313e-05   0.00019755593152846057
-0.0003382398253319299   3.761483798514313e-05   0.00019755593152846057
-0.0003382398253319299   3.761483798514313e-05   0.00019755593152846057
-0.00022333539790450466   4.419807499240515e-05   2.0986102783942997e-06
-0.00022333539790450466   4.419807499240515e-05   2.0986102783942997e-06
-0.00022333539790450466   4.419807499240515e-05   2.0986102783942997e-06
-0.00022333539790450466   4.419807499240515e-05   2.0986102783942997e-06
-0.0002643340646277551   4.610220028959493e-05   6.928724630550151e-05
-0.0002643340646277551   4.610220028959493e-05   6.928724630550151e-05
-0.0002643340646277551   4.610220028959493e-05   6.928724630550151e-05
-0.0002643340646277551   4.610220028959493e-05   6.928724630550151e-05
0.00020459786789833422   -2.86509161878494e-05   0.0001583807221313292
0.00020459786789833422   -2.86509161878494e-05   0.0001583807221313292
0.00020459786789833422   -2.86509161878494e-05   0.0001583807221313292
0.00020459786789833422   -2.86509161878494e-05   0.0001583807221313292
0.0001013895551471642   -2.0924951417252563e-05   -8.99755359159548e-06
0.0001013895551471642   -2.0924951417252563e-05   -8.99755359159548e-06
0.0001013895551471642   -2.0924951417252563e-05   -8.99755359159548e-06
0.0001013895551471642   -2.0924951417252563e-05   -8.99755359159548e-06
9.746037492201331e-05   -3.2500448936519447e-05   0.00013780267994945982
9.746037492201331e-05   -3.2500448936519447e-05   0.00013780267994945982
9.746037492201331e-05   -3.2500448936519447e-05   0.00013780267994945982
9.746037492201331e-05   -3.2500448936519447e-05   0.00013780267994945982
0.0001973671407685826   -2.430399840451687e-05   -3.362646678068925e-05
0.0001973671407685826   -2.430399840451687e-05   -3.362646678068925e-05
0.0001973671407685826   -2.430399840451687e-05   -3.362646678068925e-05
0.0001973671407685826   -2.430399840451687e-05   -3.362646678068925e-05
0.00014332537502498112   -2.6324755532653246e-05   5.765559706885984e-05
0.00014332537502498112   -2.6324755532653246e-05   5.765559706885984e-05
0.00014332537502498112   -2.6324755532653246e-05   5.765559706885984e-05
0.00014332537502498112   -2.6324755532653246e-05   5.765559706885984e-05
0.00019736714076858225   -3.2500448936519447e-05   0.00013288480963025932
0.00019736714076858225   -3.2500448936519447e-05   0.00013288480963025932
0.00019736714076858225   -3.2500448936519447e-05   0.00013288480963025932
0.00019736714076858225   -3.2500448936519447e-05   0.00013288480963025932
9.746037492201363e-05   -2.430399840451687e-05   -2.8708596461488392e-05
9.746037492201363e-05   -2.430399840451687e-05   -2.8708596461488392e-05
9.746037492201363e-05   -2.430399840451687e-05   -2.8708596461488392e-05
9.746037492201363e-05   -2.430399840451687e-05   -2.8708596461488392e-05
9.309707447098333e-05   -3.3079410645195026e-05   0.00012354574176976288
9.309707447098333e-05   -3.3079410645195026e-05   0.00012354574176976288
9.309707447098333e-05   -3.3079410645195026e-05   0.00012354574176976288
9.309707447098333e-05   -3.3079410645195026e-05   0.00012354574176976288
0.00019082526848740819   -2.498748007164625e-05   -4.418973993507395e-05
0.00019082526848740819   -2.498748007164625e-05   -4.418973993507395e-05
0.00019082526848740819   -2.498748007164625e-05   -4.418973993507395e-05
0.00019082526848740819   -2.498748007164625e-05   -4.418973993507395e-05
0.00014057359188521492   -2.7632164856359123e-05   4.1149865272743086e-05
0.00014057359188521492   -2.7632164856359123e-05   4.1149865272743086e-05
0.00014057359188521492   -2.7632164856359123e-05   4.1149865272743086e-05
0.00014057359188521492   -2.7632164856359123e-05   4.1149865272743086e-05
0.00019082526848740754   -3.307941064519329e-05   0.00011869058342563361
0.00019082526848740754   -3.307941064519329e-05   0.00011869058342563361
0.00019082526848740754   -3.307941064519329e-05   0.00011869058342563361
0.00019082526848740754   -3.307941064519329e-05   0.00011869058342563361
9.309707447098352e-05   -2.498748007164625e-05   -3.933458159094492e-05
9.309707447098352e-05   -2.498748007164625e-05   -3.933458159094492e-05
9.309707447098352e-05   -2.498748007164625e-05   -3.933458159094492e-05
9.309707447098352e-05   -2.498748007164625e-05   -3.933458159094492e-05
8.890303697369216e-05   -3.290024218448144e-05   0.00010370307141188608
8.890303697369216e-05   -3.290024218448144e-05   0.00010370307141188608
8.890303697369216e-05   -3.290024218448144e-05   0.00010370307141188608
8.890303697369216e-05   -3.290024218448144e-05   0.00010370307141188608
0.00018342150256257645   -2.5287429397377603e-05   -5.839539224185007e-05
0.00018342150256257645   -2.5287429397377603e-05   -5.839539224185007e-05
0.00018342150256257645   -2.5287429397377603e-05   -5.839539224185007e-05
0.00018342150256257645   -2.5287429397377603e-05   -5.839539224185007e-05
0.00013327450600166435   -2.7174845512718468e-05   2.6315385028877116e-05
0.00013327450600166435   -2.7174845512718468e-05   2.6315385028877116e-05
0.00013327450600166435   -2.7174845512718468e-05   2.6315385028877116e-05
0.00013327450600166435   -2.7174845512718468e-05   2.6315385028877116e-05
0.0001013895551471642   -1.0145673912997921e-05   0.00016668966518255252
0.0001013895551471642   -1.0145673912997921e-05   0.00016668966518255252
0.0001013895551471642   -1.0145673912997921e-05   0.00016668966518255252
0.0001013895551471642   -1.0145673912997921e-05   0.00016668966518255252
4.517659220748679e-06   -3.9929465577726725e-06   8.928141718328106e-06
4.517659220748679e-06   -3.9929465577726725e-06   8.928141718328106e-06
4.517659220748679e-06   -3.9929465577726725e-06   8.928141718328106e-06
4.517659220748679e-06   -3.9929465577726725e-06   8.928141718328106e-06
7.486850643783943e-07   -1.2220848773742549e-05   0.00016845867622502456
7.486850643783943e-07   -1.2220848773742549e-05   0.00016845867622502456
7.486850643783943e-07   -1.2220848773742549e-05   0.00016845867622502456
7.486850643783943e-07   -1.2220848773742549e-05   0.00016845867622502456
9.746037492201363e-05   -6.394931725651337e-06   3.776976233444817e-06
9.746037492201363e-05   -6.394931725651337e-06   3.776976233444817e-06
9.746037492201363e-05   -6.394931725651337e-06   3.776976233444817e-06
9.746037492201363e-05   -6.394931725651337e-06   3.776976233444817e-06
5.041149827793222e-05   -7.882358175091003e-06   8.308422650991042e-05
5.041149827793222e-05   -7.882358175091003e-06   8.308422650991042e-05
5.041149827793222e-05   -7.882358175091003e-06   8.308422650991042e-05
5.041149827793222e-05   -7.882358175091003e-06   8.308422650991042e-05
9.746037492201355e-05   -1.2220848773742549e-05   0.00016496312599616897
9.746037492201355e-05   -1.2220848773742549e-05   0.00016496312599616897
9.746037492201355e-05   -1.2220848773742549e-05   0.00016496312599616897
9.746037492201355e-05   -1.2220848773742549e-05   0.00016496312599616897
7.486850643783943e-07   -6.394931725651337e-06   7.27252646229911e-06
7.486850643783943e-07   -6.394931725651337e-06   7.27252646229911e-06
7.486850643783943e-07   -6.394931725651337e-06   7.27252646229911e-06
7.486850643783943e-07   -6.394931725651337e-06   7.27252646229911e-06
-3.168707002507978e-06   -1.3590615279354332e-05   0.00016596298740587188
-3.168707002507978e-06   -1.3590615279354332e-05   0.00016596298740587188
-3.168707002507978e-06   -1.3590615279354332e-05   0.00016596298740587188
-3.168707002507978e-06   -1.3590615279354332e-05   0.00016596298740587188
9.309707447098352e-05   -8.186733106657282e-06   2.2776889797681134e-06
9.309707447098352e-05   -8.186733106657282e-06   2.2776889797681134e-06
9.309707447098352e-05   -8.186733106657282e-06   2.2776889797681134e-06
9.309707447098352e-05   -8.186733106657282e-06   2.2776889797681134e-06
4.60916593109195e-05   -9.144251271703957e-06   8.11945584789052e-05
4.60916593109195e-05   -9.144251271703957e-06   8.11945584789052e-05
4.60916593109195e-05   -9.144251271703957e-06   8.11945584789052e-05
4.60916593109195e-05   -9.144251271703957e-06   8.11945584789052e-05
9.309707447098333e-05   -1.3590615279354332e-05   0.000162720658102254
9.309707447098333e-05   -1.3590615279354332e-05   0.000162720658102254
9.309707447098333e-05   -1.3590615279354332e-05   0.000162720658102254
9.309707447098333e-05   -1.3590615279354332e-05   0.000162720658102254
-3.168707002507978e-06   -8.186733106657282e-06   5.520018283386267e-06
-3.168707002507978e-06   -8.186733106657282e-06   5.520018283386267e-06
-3.168707002507978e-06   -8.186733106657282e-06   5.520018283386267e-06
-3.168707002507978e-06   -8.186733106657282e-06   5.520018283386267e-06
-7.24690406895016e-06   -1.4190533107196271e-05   0.00016728169285846247
-7.24690406895016e-06   -1.4190533107196271e-05   0.00016728169285846247
-7.24690406895016e-06   -1.4190533107196271e-05   0.00016728169285846247
-7.24690406895016e-06   -1.4190533107196271e-05   0.00016728169285846247
8.89030369736924e-05   -9.609208728137905e-06   4.282996493289561e-06
8.89030369736924e-05   -9.609208728137905e-06   4.282996493289561e-06
8.89030369736924e-05   -9.609208728137905e-06   4.282996493289561e-06
8.89030369736924e-05   -9.609208728137905e-06   4.282996493289561e-06
4.28319116181257e-05   -9.830896388401608e-06   8.120121801539386e-05
4.28319116181257e-05   -9.830896388401608e-06   8.120121801539386e-05
4.28319116181257e-05   -9.830896388401608e-06   8.120121801539386e-05
4.28319116181257e-05   -9.830896388401608e-06   8.120121801539386e-05
4.517659220748679e-06   8.93813468673052e-06   0.00017216677614809682
4.517659220748679e-06   8.93813468673052e-06   0.00017216677614809682
4.517659220748679e-06   8.93813468673052e-06   0.00017216677614809682
4.517659220748679e-06   8.93813468673052e-06   0.00017216677614809682
-8.950451253624946e-05   1.3034210092173135e-05   1.7920801796364808e-05
-8.950451253624946e-05   1.3034210092173135e-05   1.7920801796364808e-05
-8.950451253624946e-05   1.3034210092173135e-05   1.7920801796364808e-05
-8.950451253624946e-05   1.3034210092173135e-05   1.7920801796364808e-05
-9.344079282376289e-05   7.338201038277134e-06   0.00017455729249022094
-9.344079282376289e-05   7.338201038277134e-06   0.00017455729249022094
-9.344079282376289e-05   7.338201038277134e-06   0.00017455729249022094
-9.344079282376289e-05   7.338201038277134e-06   0.00017455729249022094
7.486850643783943e-07   1.1026822140571685e-05   1.536165668194209e-05
7.486850643783943e-07   1.1026822140571685e-05   1.536165668194209e-05
7.486850643783943e-07   1.1026822140571685e-05   1.536165668194209e-05
7.486850643783943e-07   1.1026822140571685e-05   1.536165668194209e-05
-4.4489197913923084e-05   1.0207017904318577e-05   9.125001085419577e-05
-4.4489197913923084e-05   1.0207017904318577e-05   9.125001085419577e-05
-4.4489197913923084e-05   1.0207017904318577e-05   9.125001085419577e-05
-4.4489197913923084e-05   1.0207017904318577e-05   9.125001085419577e-05
7.486850643783943e-07   7.338201038277134e-06   0.00017234411982884352
7.486850643783943e-07   7.338201038277134e-06   0.00017234411982884352
7.486850643783943e-07   7.338201038277134e-06   0.00017234411982884352
7.486850643783943e-07   7.338201038277134e-06   0.00017234411982884352
-9.344079282376289e-05   1.102682214056995e-05   1.757482934331908e-05
-9.344079282376289e-05   1.102682214056995e-05   1.757482934331908e-05
-9.344079282376289e-05   1.102682214056995e-05   1.757482934331908e-05
-9.344079282376289e-05   1.102682214056995e-05   1.757482934331908e-05
-9.759968222073539e-05   5.848751181381992e-06   0.00017622674067683565
-9.759968222073539e-05   5.848751181381992e-06   0.00017622674067683565
-9.759968222073539e-05   5.848751181381992e-06   0.00017622674067683565
-9.759968222073539e-05   5.848751181381992e-06   0.00017622674067683565
-3.168707002507978e-06   9.077259447825767e-06   1.690467701992188e-05
-3.168707002507978e-06   9.077259447825767e-06   1.690467701992188e-05
-3.168707002507978e-06   9.077259447825767e-06   1.690467701992188e-05
-3.168707002507978e-06   9.077259447825767e-06   1.690467701992188e-05
-4.814731181482885e-05   9.056252473851195e-06   9.188162255817627e-05
-4.814731181482885e-05   9.056252473851195e-06   9.188162255817627e-05
-4.814731181482885e-05   9.056252473851195e-06   9.188162255817627e-05
-4.814731181482885e-05   9.056252473851195e-06   9.188162255817627e-05
-3.168707002507978e-06   5.848751181380257e-06   0.000174289635716968
-3.168707002507978e-06   5.848751181380257e-06   0.000174289635716968
-3.168707002507978e-06   5.848751181380257e-06   0.000174289635716968
-3.168707002507978e-06   5.848751181380257e-06   0.000174289635716968
-9.75996822207355e-05   9.077259447825767e-06   1.8841781979789425e-05
-9.75996822207355e-05   9.077259447825767e-06   1.8841781979789425e-05
-9.75996822207355e-05   9.077259447825767e-06   1.8841781979789425e-05
-9.75996822207355e-05   9.077259447825767e-06   1.8841781979789425e-05
-0.0001018926063509224   4.773021721282342e-06   0.00017887618705972764
-0.0001018926063509224   4.773021721282342e-06   0.00017887618705972764
-0.0001018926063509224   4.773021721282342e-06   0.00017887618705972764
-0.0001018926063509224   4.773021721282342e-06   0.00017887618705972764
-7.24690406895016e-06   7.341372953200559e-06   1.9592339183957096e-05
-7.24690406895016e-06   7.341372953200559e-06   1.9592339183957096e-05
-7.24690406895016e-06   7.341372953200559e-06   1.9592339183957096e-05
-7.24690406895016e-06   7.341372953200559e-06   1.9592339183957096e-05
-5.210577971430041e-05   7.952798785817311e-06   9.399027642664108e-05
-5.210577971430041e-05   7.952798785817311e-06   9.399027642664108e-05
-5.210577971430041e-05   7.952798785817311e-06   9.399027642664108e-05
-5.210577971430041e-05   7.952798785817311e-06   9.399027642664108e-05
-8.950451253624979e-05   2.9220268816606068e-05   0.00015005720348088523
-8.950451253624979e-05   2.9220268816606068e-05   0.00015005720348088523
-8.950451253624979e-05   2.9220268816606068e-05   0.00015005720348088523
-8.950451253624979e-05   2.9220268816606068e-05   0.00015005720348088523
-0.00018047716436614934   2.9588037526083466e-05   -1.3432216765946192e-06
-0.00018047716436614934   2.9588037526083466e-05   -1.3432216765946192e-06
-0.00018047716436614934   2.9588037526083466e-05   -1.3432216765946192e-06
-0.00018047716436614934   2.9588037526083466e-05   -1.3432216765946192e-06
-0.00018504804706094785   2.760984341053721e-05   0.0001526870054893324
-0.00018504804706094785   2.760984341053721e-05   0.0001526870054893324
-0.00018504804706094785   2.760984341053721e-05   0.0001526870054893324
-0.00018504804706094785   2.760984341053721e-05   0.0001526870054893324
-9.3440792823763e-05   2.766340540288903e-05   -2.3888768053547532e-08
-9.3440792823763e-05   2.766340540288903e-05   -2.3888768053547532e-08
-9.3440792823763e-05   2.766340540288903e-05   -2.3888768053547532e-08
-9.3440792823763e-05   2.766340540288903e-05   -2.3888768053547532e-08
-0.00013650447279676145   2.846264944883839e-05   7.126936475937255e-05
-0.00013650447279676145   2.846264944883839e-05   7.126936475937255e-05
-0.00013650447279676145   2.846264944883839e-05   7.126936475937255e-05
-0.00013650447279676145   2.846264944883839e-05   7.126936475937255e-05
-9.3440792823763e-05   2.760984341053721e-05   0.00015265486829392147
-9.3440792823763e-05   2.760984341053721e-05   0.00015265486829392147
-9.3440792823763e-05   2.760984341053721e-05   0.00015265486829392147
-9.3440792823763e-05   2.760984341053721e-05   0.00015265486829392147
-0.00018504804706094742   2.766340540288903e-05   8.248427357804289e-09
-0.00018504804706094742   2.766340540288903e-05   8.248427357804289e-09
-0.00018504804706094742   2.766340540288903e-05   8.248427357804289e-09
-0.00018504804706094742   2.766340540288903e-05   8.248427357804289e-09
-0.00019011828578485224   2.6126389757888738e-05   0.00015978117917116608
-0.00019011828578485224   2.6126389757888738e-05   0.00015978117917116608
-0.00019011828578485224   2.6126389757888738e-05   0.00015978117917116608
-0.00019011828578485224   2.6126389757888738e-05   0.00015978117917116608
-9.75996822207355e-05   2.5895759339027158e-05   5.721884815621794e-06
-9.75996822207355e-05   2.5895759339027158e-05   5.721884815621794e-06
-9.75996822207355e-05   2.5895759339027158e-05   5.721884815621794e-06
-9.75996822207355e-05   2.5895759339027158e-05   5.721884815621794e-06
-0.0001398227802583735   2.737126718765394e-05   7.520841016917445e-05
-0.0001398227802583735   2.737126718765394e-05   7.520841016917445e-05
-0.0001398227802583735   2.737126718765394e-05   7.520841016917445e-05
-0.0001398227802583735   2.737126718765394e-05   7.520841016917445e-05
-9.75996822207355e-05   2.6126389757890472e-05   0.00015991955742248286
-9.75996822207355e-05   2.6126389757890472e-05   0.00015991955742248286
-9.75996822207355e-05   2.6126389757890472e-05   0.00015991955742248286
-9.75996822207355e-05   2.6126389757890472e-05   0.00015991955742248286
-0.00019011828578485203   2.5895759339027158e-05   5.583506564304369e-06
-0.00019011828578485203   2.5895759339027158e-05   5.583506564304369e-06
-0.00019011828578485203   2.5895759339027158e-05   5.583506564304369e-06
-0.00019011828578485203   2.5895759339027158e-05   5.583506564304369e-06
-0.000194952986881804   2.4138955284264824e-05   0.00016493217417242433
-0.000194952986881804   2.4138955284264824e-05   0.00016493217417242433
-0.000194952986881804   2.4138955284264824e-05   0.00016493217417242433
-0.000194952986881804   2.4138955284264824e-05   0.00016493217417242433
-0.00010189260635092273   2.374308573463088e-05   1.0069061684068797e-05
-0.00010189260635092273   2.374308573463088e-05   1.0069061684068797e-05
-0.00010189260635092273   2.374308573463088e-05   1.0069061684068797e-05
-0.00010189260635092273   2.374308573463088e-05   1.0069061684068797e-05
-0.00014507124995980582   2.59623959475222e-05   8.070188157114624e-05
-0.00014507124995980582   2.59623959475222e-05   8.070188157114624e-05
-0.00014507124995980582   2.59623959475222e-05   8.070188157114624e-05
-0.00014507124995980582   2.59623959475222e-05   8.070188157114624e-05
-0.0001804771643661489   4.75213515925485e-05   7.202052538417703e-05
-0.0001804771643661489   4.75213515925485e-05   7.202052538417703e-05
-0.0001804771643661489   4.75213515925485e-05   7.202052538417703e-05
-0.0001804771643661489   4.75213515925485e-05   7.202052538417703e-05
-0.00026676328174339873   4.252336085233677e-05   -7.478846468869952e-05
-0.00026676328174339873   4.252336085233677e-05   -7.478846468869952e-05
-0.00026676328174339873   4.252336085233677e-05   -7.478846468869952e-05
-0.00026676328174339873   4.252336085233677e-05   -7.478846468869952e-05
-0.00027395953845909854   4.8402916536766094e-05   9.967697945712124e-05
-0.00027395953845909854   4.8402916536766094e-05   9.967697945712124e-05
-0.00027395953845909854   4.8402916536766094e-05   9.967697945712124e-05
-0.00027395953845909854   4.8402916536766094e-05   9.967697945712124e-05
-0.00018504804706094785   4.29497429569603e-05   -4.523693539191533e-05
-0.00018504804706094785   4.29497429569603e-05   -4.523693539191533e-05
-0.00018504804706094785   4.29497429569603e-05   -4.523693539191533e-05
-0.00018504804706094785   4.29497429569603e-05   -4.523693539191533e-05
-0.000217890779179367   4.509925625528419e-05   8.211243493122739e-06
-0.000217890779179367   4.509925625528419e-05   8.211243493122739e-06
-0.000217890779179367   4.509925625528419e-05   8.211243493122739e-06
-0.000217890779179367   4.509925625528419e-05   8.211243493122739e-06
-0.0001850480470609473   4.8402916536766094e-05   0.00010294888360500368
-0.0001850480470609473   4.8402916536766094e-05   0.00010294888360500368
-0.0001850480470609473   4.8402916536766094e-05   0.00010294888360500368
-0.0001850480470609473   4.8402916536766094e-05   0.00010294888360500368
-0.0002739595384590996   4.29497429569603e-05   -4.850883953979798e-05
-0.0002739595384590996   4.29497429569603e-05   -4.850883953979798e-05
-0.0002739595384590996   4.29497429569603e-05   -4.850883953979798e-05
-0.0002739595384590996   4.29497429569603e-05   -4.850883953979798e-05
-0.0002809926453291472   4.804434692995234e-05   0.00012128361692099934
-0.0002809926453291472   4.804434692995234e-05   0.00012128361692099934
-0.0002809926453291472   4.804434692995234e-05   0.00012128361692099934
-0.0002809926453291472   4.804434692995234e-05   0.00012128361692099934
-0.00019011828578485224   4.247011957901094e-05   -2.682911257559351e-05
-0.00019011828578485224   4.247011957901094e-05   -2.682911257559351e-05
-0.00019011828578485224   4.247011957901094e-05   -2.682911257559351e-05
-0.00019011828578485224   4.247011957901094e-05   -2.682911257559351e-05
-0.00022668805833569474   4.5912887665155305e-05   3.20548474907938e-05
-0.00022668805833569474   4.5912887665155305e-05   3.20548474907938e-05
-0.00022668805833569474   4.5912887665155305e-05   3.20548474907938e-05
-0.00022668805833569474   4.5912887665155305e-05   3.20548474907938e-05
-0.00019011828578485224   4.8044346929950604e-05   0.00012462815333156609
-0.00019011828578485224   4.8044346929950604e-05   0.00012462815333156609
-0.00019011828578485224   4.8044346929950604e-05   0.00012462815333156609
-0.00019011828578485224   4.8044346929950604e-05   0.00012462815333156609
-0.0002809926453291483   4.247011957901094e-05   -3.017364898615961e-05
-0.0002809926453291483   4.247011957901094e-05   -3.017364898615961e-05
-0.0002809926453291483   4.247011957901094e-05   -3.017364898615961e-05
-0.0002809926453291483   4.247011957901094e-05   -3.017364898615961e-05
-0.00028921284014697256   4.419807499240688e-05   0.00015833967976599996
-0.00028921284014697256   4.419807499240688e-05   0.00015833967976599996
-0.00028921284014697256   4.419807499240688e-05   0.00015833967976599996
-0.00028921284014697256   4.419807499240688e-05   0.00015833967976599996
-0.000194952986881804   3.917777504078637e-05   4.252104295024168e-06
-0.000194952986881804   3.917777504078637e-05   4.252104295024168e-06
-0.000194952986881804   3.917777504078637e-05   4.252104295024168e-06
-0.000194952986881804   3.917777504078637e-05   4.252104295024168e-06
-0.0002289886649532039   4.4556099621244696e-05   5.7751239665752505e-05
-0.0002289886649532039   4.4556099621244696e-05   5.7751239665752505e-05
-0.0002289886649532039   4.4556099621244696e-05   5.7751239665752505e-05
-0.0002289886649532039   4.4556099621244696e-05   5.7751239665752505e-05
0.0001547273981538518   -2.0924951417252563e-05   0.00013181055493496907
0.0001547273981538518   -2.0924951417252563e-05   0.00013181055493496907
0.0001547273981538518   -2.0924951417252563e-05   0.00013181055493496907
0.0001547273981538518   -2.0924951417252563e-05   0.00013181055493496907
7.289495278273948e-05   -1.3755803392708106e-05   -2.753652021576791e-07
7.289495278273948e-05   -1.3755803392708106e-05   -2.753652021576791e-07
7.289495278273948e-05   -1.3755803392708106e-05   -2.753652021576791e-07
7.289495278273948e-05   -1.3755803392708106e-05   -2.753652021576791e-07
6.939070811559411e-05   -2.4303998404518606e-05   0.00011587985439273554
6.939070811559411e-05   -2.4303998404518606e-05   0.00011587985439273554
6.939070811559411e-05   -2.4303998404518606e-05   0.00011587985439273554
6.939070811559411e-05   -2.4303998404518606e-05   0.00011587985439273554
0.00014795158438277997   -1.6722698401669227e-05   -1.9603719387615648e-05
0.00014795158438277997   -1.6722698401669227e-05   -1.9603719387615648e-05
0.00014795158438277997   -1.6722698401669227e-05   -1.9603719387615648e-05
0.00014795158438277997   -1.6722698401669227e-05   -1.9603719387615648e-05
0.00010600608020183099   -1.907624499360161e-05   5.171758220245829e-05
0.00010600608020183099   -1.907624499360161e-05   5.171758220245829e-05
0.00010600608020183099   -1.907624499360161e-05   5.171758220245829e-05
0.00010600608020183099   -1.907624499360161e-05   5.171758220245829e-05
0.00014795158438277997   -2.4303998404518606e-05   0.00011133107439102816
0.00014795158438277997   -2.4303998404518606e-05   0.00011133107439102816
0.00014795158438277997   -2.4303998404518606e-05   0.00011133107439102816
0.00014795158438277997   -2.4303998404518606e-05   0.00011133107439102816
6.939070811559425e-05   -1.6722698401669227e-05   -1.5054939385907191e-05
6.939070811559425e-05   -1.6722698401669227e-05   -1.5054939385907191e-05
6.939070811559425e-05   -1.6722698401669227e-05   -1.5054939385907191e-05
6.939070811559425e-05   -1.6722698401669227e-05   -1.5054939385907191e-05
6.552697406376855e-05   -2.498748007164625e-05   0.00010467523782190565
6.552697406376855e-05   -2.498748007164625e-05   0.00010467523782190565
6.552697406376855e-05   -2.498748007164625e-05   0.00010467523782190565
6.552697406376855e-05   -2.498748007164625e-05   0.00010467523782190565
0.00014201850235010346   -1.7519316246677845e-05   -2.729154095030054e-05
0.00014201850235010346   -1.7519316246677845e-05   -2.729154095030054e-05
0.00014201850235010346   -1.7519316246677845e-05   -2.729154095030054e-05
0.00014201850235010346   -1.7519316246677845e-05   -2.729154095030054e-05
0.00010317004940377837   -2.0277742435969442e-05   3.9110936340484934e-05
0.00010317004940377837   -2.0277742435969442e-05   3.9110936340484934e-05
0.00010317004940377837   -2.0277742435969442e-05   3.9110936340484934e-05
0.00010317004940377837   -2.0277742435969442e-05   3.9110936340484934e-05
0.00014201850235010324   -2.498748007164625e-05   0.00010019433952692443
0.00014201850235010324   -2.498748007164625e-05   0.00010019433952692443
0.00014201850235010324   -2.498748007164625e-05   0.00010019433952692443
0.00014201850235010324   -2.498748007164625e-05   0.00010019433952692443
6.552697406376866e-05   -1.7519316246677845e-05   -2.281064265531943e-05
6.552697406376866e-05   -1.7519316246677845e-05   -2.281064265531943e-05
6.552697406376866e-05   -1.7519316246677845e-05   -2.281064265531943e-05
6.552697406376866e-05   -1.7519316246677845e-05   -2.281064265531943e-05
6.196164677279358e-05   -2.5287429397377603e-05   8.95379155197596e-05
6.196164677279358e-05   -2.5287429397377603e-05   8.95379155197596e-05
6.196164677279358e-05   -2.5287429397377603e-05   8.95379155197596e-05
6.196164677279358e-05   -2.5287429397377603e-05   8.95379155197596e-05
0.00013539710114558729   -1.8282427705574623e-05   -3.705750944997695e-05
0.00013539710114558729   -1.8282427705574623e-05   -3.705750944997695e-05
0.00013539710114558729   -1.8282427705574623e-05   -3.705750944997695e-05
0.00013539710114558729   -1.8282427705574623e-05   -3.705750944997695e-05
9.700529204633301e-05   -2.017118997626674e-05   2.806209641119774e-05
9.700529204633301e-05   -2.017118997626674e-05   2.806209641119774e-05
9.700529204633301e-05   -2.017118997626674e-05   2.806209641119774e-05
9.700529204633301e-05   -2.017118997626674e-05   2.806209641119774e-05
7.289495278273923e-05   -3.9929465577726725e-06   0.00015034610264648331
7.289495278273923e-05   -3.9929465577726725e-06   0.00015034610264648331
7.289495278273923e-05   -3.9929465577726725e-06   0.00015034610264648331
7.289495278273923e-05   -3.9929465577726725e-06   0.00015034610264648331
-4.591163145109859e-06   -3.19924318113729e-08   2.3579148575645845e-05
-4.591163145109859e-06   -3.19924318113729e-08   2.3579148575645845e-05
-4.591163145109859e-06   -3.19924318113729e-08   2.3579148575645845e-05
-4.591163145109859e-06   -3.19924318113729e-08   2.3579148575645845e-05
-7.883349705140855e-06   -6.3949317256496024e-06   0.0001506305433221916
-7.883349705140855e-06   -6.3949317256496024e-06   0.0001506305433221916
-7.883349705140855e-06   -6.3949317256496024e-06   0.0001506305433221916
-7.883349705140855e-06   -6.3949317256496024e-06   0.0001506305433221916
6.939070811559425e-05   -2.6197380014461244e-06   1.957533071977687e-05
6.939070811559425e-05   -2.6197380014461244e-06   1.957533071977687e-05
6.939070811559425e-05   -2.6197380014461244e-06   1.957533071977687e-05
6.939070811559425e-05   -2.6197380014461244e-06   1.957533071977687e-05
3.1928282745350404e-05   -3.3526863745993868e-06   8.245247536074144e-05
3.1928282745350404e-05   -3.3526863745993868e-06   8.245247536074144e-05
3.1928282745350404e-05   -3.3526863745993868e-06   8.245247536074144e-05
3.1928282745350404e-05   -3.3526863745993868e-06   8.245247536074144e-05
6.939070811559403e-05   -6.3949317256496024e-06   0.0001483654270876683
6.939070811559403e-05   -6.3949317256496024e-06   0.0001483654270876683
6.939070811559403e-05   -6.3949317256496024e-06   0.0001483654270876683
6.939070811559403e-05   -6.3949317256496024e-06   0.0001483654270876683
-7.883349705140855e-06   -2.6197380014461244e-06   2.1840446954299493e-05
-7.883349705140855e-06   -2.6197380014461244e-06   2.1840446954299493e-05
-7.883349705140855e-06   -2.6197380014461244e-06   2.1840446954299493e-05
-7.883349705140855e-06   -2.6197380014461244e-06   2.1840446954299493e-05
-1.1244643669985302e-05   -8.186733106657282e-06   0.00014839974452109453
-1.1244643669985302e-05   -8.186733106657282e-06   0.00014839974452109453
-1.1244643669985302e-05   -8.186733106657282e-06   0.00014839974452109453
-1.1244643669985302e-05   -8.186733106657282e-06   0.00014839974452109453
6.552697406376866e-05   -4.666339559196257e-06   1.8334812169694458e-05
6.552697406376866e-05   -4.666339559196257e-06   1.8334812169694458e-05
6.552697406376866e-05   -4.666339559196257e-06   1.8334812169694458e-05
6.552697406376866e-05   -4.666339559196257e-06   1.8334812169694458e-05
2.8241811766043073e-05   -4.953288841733766e-06   8.064891890209895e-05
2.8241811766043073e-05   -4.953288841733766e-06   8.064891890209895e-05
2.8241811766043073e-05   -4.953288841733766e-06   8.064891890209895e-05
2.8241811766043073e-05   -4.953288841733766e-06   8.064891890209895e-05
6.552697406376855e-05   -8.186733106657282e-06   0.0001462875083926181
6.552697406376855e-05   -8.186733106657282e-06   0.0001462875083926181
6.552697406376855e-05   -8.186733106657282e-06   0.0001462875083926181
6.552697406376855e-05   -8.186733106657282e-06   0.0001462875083926181
-1.1244643669985302e-05   -4.666339559197125e-06   2.0447048298171712e-05
-1.1244643669985302e-05   -4.666339559197125e-06   2.0447048298171712e-05
-1.1244643669985302e-05   -4.666339559197125e-06   2.0447048298171712e-05
-1.1244643669985302e-05   -4.666339559197125e-06   2.0447048298171712e-05
-1.462359906305639e-05   -9.609208728137905e-06   0.00014947200560157074
-1.462359906305639e-05   -9.609208728137905e-06   0.00014947200560157074
-1.462359906305639e-05   -9.609208728137905e-06   0.00014947200560157074
-1.462359906305639e-05   -9.609208728137905e-06   0.00014947200560157074
6.196164677279363e-05   -6.570227029912244e-06   2.0006540189552416e-05
6.196164677279363e-05   -6.570227029912244e-06   2.0006540189552416e-05
6.196164677279363e-05   -6.570227029912244e-06   2.0006540189552416e-05
6.196164677279363e-05   -6.570227029912244e-06   2.0006540189552416e-05
2.5416434132889633e-05   -6.146297222526381e-06   8.066087003829681e-05
2.5416434132889633e-05   -6.146297222526381e-06   8.066087003829681e-05
2.5416434132889633e-05   -6.146297222526381e-06   8.066087003829681e-05
2.5416434132889633e-05   -6.146297222526381e-06   8.066087003829681e-05
-4.591163145109859e-06   1.3034210092173135e-05   0.00015925768995683244
-4.591163145109859e-06   1.3034210092173135e-05   0.00015925768995683244
-4.591163145109859e-06   1.3034210092173135e-05   0.00015925768995683244
-4.591163145109859e-06   1.3034210092173135e-05   0.00015925768995683244
-8.045251964752906e-05   1.3400841279040572e-05   3.3042074498253974e-05
-8.045251964752906e-05   1.3400841279040572e-05   3.3042074498253974e-05
-8.045251964752906e-05   1.3400841279040572e-05   3.3042074498253974e-05
-8.045251964752906e-05   1.3400841279040572e-05   3.3042074498253974e-05
-8.376012513188077e-05   1.102682214056995e-05   0.00015877521677699034
-8.376012513188077e-05   1.102682214056995e-05   0.00015877521677699034
-8.376012513188077e-05   1.102682214056995e-05   0.00015877521677699034
-8.376012513188077e-05   1.102682214056995e-05   0.00015877521677699034
-7.883349705140855e-06   1.1119394199165036e-05   3.22583811639336e-05
-7.883349705140855e-06   1.1119394199165036e-05   3.22583811639336e-05
-7.883349705140855e-06   1.1119394199165036e-05   3.22583811639336e-05
-7.883349705140855e-06   1.1119394199165036e-05   3.22583811639336e-05
-4.428692831648281e-05   1.1937577849802788e-05   9.24401019924549e-05
-4.428692831648281e-05   1.1937577849802788e-05   9.24401019924549e-05
-4.428692831648281e-05   1.1937577849802788e-05   9.24401019924549e-05
-4.428692831648281e-05   1.1937577849802788e-05   9.24401019924549e-05
-7.883349705140855e-06   1.1026822140571685e-05   0.00015871967354183416
-7.883349705140855e-06   1.1026822140571685e-05   0.00015871967354183416
-7.883349705140855e-06   1.1026822140571685e-05   0.00015871967354183416
-7.883349705140855e-06   1.1026822140571685e-05   0.00015871967354183416
-8.376012513188077e-05   1.1119394199165036e-05   3.231392439909022e-05
-8.376012513188077e-05   1.1119394199165036e-05   3.231392439909022e-05
-8.376012513188077e-05   1.1119394199165036e-05   3.231392439909022e-05
-8.376012513188077e-05   1.1119394199165036e-05   3.231392439909022e-05
-8.715158058584312e-05   9.077259447825767e-06   0.000159662327395867
-8.715158058584312e-05   9.077259447825767e-06   0.000159662327395867
-8.715158058584312e-05   9.077259447825767e-06   0.000159662327395867
-8.715158058584312e-05   9.077259447825767e-06   0.000159662327395867
-1.1244643669985302e-05   8.873799678218997e-06   3.327284173120122e-05
-1.1244643669985302e-05   8.873799678218997e-06   3.327284173120122e-05
-1.1244643669985302e-05   8.873799678218997e-06   3.327284173120122e-05
-1.1244643669985302e-05   8.873799678218997e-06   3.327284173120122e-05
-4.736002704718541e-05   1.040025762171111e-05   9.254927259377539e-05
-4.736002704718541e-05   1.040025762171111e-05   9.254927259377539e-05
-4.736002704718541e-05   1.040025762171111e-05   9.254927259377539e-05
-4.736002704718541e-05   1.040025762171111e-05   9.254927259377539e-05
-1.1244643669985302e-05   9.077259447827501e-06   0.00015978440325763177
-1.1244643669985302e-05   9.077259447827501e-06   0.00015978440325763177
-1.1244643669985302e-05   9.077259447827501e-06   0.00015978440325763177
-1.1244643669985302e-05   9.077259447827501e-06   0.00015978440325763177
-8.715158058584312e-05   8.873799678218997e-06   3.315076586943733e-05
-8.715158058584312e-05   8.873799678218997e-06   3.315076586943733e-05
-8.715158058584312e-05   8.873799678218997e-06   3.315076586943733e-05
-8.715158058584312e-05   8.873799678218997e-06   3.315076586943733e-05
-9.054283162980223e-05   7.341372953198824e-06   0.00016167312664910633
-9.054283162980223e-05   7.341372953198824e-06   0.00016167312664910633
-9.054283162980223e-05   7.341372953198824e-06   0.00016167312664910633
-9.054283162980223e-05   7.341372953198824e-06   0.00016167312664910633
-1.4623599063056443e-05   6.7423279270376404e-06   3.550049938689408e-05
-1.4623599063056443e-05   6.7423279270376404e-06   3.550049938689408e-05
-1.4623599063056443e-05   6.7423279270376404e-06   3.550049938689408e-05
-1.4623599063056443e-05   6.7423279270376404e-06   3.550049938689408e-05
-5.057622421935146e-05   8.901270608572404e-06   9.412617570513375e-05
-5.057622421935146e-05   8.901270608572404e-06   9.412617570513375e-05
-5.057622421935146e-05   8.901270608572404e-06   9.412617570513375e-05
-5.057622421935146e-05   8.901270608572404e-06   9.412617570513375e-05
-8.045251964752895e-05   2.958803752608173e-05   0.00013999298397030652
-8.045251964752895e-05   2.958803752608173e-05   0.00013999298397030652
-8.045251964752895e-05   2.958803752608173e-05   0.00013999298397030652
-8.045251964752895e-05   2.958803752608173e-05   0.00013999298397030652
-0.00015457302460205723   2.6316794012068087e-05   1.4496062937683837e-05
-0.00015457302460205723   2.6316794012068087e-05   1.4496062937683837e-05
-0.00015457302460205723   2.6316794012068087e-05   1.4496062937683837e-05
-0.00015457302460205723   2.6316794012068087e-05   1.4496062937683837e-05
-0.0001581301241213237   2.766340540288903e-05   0.00013905358222602183
-0.0001581301241213237   2.766340540288903e-05   0.00013905358222602183
-0.0001581301241213237   2.766340540288903e-05   0.00013905358222602183
-0.0001581301241213237   2.766340540288903e-05   0.00013905358222602183
-8.376012513188098e-05   2.412521133689661e-05   1.7226500349878677e-05
-8.376012513188098e-05   2.412521133689661e-05   1.7226500349878677e-05
-8.376012513188098e-05   2.412521133689661e-05   1.7226500349878677e-05
-8.376012513188098e-05   2.412521133689661e-05   1.7226500349878677e-05
-0.00011883681608623178   2.6580370571486697e-05   7.42145563997099e-05
-0.00011883681608623178   2.6580370571486697e-05   7.42145563997099e-05
-0.00011883681608623178   2.6580370571486697e-05   7.42145563997099e-05
-0.00011883681608623178   2.6580370571486697e-05   7.42145563997099e-05
-8.376012513188077e-05   2.766340540288903e-05   0.00014117649866561815
-8.376012513188077e-05   2.766340540288903e-05   0.00014117649866561815
-8.376012513188077e-05   2.766340540288903e-05   0.00014117649866561815
-8.376012513188077e-05   2.766340540288903e-05   0.00014117649866561815
-0.0001581301241213237   2.412521133689661e-05   1.5103583910283658e-05
-0.0001581301241213237   2.412521133689661e-05   1.5103583910283658e-05
-0.0001581301241213237   2.412521133689661e-05   1.5103583910283658e-05
-0.0001581301241213237   2.412521133689661e-05   1.5103583910283658e-05
-0.00016204909414602447   2.5895759339027158e-05   0.00014425863365010935
-0.00016204909414602447   2.5895759339027158e-05   0.00014425863365010935
-0.00016204909414602447   2.5895759339027158e-05   0.00014425863365010935
-0.00016204909414602447   2.5895759339027158e-05   0.00014425863365010935
-8.715158058584334e-05   2.2089431703042547e-05   2.1713240964730185e-05
-8.715158058584334e-05   2.2089431703042547e-05   2.1713240964730185e-05
-8.715158058584334e-05   2.2089431703042547e-05   2.1713240964730185e-05
-8.715158058584334e-05   2.2089431703042547e-05   2.1713240964730185e-05
-0.00012140352525648432   2.5178349351182364e-05   7.694646482691919e-05
-0.00012140352525648432   2.5178349351182364e-05   7.694646482691919e-05
-0.00012140352525648432   2.5178349351182364e-05   7.694646482691919e-05
-0.00012140352525648432   2.5178349351182364e-05   7.694646482691919e-05
-8.715158058584323e-05   2.5895759339025423e-05   0.0001465424302316996
-8.715158058584323e-05   2.5895759339025423e-05   0.0001465424302316996
-8.715158058584323e-05   2.5895759339025423e-05   0.0001465424302316996
-8.715158058584323e-05   2.5895759339025423e-05   0.0001465424302316996
-0.00016204909414602447   2.2089431703042547e-05   1.942944438314059e-05
-0.00016204909414602447   2.2089431703042547e-05   1.942944438314059e-05
-0.00016204909414602447   2.2089431703042547e-05   1.942944438314059e-05
-0.00016204909414602447   2.2089431703042547e-05   1.942944438314059e-05
-0.00016563616865710557   2.374308573463088e-05   0.00014819767347089372
-0.00016563616865710557   2.374308573463088e-05   0.00014819767347089372
-0.00016563616865710557   2.374308573463088e-05   0.00014819767347089372
-0.00016563616865710557   2.374308573463088e-05   0.00014819767347089372
-9.054283162980234e-05   1.972447750267503e-05   2.5453276697895866e-05
-9.054283162980234e-05   1.972447750267503e-05   2.5453276697895866e-05
-9.054283162980234e-05   1.972447750267503e-05   2.5453276697895866e-05
-9.054283162980234e-05   1.972447750267503e-05   2.5453276697895866e-05
-0.00012545967851339252   2.3603802713715455e-05   8.132042637726288e-05
-0.00012545967851339252   2.3603802713715455e-05   8.132042637726288e-05
-0.00012545967851339252   2.3603802713715455e-05   8.132042637726288e-05
-0.00012545967851339252   2.3603802713715455e-05   8.132042637726288e-05
-0.00015457302460205723   4.252336085233677e-05   6.758378929391969e-05
-0.00015457302460205723   4.252336085233677e-05   6.758378929391969e-05
-0.00015457302460205723   4.252336085233677e-05   6.758378929391969e-05
-0.00015457302460205723   4.252336085233677e-05   6.758378929391969e-05
-0.00022480721977221957   3.6186631166621255e-05   -5.327524046778e-05
-0.00022480721977221957   3.6186631166621255e-05   -5.327524046778e-05
-0.00022480721977221957   3.6186631166621255e-05   -5.327524046778e-05
-0.00022480721977221957   3.6186631166621255e-05   -5.327524046778e-05
-0.0002311924949520551   4.29497429569603e-05   8.96274419233999e-05
-0.0002311924949520551   4.29497429569603e-05   8.96274419233999e-05
-0.0002311924949520551   4.29497429569603e-05   8.96274419233999e-05
-0.0002311924949520551   4.29497429569603e-05   8.96274419233999e-05
-0.0001581301241213237   3.598148215137962e-05   -2.7962219644471313e-05
-0.0001581301241213237   3.598148215137962e-05   -2.7962219644471313e-05
-0.0001581301241213237   3.598148215137962e-05   -2.7962219644471313e-05
-0.0001581301241213237   3.598148215137962e-05   -2.7962219644471313e-05
-0.00018486787455425033   3.8842692365866766e-05   1.4883971615048657e-05
-0.00018486787455425033   3.8842692365866766e-05   1.4883971615048657e-05
-0.00018486787455425033   3.8842692365866766e-05   1.4883971615048657e-05
-0.00018486787455425033   3.8842692365866766e-05   1.4883971615048657e-05
-0.0001581301241213237   4.29497429569603e-05   9.380839840674848e-05
-0.0001581301241213237   4.29497429569603e-05   9.380839840674848e-05
-0.0001581301241213237   4.29497429569603e-05   9.380839840674848e-05
-0.0001581301241213237   4.29497429569603e-05   9.380839840674848e-05
-0.00023119249495205554   3.598148215137962e-05   -3.214317612781946e-05
-0.00023119249495205554   3.598148215137962e-05   -3.214317612781946e-05
-0.00023119249495205554   3.598148215137962e-05   -3.214317612781946e-05
-0.00023119249495205554   3.598148215137962e-05   -3.214317612781946e-05
-0.0002369165278930088   4.24701195790092e-05   0.00010750806172835602
-0.0002369165278930088   4.24701195790092e-05   0.00010750806172835602
-0.0002369165278930088   4.24701195790092e-05   0.00010750806172835602
-0.0002369165278930088   4.24701195790092e-05   0.00010750806172835602
-0.00016204909414602447   3.524019827591974e-05   -1.2933041734764861e-05
-0.00016204909414602447   3.524019827591974e-05   -1.2933041734764861e-05
-0.00016204909414602447   3.524019827591974e-05   -1.2933041734764861e-05
-0.00016204909414602447   3.524019827591974e-05   -1.2933041734764861e-05
-0.00019217247222088544   3.92628346296605e-05   3.485900657776604e-05
-0.00019217247222088544   3.92628346296605e-05   3.485900657776604e-05
-0.00019217247222088544   3.92628346296605e-05   3.485900657776604e-05
-0.00019217247222088544   3.92628346296605e-05   3.485900657776604e-05
-0.00016204909414602447   4.247011957901094e-05   0.00011184601451021039
-0.00016204909414602447   4.247011957901094e-05   0.00011184601451021039
-0.00016204909414602447   4.247011957901094e-05   0.00011184601451021039
-0.00016204909414602447   4.247011957901094e-05   0.00011184601451021039
-0.00023691652789300903   3.524019827591974e-05   -1.7270994516618583e-05
-0.00023691652789300903   3.524019827591974e-05   -1.7270994516618583e-05
-0.00023691652789300903   3.524019827591974e-05   -1.7270994516618583e-05
-0.00023691652789300903   3.524019827591974e-05   -1.7270994516618583e-05
-0.00024350039925847677   3.917777504078464e-05   0.00013830533221560228
-0.00024350039925847677   3.917777504078464e-05   0.00013830533221560228
-0.00024350039925847677   3.917777504078464e-05   0.00013830533221560228
-0.00024350039925847677   3.917777504078464e-05   0.00013830533221560228
-0.00016563616865710557   3.1989599047406794e-05   1.2844520142676029e-05
-0.00016563616865710557   3.1989599047406794e-05   1.2844520142676029e-05
-0.00016563616865710557   3.1989599047406794e-05   1.2844520142676029e-05
-0.00016563616865710557   3.1989599047406794e-05   1.2844520142676029e-05
-0.0001937905955499794   3.791740330808327e-05   5.621188240772894e-05
-0.0001937905955499794   3.791740330808327e-05   5.621188240772894e-05
-0.0001937905955499794   3.791740330808327e-05   5.621188240772894e-05
-0.0001937905955499794   3.791740330808327e-05   5.621188240772894e-05
0.00010603970810289025   -1.3755803392707239e-05   0.00010691909855183469
0.00010603970810289025   -1.3755803392707239e-05   0.00010691909855183469
0.00010603970810289025   -1.3755803392707239e-05   0.00010691909855183469
0.00010603970810289025   -1.3755803392707239e-05   0.00010691909855183469
4.3964672078667785e-05   -6.681149770160384e-06   7.7054973516592e-06
4.3964672078667785e-05   -6.681149770160384e-06   7.7054973516592e-06
4.3964672078667785e-05   -6.681149770160384e-06   7.7054973516592e-06
4.3964672078667785e-05   -6.681149770160384e-06   7.7054973516592e-06
4.115345855096432e-05   -1.6722698401669227e-05   9.619508495614659e-05
4.115345855096432e-05   -1.6722698401669227e-05   9.619508495614659e-05
4.115345855096432e-05   -1.6722698401669227e-05   9.619508495614659e-05
4.115345855096432e-05   -1.6722698401669227e-05   9.619508495614659e-05
0.0001000650353701003   -9.325802242973573e-06   -6.4290141042970105e-06
0.0001000650353701003   -9.325802242973573e-06   -6.4290141042970105e-06
0.0001000650353701003   -9.325802242973573e-06   -6.4290141042970105e-06
0.0001000650353701003   -9.325802242973573e-06   -6.4290141042970105e-06
6.917939494599862e-05   -1.1905961168788212e-05   4.6595148624697155e-05
6.917939494599862e-05   -1.1905961168788212e-05   4.6595148624697155e-05
6.917939494599862e-05   -1.1905961168788212e-05   4.6595148624697155e-05
6.917939494599862e-05   -1.1905961168788212e-05   4.6595148624697155e-05
0.00010006503537010047   -1.6722698401670094e-05   9.175694726093041e-05
0.00010006503537010047   -1.6722698401670094e-05   9.175694726093041e-05
0.00010006503537010047   -1.6722698401670094e-05   9.175694726093041e-05
0.00010006503537010047   -1.6722698401670094e-05   9.175694726093041e-05
4.1153458550964185e-05   -9.325802242973573e-06   -1.9908764090793146e-06
4.1153458550964185e-05   -9.325802242973573e-06   -1.9908764090793146e-06
4.1153458550964185e-05   -9.325802242973573e-06   -1.9908764090793146e-06
4.1153458550964185e-05   -9.325802242973573e-06   -1.9908764090793146e-06
3.800072140907183e-05   -1.7519316246677845e-05   8.822247621711934e-05
3.800072140907183e-05   -1.7519316246677845e-05   8.822247621711934e-05
3.800072140907183e-05   -1.7519316246677845e-05   8.822247621711934e-05
3.800072140907183e-05   -1.7519316246677845e-05   8.822247621711934e-05
9.494097247081835e-05   -1.0241169964217423e-05   -1.104482998860051e-05
9.494097247081835e-05   -1.0241169964217423e-05   -1.104482998860051e-05
9.494097247081835e-05   -1.0241169964217423e-05   -1.104482998860051e-05
9.494097247081835e-05   -1.0241169964217423e-05   -1.104482998860051e-05
6.649832256051585e-05   -1.3025967002150939e-05   3.80304647513317e-05
6.649832256051585e-05   -1.3025967002150939e-05   3.80304647513317e-05
6.649832256051585e-05   -1.3025967002150939e-05   3.80304647513317e-05
6.649832256051585e-05   -1.3025967002150939e-05   3.80304647513317e-05
9.494097247081851e-05   -1.7519316246677845e-05   8.385558844764204e-05
9.494097247081851e-05   -1.7519316246677845e-05   8.385558844764204e-05
9.494097247081851e-05   -1.7519316246677845e-05   8.385558844764204e-05
9.494097247081851e-05   -1.7519316246677845e-05   8.385558844764204e-05
3.800072140907178e-05   -1.0241169964217423e-05   -6.677942219123975e-06
3.800072140907178e-05   -1.0241169964217423e-05   -6.677942219123975e-06
3.800072140907178e-05   -1.0241169964217423e-05   -6.677942219123975e-06
3.800072140907178e-05   -1.0241169964217423e-05   -6.677942219123975e-06
3.51765921362249e-05   -1.8282427705574623e-05   7.79065408941489e-05
3.51765921362249e-05   -1.8282427705574623e-05   7.79065408941489e-05
3.51765921362249e-05   -1.8282427705574623e-05   7.79065408941489e-05
3.51765921362249e-05   -1.8282427705574623e-05   7.79065408941489e-05
8.913733756763911e-05   -1.1467117573255199e-05   -1.611722090426608e-05
8.913733756763911e-05   -1.1467117573255199e-05   -1.611722090426608e-05
8.913733756763911e-05   -1.1467117573255199e-05   -1.611722090426608e-05
8.913733756763911e-05   -1.1467117573255199e-05   -1.611722090426608e-05
6.16020367451769e-05   -1.3256340608636466e-05   3.084848095439912e-05
6.16020367451769e-05   -1.3256340608636466e-05   3.084848095439912e-05
6.16020367451769e-05   -1.3256340608636466e-05   3.084848095439912e-05
6.16020367451769e-05   -1.3256340608636466e-05   3.084848095439912e-05
4.396467207866795e-05   -3.19924318113729e-08   0.00013264183202759024
4.396467207866795e-05   -3.19924318113729e-08   0.00013264183202759024
4.396467207866795e-05   -3.19924318113729e-08   0.00013264183202759024
4.396467207866795e-05   -3.19924318113729e-08   0.00013264183202759024
-1.4329089636404356e-05   3.5460631347067686e-06   3.7632395842381126e-05
-1.4329089636404356e-05   3.5460631347067686e-06   3.7632395842381126e-05
-1.4329089636404356e-05   3.5460631347067686e-06   3.7632395842381126e-05
-1.4329089636404356e-05   3.5460631347067686e-06   3.7632395842381126e-05
-1.6910164617061382e-05   -2.6197380014461244e-06   0.00013291317221222898
-1.6910164617061382e-05   -2.6197380014461244e-06   0.00013291317221222898
-1.6910164617061382e-05   -2.6197380014461244e-06   0.00013291317221222898
-1.6910164617061382e-05   -2.6197380014461244e-06   0.00013291317221222898
4.1153458550964185e-05   8.599572492188831e-07   3.405264978178832e-05
4.1153458550964185e-05   8.599572492188831e-07   3.405264978178832e-05
4.1153458550964185e-05   8.599572492188831e-07   3.405264978178832e-05
4.1153458550964185e-05   8.599572492188831e-07   3.405264978178832e-05
1.3055763990911512e-05   2.099453258299147e-07   8.127214786924578e-05
1.3055763990911512e-05   2.099453258299147e-07   8.127214786924578e-05
1.3055763990911512e-05   2.099453258299147e-07   8.127214786924578e-05
1.3055763990911512e-05   2.099453258299147e-07   8.127214786924578e-05
4.115345855096429e-05   -2.619738001445257e-06   0.00013082535506183084
4.115345855096429e-05   -2.619738001445257e-06   0.00013082535506183084
4.115345855096429e-05   -2.619738001445257e-06   0.00013082535506183084
4.115345855096429e-05   -2.619738001445257e-06   0.00013082535506183084
-1.6910164617061382e-05   8.599572492188831e-07   3.614046693218784e-05
-1.6910164617061382e-05   8.599572492188831e-07   3.614046693218784e-05
-1.6910164617061382e-05   8.599572492188831e-07   3.614046693218784e-05
-1.6910164617061382e-05   8.599572492188831e-07   3.614046693218784e-05
-1.954807199103795e-05   -4.666339559197125e-06   0.000131361020907151
-1.954807199103795e-05   -4.666339559197125e-06   0.000131361020907151
-1.954807199103795e-05   -4.666339559197125e-06   0.000131361020907151
-1.954807199103795e-05   -4.666339559197125e-06   0.000131361020907151
3.800072140907178e-05   -1.3445231175010508e-06   3.3453275375285095e-05
3.800072140907178e-05   -1.3445231175010508e-06   3.3453275375285095e-05
3.800072140907178e-05   -1.3445231175010508e-06   3.3453275375285095e-05
3.800072140907178e-05   -1.3445231175010508e-06   3.3453275375285095e-05
1.0222692866692376e-05   -1.585538316799251e-06   7.989459873216634e-05
1.0222692866692376e-05   -1.585538316799251e-06   7.989459873216634e-05
1.0222692866692376e-05   -1.585538316799251e-06   7.989459873216634e-05
1.0222692866692376e-05   -1.585538316799251e-06   7.989459873216634e-05
3.80007214090719e-05   -4.666339559196257e-06   0.0001293679310421349
3.80007214090719e-05   -4.666339559196257e-06   0.0001293679310421349
3.80007214090719e-05   -4.666339559196257e-06   0.0001293679310421349
3.80007214090719e-05   -4.666339559196257e-06   0.0001293679310421349
-1.9548071991038005e-05   -1.3445231175019182e-06   3.5446365240302154e-05
-1.9548071991038005e-05   -1.3445231175019182e-06   3.5446365240302154e-05
-1.9548071991038005e-05   -1.3445231175019182e-06   3.5446365240302154e-05
-1.9548071991038005e-05   -1.3445231175019182e-06   3.5446365240302154e-05
-2.216301496194619e-05   -6.570227029912244e-06   0.00013259459365685608
-2.216301496194619e-05   -6.570227029912244e-06   0.00013259459365685608
-2.216301496194619e-05   -6.570227029912244e-06   0.00013259459365685608
-2.216301496194619e-05   -6.570227029912244e-06   0.00013259459365685608
3.5176592136224754e-05   -3.5252201328137694e-06   3.520157768831234e-05
3.5176592136224754e-05   -3.5252201328137694e-06   3.520157768831234e-05
3.5176592136224754e-05   -3.5252201328137694e-06   3.520157768831234e-05
3.5176592136224754e-05   -3.5252201328137694e-06   3.520157768831234e-05
7.976785805048255e-06   -3.0903216197463237e-06   8.027364913243211e-05
7.976785805048255e-06   -3.0903216197463237e-06   8.027364913243211e-05
7.976785805048255e-06   -3.0903216197463237e-06   8.027364913243211e-05
7.976785805048255e-06   -3.0903216197463237e-06   8.027364913243211e-05
-1.4329089636404301e-05   1.3400841279040572e-05   0.00014403161257798853
-1.4329089636404301e-05   1.3400841279040572e-05   0.00014403161257798853
-1.4329089636404301e-05   1.3400841279040572e-05   0.00014403161257798853
-1.4329089636404301e-05   1.3400841279040572e-05   0.00014403161257798853
-7.167899497019655e-05   1.3165337558490586e-05   4.8307134789339016e-05
-7.167899497019655e-05   1.3165337558490586e-05   4.8307134789339016e-05
-7.167899497019655e-05   1.3165337558490586e-05   4.8307134789339016e-05
-7.167899497019655e-05   1.3165337558490586e-05   4.8307134789339016e-05
-7.422313377234324e-05   1.1119394199165036e-05   0.00014308979700137017
-7.422313377234324e-05   1.1119394199165036e-05   0.00014308979700137017
-7.422313377234324e-05   1.1119394199165036e-05   0.00014308979700137017
-7.422313377234324e-05   1.1119394199165036e-05   0.00014308979700137017
-1.6910164617061328e-05   1.0717211831674962e-05   4.7809491163061614e-05
-1.6910164617061328e-05   1.0717211831674962e-05   4.7809491163061614e-05
-1.6910164617061328e-05   1.0717211831674962e-05   4.7809491163061614e-05
-1.6910164617061328e-05   1.0717211831674962e-05   4.7809491163061614e-05
-4.4395105344521623e-05   1.180580931455736e-05   9.296456721910183e-05
-4.4395105344521623e-05   1.180580931455736e-05   9.296456721910183e-05
-4.4395105344521623e-05   1.180580931455736e-05   9.296456721910183e-05
-4.4395105344521623e-05   1.180580931455736e-05   9.296456721910183e-05
-1.6910164617061382e-05   1.1119394199165904e-05   0.0001433311064218644
-1.6910164617061382e-05   1.1119394199165904e-05   0.0001433311064218644
-1.6910164617061382e-05   1.1119394199165904e-05   0.0001433311064218644
-1.6910164617061382e-05   1.1119394199165904e-05   0.0001433311064218644
-7.422313377234324e-05   1.0717211831674095e-05   4.756818174256761e-05
-7.422313377234324e-05   1.0717211831674095e-05   4.756818174256761e-05
-7.422313377234324e-05   1.0717211831674095e-05   4.756818174256761e-05
-7.422313377234324e-05   1.0717211831674095e-05   4.756818174256761e-05
-7.682940111328196e-05   8.873799678218997e-06   0.00014384069753704473
-7.682940111328196e-05   8.873799678218997e-06   0.00014384069753704473
-7.682940111328196e-05   8.873799678218997e-06   0.00014384069753704473
-7.682940111328196e-05   8.873799678218997e-06   0.00014384069753704473
-1.9548071991037897e-05   8.296938339658229e-06   4.8717932469774993e-05
-1.9548071991037897e-05   8.296938339658229e-06   4.8717932469774993e-05
-1.9548071991037897e-05   8.296938339658229e-06   4.8717932469774993e-05
-1.9548071991037897e-05   8.296938339658229e-06   4.8717932469774993e-05
-4.672742551142399e-05   1.0025819107601502e-05   9.297952654298801e-05
-4.672742551142399e-05   1.0025819107601502e-05   9.297952654298801e-05
-4.672742551142399e-05   1.0025819107601502e-05   9.297952654298801e-05
-4.672742551142399e-05   1.0025819107601502e-05   9.297952654298801e-05
-1.9548071991038005e-05   8.873799678218997e-06   0.00014418681434018137
-1.9548071991038005e-05   8.873799678218997e-06   0.00014418681434018137
-1.9548071991038005e-05   8.873799678218997e-06   0.00014418681434018137
-1.9548071991038005e-05   8.873799678218997e-06   0.00014418681434018137
-7.682940111328196e-05   8.296938339658229e-06   4.8371815666638576e-05
-7.682940111328196e-05   8.296938339658229e-06   4.8371815666638576e-05
-7.682940111328196e-05   8.296938339658229e-06   4.8371815666638576e-05
-7.682940111328196e-05   8.296938339658229e-06   4.8371815666638576e-05
-7.940626633535478e-05   6.7423279270376404e-06   0.00014579925617261725
-7.940626633535478e-05   6.7423279270376404e-06   0.00014579925617261725
-7.940626633535478e-05   6.7423279270376404e-06   0.00014579925617261725
-7.940626633535478e-05   6.7423279270376404e-06   0.00014579925617261725
-2.2163014961946136e-05   5.9658151559610975e-06   5.085974487958195e-05
-2.2163014961946136e-05   5.9658151559610975e-06   5.085974487958195e-05
-2.2163014961946136e-05   5.9658151559610975e-06   5.085974487958195e-05
-2.2163014961946136e-05   5.9658151559610975e-06   5.085974487958195e-05
-4.9165803558097904e-05   8.286860871052973e-06   9.447176511078077e-05
-4.9165803558097904e-05   8.286860871052973e-06   9.447176511078077e-05
-4.9165803558097904e-05   8.286860871052973e-06   9.447176511078077e-05
-4.9165803558097904e-05   8.286860871052973e-06   9.447176511078077e-05
-7.167899497019655e-05   2.6316794012068087e-05   0.0001273070448934979
-7.167899497019655e-05   2.6316794012068087e-05   0.0001273070448934979
-7.167899497019655e-05   2.6316794012068087e-05   0.0001273070448934979
-7.167899497019655e-05   2.6316794012068087e-05   0.0001273070448934979
-0.00012801612841644946   2.2517721092607176e-05   3.1132378731400095e-05
-0.00012801612841644946   2.2517721092607176e-05   3.1132378731400095e-05
-0.00012801612841644946   2.2517721092607176e-05   3.1132378731400095e-05
-0.00012801612841644946   2.2517721092607176e-05   3.1132378731400095e-05
-0.0001307424026100307   2.412521133689661e-05   0.00012559985971331844
-0.0001307424026100307   2.412521133689661e-05   0.00012559985971331844
-0.0001307424026100307   2.412521133689661e-05   0.00012559985971331844
-0.0001307424026100307   2.412521133689661e-05   0.00012559985971331844
-7.422313377234303e-05   2.0121022605493546e-05   3.3803591556014244e-05
-7.422313377234303e-05   2.0121022605493546e-05   3.3803591556014244e-05
-7.422313377234303e-05   2.0121022605493546e-05   3.3803591556014244e-05
-7.422313377234303e-05   2.0121022605493546e-05   3.3803591556014244e-05
-0.0001008809400093763   2.2882351744510365e-05   7.657647113432867e-05
-0.0001008809400093763   2.2882351744510365e-05   7.657647113432867e-05
-0.0001008809400093763   2.2882351744510365e-05   7.657647113432867e-05
-0.0001008809400093763   2.2882351744510365e-05   7.657647113432867e-05
-7.422313377234324e-05   2.412521133689574e-05   0.00012800237295215993
-7.422313377234324e-05   2.412521133689574e-05   0.00012800237295215993
-7.422313377234324e-05   2.412521133689574e-05   0.00012800237295215993
-7.422313377234324e-05   2.412521133689574e-05   0.00012800237295215993
-0.00013074240261003048   2.0121022605493546e-05   3.140107831717297e-05
-0.00013074240261003048   2.0121022605493546e-05   3.140107831717297e-05
-0.00013074240261003048   2.0121022605493546e-05   3.140107831717297e-05
-0.00013074240261003048   2.0121022605493546e-05   3.140107831717297e-05
-0.0001338131883639284   2.2089431703042547e-05   0.0001298948301154115
-0.0001338131883639284   2.2089431703042547e-05   0.0001298948301154115
-0.0001338131883639284   2.2089431703042547e-05   0.0001298948301154115
-0.0001338131883639284   2.2089431703042547e-05   0.0001298948301154115
-7.682940111328163e-05   1.790886084149755e-05   3.743019388126128e-05
-7.682940111328163e-05   1.790886084149755e-05   3.743019388126128e-05
-7.682940111328163e-05   1.790886084149755e-05   3.743019388126128e-05
-7.682940111328163e-05   1.790886084149755e-05   3.743019388126128e-05
-0.00010278083397103667   2.124734944185247e-05   7.867948881730923e-05
-0.00010278083397103667   2.124734944185247e-05   7.867948881730923e-05
-0.00010278083397103667   2.124734944185247e-05   7.867948881730923e-05
-0.00010278083397103667   2.124734944185247e-05   7.867948881730923e-05
-7.682940111328185e-05   2.2089431703042547e-05   0.0001324031726323378
-7.682940111328185e-05   2.2089431703042547e-05   0.0001324031726323378
-7.682940111328185e-05   2.2089431703042547e-05   0.0001324031726323378
-7.682940111328185e-05   2.2089431703042547e-05   0.0001324031726323378
-0.00013381318836392818   1.790886084149755e-05   3.4921851364334323e-05
-0.00013381318836392818   1.790886084149755e-05   3.4921851364334323e-05
-0.00013381318836392818   1.790886084149755e-05   3.4921851364334323e-05
-0.00013381318836392818   1.790886084149755e-05   3.4921851364334323e-05
-0.00013654748285482675   1.972447750267503e-05   0.0001335415970449708
-0.00013654748285482675   1.972447750267503e-05   0.0001335415970449708
-0.00013654748285482675   1.972447750267503e-05   0.0001335415970449708
-0.00013654748285482675   1.972447750267503e-05   0.0001335415970449708
-7.940626633535456e-05   1.5441371745431032e-05   4.0876099633530396e-05
-7.940626633535456e-05   1.5441371745431032e-05   4.0876099633530396e-05
-7.940626633535456e-05   1.5441371745431032e-05   4.0876099633530396e-05
-7.940626633535456e-05   1.5441371745431032e-05   4.0876099633530396e-05
-0.00010585215760953342   1.9532629461940093e-05   8.249783046059196e-05
-0.00010585215760953342   1.9532629461940093e-05   8.249783046059196e-05
-0.00010585215760953342   1.9532629461940093e-05   8.249783046059196e-05
-0.00010585215760953342   1.9532629461940093e-05   8.249783046059196e-05
-0.00012801612841644946   3.6186631166621255e-05   6.105833554778759e-05
-0.00012801612841644946   3.6186631166621255e-05   6.105833554778759e-05
-0.00012801612841644946   3.6186631166621255e-05   6.105833554778759e-05
-0.00012801612841644946   3.6186631166621255e-05   6.105833554778759e-05
-0.00018069375663148685   2.9455938679393175e-05   -3.077612696961228e-05
-0.00018069375663148685   2.9455938679393175e-05   -3.077612696961228e-05
-0.00018069375663148685   2.9455938679393175e-05   -3.077612696961228e-05
-0.00018069375663148685   2.9455938679393175e-05   -3.077612696961228e-05
-0.00018638336148677262   3.598148215137962e-05   7.814891599621735e-05
-0.00018638336148677262   3.598148215137962e-05   7.814891599621735e-05
-0.00018638336148677262   3.598148215137962e-05   7.814891599621735e-05
-0.00018638336148677262   3.598148215137962e-05   7.814891599621735e-05
-0.00013074240261003026   2.8672915214137534e-05   -1.020087530267293e-05
-0.00013074240261003026   2.8672915214137534e-05   -1.020087530267293e-05
-0.00013074240261003026   2.8672915214137534e-05   -1.020087530267293e-05
-0.00013074240261003026   2.8672915214137534e-05   -1.020087530267293e-05
-0.00015059894755908995   3.1990658720137434e-05   2.0902720175495354e-05
-0.00015059894755908995   3.1990658720137434e-05   2.0902720175495354e-05
-0.00015059894755908995   3.1990658720137434e-05   2.0902720175495354e-05
-0.00015059894755908995   3.1990658720137434e-05   2.0902720175495354e-05
-0.00013074240261003048   3.598148215137962e-05   8.253405615856347e-05
-0.00013074240261003048   3.598148215137962e-05   8.253405615856347e-05
-0.00013074240261003048   3.598148215137962e-05   8.253405615856347e-05
-0.00013074240261003048   3.598148215137962e-05   8.253405615856347e-05
-0.00018638336148677284   2.86729152141384e-05   -1.4586015465018832e-05
-0.00018638336148677284   2.86729152141384e-05   -1.4586015465018832e-05
-0.00018638336148677284   2.86729152141384e-05   -1.4586015465018832e-05
-0.00018638336148677284   2.86729152141384e-05   -1.4586015465018832e-05
-0.00019135453674079105   3.524019827591974e-05   9.303002591748606e-05
-0.00019135453674079105   3.524019827591974e-05   9.303002591748606e-05
-0.00019135453674079105   3.524019827591974e-05   9.303002591748606e-05
-0.00019135453674079105   3.524019827591974e-05   9.303002591748606e-05
-0.00013381318836392796   2.773633480921984e-05   1.6300967027342225e-06
-0.00013381318836392796   2.773633480921984e-05   1.6300967027342225e-06
-0.00013381318836392796   2.773633480921984e-05   1.6300967027342225e-06
-0.00013381318836392796   2.773633480921984e-05   1.6300967027342225e-06
-0.00015660014734725648   3.2001030767883284e-05   3.7049544099756505e-05
-0.00015660014734725648   3.2001030767883284e-05   3.7049544099756505e-05
-0.00015660014734725648   3.2001030767883284e-05   3.7049544099756505e-05
-0.00015660014734725648   3.2001030767883284e-05   3.7049544099756505e-05
-0.0001338131883639284   3.524019827591974e-05   9.753234399750583e-05
-0.0001338131883639284   3.524019827591974e-05   9.753234399750583e-05
-0.0001338131883639284   3.524019827591974e-05   9.753234399750583e-05
-0.0001338131883639284   3.524019827591974e-05   9.753234399750583e-05
-0.00019135453674079105   2.773633480921984e-05   -2.872221377285761e-06
-0.00019135453674079105   2.773633480921984e-05   -2.872221377285761e-06
-0.00019135453674079105   2.773633480921984e-05   -2.872221377285761e-06
-0.00019135453674079105   2.773633480921984e-05   -2.872221377285761e-06
-0.0001971272784483081   3.1989599047406794e-05   0.00011891589071970094
-0.0001971272784483081   3.1989599047406794e-05   0.00011891589071970094
-0.0001971272784483081   3.1989599047406794e-05   0.00011891589071970094
-0.0001971272784483081   3.1989599047406794e-05   0.00011891589071970094
-0.0001365474828548261   2.4609407865369172e-05   2.2377679439787926e-05
-0.0001365474828548261   2.4609407865369172e-05   2.2377679439787926e-05
-0.0001365474828548261   2.4609407865369172e-05   2.2377679439787926e-05
-0.0001365474828548261   2.4609407865369172e-05   2.2377679439787926e-05
-0.00015798448068104034   3.0640763360499125e-05   5.44871958530666e-05
-0.00015798448068104034   3.0640763360499125e-05   5.44871958530666e-05
-0.00015798448068104034   3.0640763360499125e-05   5.44871958530666e-05
-0.00015798448068104034   3.0640763360499125e-05   5.44871958530666e-05
5.8273450954078945e-05   -6.681149770160384e-06   8.377696338763077e-05
5.8273450954078945e-05   -6.681149770160384e-06   8.377696338763077e-05
5.8273450954078945e-05   -6.681149770160384e-06   8.377696338763077e-05
5.8273450954078945e-05   -6.681149770160384e-06   8.377696338763077e-05
1.4998484556233308e-05   2.933308842082219e-07   1.5836707783842795e-05
1.4998484556233308e-05   2.933308842082219e-07   1.5836707783842795e-05
1.4998484556233308e-05   2.933308842082219e-07   1.5836707783842795e-05
1.4998484556233308e-05   2.933308842082219e-07   1.5836707783842795e-05
1.2905615963682227e-05   -9.325802242973573e-06   7.819264259217341e-05
1.2905615963682227e-05   -9.325802242973573e-06   7.819264259217341e-05
1.2905615963682227e-05   -9.325802242973573e-06   7.819264259217341e-05
1.2905615963682227e-05   -9.325802242973573e-06   7.819264259217341e-05
5.310735800075208e-05   -2.0705223628403324e-06   6.836571268978493e-06
5.310735800075208e-05   -2.0705223628403324e-06   6.836571268978493e-06
5.310735800075208e-05   -2.0705223628403324e-06   6.836571268978493e-06
5.310735800075208e-05   -2.0705223628403324e-06   6.836571268978493e-06
3.275407468049507e-05   -4.780802285038986e-06   4.238487808939451e-05
3.275407468049507e-05   -4.780802285038986e-06   4.238487808939451e-05
3.275407468049507e-05   -4.780802285038986e-06   4.238487808939451e-05
3.275407468049507e-05   -4.780802285038986e-06   4.238487808939451e-05
5.3107358000752244e-05   -9.32580224297444e-06   7.383947466409451e-05
5.3107358000752244e-05   -9.32580224297444e-06   7.383947466409451e-05
5.3107358000752244e-05   -9.32580224297444e-06   7.383947466409451e-05
5.3107358000752244e-05   -9.32580224297444e-06   7.383947466409451e-05
1.2905615963682213e-05   -2.0705223628403324e-06   1.1189739197058155e-05
1.2905615963682213e-05   -2.0705223628403324e-06   1.1189739197058155e-05
1.2905615963682213e-05   -2.0705223628403324e-06   1.1189739197058155e-05
1.2905615963682213e-05   -2.0705223628403324e-06   1.1189739197058155e-05
1.047109031239553e-05   -1.0241169964217423e-05   7.344235673521207e-05
1.047109031239553e-05   -1.0241169964217423e-05   7.344235673521207e-05
1.047109031239553e-05   -1.0241169964217423e-05   7.344235673521207e-05
1.047109031239553e-05   -1.0241169964217423e-05   7.344235673521207e-05
4.8738530386830585e-05   -3.096797114001716e-06   5.3766662343579085e-06
4.8738530386830585e-05   -3.096797114001716e-06   5.3766662343579085e-06
4.8738530386830585e-05   -3.096797114001716e-06   5.3766662343579085e-06
4.8738530386830585e-05   -3.096797114001716e-06   5.3766662343579085e-06
3.0240331206198354e-05   -5.811937293287786e-06   3.7836082309649624e-05
3.0240331206198354e-05   -5.811937293287786e-06   3.7836082309649624e-05
3.0240331206198354e-05   -5.811937293287786e-06   3.7836082309649624e-05
3.0240331206198354e-05   -5.811937293287786e-06   3.7836082309649624e-05
4.873853038683064e-05   -1.0241169964217423e-05   6.91557330250829e-05
4.873853038683064e-05   -1.0241169964217423e-05   6.91557330250829e-05
4.873853038683064e-05   -1.0241169964217423e-05   6.91557330250829e-05
4.873853038683064e-05   -1.0241169964217423e-05   6.91557330250829e-05
1.047109031239549e-05   -3.096797114001716e-06   9.663289944487289e-06
1.047109031239549e-05   -3.096797114001716e-06   9.663289944487289e-06
1.047109031239549e-05   -3.096797114001716e-06   9.663289944487289e-06
1.047109031239549e-05   -3.096797114001716e-06   9.663289944487289e-06
8.364150695343943e-06   -1.1467117573255199e-05   6.79958882307285e-05
8.364150695343943e-06   -1.1467117573255199e-05   6.79958882307285e-05
8.364150695343943e-06   -1.1467117573255199e-05   6.79958882307285e-05
8.364150695343943e-06   -1.1467117573255199e-05   6.79958882307285e-05
4.363016362898212e-05   -4.8196705326498945e-06   5.230731783636457e-06
4.363016362898212e-05   -4.8196705326498945e-06   5.230731783636457e-06
4.363016362898212e-05   -4.8196705326498945e-06   5.230731783636457e-06
4.363016362898212e-05   -4.8196705326498945e-06   5.230731783636457e-06
2.658434779790866e-05   -6.356812366309535e-06   3.4562709935622576e-05
2.658434779790866e-05   -6.356812366309535e-06   3.4562709935622576e-05
2.658434779790866e-05   -6.356812366309535e-06   3.4562709935622576e-05
2.658434779790866e-05   -6.356812366309535e-06   3.4562709935622576e-05
1.4998484556233335e-05   3.5460631347067686e-06   0.00011574171693106306
1.4998484556233335e-05   3.5460631347067686e-06   0.00011574171693106306
1.4998484556233335e-05   3.5460631347067686e-06   0.00011574171693106306
1.4998484556233335e-05   3.5460631347067686e-06   0.00011574171693106306
-2.4467195739051074e-05   6.689608241123961e-06   5.1851710169440075e-05
-2.4467195739051074e-05   6.689608241123961e-06   5.1851710169440075e-05
-2.4467195739051074e-05   6.689608241123961e-06   5.1851710169440075e-05
-2.4467195739051074e-05   6.689608241123961e-06   5.1851710169440075e-05
-2.630322878569469e-05   8.599572492188831e-07   0.00011612560796037466
-2.630322878569469e-05   8.599572492188831e-07   0.00011612560796037466
-2.630322878569469e-05   8.599572492188831e-07   0.00011612560796037466
-2.630322878569469e-05   8.599572492188831e-07   0.00011612560796037466
1.2905615963682213e-05   4.00902254477347e-06   4.8888094200748354e-05
1.2905615963682213e-05   4.00902254477347e-06   4.8888094200748354e-05
1.2905615963682213e-05   4.00902254477347e-06   4.8888094200748354e-05
1.2905615963682213e-05   4.00902254477347e-06   4.8888094200748354e-05
-6.008792581099114e-06   3.512976234083809e-06   8.070973622846664e-05
-6.008792581099114e-06   3.512976234083809e-06   8.070973622846664e-05
-6.008792581099114e-06   3.512976234083809e-06   8.070973622846664e-05
-6.008792581099114e-06   3.512976234083809e-06   8.070973622846664e-05
1.2905615963682213e-05   8.599572492197505e-07   0.00011423616878304113
1.2905615963682213e-05   8.599572492197505e-07   0.00011423616878304113
1.2905615963682213e-05   8.599572492197505e-07   0.00011423616878304113
1.2905615963682213e-05   8.599572492197505e-07   0.00011423616878304113
-2.630322878569469e-05   4.00902254477347e-06   5.0777533378080966e-05
-2.630322878569469e-05   4.00902254477347e-06   5.0777533378080966e-05
-2.630322878569469e-05   4.00902254477347e-06   5.0777533378080966e-05
-2.630322878569469e-05   4.00902254477347e-06   5.0777533378080966e-05
-2.819182561591754e-05   -1.3445231175019182e-06   0.00011541844906064538
-2.819182561591754e-05   -1.3445231175019182e-06   0.00011541844906064538
-2.819182561591754e-05   -1.3445231175019182e-06   0.00011541844906064538
-2.819182561591754e-05   -1.3445231175019182e-06   0.00011541844906064538
1.047109031239549e-05   1.7302681008714987e-06   4.913538111576667e-05
1.047109031239549e-05   1.7302681008714987e-06   4.913538111576667e-05
1.047109031239549e-05   1.7302681008714987e-06   4.913538111576667e-05
1.047109031239549e-05   1.7302681008714987e-06   4.913538111576667e-05
-7.965690355430505e-06   1.639021545286716e-06   7.991809682882946e-05
-7.965690355430505e-06   1.639021545286716e-06   7.991809682882946e-05
-7.965690355430505e-06   1.639021545286716e-06   7.991809682882946e-05
-7.965690355430505e-06   1.639021545286716e-06   7.991809682882946e-05
1.047109031239553e-05   -1.3445231175019182e-06   0.00011357357432962125
1.047109031239553e-05   -1.3445231175019182e-06   0.00011357357432962125
1.047109031239553e-05   -1.3445231175019182e-06   0.00011357357432962125
1.047109031239553e-05   -1.3445231175019182e-06   0.00011357357432962125
-2.819182561591754e-05   1.7302681008714987e-06   5.0980255846791184e-05
-2.819182561591754e-05   1.7302681008714987e-06   5.0980255846791184e-05
-2.819182561591754e-05   1.7302681008714987e-06   5.0980255846791184e-05
-2.819182561591754e-05   1.7302681008714987e-06   5.0980255846791184e-05
-3.00510462192344e-05   -3.5252201328137694e-06   0.00011697645667138774
-3.00510462192344e-05   -3.5252201328137694e-06   0.00011697645667138774
-3.00510462192344e-05   -3.5252201328137694e-06   0.00011697645667138774
-3.00510462192344e-05   -3.5252201328137694e-06   0.00011697645667138774
8.364150695343916e-06   -6.069602536944857e-07   5.12001725529541e-05
8.364150695343916e-06   -6.069602536944857e-07   5.12001725529541e-05
8.364150695343916e-06   -6.069602536944857e-07   5.12001725529541e-05
8.364150695343916e-06   -6.069602536944857e-07   5.12001725529541e-05
-9.627452220964642e-06   -5.059670827971263e-08   8.08523592862201e-05
-9.627452220964642e-06   -5.059670827971263e-08   8.08523592862201e-05
-9.627452220964642e-06   -5.059670827971263e-08   8.08523592862201e-05
-9.627452220964642e-06   -5.059670827971263e-08   8.08523592862201e-05
-2.4467195739051074e-05   1.3165337558490586e-05   0.00012844388517420239
-2.4467195739051074e-05   1.3165337558490586e-05   0.00012844388517420239
-2.4467195739051074e-05   1.3165337558490586e-05   0.00012844388517420239
-2.4467195739051074e-05   1.3165337558490586e-05   0.00012844388517420239
-6.329148878114548e-05   1.2388436334837515e-05   6.327058936985309e-05
-6.329148878114548e-05   1.2388436334837515e-05   6.327058936985309e-05
-6.329148878114548e-05   1.2388436334837515e-05   6.327058936985309e-05
-6.329148878114548e-05   1.2388436334837515e-05   6.327058936985309e-05
-6.505090396570457e-05   1.0717211831674962e-05   0.0001273103124049945
-6.505090396570457e-05   1.0717211831674962e-05   0.0001273103124049945
-6.505090396570457e-05   1.0717211831674962e-05   0.0001273103124049945
-6.505090396570457e-05   1.0717211831674962e-05   0.0001273103124049945
-2.6303228785694635e-05   9.910012187917469e-06   6.321517355789997e-05
-2.6303228785694635e-05   9.910012187917469e-06   6.321517355789997e-05
-2.6303228785694635e-05   9.910012187917469e-06   6.321517355789997e-05
-2.6303228785694635e-05   9.910012187917469e-06   6.321517355789997e-05
-4.4859575403270426e-05   1.1275868362116415e-05   9.332290421601051e-05
-4.4859575403270426e-05   1.1275868362116415e-05   9.332290421601051e-05
-4.4859575403270426e-05   1.1275868362116415e-05   9.332290421601051e-05
-4.4859575403270426e-05   1.1275868362116415e-05   9.332290421601051e-05
-2.630322878569469e-05   1.0717211831674095e-05   0.00012779463219124952
-2.630322878569469e-05   1.0717211831674095e-05   0.00012779463219124952
-2.630322878569469e-05   1.0717211831674095e-05   0.00012779463219124952
-2.630322878569469e-05   1.0717211831674095e-05   0.00012779463219124952
-6.505090396570446e-05   9.910012187917469e-06   6.273085377164539e-05
-6.505090396570446e-05   9.910012187917469e-06   6.273085377164539e-05
-6.505090396570446e-05   9.910012187917469e-06   6.273085377164539e-05
-6.505090396570446e-05   9.910012187917469e-06   6.273085377164539e-05
-6.686887173451301e-05   8.296938339658229e-06   0.00012817829452731015
-6.686887173451301e-05   8.296938339658229e-06   0.00012817829452731015
-6.686887173451301e-05   8.296938339658229e-06   0.00012817829452731015
-6.686887173451301e-05   8.296938339658229e-06   0.00012817829452731015
-2.819182561591754e-05   7.444068734976592e-06   6.422827275912621e-05
-2.819182561591754e-05   7.444068734976592e-06   6.422827275912621e-05
-2.819182561591754e-05   7.444068734976592e-06   6.422827275912621e-05
-2.819182561591754e-05   7.444068734976592e-06   6.422827275912621e-05
-4.6427872889837215e-05   9.387412114976283e-06   9.345567885432594e-05
-4.6427872889837215e-05   9.387412114976283e-06   9.345567885432594e-05
-4.6427872889837215e-05   9.387412114976283e-06   9.345567885432594e-05
-4.6427872889837215e-05   9.387412114976283e-06   9.345567885432594e-05
-2.819182561591754e-05   8.296938339658229e-06   0.00012869001629011844
-2.819182561591754e-05   8.296938339658229e-06   0.00012869001629011844
-2.819182561591754e-05   8.296938339658229e-06   0.00012869001629011844
-2.819182561591754e-05   8.296938339658229e-06   0.00012869001629011844
-6.68688717345129e-05   7.444068734976592e-06   6.37165509963177e-05
-6.68688717345129e-05   7.444068734976592e-06   6.37165509963177e-05
-6.68688717345129e-05   7.444068734976592e-06   6.37165509963177e-05
-6.68688717345129e-05   7.444068734976592e-06   6.37165509963177e-05
-6.865903645171469e-05   5.9658151559610975e-06   0.00013027672544081107
-6.865903645171469e-05   5.9658151559610975e-06   0.00013027672544081107
-6.865903645171469e-05   5.9658151559610975e-06   0.00013027672544081107
-6.865903645171469e-05   5.9658151559610975e-06   0.00013027672544081107
-3.00510462192344e-05   5.080991349980593e-06   6.646096933693294e-05
-3.00510462192344e-05   5.080991349980593e-06   6.646096933693294e-05
-3.00510462192344e-05   5.080991349980593e-06   6.646096933693294e-05
-3.00510462192344e-05   5.080991349980593e-06   6.646096933693294e-05
-4.8095026554299944e-05   7.5358441525104e-06   9.506135821385833e-05
-4.8095026554299944e-05   7.5358441525104e-06   9.506135821385833e-05
-4.8095026554299944e-05   7.5358441525104e-06   9.506135821385833e-05
-4.8095026554299944e-05   7.5358441525104e-06   9.506135821385833e-05
-6.329148878114548e-05   2.2517721092607176e-05   0.00011308243213374765
-6.329148878114548e-05   2.2517721092607176e-05   0.00011308243213374765
-6.329148878114548e-05   2.2517721092607176e-05   0.00011308243213374765
-6.329148878114548e-05   2.2517721092607176e-05   0.00011308243213374765
-0.0001013706893507639   1.8352699444968215e-05   4.71180848624663e-05
-0.0001013706893507639   1.8352699444968215e-05   4.71180848624663e-05
-0.0001013706893507639   1.8352699444968215e-05   4.71180848624663e-05
-0.0001013706893507639   1.8352699444968215e-05   4.71180848624663e-05
-0.00010328592579358182   2.0121022605493546e-05   0.00011098307664662854
-0.00010328592579358182   2.0121022605493546e-05   0.00011098307664662854
-0.00010328592579358182   2.0121022605493546e-05   0.00011098307664662854
-0.00010328592579358182   2.0121022605493546e-05   0.00011098307664662854
-6.505090396570436e-05   1.5849946652473496e-05   4.982068583864641e-05
-6.505090396570436e-05   1.5849946652473496e-05   4.982068583864641e-05
-6.505090396570436e-05   1.5849946652473496e-05   4.982068583864641e-05
-6.505090396570436e-05   1.5849946652473496e-05   4.982068583864641e-05
-8.305001620234354e-05   1.8906878151402247e-05   7.798504733369255e-05
-8.305001620234354e-05   1.8906878151402247e-05   7.798504733369255e-05
-8.305001620234354e-05   1.8906878151402247e-05   7.798504733369255e-05
-8.305001620234354e-05   1.8906878151402247e-05   7.798504733369255e-05
-6.505090396570457e-05   2.0121022605494414e-05   0.00011354572221844135
-6.505090396570457e-05   2.0121022605494414e-05   0.00011354572221844135
-6.505090396570457e-05   2.0121022605494414e-05   0.00011354572221844135
-6.505090396570457e-05   2.0121022605494414e-05   0.00011354572221844135
-0.0001032859257935816   1.5849946652474363e-05   4.7258040266834464e-05
-0.0001032859257935816   1.5849946652474363e-05   4.7258040266834464e-05
-0.0001032859257935816   1.5849946652474363e-05   4.7258040266834464e-05
-0.0001032859257935816   1.5849946652474363e-05   4.7258040266834464e-05
-0.00010555709438642819   1.7908860841498418e-05   0.00011463894476879555
-0.00010555709438642819   1.7908860841498418e-05   0.00011463894476879555
-0.00010555709438642819   1.7908860841498418e-05   0.00011463894476879555
-0.00010555709438642819   1.7908860841498418e-05   0.00011463894476879555
-6.686887173451279e-05   1.3579314219604004e-05   5.2756301655408275e-05
-6.686887173451279e-05   1.3579314219604004e-05   5.2756301655408275e-05
-6.686887173451279e-05   1.3579314219604004e-05   5.2756301655408275e-05
-6.686887173451279e-05   1.3579314219604004e-05   5.2756301655408275e-05
-8.429893128544672e-05   1.713410526373721e-05   7.967352628048354e-05
-8.429893128544672e-05   1.713410526373721e-05   7.967352628048354e-05
-8.429893128544672e-05   1.713410526373721e-05   7.967352628048354e-05
-8.429893128544672e-05   1.713410526373721e-05   7.967352628048354e-05
-6.686887173451301e-05   1.7908860841498418e-05   0.00011723667274193177
-6.686887173451301e-05   1.7908860841498418e-05   0.00011723667274193177
-6.686887173451301e-05   1.7908860841498418e-05   0.00011723667274193177
-6.686887173451301e-05   1.7908860841498418e-05   0.00011723667274193177
-0.00010555709438642776   1.3579314219604004e-05   5.0158573682271626e-05
-0.00010555709438642776   1.3579314219604004e-05   5.0158573682271626e-05
-0.00010555709438642776   1.3579314219604004e-05   5.0158573682271626e-05
-0.00010555709438642776   1.3579314219604004e-05   5.0158573682271626e-05
-0.00010750981039029089   1.5441371745431032e-05   0.00011818886873216344
-0.00010750981039029089   1.5441371745431032e-05   0.00011818886873216344
-0.00010750981039029089   1.5441371745431032e-05   0.00011818886873216344
-0.00010750981039029089   1.5441371745431032e-05   0.00011818886873216344
-6.865903645171436e-05   1.115783987002978e-05   5.600769795977814e-05
-6.865903645171436e-05   1.115783987002978e-05   5.600769795977814e-05
-6.865903645171436e-05   1.115783987002978e-05   5.600769795977814e-05
-6.865903645171436e-05   1.115783987002978e-05   5.600769795977814e-05
-8.643177132229384e-05   1.5364252562804354e-05   8.310507512841584e-05
-8.643177132229384e-05   1.5364252562804354e-05   8.310507512841584e-05
-8.643177132229384e-05   1.5364252562804354e-05   8.310507512841584e-05
-8.643177132229384e-05   1.5364252562804354e-05   8.310507512841584e-05
-0.00010137068935076412   2.9455938679392307e-05   5.271332893648766e-05
-0.00010137068935076412   2.9455938679392307e-05   5.271332893648766e-05
-0.00010137068935076412   2.9455938679392307e-05   5.271332893648766e-05
-0.00010137068935076412   2.9455938679392307e-05   5.271332893648766e-05
-0.00013555873465157442   2.2500746810222988e-05   -8.439861686364031e-06
-0.00013555873465157442   2.2500746810222988e-05   -8.439861686364031e-06
-0.00013555873465157442   2.2500746810222988e-05   -8.439861686364031e-06
-0.00013555873465157442   2.2500746810222988e-05   -8.439861686364031e-06
-0.00014046193100277046   2.86729152141384e-05   6.490325540032833e-05
-0.00014046193100277046   2.86729152141384e-05   6.490325540032833e-05
-0.00014046193100277046   2.86729152141384e-05   6.490325540032833e-05
-0.00014046193100277046   2.86729152141384e-05   6.490325540032833e-05
-0.00010328592579358139   2.1209802503381787e-05   7.421114344801499e-06
-0.00010328592579358139   2.1209802503381787e-05   7.421114344801499e-06
-0.00010328592579358139   2.1209802503381787e-05   7.421114344801499e-06
-0.00010328592579358139   2.1209802503381787e-05   7.421114344801499e-06
-0.00011579717811509857   2.5002887717558847e-05   2.5997350418829196e-05
-0.00011579717811509857   2.5002887717558847e-05   2.5997350418829196e-05
-0.00011579717811509857   2.5002887717558847e-05   2.5997350418829196e-05
-0.00011579717811509857   2.5002887717558847e-05   2.5997350418829196e-05
-0.0001032859257935816   2.86729152141384e-05   6.938112302678177e-05
-0.0001032859257935816   2.86729152141384e-05   6.938112302678177e-05
-0.0001032859257935816   2.86729152141384e-05   6.938112302678177e-05
-0.0001032859257935816   2.86729152141384e-05   6.938112302678177e-05
-0.0001404619310027709   2.120980250338092e-05   2.9432467183478344e-06
-0.0001404619310027709   2.120980250338092e-05   2.9432467183478344e-06
-0.0001404619310027709   2.120980250338092e-05   2.9432467183478344e-06
-0.0001404619310027709   2.120980250338092e-05   2.9432467183478344e-06
-0.00014469029230549345   2.773633480921897e-05   7.679001128663328e-05
-0.00014469029230549345   2.773633480921897e-05   7.679001128663328e-05
-0.00014469029230549345   2.773633480921897e-05   7.679001128663328e-05
-0.00014469029230549345   2.773633480921897e-05   7.679001128663328e-05
-0.00010555709438642776   2.01410367749481e-05   1.6125193575420964e-05
-0.00010555709438642776   2.01410367749481e-05   1.6125193575420964e-05
-0.00010555709438642776   2.01410367749481e-05   1.6125193575420964e-05
-0.00010555709438642776   2.01410367749481e-05   1.6125193575420964e-05
-0.0001204899814714435   2.466167751129407e-05   3.8300954275307005e-05
-0.0001204899814714435   2.466167751129407e-05   3.8300954275307005e-05
-0.0001204899814714435   2.466167751129407e-05   3.8300954275307005e-05
-0.0001204899814714435   2.466167751129407e-05   3.8300954275307005e-05
-0.00010555709438642797   2.773633480921984e-05   8.134719010719632e-05
-0.00010555709438642797   2.773633480921984e-05   8.134719010719632e-05
-0.00010555709438642797   2.773633480921984e-05   8.134719010719632e-05
-0.00010555709438642797   2.773633480921984e-05   8.134719010719632e-05
-0.0001446902923054941   2.0141036774948967e-05   1.156801475485727e-05
-0.0001446902923054941   2.0141036774948967e-05   1.156801475485727e-05
-0.0001446902923054941   2.0141036774948967e-05   1.156801475485727e-05
-0.0001446902923054941   2.0141036774948967e-05   1.156801475485727e-05
-0.0001497584908778599   2.4609407865368305e-05   9.784474869456872e-05
-0.0001497584908778599   2.4609407865368305e-05   9.784474869456872e-05
-0.0001497584908778599   2.4609407865368305e-05   9.784474869456872e-05
-0.0001497584908778599   2.4609407865368305e-05   9.784474869456872e-05
-0.00010750981039029045   1.7250135701705853e-05   3.1845844513486016e-05
-0.00010750981039029045   1.7250135701705853e-05   3.1845844513486016e-05
-0.00010750981039029045   1.7250135701705853e-05   3.1845844513486016e-05
-0.00010750981039029045   1.7250135701705853e-05   3.1845844513486016e-05
-0.00012169126351537548   2.3347144835750115e-05   5.182339424153557e-05
-0.00012169126351537548   2.3347144835750115e-05   5.182339424153557e-05
-0.00012169126351537548   2.3347144835750115e-05   5.182339424153557e-05
-0.00012169126351537548   2.3347144835750115e-05   5.182339424153557e-05
1.0719698195542468e-05   2.933308842082219e-07   6.218323884099684e-05
1.0719698195542468e-05   2.933308842082219e-07   6.218323884099684e-05
1.0719698195542468e-05   2.933308842082219e-07   6.218323884099684e-05
1.0719698195542468e-05   2.933308842082219e-07   6.218323884099684e-05
-1.3756359092005461e-05   6.965576806611425e-06   2.5393157581858877e-05
-1.3756359092005461e-05   6.965576806611425e-06   2.5393157581858877e-05
-1.3756359092005461e-05   6.965576806611425e-06   2.5393157581858877e-05
-1.3756359092005461e-05   6.965576806611425e-06   2.5393157581858877e-05
-1.5223927250954431e-05   -2.0705223628403324e-06   6.14564727195151e-05
-1.5223927250954431e-05   -2.0705223628403324e-06   6.14564727195151e-05
-1.5223927250954431e-05   -2.0705223628403324e-06   6.14564727195151e-05
-1.5223927250954431e-05   -2.0705223628403324e-06   6.14564727195151e-05
6.24127598460386e-06   4.761402363021201e-06   2.1581979158067787e-05
6.24127598460386e-06   4.761402363021201e-06   2.1581979158067787e-05
6.24127598460386e-06   4.761402363021201e-06   2.1581979158067787e-05
6.24127598460386e-06   4.761402363021201e-06   2.1581979158067787e-05
-3.5509611257037013e-06   2.1136730427766606e-06   3.949101193406073e-05
-3.5509611257037013e-06   2.1136730427766606e-06   3.949101193406073e-05
-3.5509611257037013e-06   2.1136730427766606e-06   3.949101193406073e-05
-3.5509611257037013e-06   2.1136730427766606e-06   3.949101193406073e-05
6.24127598460386e-06   -2.0705223628403324e-06   5.735731788399827e-05
6.24127598460386e-06   -2.0705223628403324e-06   5.735731788399827e-05
6.24127598460386e-06   -2.0705223628403324e-06   5.735731788399827e-05
6.24127598460386e-06   -2.0705223628403324e-06   5.735731788399827e-05
-1.5223927250954431e-05   4.761402363021201e-06   2.568113399358451e-05
-1.5223927250954431e-05   4.761402363021201e-06   2.568113399358451e-05
-1.5223927250954431e-05   4.761402363021201e-06   2.568113399358451e-05
-1.5223927250954431e-05   4.761402363021201e-06   2.568113399358451e-05
-1.703438249092019e-05   -3.0967971140025835e-06   5.992700875362541e-05
-1.703438249092019e-05   -3.0967971140025835e-06   5.992700875362541e-05
-1.703438249092019e-05   -3.0967971140025835e-06   5.992700875362541e-05
-1.703438249092019e-05   -3.0967971140025835e-06   5.992700875362541e-05
2.3615808492552905e-06   3.537997772687894e-06   2.361952625465184e-05
2.3615808492552905e-06   3.537997772687894e-06   2.361952625465184e-05
2.3615808492552905e-06   3.537997772687894e-06   2.361952625465184e-05
2.3615808492552905e-06   3.537997772687894e-06   2.361952625465184e-05
-5.978295222216224e-06   1.1736992336511612e-06   3.893789883052646e-05
-5.978295222216224e-06   1.1736992336511612e-06   3.893789883052646e-05
-5.978295222216224e-06   1.1736992336511612e-06   3.893789883052646e-05
-5.978295222216224e-06   1.1736992336511612e-06   3.893789883052646e-05
2.3615808492553447e-06   -3.0967971140025835e-06   5.594613182161078e-05
2.3615808492553447e-06   -3.0967971140025835e-06   5.594613182161078e-05
2.3615808492553447e-06   -3.0967971140025835e-06   5.594613182161078e-05
2.3615808492553447e-06   -3.0967971140025835e-06   5.594613182161078e-05
-1.703438249092015e-05   3.537997772687894e-06   2.7600403186666365e-05
-1.703438249092015e-05   3.537997772687894e-06   2.7600403186666365e-05
-1.703438249092015e-05   3.537997772687894e-06   2.7600403186666365e-05
-1.703438249092015e-05   3.537997772687894e-06   2.7600403186666365e-05
-1.8543326186989367e-05   -4.8196705326498945e-06   5.9498487952750964e-05
-1.8543326186989367e-05   -4.8196705326498945e-06   5.9498487952750964e-05
-1.8543326186989367e-05   -4.8196705326498945e-06   5.9498487952750964e-05
-1.8543326186989367e-05   -4.8196705326498945e-06   5.9498487952750964e-05
-2.5006781080879714e-06   9.334421682063998e-07   2.930887353406878e-05
-2.5006781080879714e-06   9.334421682063998e-07   2.930887353406878e-05
-2.5006781080879714e-06   9.334421682063998e-07   2.930887353406878e-05
-2.5006781080879714e-06   9.334421682063998e-07   2.930887353406878e-05
-8.557151841647247e-06   2.9728287701414474e-07   3.978469199804953e-05
-8.557151841647247e-06   2.9728287701414474e-07   3.978469199804953e-05
-8.557151841647247e-06   2.9728287701414474e-07   3.978469199804953e-05
-8.557151841647247e-06   2.9728287701414474e-07   3.978469199804953e-05
-1.3756359092005461e-05   6.689608241124828e-06   0.00010031546171618538
-1.3756359092005461e-05   6.689608241124828e-06   0.00010031546171618538
-1.3756359092005461e-05   6.689608241124828e-06   0.00010031546171618538
-1.3756359092005461e-05   6.689608241124828e-06   0.00010031546171618538
-3.426309468108392e-05   7.986795067189793e-06   6.691588116336002e-05
-3.426309468108392e-05   7.986795067189793e-06   6.691588116336002e-05
-3.426309468108392e-05   7.986795067189793e-06   6.691588116336002e-05
-3.426309468108392e-05   7.986795067189793e-06   6.691588116336002e-05
-3.536470016583728e-05   4.00902254477347e-06   0.0001000613266899813
-3.536470016583728e-05   4.00902254477347e-06   0.0001000613266899813
-3.536470016583728e-05   4.00902254477347e-06   0.0001000613266899813
-3.536470016583728e-05   4.00902254477347e-06   0.0001000613266899813
-1.5223927250954431e-05   5.519854156066026e-06   6.558687286506722e-05
-1.5223927250954431e-05   5.519854156066026e-06   6.558687286506722e-05
-1.5223927250954431e-05   5.519854156066026e-06   6.558687286506722e-05
-1.5223927250954431e-05   5.519854156066026e-06   6.558687286506722e-05
-2.478853232233606e-05   5.770877019486108e-06   8.137726759931802e-05
-2.478853232233606e-05   5.770877019486108e-06   8.137726759931802e-05
-2.478853232233606e-05   5.770877019486108e-06   8.137726759931802e-05
-2.478853232233606e-05   5.770877019486108e-06   8.137726759931802e-05
-1.5223927250954431e-05   4.00902254477347e-06   9.915482772320482e-05
-1.5223927250954431e-05   4.00902254477347e-06   9.915482772320482e-05
-1.5223927250954431e-05   4.00902254477347e-06   9.915482772320482e-05
-1.5223927250954431e-05   4.00902254477347e-06   9.915482772320482e-05
-3.536470016583728e-05   5.519854156066026e-06   6.649337183184303e-05
-3.536470016583728e-05   5.519854156066026e-06   6.649337183184303e-05
-3.536470016583728e-05   5.519854156066026e-06   6.649337183184303e-05
-3.536470016583728e-05   5.519854156066026e-06   6.649337183184303e-05
-3.650020255239583e-05   1.7302681008714987e-06   0.00010030103968902519
-3.650020255239583e-05   1.7302681008714987e-06   0.00010030103968902519
-3.650020255239583e-05   1.7302681008714987e-06   0.00010030103968902519
-3.650020255239583e-05   1.7302681008714987e-06   0.00010030103968902519
-1.703438249092015e-05   3.233501041072402e-06   6.695606648911181e-05
-1.703438249092015e-05   3.233501041072402e-06   6.695606648911181e-05
-1.703438249092015e-05   3.233501041072402e-06   6.695606648911181e-05
-1.703438249092015e-05   3.233501041072402e-06   6.695606648911181e-05
-2.5911686020456076e-05   3.962658402064355e-06   8.131407795507802e-05
-2.5911686020456076e-05   3.962658402064355e-06   8.131407795507802e-05
-2.5911686020456076e-05   3.962658402064355e-06   8.131407795507802e-05
-2.5911686020456076e-05   3.962658402064355e-06   8.131407795507802e-05
-1.703438249092019e-05   1.730268100872366e-06   9.93990999249043e-05
-1.703438249092019e-05   1.730268100872366e-06   9.93990999249043e-05
-1.703438249092019e-05   1.730268100872366e-06   9.93990999249043e-05
-1.703438249092019e-05   1.730268100872366e-06   9.93990999249043e-05
-3.650020255239583e-05   3.233501041072402e-06   6.785800625323281e-05
-3.650020255239583e-05   3.233501041072402e-06   6.785800625323281e-05
-3.650020255239583e-05   3.233501041072402e-06   6.785800625323281e-05
-3.650020255239583e-05   3.233501041072402e-06   6.785800625323281e-05
-3.76121121138511e-05   -6.069602536944857e-07   0.00010229171699046918
-3.76121121138511e-05   -6.069602536944857e-07   0.00010229171699046918
-3.76121121138511e-05   -6.069602536944857e-07   0.00010229171699046918
-3.76121121138511e-05   -6.069602536944857e-07   0.00010229171699046918
-1.854332618698934e-05   7.468005675794961e-07   6.969815061960233e-05
-1.854332618698934e-05   7.468005675794961e-07   6.969815061960233e-05
-1.854332618698934e-05   7.468005675794961e-07   6.969815061960233e-05
-1.854332618698934e-05   7.468005675794961e-07   6.969815061960233e-05
-2.7036862063063583e-05   2.1766535912206425e-06   8.299613193220811e-05
-2.7036862063063583e-05   2.1766535912206425e-06   8.299613193220811e-05
-2.7036862063063583e-05   2.1766535912206425e-06   8.299613193220811e-05
-2.7036862063063583e-05   2.1766535912206425e-06   8.299613193220811e-05
-3.426309468108392e-05   1.2388436334837515e-05   0.00011297879374642895
-3.426309468108392e-05   1.2388436334837515e-05   0.00011297879374642895
-3.426309468108392e-05   1.2388436334837515e-05   0.00011297879374642895
-3.426309468108392e-05   1.2388436334837515e-05   0.00011297879374642895
-5.4750596802269824e-05   9.517346961282307e-06   7.711030325365268e-05
-5.4750596802269824e-05   9.517346961282307e-06   7.711030325365268e-05
-5.4750596802269824e-05   9.517346961282307e-06   7.711030325365268e-05
-5.4750596802269824e-05   9.517346961282307e-06   7.711030325365268e-05
-5.567952402132405e-05   9.910012187917469e-06   0.00011088735708479711
-5.567952402132405e-05   9.910012187917469e-06   0.00011088735708479711
-5.567952402132405e-05   9.910012187917469e-06   0.00011088735708479711
-5.567952402132405e-05   9.910012187917469e-06   0.00011088735708479711
-3.536470016583728e-05   7.223995879580836e-06   7.864092711065533e-05
-3.536470016583728e-05   7.223995879580836e-06   7.864092711065533e-05
-3.536470016583728e-05   7.223995879580836e-06   7.864092711065533e-05
-3.536470016583728e-05   7.223995879580836e-06   7.864092711065533e-05
-4.503352597105435e-05   9.579184320713217e-06   9.33425237213373e-05
-4.503352597105435e-05   9.579184320713217e-06   9.33425237213373e-05
-4.503352597105435e-05   9.579184320713217e-06   9.33425237213373e-05
-4.503352597105435e-05   9.579184320713217e-06   9.33425237213373e-05
-3.536470016583728e-05   9.910012187917469e-06   0.00011249896686979987
-3.536470016583728e-05   9.910012187917469e-06   0.00011249896686979987
-3.536470016583728e-05   9.910012187917469e-06   0.00011249896686979987
-3.536470016583728e-05   9.910012187917469e-06   0.00011249896686979987
-5.567952402132405e-05   7.223995879580836e-06   7.70293173256529e-05
-5.567952402132405e-05   7.223995879580836e-06   7.70293173256529e-05
-5.567952402132405e-05   7.223995879580836e-06   7.70293173256529e-05
-5.567952402132405e-05   7.223995879580836e-06   7.70293173256529e-05
-5.667625424686539e-05   7.444068734977459e-06   0.0001120180545860763
-5.667625424686539e-05   7.444068734977459e-06   0.0001120180545860763
-5.667625424686539e-05   7.444068734977459e-06   0.0001120180545860763
-5.667625424686539e-05   7.444068734977459e-06   0.0001120180545860763
-3.650020255239583e-05   4.892398709503178e-06   7.992230377724496e-05
-3.650020255239583e-05   4.892398709503178e-06   7.992230377724496e-05
-3.650020255239583e-05   4.892398709503178e-06   7.992230377724496e-05
-3.650020255239583e-05   4.892398709503178e-06   7.992230377724496e-05
-4.582698530537755e-05   7.73880272230635e-06   9.375909929119951e-05
-4.582698530537755e-05   7.73880272230635e-06   9.375909929119951e-05
-4.582698530537755e-05   7.73880272230635e-06   9.375909929119951e-05
-4.582698530537755e-05   7.73880272230635e-06   9.375909929119951e-05
-3.650020255239583e-05   7.444068734976592e-06   0.00011354905660136043
-3.650020255239583e-05   7.444068734976592e-06   0.00011354905660136043
-3.650020255239583e-05   7.444068734976592e-06   0.00011354905660136043
-3.650020255239583e-05   7.444068734976592e-06   0.00011354905660136043
-5.6676254246865285e-05   4.892398709503178e-06   7.839130176196083e-05
-5.6676254246865285e-05   4.892398709503178e-06   7.839130176196083e-05
-5.6676254246865285e-05   4.892398709503178e-06   7.839130176196083e-05
-5.6676254246865285e-05   4.892398709503178e-06   7.839130176196083e-05
-5.7652322200526834e-05   5.080991349980593e-06   0.00011436002251523445
-5.7652322200526834e-05   5.080991349980593e-06   0.00011436002251523445
-5.7652322200526834e-05   5.080991349980593e-06   0.00011436002251523445
-5.7652322200526834e-05   5.080991349980593e-06   0.00011436002251523445
-3.761211211385121e-05   2.6784324637435172e-06   8.240120770251855e-05
-3.761211211385121e-05   2.6784324637435172e-06   8.240120770251855e-05
-3.761211211385121e-05   2.6784324637435172e-06   8.240120770251855e-05
-3.761211211385121e-05   2.6784324637435172e-06   8.240120770251855e-05
-4.671132995388757e-05   5.924633796891739e-06   9.56188499693564e-05
-4.671132995388757e-05   5.924633796891739e-06   9.56188499693564e-05
-4.671132995388757e-05   5.924633796891739e-06   9.56188499693564e-05
-4.671132995388757e-05   5.924633796891739e-06   9.56188499693564e-05
-5.475059680227004e-05   1.8352699444967348e-05   9.760264860349385e-05
-5.475059680227004e-05   1.8352699444967348e-05   9.760264860349385e-05
-5.475059680227004e-05   1.8352699444967348e-05   9.760264860349385e-05
-5.475059680227004e-05   1.8352699444967348e-05   9.760264860349385e-05
-7.487669501578449e-05   1.2827364445506736e-05   6.074395058129243e-05
-7.487669501578449e-05   1.2827364445506736e-05   6.074395058129243e-05
-7.487669501578449e-05   1.2827364445506736e-05   6.074395058129243e-05
-7.487669501578449e-05   1.2827364445506736e-05   6.074395058129243e-05
-7.589621341343449e-05   1.5849946652474363e-05   9.471543169681414e-05
-7.589621341343449e-05   1.5849946652474363e-05   9.471543169681414e-05
-7.589621341343449e-05   1.5849946652474363e-05   9.471543169681414e-05
-7.589621341343449e-05   1.5849946652474363e-05   9.471543169681414e-05
-5.567952402132405e-05   1.0413684227499227e-05   6.42827068316153e-05
-5.567952402132405e-05   1.0413684227499227e-05   6.42827068316153e-05
-5.567952402132405e-05   1.0413684227499227e-05   6.42827068316153e-05
-5.567952402132405e-05   1.0413684227499227e-05   6.42827068316153e-05
-6.516262465196146e-05   1.424869658234705e-05   7.77868671364354e-05
-6.516262465196146e-05   1.424869658234705e-05   7.77868671364354e-05
-6.516262465196146e-05   1.424869658234705e-05   7.77868671364354e-05
-6.516262465196146e-05   1.424869658234705e-05   7.77868671364354e-05
-5.567952402132405e-05   1.5849946652474363e-05   9.797718915179878e-05
-5.567952402132405e-05   1.5849946652474363e-05   9.797718915179878e-05
-5.567952402132405e-05   1.5849946652474363e-05   9.797718915179878e-05
-5.567952402132405e-05   1.5849946652474363e-05   9.797718915179878e-05
-7.589621341343427e-05   1.0413684227500095e-05   6.102094937663043e-05
-7.589621341343427e-05   1.0413684227500095e-05   6.102094937663043e-05
-7.589621341343427e-05   1.0413684227500095e-05   6.102094937663043e-05
-7.589621341343427e-05   1.0413684227500095e-05   6.102094937663043e-05
-7.731209862149005e-05   1.3579314219604004e-05   9.787227415860352e-05
-7.731209862149005e-05   1.3579314219604004e-05   9.787227415860352e-05
-7.731209862149005e-05   1.3579314219604004e-05   9.787227415860352e-05
-7.731209862149005e-05   1.3579314219604004e-05   9.787227415860352e-05
-5.667625424686539e-05   8.270095741997989e-06   6.666473128745889e-05
-5.667625424686539e-05   8.270095741997989e-06   6.666473128745889e-05
-5.667625424686539e-05   8.270095741997989e-06   6.666473128745889e-05
-5.667625424686539e-05   8.270095741997989e-06   6.666473128745889e-05
-6.571734384280657e-05   1.2464791612263812e-05   7.921639642520214e-05
-6.571734384280657e-05   1.2464791612263812e-05   7.921639642520214e-05
-6.571734384280657e-05   1.2464791612263812e-05   7.921639642520214e-05
-6.571734384280657e-05   1.2464791612263812e-05   7.921639642520214e-05
-5.6676254246865285e-05   1.3579314219604004e-05   0.000101057805245166
-5.6676254246865285e-05   1.3579314219604004e-05   0.000101057805245166
-5.6676254246865285e-05   1.3579314219604004e-05   0.000101057805245166
-5.6676254246865285e-05   1.3579314219604004e-05   0.000101057805245166
-7.731209862148983e-05   8.270095741997989e-06   6.347920020089576e-05
-7.731209862148983e-05   8.270095741997989e-06   6.347920020089576e-05
-7.731209862148983e-05   8.270095741997989e-06   6.347920020089576e-05
-7.731209862148983e-05   8.270095741997989e-06   6.347920020089576e-05
-7.844879225449644e-05   1.115783987002978e-05   0.00010139716231485733
-7.844879225449644e-05   1.115783987002978e-05   0.00010139716231485733
-7.844879225449644e-05   1.115783987002978e-05   0.00010139716231485733
-7.844879225449644e-05   1.115783987002978e-05   0.00010139716231485733
-5.7652322200526726e-05   6.090368025344836e-06   6.977686199838577e-05
-5.7652322200526726e-05   6.090368025344836e-06   6.977686199838577e-05
-5.7652322200526726e-05   6.090368025344836e-06   6.977686199838577e-05
-5.7652322200526726e-05   6.090368025344836e-06   6.977686199838577e-05
-6.688622915390342e-05   1.0772779889624273e-05   8.23572598021155e-05
-6.688622915390342e-05   1.0772779889624273e-05   8.23572598021155e-05
-6.688622915390342e-05   1.0772779889624273e-05   8.23572598021155e-05
-6.688622915390342e-05   1.0772779889624273e-05   8.23572598021155e-05
-7.487669501578449e-05   2.2500746810222988e-05   4.290261617648835e-05
-7.487669501578449e-05   2.2500746810222988e-05   4.290261617648835e-05
-7.487669501578449e-05   2.2500746810222988e-05   4.290261617648835e-05
-7.487669501578449e-05   2.2500746810222988e-05   4.290261617648835e-05
-9.049475675624447e-05   1.5087178164341353e-05   1.2424372088193117e-05
-9.049475675624447e-05   1.5087178164341353e-05   1.2424372088193117e-05
-9.049475675624447e-05   1.5087178164341353e-05   1.2424372088193117e-05
-9.049475675624447e-05   1.5087178164341353e-05   1.2424372088193117e-05
-9.438674088091642e-05   2.120980250338092e-05   5.0240637719570734e-05
-9.438674088091642e-05   2.120980250338092e-05   5.0240637719570734e-05
-9.438674088091642e-05   2.120980250338092e-05   5.0240637719570734e-05
-9.438674088091642e-05   2.120980250338092e-05   5.0240637719570734e-05
-7.589621341343449e-05   1.348002241136504e-05   2.4060959995644404e-05
-7.589621341343449e-05   1.348002241136504e-05   2.4060959995644404e-05
-7.589621341343449e-05   1.348002241136504e-05   2.4060959995644404e-05
-7.589621341343449e-05   1.348002241136504e-05   2.4060959995644404e-05
-8.100656584087112e-05   1.7900425644150515e-05   2.9925972101700442e-05
-8.100656584087112e-05   1.7900425644150515e-05   2.9925972101700442e-05
-8.100656584087112e-05   1.7900425644150515e-05   2.9925972101700442e-05
-8.100656584087112e-05   1.7900425644150515e-05   2.9925972101700442e-05
-7.589621341343427e-05   2.120980250338092e-05   5.487850577478052e-05
-7.589621341343427e-05   2.120980250338092e-05   5.487850577478052e-05
-7.589621341343427e-05   2.120980250338092e-05   5.487850577478052e-05
-7.589621341343427e-05   2.120980250338092e-05   5.487850577478052e-05
-9.438674088091663e-05   1.348002241136504e-05   1.942309194043503e-05
-9.438674088091663e-05   1.348002241136504e-05   1.942309194043503e-05
-9.438674088091663e-05   1.348002241136504e-05   1.942309194043503e-05
-9.438674088091663e-05   1.348002241136504e-05   1.942309194043503e-05
-9.773343477073267e-05   2.01410367749481e-05   5.9182157454332196e-05
-9.773343477073267e-05   2.01410367749481e-05   5.9182157454332196e-05
-9.773343477073267e-05   2.01410367749481e-05   5.9182157454332196e-05
-9.773343477073267e-05   2.01410367749481e-05   5.9182157454332196e-05
-7.731209862149005e-05   1.2379809112583219e-05   2.9803333803013997e-05
-7.731209862149005e-05   1.2379809112583219e-05   2.9803333803013997e-05
-7.731209862149005e-05   1.2379809112583219e-05   2.9803333803013997e-05
-7.731209862149005e-05   1.2379809112583219e-05   2.9803333803013997e-05
-8.429529286892786e-05   1.7263098196693832e-05   3.851201743161267e-05
-8.429529286892786e-05   1.7263098196693832e-05   3.851201743161267e-05
-8.429529286892786e-05   1.7263098196693832e-05   3.851201743161267e-05
-8.429529286892786e-05   1.7263098196693832e-05   3.851201743161267e-05
-7.731209862149005e-05   2.01410367749481e-05   6.383889405175156e-05
-7.731209862149005e-05   2.01410367749481e-05   6.383889405175156e-05
-7.731209862149005e-05   2.01410367749481e-05   6.383889405175156e-05
-7.731209862149005e-05   2.01410367749481e-05   6.383889405175156e-05
-9.773343477073311e-05   1.2379809112583219e-05   2.5146597205594974e-05
-9.773343477073311e-05   1.2379809112583219e-05   2.5146597205594974e-05
-9.773343477073311e-05   1.2379809112583219e-05   2.5146597205594974e-05
-9.773343477073311e-05   1.2379809112583219e-05   2.5146597205594974e-05
-0.00010200651951789179   1.7250135701704986e-05   7.537784808125773e-05
-0.00010200651951789179   1.7250135701704986e-05   7.537784808125773e-05
-0.00010200651951789179   1.7250135701704986e-05   7.537784808125773e-05
-0.00010200651951789179   1.7250135701704986e-05   7.537784808125773e-05
-7.844879225449644e-05   9.87083584745932e-06   4.054254922148054e-05
-7.844879225449644e-05   9.87083584745932e-06   4.054254922148054e-05
-7.844879225449644e-05   9.87083584745932e-06   4.054254922148054e-05
-7.844879225449644e-05   9.87083584745932e-06   4.054254922148054e-05
-8.525052123717445e-05   1.6064748394812797e-05   4.816241666419753e-05
-8.525052123717445e-05   1.6064748394812797e-05   4.816241666419753e-05
-8.525052123717445e-05   1.6064748394812797e-05   4.816241666419753e-05
-8.525052123717445e-05   1.6064748394812797e-05   4.816241666419753e-05
-3.872566078236614e-05   6.965576806611425e-06   4.4042402548760164e-05
-3.872566078236614e-05   6.965576806611425e-06   4.4042402548760164e-05
-3.872566078236614e-05   6.965576806611425e-06   4.4042402548760164e-05
-3.872566078236614e-05   6.965576806611425e-06   4.4042402548760164e-05
-4.1617138776877405e-05   1.302303174209379e-05   4.2857745519197035e-05
-4.1617138776877405e-05   1.302303174209379e-05   4.2857745519197035e-05
-4.1617138776877405e-05   1.302303174209379e-05   4.2857745519197035e-05
-4.1617138776877405e-05   1.302303174209379e-05   4.2857745519197035e-05
-4.265060211830512e-05   4.761402363021201e-06   4.751189321401824e-05
-4.265060211830512e-05   4.761402363021201e-06   4.751189321401824e-05
-4.265060211830512e-05   4.761402363021201e-06   4.751189321401824e-05
-4.265060211830512e-05   4.761402363021201e-06   4.751189321401824e-05
-4.314740233967438e-05   1.0201068359350779e-05   4.507609398516905e-05
-4.314740233967438e-05   1.0201068359350779e-05   4.507609398516905e-05
-4.314740233967438e-05   1.0201068359350779e-05   4.507609398516905e-05
-4.314740233967438e-05   1.0201068359350779e-05   4.507609398516905e-05
-4.048155102233853e-05   8.180897283650585e-06   4.1845111101695975e-05
-4.048155102233853e-05   8.180897283650585e-06   4.1845111101695975e-05
-4.048155102233853e-05   8.180897283650585e-06   4.1845111101695975e-05
-4.048155102233853e-05   8.180897283650585e-06   4.1845111101695975e-05
-4.3147402339674434e-05   4.761402363021201e-06   4.424809361621958e-05
-4.3147402339674434e-05   4.761402363021201e-06   4.424809361621958e-05
-4.3147402339674434e-05   4.761402363021201e-06   4.424809361621958e-05
-4.3147402339674434e-05   4.761402363021201e-06   4.424809361621958e-05
-4.265060211830512e-05   1.0201068359350779e-05   4.833989358296684e-05
-4.265060211830512e-05   1.0201068359350779e-05   4.833989358296684e-05
-4.265060211830512e-05   1.0201068359350779e-05   4.833989358296684e-05
-4.265060211830512e-05   1.0201068359350779e-05   4.833989358296684e-05
-4.399335118717012e-05   3.537997772687894e-06   4.913074911570229e-05
-4.399335118717012e-05   3.537997772687894e-06   4.913074911570229e-05
-4.399335118717012e-05   3.537997772687894e-06   4.913074911570229e-05
-4.399335118717012e-05   3.537997772687894e-06   4.913074911570229e-05
-4.7439445941134637e-05   8.239755153314609e-06   5.2053185943932816e-05
-4.7439445941134637e-05   8.239755153314609e-06   5.2053185943932816e-05
-4.7439445941134637e-05   8.239755153314609e-06   5.2053185943932816e-05
-4.7439445941134637e-05   8.239755153314609e-06   5.2053185943932816e-05
-4.3117498784789005e-05   6.960585265660454e-06   4.56174426159482e-05
-4.3117498784789005e-05   6.960585265660454e-06   4.56174426159482e-05
-4.3117498784789005e-05   6.960585265660454e-06   4.56174426159482e-05
-4.3117498784789005e-05   6.960585265660454e-06   4.56174426159482e-05
-4.7439445941134745e-05   3.537997772687894e-06   4.630969468732461e-05
-4.7439445941134745e-05   3.537997772687894e-06   4.630969468732461e-05
-4.7439445941134745e-05   3.537997772687894e-06   4.630969468732461e-05
-4.7439445941134745e-05   3.537997772687894e-06   4.630969468732461e-05
-4.399335118717012e-05   8.239755153314609e-06   5.487424037230876e-05
-4.399335118717012e-05   8.239755153314609e-06   5.487424037230876e-05
-4.399335118717012e-05   8.239755153314609e-06   5.487424037230876e-05
-4.399335118717012e-05   8.239755153314609e-06   5.487424037230876e-05
-4.483459343911019e-05   9.334421682063998e-07   5.420106782508781e-05
-4.483459343911019e-05   9.334421682063998e-07   5.420106782508781e-05
-4.483459343911019e-05   9.334421682063998e-07   5.420106782508781e-05
-4.483459343911019e-05   9.334421682063998e-07   5.420106782508781e-05
-5.2003911884028584e-05   3.4099200357374897e-06   6.466404517943238e-05
-5.2003911884028584e-05   3.4099200357374897e-06   6.466404517943238e-05
-5.2003911884028584e-05   3.4099200357374897e-06   6.466404517943238e-05
-5.2003911884028584e-05   3.4099200357374897e-06   6.466404517943238e-05
-4.4926641232265606e-05   5.4497018689772525e-06   5.164472499321563e-05
-4.4926641232265606e-05   5.4497018689772525e-06   5.164472499321563e-05
-4.4926641232265606e-05   5.4497018689772525e-06   5.164472499321563e-05
-4.4926641232265606e-05   5.4497018689772525e-06   5.164472499321563e-05
-4.161713877687731e-05   7.986795067189793e-06   8.84212869959114e-05
-4.161713877687731e-05   7.986795067189793e-06   8.84212869959114e-05
-4.161713877687731e-05   7.986795067189793e-06   8.84212869959114e-05
-4.161713877687731e-05   7.986795067189793e-06   8.84212869959114e-05
-4.173632337731842e-05   3.3640914528587987e-06   8.544902382657768e-05
-4.173632337731842e-05   3.3640914528587987e-06   8.544902382657768e-05
-4.173632337731842e-05   3.3640914528587987e-06   8.544902382657768e-05
-4.173632337731842e-05   3.3640914528587987e-06   8.544902382657768e-05
-4.203597891885575e-05   5.519854156066026e-06   8.508519516210516e-05
-4.203597891885575e-05   5.519854156066026e-06   8.508519516210516e-05
-4.203597891885575e-05   5.519854156066026e-06   8.508519516210516e-05
-4.203597891885575e-05   5.519854156066026e-06   8.508519516210516e-05
-4.265060211830512e-05   1.632459283740055e-06   8.844200408458298e-05
-4.265060211830512e-05   1.632459283740055e-06   8.844200408458298e-05
-4.265060211830512e-05   1.632459283740055e-06   8.844200408458298e-05
-4.265060211830512e-05   1.632459283740055e-06   8.844200408458298e-05
-4.1871580204183444e-05   4.098307406557797e-06   8.56641253540229e-05
-4.1871580204183444e-05   4.098307406557797e-06   8.56641253540229e-05
-4.1871580204183444e-05   4.098307406557797e-06   8.56641253540229e-05
-4.1871580204183444e-05   4.098307406557797e-06   8.56641253540229e-05
-4.265060211830508e-05   5.519854156066026e-06   8.741763208549918e-05
-4.265060211830508e-05   5.519854156066026e-06   8.741763208549918e-05
-4.265060211830508e-05   5.519854156066026e-06   8.741763208549918e-05
-4.265060211830508e-05   5.519854156066026e-06   8.741763208549918e-05
-4.2035978918855644e-05   1.632459283740055e-06   8.610956716118717e-05
-4.2035978918855644e-05   1.632459283740055e-06   8.610956716118717e-05
-4.2035978918855644e-05   1.632459283740055e-06   8.610956716118717e-05
-4.2035978918855644e-05   1.632459283740055e-06   8.610956716118717e-05
-4.241112617195484e-05   3.233501041072402e-06   8.631041376763954e-05
-4.241112617195484e-05   3.233501041072402e-06   8.631041376763954e-05
-4.241112617195484e-05   3.233501041072402e-06   8.631041376763954e-05
-4.241112617195484e-05   3.233501041072402e-06   8.631041376763954e-05
-4.399335118717012e-05   -3.9316337644172347e-07   9.112345411017305e-05
-4.399335118717012e-05   -3.9316337644172347e-07   9.112345411017305e-05
-4.399335118717012e-05   -3.9316337644172347e-07   9.112345411017305e-05
-4.399335118717012e-05   -3.9316337644172347e-07   9.112345411017305e-05
-4.2243008837207233e-05   2.6543975894530517e-06   8.63776802806968e-05
-4.2243008837207233e-05   2.6543975894530517e-06   8.63776802806968e-05
-4.2243008837207233e-05   2.6543975894530517e-06   8.63776802806968e-05
-4.2243008837207233e-05   2.6543975894530517e-06   8.63776802806968e-05
-4.399335118717012e-05   3.233501041072402e-06   8.848641241814698e-05
-4.399335118717012e-05   3.233501041072402e-06   8.848641241814698e-05
-4.399335118717012e-05   3.233501041072402e-06   8.848641241814698e-05
-4.399335118717012e-05   3.233501041072402e-06   8.848641241814698e-05
-4.241112617195473e-05   -3.9316337644172347e-07   8.894745545966415e-05
-4.241112617195473e-05   -3.9316337644172347e-07   8.894745545966415e-05
-4.241112617195473e-05   -3.9316337644172347e-07   8.894745545966415e-05
-4.241112617195473e-05   -3.9316337644172347e-07   8.894745545966415e-05
-4.267279408478274e-05   7.468005675786288e-07   8.885087204192968e-05
-4.267279408478274e-05   7.468005675786288e-07   8.885087204192968e-05
-4.267279408478274e-05   7.468005675786288e-07   8.885087204192968e-05
-4.267279408478274e-05   7.468005675786288e-07   8.885087204192968e-05
-4.483459343911016e-05   -3.0658748460515167e-06   9.474147621398629e-05
-4.483459343911016e-05   -3.0658748460515167e-06   9.474147621398629e-05
-4.483459343911016e-05   -3.0658748460515167e-06   9.474147621398629e-05
-4.483459343911016e-05   -3.0658748460515167e-06   9.474147621398629e-05
-4.284817032934736e-05   9.469163057265403e-07   8.9023096339979e-05
-4.284817032934736e-05   9.469163057265403e-07   8.9023096339979e-05
-4.284817032934736e-05   9.469163057265403e-07   8.9023096339979e-05
-4.284817032934736e-05   9.469163057265403e-07   8.9023096339979e-05
-4.173632337731864e-05   9.517346961282307e-06   9.756474054173911e-05
-4.173632337731864e-05   9.517346961282307e-06   9.756474054173911e-05
-4.173632337731864e-05   9.517346961282307e-06   9.756474054173911e-05
-4.173632337731864e-05   9.517346961282307e-06   9.756474054173911e-05
-4.458482106487393e-05   9.262966232216965e-07   8.766261419297639e-05
-4.458482106487393e-05   9.262966232216965e-07   8.766261419297639e-05
-4.458482106487393e-05   9.262966232216965e-07   8.766261419297639e-05
-4.458482106487393e-05   9.262966232216965e-07   8.766261419297639e-05
-4.466562489272236e-05   7.223995879580836e-06   9.256993380193663e-05
-4.466562489272236e-05   7.223995879580836e-06   9.256993380193663e-05
-4.466562489272236e-05   7.223995879580836e-06   9.256993380193663e-05
-4.466562489272236e-05   7.223995879580836e-06   9.256993380193663e-05
-4.2035978918855644e-05   -5.473651853871858e-07   9.285000715113928e-05
-4.2035978918855644e-05   -5.473651853871858e-07   9.285000715113928e-05
-4.2035978918855644e-05   -5.473651853871858e-07   9.285000715113928e-05
-4.2035978918855644e-05   -5.473651853871858e-07   9.285000715113928e-05
-4.317685162202119e-05   4.141325490042945e-06   9.193824725115722e-05
-4.317685162202119e-05   4.141325490042945e-06   9.193824725115722e-05
-4.317685162202119e-05   4.141325490042945e-06   9.193824725115722e-05
-4.317685162202119e-05   4.141325490042945e-06   9.193824725115722e-05
-4.2035978918855644e-05   7.223995879580836e-06   9.723275044091692e-05
-4.2035978918855644e-05   7.223995879580836e-06   9.723275044091692e-05
-4.2035978918855644e-05   7.223995879580836e-06   9.723275044091692e-05
-4.2035978918855644e-05   7.223995879580836e-06   9.723275044091692e-05
-4.466562489272236e-05   -5.473651853871858e-07   8.818719051215866e-05
-4.466562489272236e-05   -5.473651853871858e-07   8.818719051215866e-05
-4.466562489272236e-05   -5.473651853871858e-07   8.818719051215866e-05
-4.466562489272236e-05   -5.473651853871858e-07   8.818719051215866e-05
-4.483543413950127e-05   4.892398709503178e-06   9.405155868383568e-05
-4.483543413950127e-05   4.892398709503178e-06   9.405155868383568e-05
-4.483543413950127e-05   4.892398709503178e-06   9.405155868383568e-05
-4.483543413950127e-05   4.892398709503178e-06   9.405155868383568e-05
-4.241112617195473e-05   -2.312855636857347e-06   9.433419801240677e-05
-4.241112617195473e-05   -2.312855636857347e-06   9.433419801240677e-05
-4.241112617195473e-05   -2.312855636857347e-06   9.433419801240677e-05
-4.241112617195473e-05   -2.312855636857347e-06   9.433419801240677e-05
-4.317282854769607e-05   2.6769875484081336e-06   9.260979606081341e-05
-4.317282854769607e-05   2.6769875484081336e-06   9.260979606081341e-05
-4.317282854769607e-05   2.6769875484081336e-06   9.260979606081341e-05
-4.317282854769607e-05   2.6769875484081336e-06   9.260979606081341e-05
-4.241112617195484e-05   4.892398709503178e-06   9.837471129165061e-05
-4.241112617195484e-05   4.892398709503178e-06   9.837471129165061e-05
-4.241112617195484e-05   4.892398709503178e-06   9.837471129165061e-05
-4.241112617195484e-05   4.892398709503178e-06   9.837471129165061e-05
-4.483543413950127e-05   -2.312855636857347e-06   9.001104540459033e-05
-4.483543413950127e-05   -2.312855636857347e-06   9.001104540459033e-05
-4.483543413950127e-05   -2.312855636857347e-06   9.001104540459033e-05
-4.483543413950127e-05   -2.312855636857347e-06   9.001104540459033e-05
-4.493263588027695e-05   2.6784324637435172e-06   9.667908564177938e-05
-4.493263588027695e-05   2.6784324637435172e-06   9.667908564177938e-05
-4.493263588027695e-05   2.6784324637435172e-06   9.667908564177938e-05
-4.493263588027695e-05   2.6784324637435172e-06   9.667908564177938e-05
-4.267279408478263e-05   -4.092545853426506e-06   9.697526963958931e-05
-4.267279408478263e-05   -4.092545853426506e-06   9.697526963958931e-05
-4.267279408478263e-05   -4.092545853426506e-06   9.697526963958931e-05
-4.267279408478263e-05   -4.092545853426506e-06   9.697526963958931e-05
-4.323902779964511e-05   1.1700241381975077e-06   9.476145050271701e-05
-4.323902779964511e-05   1.1700241381975077e-06   9.476145050271701e-05
-4.323902779964511e-05   1.1700241381975077e-06   9.476145050271701e-05
-4.323902779964511e-05   1.1700241381975077e-06   9.476145050271701e-05
-4.458482106487393e-05   1.2827364445506736e-05   7.935895866621875e-05
-4.458482106487393e-05   1.2827364445506736e-05   7.935895866621875e-05
-4.458482106487393e-05   1.2827364445506736e-05   7.935895866621875e-05
-4.458482106487393e-05   1.2827364445506736e-05   7.935895866621875e-05
-4.885909290214111e-05   4.193467828095265e-06   6.705483430032728e-05
-4.885909290214111e-05   4.193467828095265e-06   6.705483430032728e-05
-4.885909290214111e-05   4.193467828095265e-06   6.705483430032728e-05
-4.885909290214111e-05   4.193467828095265e-06   6.705483430032728e-05
-4.89095530330462e-05   1.0413684227500095e-05   7.492852767774019e-05
-4.89095530330462e-05   1.0413684227500095e-05   7.492852767774019e-05
-4.89095530330462e-05   1.0413684227500095e-05   7.492852767774019e-05
-4.89095530330462e-05   1.0413684227500095e-05   7.492852767774019e-05
-4.466562489272236e-05   2.255691510568477e-06   7.275010974069234e-05
-4.466562489272236e-05   2.255691510568477e-06   7.275010974069234e-05
-4.466562489272236e-05   2.255691510568477e-06   7.275010974069234e-05
-4.466562489272236e-05   2.255691510568477e-06   7.275010974069234e-05
-4.663170218236715e-05   7.607707216679936e-06   7.281569579976714e-05
-4.663170218236715e-05   7.607707216679936e-06   7.281569579976714e-05
-4.663170218236715e-05   7.607707216679936e-06   7.281569579976714e-05
-4.663170218236715e-05   7.607707216679936e-06   7.281569579976714e-05
-4.466562489272236e-05   1.0413684227500095e-05   7.982332330789795e-05
-4.466562489272236e-05   1.0413684227500095e-05   7.982332330789795e-05
-4.466562489272236e-05   1.0413684227500095e-05   7.982332330789795e-05
-4.466562489272236e-05   1.0413684227500095e-05   7.982332330789795e-05
-4.89095530330462e-05   2.255691510568477e-06   6.785531411053333e-05
-4.89095530330462e-05   2.255691510568477e-06   6.785531411053333e-05
-4.89095530330462e-05   2.255691510568477e-06   6.785531411053333e-05
-4.89095530330462e-05   2.255691510568477e-06   6.785531411053333e-05
-4.941573791036923e-05   8.270095741997989e-06   7.772204834952199e-05
-4.941573791036923e-05   8.270095741997989e-06   7.772204834952199e-05
-4.941573791036923e-05   8.270095741997989e-06   7.772204834952199e-05
-4.941573791036923e-05   8.270095741997989e-06   7.772204834952199e-05
-4.483543413950127e-05   5.985293089786833e-07   7.469114859122027e-05
-4.483543413950127e-05   5.985293089786833e-07   7.469114859122027e-05
-4.483543413950127e-05   5.985293089786833e-07   7.469114859122027e-05
-4.483543413950127e-05   5.985293089786833e-07   7.469114859122027e-05
-4.647179141420226e-05   6.010577554589527e-06   7.417118176835215e-05
-4.647179141420226e-05   6.010577554589527e-06   7.417118176835215e-05
-4.647179141420226e-05   6.010577554589527e-06   7.417118176835215e-05
-4.647179141420226e-05   6.010577554589527e-06   7.417118176835215e-05
-4.483543413950127e-05   8.270095741997989e-06   8.232498820933158e-05
-4.483543413950127e-05   8.270095741997989e-06   8.232498820933158e-05
-4.483543413950127e-05   8.270095741997989e-06   8.232498820933158e-05
-4.483543413950127e-05   8.270095741997989e-06   8.232498820933158e-05
-4.941573791036923e-05   5.985293089786833e-07   7.008820873140857e-05
-4.941573791036923e-05   5.985293089786833e-07   7.008820873140857e-05
-4.941573791036923e-05   5.985293089786833e-07   7.008820873140857e-05
-4.941573791036923e-05   5.985293089786833e-07   7.008820873140857e-05
-4.970935958752251e-05   6.090368025344836e-06   8.119968963935312e-05
-4.970935958752251e-05   6.090368025344836e-06   8.119968963935312e-05
-4.970935958752251e-05   6.090368025344836e-06   8.119968963935312e-05
-4.970935958752251e-05   6.090368025344836e-06   8.119968963935312e-05
-4.493263588027695e-05   -1.070608024715796e-06   7.753506909064629e-05
-4.493263588027695e-05   -1.070608024715796e-06   7.753506909064629e-05
-4.493263588027695e-05   -1.070608024715796e-06   7.753506909064629e-05
-4.493263588027695e-05   -1.070608024715796e-06   7.753506909064629e-05
-4.667641560640698e-05   4.586979583395302e-06   7.704681606932788e-05
-4.667641560640698e-05   4.586979583395302e-06   7.704681606932788e-05
-4.667641560640698e-05   4.586979583395302e-06   7.704681606932788e-05
-4.667641560640698e-05   4.586979583395302e-06   7.704681606932788e-05
-4.8859092902140897e-05   1.5087178164341353e-05   3.0307183390201713e-05
-4.8859092902140897e-05   1.5087178164341353e-05   3.0307183390201713e-05
-4.8859092902140897e-05   1.5087178164341353e-05   3.0307183390201713e-05
-4.8859092902140897e-05   1.5087178164341353e-05   3.0307183390201713e-05
-4.783488082809348e-05   6.861990578058315e-06   2.70790909618438e-05
-4.783488082809348e-05   6.861990578058315e-06   2.70790909618438e-05
-4.783488082809348e-05   6.861990578058315e-06   2.70790909618438e-05
-4.783488082809348e-05   6.861990578058315e-06   2.70790909618438e-05
-5.029257541081921e-05   1.348002241136504e-05   3.3178671885018135e-05
-5.029257541081921e-05   1.348002241136504e-05   3.3178671885018135e-05
-5.029257541081921e-05   1.348002241136504e-05   3.3178671885018135e-05
-5.029257541081921e-05   1.348002241136504e-05   3.3178671885018135e-05
-4.890955303304598e-05   5.496911725138328e-06   3.566350100046422e-05
-4.890955303304598e-05   5.496911725138328e-06   3.566350100046422e-05
-4.890955303304598e-05   5.496911725138328e-06   3.566350100046422e-05
-4.890955303304598e-05   5.496911725138328e-06   3.566350100046422e-05
-4.7386914912512026e-05   1.059617613362188e-05   3.0066212154484552e-05
-4.7386914912512026e-05   1.059617613362188e-05   3.0066212154484552e-05
-4.7386914912512026e-05   1.059617613362188e-05   3.0066212154484552e-05
-4.7386914912512026e-05   1.059617613362188e-05   3.0066212154484552e-05
-4.8909553033045765e-05   1.348002241136504e-05   3.7968538296751994e-05
-4.8909553033045765e-05   1.348002241136504e-05   3.7968538296751994e-05
-4.8909553033045765e-05   1.348002241136504e-05   3.7968538296751994e-05
-4.8909553033045765e-05   1.348002241136504e-05   3.7968538296751994e-05
-5.029257541081943e-05   5.496911725138762e-06   3.087363458872917e-05
-5.029257541081943e-05   5.496911725138762e-06   3.087363458872917e-05
-5.029257541081943e-05   5.496911725138762e-06   3.087363458872917e-05
-5.029257541081943e-05   5.496911725138762e-06   3.087363458872917e-05
-5.245384015796126e-05   1.2379809112583219e-05   3.937993966138687e-05
-5.245384015796126e-05   1.2379809112583219e-05   3.937993966138687e-05
-5.245384015796126e-05   1.2379809112583219e-05   3.937993966138687e-05
-5.245384015796126e-05   1.2379809112583219e-05   3.937993966138687e-05
-4.941573791036901e-05   4.602738628828058e-06   3.8982678205653e-05
-4.941573791036901e-05   4.602738628828058e-06   3.8982678205653e-05
-4.941573791036901e-05   4.602738628828058e-06   3.8982678205653e-05
-4.941573791036901e-05   4.602738628828058e-06   3.8982678205653e-05
-4.912756971322814e-05   9.789064448402843e-06   3.539060238533752e-05
-4.912756971322814e-05   9.789064448402843e-06   3.539060238533752e-05
-4.912756971322814e-05   9.789064448402843e-06   3.539060238533752e-05
-4.912756971322814e-05   9.789064448402843e-06   3.539060238533752e-05
-4.941573791036901e-05   1.2379809112583219e-05   4.404618195163936e-05
-4.941573791036901e-05   1.2379809112583219e-05   4.404618195163936e-05
-4.941573791036901e-05   1.2379809112583219e-05   4.404618195163936e-05
-4.941573791036901e-05   1.2379809112583219e-05   4.404618195163936e-05
-5.245384015796126e-05   4.602738628828058e-06   3.4316435915399536e-05
-5.245384015796126e-05   4.602738628828058e-06   3.4316435915399536e-05
-5.245384015796126e-05   4.602738628828058e-06   3.4316435915399536e-05
-5.245384015796126e-05   4.602738628828058e-06   3.4316435915399536e-05
-5.5692611545651556e-05   9.87083584745932e-06   5.077693787015544e-05
-5.5692611545651556e-05   9.87083584745932e-06   5.077693787015544e-05
-5.5692611545651556e-05   9.87083584745932e-06   5.077693787015544e-05
-5.5692611545651556e-05   9.87083584745932e-06   5.077693787015544e-05
-4.970935958752251e-05   2.8226323489561646e-06   4.503377337237557e-05
-4.970935958752251e-05   2.8226323489561646e-06   4.503377337237557e-05
-4.970935958752251e-05   2.8226323489561646e-06   4.503377337237557e-05
-4.970935958752251e-05   2.8226323489561646e-06   4.503377337237557e-05
-4.9713582452570065e-05   8.843751647002584e-06   4.142813990195594e-05
-4.9713582452570065e-05   8.843751647002584e-06   4.142813990195594e-05
-4.9713582452570065e-05   8.843751647002584e-06   4.142813990195594e-05
-4.9713582452570065e-05   8.843751647002584e-06   4.142813990195594e-05
-9.84168777385814e-05   1.302303174209379e-05   3.656970738445458e-05
-9.84168777385814e-05   1.302303174209379e-05   3.656970738445458e-05
-9.84168777385814e-05   1.302303174209379e-05   3.656970738445458e-05
-9.84168777385814e-05   1.302303174209379e-05   3.656970738445458e-05
-6.608956449477663e-05   1.8076132786079557e-05   9.348042341718755e-05
-6.608956449477663e-05   1.8076132786079557e-05   9.348042341718755e-05
-6.608956449477663e-05   1.8076132786079557e-05   9.348042341718755e-05
-6.608956449477663e-05   1.8076132786079557e-05   9.348042341718755e-05
-6.603328727293082e-05   1.0201068359350779e-05   4.187450918887218e-05
-6.603328727293082e-05   1.0201068359350779e-05   4.187450918887218e-05
-6.603328727293082e-05   1.0201068359350779e-05   4.187450918887218e-05
-6.603328727293082e-05   1.0201068359350779e-05   4.187450918887218e-05
-0.0001082083003226041   7.500676881257986e-06   0.00011378643249185082
-0.0001082083003226041   7.500676881257986e-06   0.00011378643249185082
-0.0001082083003226041   7.500676881257986e-06   0.00011378643249185082
-0.0001082083003226041   7.500676881257986e-06   0.00011378643249185082
-8.03243629698189e-05   1.0752941732356316e-05   6.536184465988294e-05
-8.03243629698189e-05   1.0752941732356316e-05   6.536184465988294e-05
-8.03243629698189e-05   1.0752941732356316e-05   6.536184465988294e-05
-8.03243629698189e-05   1.0752941732356316e-05   6.536184465988294e-05
-0.00010820830032260431   1.0201068359350345e-05   4.349474407572794e-05
-0.00010820830032260431   1.0201068359350345e-05   4.349474407572794e-05
-0.00010820830032260431   1.0201068359350345e-05   4.349474407572794e-05
-0.00010820830032260431   1.0201068359350345e-05   4.349474407572794e-05
-6.603328727293082e-05   7.500676881257986e-06   0.00011216619760499522
-6.603328727293082e-05   7.500676881257986e-06   0.00011216619760499522
-6.603328727293082e-05   7.500676881257986e-06   0.00011216619760499522
-6.603328727293082e-05   7.500676881257986e-06   0.00011216619760499522
-6.687139545524451e-05   8.239755153314609e-06   4.6995293298650103e-05
-6.687139545524451e-05   8.239755153314609e-06   4.6995293298650103e-05
-6.687139545524451e-05   8.239755153314609e-06   4.6995293298650103e-05
-6.687139545524451e-05   8.239755153314609e-06   4.6995293298650103e-05
-0.00010853230839923106   5.445490204217035e-06   0.00011810670717475239
-0.00010853230839923106   5.445490204217035e-06   0.00011810670717475239
-0.00010853230839923106   5.445490204217035e-06   0.00011810670717475239
-0.00010853230839923106   5.445490204217035e-06   0.00011810670717475239
-8.561232264399344e-05   6.783299317290794e-06   7.910404544817797e-05
-8.561232264399344e-05   6.783299317290794e-06   7.910404544817797e-05
-8.561232264399344e-05   6.783299317290794e-06   7.910404544817797e-05
-8.561232264399344e-05   6.783299317290794e-06   7.910404544817797e-05
-0.00010853230839923125   8.239755153314609e-06   4.867185226810843e-05
-0.00010853230839923125   8.239755153314609e-06   4.867185226810843e-05
-0.00010853230839923125   8.239755153314609e-06   4.867185226810843e-05
-0.00010853230839923125   8.239755153314609e-06   4.867185226810843e-05
-6.68713954552444e-05   5.445490204217035e-06   0.00011643014820529379
-6.68713954552444e-05   5.445490204217035e-06   0.00011643014820529379
-6.68713954552444e-05   5.445490204217035e-06   0.00011643014820529379
-6.68713954552444e-05   5.445490204217035e-06   0.00011643014820529379
-6.609581535331051e-05   3.4099200357374897e-06   5.596419666627217e-05
-6.609581535331051e-05   3.4099200357374897e-06   5.596419666627217e-05
-6.609581535331051e-05   3.4099200357374897e-06   5.596419666627217e-05
-6.609581535331051e-05   3.4099200357374897e-06   5.596419666627217e-05
-0.00010960889962789177   -3.2571235852850173e-06   0.0001324862299631873
-0.00010960889962789177   -3.2571235852850173e-06   0.0001324862299631873
-0.00010960889962789177   -3.2571235852850173e-06   0.0001324862299631873
-0.00010960889962789177   -3.2571235852850173e-06   0.0001324862299631873
-8.424207157293714e-05   3.3684848615130394e-06   8.623281813685069e-05
-8.424207157293714e-05   3.3684848615130394e-06   8.623281813685069e-05
-8.424207157293714e-05   3.3684848615130394e-06   8.623281813685069e-05
-8.424207157293714e-05   3.3684848615130394e-06   8.623281813685069e-05
-6.608956449477671e-05   3.3640914528587987e-06   8.496646848682541e-05
-6.608956449477671e-05   3.3640914528587987e-06   8.496646848682541e-05
-6.608956449477671e-05   3.3640914528587987e-06   8.496646848682541e-05
-6.608956449477671e-05   3.3640914528587987e-06   8.496646848682541e-05
-4.038217146371556e-05   -1.9839731170383148e-05   0.0001138898299646487
-4.038217146371556e-05   -1.9839731170383148e-05   0.0001138898299646487
-4.038217146371556e-05   -1.9839731170383148e-05   0.0001138898299646487
-4.038217146371556e-05   -1.9839731170383148e-05   0.0001138898299646487
-4.04241350588962e-05   1.6324592837404887e-06   7.128150056815558e-05
-4.04241350588962e-05   1.6324592837404887e-06   7.128150056815558e-05
-4.04241350588962e-05   1.6324592837404887e-06   7.128150056815558e-05
-4.04241350588962e-05   1.6324592837404887e-06   7.128150056815558e-05
-6.603328727293082e-05   -1.6192739253480855e-05   0.00012465854004721337
-6.603328727293082e-05   -1.6192739253480855e-05   0.00012465854004721337
-6.603328727293082e-05   -1.6192739253480855e-05   0.00012465854004721337
-6.603328727293082e-05   -1.6192739253480855e-05   0.00012465854004721337
-5.293496723320804e-05   -9.799982740669663e-06   9.899235273998913e-05
-5.293496723320804e-05   -9.799982740669663e-06   9.899235273998913e-05
-5.293496723320804e-05   -9.799982740669663e-06   9.899235273998913e-05
-5.293496723320804e-05   -9.799982740669663e-06   9.899235273998913e-05
-6.60332872729309e-05   1.6324592837404887e-06   8.197661969048782e-05
-6.60332872729309e-05   1.6324592837404887e-06   8.197661969048782e-05
-6.60332872729309e-05   1.6324592837404887e-06   8.197661969048782e-05
-6.60332872729309e-05   1.6324592837404887e-06   8.197661969048782e-05
-4.04241350588962e-05   -1.6192739253480855e-05   0.00011396342092488069
-4.04241350588962e-05   -1.6192739253480855e-05   0.00011396342092488069
-4.04241350588962e-05   -1.6192739253480855e-05   0.00011396342092488069
-4.04241350588962e-05   -1.6192739253480855e-05   0.00011396342092488069
-4.052624208693994e-05   -3.9316337644172347e-07   7.353386477161584e-05
-4.052624208693994e-05   -3.9316337644172347e-07   7.353386477161584e-05
-4.052624208693994e-05   -3.9316337644172347e-07   7.353386477161584e-05
-4.052624208693994e-05   -3.9316337644172347e-07   7.353386477161584e-05
-6.68713954552444e-05   -1.657756715127195e-05   0.0001271530959836876
-6.68713954552444e-05   -1.657756715127195e-05   0.0001271530959836876
-6.68713954552444e-05   -1.657756715127195e-05   0.0001271530959836876
-6.68713954552444e-05   -1.657756715127195e-05   0.0001271530959836876
-5.250810846412975e-05   -8.55947063376156e-06   9.840342642132322e-05
-5.250810846412975e-05   -8.55947063376156e-06   9.840342642132322e-05
-5.250810846412975e-05   -8.55947063376156e-06   9.840342642132322e-05
-5.250810846412975e-05   -8.55947063376156e-06   9.840342642132322e-05
-6.687139545524451e-05   -3.9316337644172347e-07   8.324450703651402e-05
-6.687139545524451e-05   -3.9316337644172347e-07   8.324450703651402e-05
-6.687139545524451e-05   -3.9316337644172347e-07   8.324450703651402e-05
-6.687139545524451e-05   -3.9316337644172347e-07   8.324450703651402e-05
-4.0526242086939726e-05   -1.657756715127195e-05   0.00011744245371878942
-4.0526242086939726e-05   -1.657756715127195e-05   0.00011744245371878942
-4.0526242086939726e-05   -1.657756715127195e-05   0.00011744245371878942
-4.0526242086939726e-05   -1.657756715127195e-05   0.00011744245371878942
-4.0062659704911355e-05   -3.0658748460515167e-06   7.632887426798859e-05
-4.0062659704911355e-05   -3.0658748460515167e-06   7.632887426798859e-05
-4.0062659704911355e-05   -3.0658748460515167e-06   7.632887426798859e-05
-4.0062659704911355e-05   -3.0658748460515167e-06   7.632887426798859e-05
-6.609581535331035e-05   -1.6777319366582596e-05   0.00012794433372763885
-6.609581535331035e-05   -1.6777319366582596e-05   0.00012794433372763885
-6.609581535331035e-05   -1.6777319366582596e-05   0.00012794433372763885
-6.609581535331035e-05   -1.6777319366582596e-05   0.00012794433372763885
-5.269233810389277e-05   -9.644461629976491e-06   0.00010132549033664594
-5.269233810389277e-05   -9.644461629976491e-06   0.00010132549033664594
-5.269233810389277e-05   -9.644461629976491e-06   0.00010132549033664594
-5.269233810389277e-05   -9.644461629976491e-06   0.00010132549033664594
-4.038217146371556e-05   9.262966232216965e-07   7.841239548211508e-05
-4.038217146371556e-05   9.262966232216965e-07   7.841239548211508e-05
-4.038217146371556e-05   9.262966232216965e-07   7.841239548211508e-05
-4.038217146371556e-05   9.262966232216965e-07   7.841239548211508e-05
-2.9518356106855237e-05   -1.5492937564742185e-05   8.666721389743782e-05
-2.9518356106855237e-05   -1.5492937564742185e-05   8.666721389743782e-05
-2.9518356106855237e-05   -1.5492937564742185e-05   8.666721389743782e-05
-2.9518356106855237e-05   -1.5492937564742185e-05   8.666721389743782e-05
-2.9210188403262175e-05   -5.473651853871858e-07   6.922098219258512e-05
-2.9210188403262175e-05   -5.473651853871858e-07   6.922098219258512e-05
-2.9210188403262175e-05   -5.473651853871858e-07   6.922098219258512e-05
-2.9210188403262175e-05   -5.473651853871858e-07   6.922098219258512e-05
-4.04241350588962e-05   -1.521562912792495e-05   9.671185165083165e-05
-4.04241350588962e-05   -1.521562912792495e-05   9.671185165083165e-05
-4.04241350588962e-05   -1.521562912792495e-05   9.671185165083165e-05
-4.04241350588962e-05   -1.521562912792495e-05   9.671185165083165e-05
-3.466263156364527e-05   -7.84101304969996e-06   8.268457617847903e-05
-3.466263156364527e-05   -7.84101304969996e-06   8.268457617847903e-05
-3.466263156364527e-05   -7.84101304969996e-06   8.268457617847903e-05
-3.466263156364527e-05   -7.84101304969996e-06   8.268457617847903e-05
-4.04241350588962e-05   -5.473651853871858e-07   7.80219405581077e-05
-4.04241350588962e-05   -5.473651853871858e-07   7.80219405581077e-05
-4.04241350588962e-05   -5.473651853871858e-07   7.80219405581077e-05
-4.04241350588962e-05   -5.473651853871858e-07   7.80219405581077e-05
-2.9210188403262175e-05   -1.521562912792495e-05   8.791089328530924e-05
-2.9210188403262175e-05   -1.521562912792495e-05   8.791089328530924e-05
-2.9210188403262175e-05   -1.521562912792495e-05   8.791089328530924e-05
-2.9210188403262175e-05   -1.521562912792495e-05   8.791089328530924e-05
-2.8930876135754586e-05   -2.312855636857347e-06   7.089409134514472e-05
-2.8930876135754586e-05   -2.312855636857347e-06   7.089409134514472e-05
-2.8930876135754586e-05   -2.312855636857347e-06   7.089409134514472e-05
-2.8930876135754586e-05   -2.312855636857347e-06   7.089409134514472e-05
-4.0526242086939726e-05   -1.569038226888024e-05   9.824621724299981e-05
-4.0526242086939726e-05   -1.569038226888024e-05   9.824621724299981e-05
-4.0526242086939726e-05   -1.569038226888024e-05   9.824621724299981e-05
-4.0526242086939726e-05   -1.569038226888024e-05   9.824621724299981e-05
-3.4311958612682917e-05   -8.385393045933984e-06   8.350608458546874e-05
-3.4311958612682917e-05   -8.385393045933984e-06   8.350608458546874e-05
-3.4311958612682917e-05   -8.385393045933984e-06   8.350608458546874e-05
-3.4311958612682917e-05   -8.385393045933984e-06   8.350608458546874e-05
-4.0526242086939726e-05   -2.312855636857347e-06   7.892060732435867e-05
-4.0526242086939726e-05   -2.312855636857347e-06   7.892060732435867e-05
-4.0526242086939726e-05   -2.312855636857347e-06   7.892060732435867e-05
-4.0526242086939726e-05   -2.312855636857347e-06   7.892060732435867e-05
-2.8930876135754803e-05   -1.569038226888024e-05   9.021970126378662e-05
-2.8930876135754803e-05   -1.569038226888024e-05   9.021970126378662e-05
-2.8930876135754803e-05   -1.569038226888024e-05   9.021970126378662e-05
-2.8930876135754803e-05   -1.569038226888024e-05   9.021970126378662e-05
-2.8301238090617424e-05   -4.092545853426072e-06   7.347807671676931e-05
-2.8301238090617424e-05   -4.092545853426072e-06   7.347807671676931e-05
-2.8301238090617424e-05   -4.092545853426072e-06   7.347807671676931e-05
-2.8301238090617424e-05   -4.092545853426072e-06   7.347807671676931e-05
-4.006265970491125e-05   -1.63795395617609e-05   0.00010045264229892564
-4.006265970491125e-05   -1.63795395617609e-05   0.00010045264229892564
-4.006265970491125e-05   -1.63795395617609e-05   0.00010045264229892564
-4.006265970491125e-05   -1.63795395617609e-05   0.00010045264229892564
-3.389865377628195e-05   -9.168938230623772e-06   8.585293828586153e-05
-3.389865377628195e-05   -9.168938230623772e-06   8.585293828586153e-05
-3.389865377628195e-05   -9.168938230623772e-06   8.585293828586153e-05
-3.389865377628195e-05   -9.168938230623772e-06   8.585293828586153e-05
-2.951835610685502e-05   4.193467828095265e-06   5.313341304713417e-05
-2.951835610685502e-05   4.193467828095265e-06   5.313341304713417e-05
-2.951835610685502e-05   4.193467828095265e-06   5.313341304713417e-05
-2.951835610685502e-05   4.193467828095265e-06   5.313341304713417e-05
-2.4386611917239474e-05   -6.338040846113214e-06   5.5367414825301564e-05
-2.4386611917239474e-05   -6.338040846113214e-06   5.5367414825301564e-05
-2.4386611917239474e-05   -6.338040846113214e-06   5.5367414825301564e-05
-2.4386611917239474e-05   -6.338040846113214e-06   5.5367414825301564e-05
-2.3811670399674243e-05   2.255691510568477e-06   4.7968114637056154e-05
-2.3811670399674243e-05   2.255691510568477e-06   4.7968114637056154e-05
-2.3811670399674243e-05   2.255691510568477e-06   4.7968114637056154e-05
-2.3811670399674243e-05   2.255691510568477e-06   4.7968114637056154e-05
-2.9210188403262175e-05   -7.4372864628693795e-06   6.278143142709938e-05
-2.9210188403262175e-05   -7.4372864628693795e-06   6.278143142709938e-05
-2.9210188403262175e-05   -7.4372864628693795e-06   6.278143142709938e-05
-2.9210188403262175e-05   -7.4372864628693795e-06   6.278143142709938e-05
-2.6534356538200155e-05   -1.4427709920223318e-06   5.472500236948898e-05
-2.6534356538200155e-05   -1.4427709920223318e-06   5.472500236948898e-05
-2.6534356538200155e-05   -1.4427709920223318e-06   5.472500236948898e-05
-2.6534356538200155e-05   -1.4427709920223318e-06   5.472500236948898e-05
-2.9210188403262175e-05   2.255691510568477e-06   5.3783901421118694e-05
-2.9210188403262175e-05   2.255691510568477e-06   5.3783901421118694e-05
-2.9210188403262175e-05   2.255691510568477e-06   5.3783901421118694e-05
-2.9210188403262175e-05   2.255691510568477e-06   5.3783901421118694e-05
-2.3811670399674243e-05   -7.4372864628693795e-06   5.696564464303662e-05
-2.3811670399674243e-05   -7.4372864628693795e-06   5.696564464303662e-05
-2.3811670399674243e-05   -7.4372864628693795e-06   5.696564464303662e-05
-2.3811670399674243e-05   -7.4372864628693795e-06   5.696564464303662e-05
-2.352304344720884e-05   5.985293089786833e-07   5.0250176553170035e-05
-2.352304344720884e-05   5.985293089786833e-07   5.0250176553170035e-05
-2.352304344720884e-05   5.985293089786833e-07   5.0250176553170035e-05
-2.352304344720884e-05   5.985293089786833e-07   5.0250176553170035e-05
-2.8930876135754586e-05   -8.274833988695116e-06   6.45872490126838e-05
-2.8930876135754586e-05   -8.274833988695116e-06   6.45872490126838e-05
-2.8930876135754586e-05   -8.274833988695116e-06   6.45872490126838e-05
-2.8930876135754586e-05   -8.274833988695116e-06   6.45872490126838e-05
-2.5965913753164143e-05   -2.630721902606263e-06   5.625917779004345e-05
-2.5965913753164143e-05   -2.630721902606263e-06   5.625917779004345e-05
-2.5965913753164143e-05   -2.630721902606263e-06   5.625917779004345e-05
-2.5965913753164143e-05   -2.630721902606263e-06   5.625917779004345e-05
-2.8930876135754803e-05   5.985293089786833e-07   5.557419453177358e-05
-2.8930876135754803e-05   5.985293089786833e-07   5.557419453177358e-05
-2.8930876135754803e-05   5.985293089786833e-07   5.557419453177358e-05
-2.8930876135754803e-05   5.985293089786833e-07   5.557419453177358e-05
-2.352304344720884e-05   -8.274833988695333e-06   5.9263231034079066e-05
-2.352304344720884e-05   -8.274833988695333e-06   5.9263231034079066e-05
-2.352304344720884e-05   -8.274833988695333e-06   5.9263231034079066e-05
-2.352304344720884e-05   -8.274833988695333e-06   5.9263231034079066e-05
-2.307874749329225e-05   -1.0706080247162297e-06   5.311614338064392e-05
-2.307874749329225e-05   -1.0706080247162297e-06   5.311614338064392e-05
-2.307874749329225e-05   -1.0706080247162297e-06   5.311614338064392e-05
-2.307874749329225e-05   -1.0706080247162297e-06   5.311614338064392e-05
-2.8301238090617424e-05   -9.37780765385642e-06   6.68046141536695e-05
-2.8301238090617424e-05   -9.37780765385642e-06   6.68046141536695e-05
-2.8301238090617424e-05   -9.37780765385642e-06   6.68046141536695e-05
-2.8301238090617424e-05   -9.37780765385642e-06   6.68046141536695e-05
-2.550704052560731e-05   -3.6671133419093754e-06   5.872120162481913e-05
-2.550704052560731e-05   -3.6671133419093754e-06   5.872120162481913e-05
-2.550704052560731e-05   -3.6671133419093754e-06   5.872120162481913e-05
-2.550704052560731e-05   -3.6671133419093754e-06   5.872120162481913e-05
-2.4386611917239474e-05   6.861990578058315e-06   1.177387705589587e-05
-2.4386611917239474e-05   6.861990578058315e-06   1.177387705589587e-05
-2.4386611917239474e-05   6.861990578058315e-06   1.177387705589587e-05
-2.4386611917239474e-05   6.861990578058315e-06   1.177387705589587e-05
-1.3756778321845744e-05   -7.405405349329448e-07   2.4928747713757245e-05
-1.3756778321845744e-05   -7.405405349329448e-07   2.4928747713757245e-05
-1.3756778321845744e-05   -7.405405349329448e-07   2.4928747713757245e-05
-1.3756778321845744e-05   -7.405405349329448e-07   2.4928747713757245e-05
-1.4497996250015677e-05   5.496911725138762e-06   1.186652000748599e-05
-1.4497996250015677e-05   5.496911725138762e-06   1.186652000748599e-05
-1.4497996250015677e-05   5.496911725138762e-06   1.186652000748599e-05
-1.4497996250015677e-05   5.496911725138762e-06   1.186652000748599e-05
-2.3811670399674243e-05   -1.0193908073640075e-06   3.129909177641962e-05
-2.3811670399674243e-05   -1.0193908073640075e-06   3.129909177641962e-05
-2.3811670399674243e-05   -1.0193908073640075e-06   3.129909177641962e-05
-2.3811670399674243e-05   -1.0193908073640075e-06   3.129909177641962e-05
-1.8457002065569873e-05   3.5197035610969735e-06   1.9651187931836196e-05
-1.8457002065569873e-05   3.5197035610969735e-06   1.9651187931836196e-05
-1.8457002065569873e-05   3.5197035610969735e-06   1.9651187931836196e-05
-1.8457002065569873e-05   3.5197035610969735e-06   1.9651187931836196e-05
-2.3811670399674243e-05   5.496911725138328e-06   1.5776301526986437e-05
-2.3811670399674243e-05   5.496911725138328e-06   1.5776301526986437e-05
-2.3811670399674243e-05   5.496911725138328e-06   1.5776301526986437e-05
-2.3811670399674243e-05   5.496911725138328e-06   1.5776301526986437e-05
-1.4497996250015894e-05   -1.0193908073642243e-06   2.738931025691744e-05
-1.4497996250015894e-05   -1.0193908073642243e-06   2.738931025691744e-05
-1.4497996250015894e-05   -1.0193908073642243e-06   2.738931025691744e-05
-1.4497996250015894e-05   -1.0193908073642243e-06   2.738931025691744e-05
-1.5099769124496485e-05   4.602738628828058e-06   1.5542262185074332e-05
-1.5099769124496485e-05   4.602738628828058e-06   1.5542262185074332e-05
-1.5099769124496485e-05   4.602738628828058e-06   1.5542262185074332e-05
-1.5099769124496485e-05   4.602738628828058e-06   1.5542262185074332e-05
-2.352304344720884e-05   -1.401234441738208e-06   3.3183436565267874e-05
-2.352304344720884e-05   -1.401234441738208e-06   3.3183436565267874e-05
-2.352304344720884e-05   -1.401234441738208e-06   3.3183436565267874e-05
-2.352304344720884e-05   -1.401234441738208e-06   3.3183436565267874e-05
-1.872913281471928e-05   2.8364953160390366e-06   2.2650947656451502e-05
-1.872913281471928e-05   2.8364953160390366e-06   2.2650947656451502e-05
-1.872913281471928e-05   2.8364953160390366e-06   2.2650947656451502e-05
-1.872913281471928e-05   2.8364953160390366e-06   2.2650947656451502e-05
-2.352304344720884e-05   4.602738628828058e-06   1.9144646027414525e-05
-2.352304344720884e-05   4.602738628828058e-06   1.9144646027414525e-05
-2.352304344720884e-05   4.602738628828058e-06   1.9144646027414525e-05
-2.352304344720884e-05   4.602738628828058e-06   1.9144646027414525e-05
-1.5099769124496268e-05   -1.4012344417379911e-06   2.9581052722928115e-05
-1.5099769124496268e-05   -1.4012344417379911e-06   2.9581052722928115e-05
-1.5099769124496268e-05   -1.4012344417379911e-06   2.9581052722928115e-05
-1.5099769124496268e-05   -1.4012344417379911e-06   2.9581052722928115e-05
-1.666825299036722e-05   2.8226323489561646e-06   2.210795822752895e-05
-1.666825299036722e-05   2.8226323489561646e-06   2.210795822752895e-05
-1.666825299036722e-05   2.8226323489561646e-06   2.210795822752895e-05
-1.666825299036722e-05   2.8226323489561646e-06   2.210795822752895e-05
-2.307874749329225e-05   -1.8498260925124861e-06   3.5595590797283735e-05
-2.307874749329225e-05   -1.8498260925124861e-06   3.5595590797283735e-05
-2.307874749329225e-05   -1.8498260925124861e-06   3.5595590797283735e-05
-2.307874749329225e-05   -1.8498260925124861e-06   3.5595590797283735e-05
-1.87276307986161e-05   2.3820639329539747e-06   2.5804595624210908e-05
-1.87276307986161e-05   2.3820639329539747e-06   2.5804595624210908e-05
-1.87276307986161e-05   2.3820639329539747e-06   2.5804595624210908e-05
-1.87276307986161e-05   2.3820639329539747e-06   2.5804595624210908e-05
-0.00022856049565933315   1.8076132786079557e-05   9.559037565127137e-05
-0.00022856049565933315   1.8076132786079557e-05   9.559037565127137e-05
-0.00022856049565933315   1.8076132786079557e-05   9.559037565127137e-05
-0.00022856049565933315   1.8076132786079557e-05   9.559037565127137e-05
-5.4003309185648226e-05   -0.00010880022411436406   0.0003103932056338137
-5.4003309185648226e-05   -0.00010880022411436406   0.0003103932056338137
-5.4003309185648226e-05   -0.00010880022411436406   0.0003103932056338137
-5.4003309185648226e-05   -0.00010880022411436406   0.0003103932056338137
-6.320056469888525e-05   7.500676881257986e-06   5.270936251256208e-05
-6.320056469888525e-05   7.500676881257986e-06   5.270936251256208e-05
-6.320056469888525e-05   7.500676881257986e-06   5.270936251256208e-05
-6.320056469888525e-05   7.500676881257986e-06   5.270936251256208e-05
-0.0002084518824467048   -8.412891303461156e-05   0.00034977264604178266
-0.0002084518824467048   -8.412891303461156e-05   0.00034977264604178266
-0.0002084518824467048   -8.412891303461156e-05   0.00034977264604178266
-0.0002084518824467048   -8.412891303461156e-05   0.00034977264604178266
-0.00013905596074023738   -4.1902910112121645e-05   0.0002087771747775096
-0.00013905596074023738   -4.1902910112121645e-05   0.0002087771747775096
-0.00013905596074023738   -4.1902910112121645e-05   0.0002087771747775096
-0.00013905596074023738   -4.1902910112121645e-05   0.0002087771747775096
-0.00020845188244670445   7.500676881257986e-06   0.00010768711646208366
-0.00020845188244670445   7.500676881257986e-06   0.00010768711646208366
-0.00020845188244670445   7.500676881257986e-06   0.00010768711646208366
-0.00020845188244670445   7.500676881257986e-06   0.00010768711646208366
-6.320056469888535e-05   -8.412891303461156e-05   0.000294794892092261
-6.320056469888535e-05   -8.412891303461156e-05   0.000294794892092261
-6.320056469888535e-05   -8.412891303461156e-05   0.000294794892092261
-6.320056469888535e-05   -8.412891303461156e-05   0.000294794892092261
-6.453691739851289e-05   5.445490204217035e-06   5.7904687546389566e-05
-6.453691739851289e-05   5.445490204217035e-06   5.7904687546389566e-05
-6.453691739851289e-05   5.445490204217035e-06   5.7904687546389566e-05
-6.453691739851289e-05   5.445490204217035e-06   5.7904687546389566e-05
-0.0001966596793431854   -7.21827505060872e-05   0.00032468623521369246
-0.0001966596793431854   -7.21827505060872e-05   0.00032468623521369246
-0.0001966596793431854   -7.21827505060872e-05   0.00032468623521369246
-0.0001966596793431854   -7.21827505060872e-05   0.00032468623521369246
-0.000134823924730521   -3.9652482753917834e-05   0.0002021084835412837
-0.000134823924730521   -3.9652482753917834e-05   0.0002021084835412837
-0.000134823924730521   -3.9652482753917834e-05   0.0002021084835412837
-0.000134823924730521   -3.9652482753917834e-05   0.0002021084835412837
-0.00019665967934318505   5.445490204217035e-06   0.00010448163197257195
-0.00019665967934318505   5.445490204217035e-06   0.00010448163197257195
-0.00019665967934318505   5.445490204217035e-06   0.00010448163197257195
-0.00019665967934318505   5.445490204217035e-06   0.00010448163197257195
-6.4536917398513e-05   -7.21827505060872e-05   0.00027810929078751
-6.4536917398513e-05   -7.21827505060872e-05   0.00027810929078751
-6.4536917398513e-05   -7.21827505060872e-05   0.00027810929078751
-6.4536917398513e-05   -7.21827505060872e-05   0.00027810929078751
-7.050377515830966e-05   -3.2571235852850173e-06   7.259685258177088e-05
-7.050377515830966e-05   -3.2571235852850173e-06   7.259685258177088e-05
-7.050377515830966e-05   -3.2571235852850173e-06   7.259685258177088e-05
-7.050377515830966e-05   -3.2571235852850173e-06   7.259685258177088e-05
-0.00018157501032554346   -5.635562457491747e-05   0.0002895746784542727
-0.00018157501032554346   -5.635562457491747e-05   0.0002895746784542727
-0.00018157501032554346   -5.635562457491747e-05   0.0002895746784542727
-0.00018157501032554346   -5.635562457491747e-05   0.0002895746784542727
-0.00012958365128211627   -3.6582232762399046e-05   0.00019105837829438334
-0.00012958365128211627   -3.6582232762399046e-05   0.00019105837829438334
-0.00012958365128211627   -3.6582232762399046e-05   0.00019105837829438334
-0.00012958365128211627   -3.6582232762399046e-05   0.00019105837829438334
-5.4003309185648144e-05   -1.9839731170383148e-05   5.379626163241164e-05
-5.4003309185648144e-05   -1.9839731170383148e-05   5.379626163241164e-05
-5.4003309185648144e-05   -1.9839731170383148e-05   5.379626163241164e-05
-5.4003309185648144e-05   -1.9839731170383148e-05   5.379626163241164e-05
-1.889091440779127e-05   -3.293046998430138e-05   0.00010446247630715592
-1.889091440779127e-05   -3.293046998430138e-05   0.00010446247630715592
-1.889091440779127e-05   -3.293046998430138e-05   0.00010446247630715592
-1.889091440779127e-05   -3.293046998430138e-05   0.00010446247630715592
-2.0994016069585965e-05   -1.6192739253480855e-05   4.852132954876864e-05
-2.0994016069585965e-05   -1.6192739253480855e-05   4.852132954876864e-05
-2.0994016069585965e-05   -1.6192739253480855e-05   4.852132954876864e-05
-2.0994016069585965e-05   -1.6192739253480855e-05   4.852132954876864e-05
-6.320056469888535e-05   -4.399336493016718e-05   0.00013554595267027892
-6.320056469888535e-05   -4.399336493016718e-05   0.00013554595267027892
-6.320056469888535e-05   -4.399336493016718e-05   0.00013554595267027892
-6.320056469888535e-05   -4.399336493016718e-05   0.00013554595267027892
-3.722590049250184e-05   -2.3169684545843805e-05   7.976063742904554e-05
-3.722590049250184e-05   -2.3169684545843805e-05   7.976063742904554e-05
-3.722590049250184e-05   -2.3169684545843805e-05   7.976063742904554e-05
-3.722590049250184e-05   -2.3169684545843805e-05   7.976063742904554e-05
-6.320056469888516e-05   -1.6192739253480855e-05   6.520170495477975e-05
-6.320056469888516e-05   -1.6192739253480855e-05   6.520170495477975e-05
-6.320056469888516e-05   -1.6192739253480855e-05   6.520170495477975e-05
-6.320056469888516e-05   -1.6192739253480855e-05   6.520170495477975e-05
-2.0994016069585965e-05   -4.399336493016718e-05   0.00011886557726426721
-2.0994016069585965e-05   -4.399336493016718e-05   0.00011886557726426721
-2.0994016069585965e-05   -4.399336493016718e-05   0.00011886557726426721
-2.0994016069585965e-05   -4.399336493016718e-05   0.00011886557726426721
-2.2787474660432077e-05   -1.6577567151272168e-05   5.454393262780072e-05
-2.2787474660432077e-05   -1.6577567151272168e-05   5.454393262780072e-05
-2.2787474660432077e-05   -1.6577567151272168e-05   5.454393262780072e-05
-2.2787474660432077e-05   -1.6577567151272168e-05   5.454393262780072e-05
-6.4536917398513e-05   -4.005040497957624e-05   0.000138210039888251
-6.4536917398513e-05   -4.005040497957624e-05   0.000138210039888251
-6.4536917398513e-05   -4.005040497957624e-05   0.000138210039888251
-6.4536917398513e-05   -4.005040497957624e-05   0.000138210039888251
-4.185436288671811e-05   -2.843234345524916e-05   9.34349454539973e-05
-4.185436288671811e-05   -2.843234345524916e-05   9.34349454539973e-05
-4.185436288671811e-05   -2.843234345524916e-05   9.34349454539973e-05
-4.185436288671811e-05   -2.843234345524916e-05   9.34349454539973e-05
-6.453691739851289e-05   -1.6577567151272168e-05   6.862763532478327e-05
-6.453691739851289e-05   -1.6577567151272168e-05   6.862763532478327e-05
-6.453691739851289e-05   -1.6577567151272168e-05   6.862763532478327e-05
-6.453691739851289e-05   -1.6577567151272168e-05   6.862763532478327e-05
-2.2787474660432186e-05   -4.005040497957624e-05   0.00012412633719126857
-2.2787474660432186e-05   -4.005040497957624e-05   0.00012412633719126857
-2.2787474660432186e-05   -4.005040497957624e-05   0.00012412633719126857
-2.2787474660432186e-05   -4.005040497957624e-05   0.00012412633719126857
-2.5686595835217778e-05   -1.6777319366582813e-05   5.957174048338686e-05
-2.5686595835217778e-05   -1.6777319366582813e-05   5.957174048338686e-05
-2.5686595835217778e-05   -1.6777319366582813e-05   5.957174048338686e-05
-2.5686595835217778e-05   -1.6777319366582813e-05   5.957174048338686e-05
-7.050377515830972e-05   -3.758305609233134e-05   0.0001467504813906555
-7.050377515830972e-05   -3.758305609233134e-05   0.0001467504813906555
-7.050377515830972e-05   -3.758305609233134e-05   0.0001467504813906555
-7.050377515830972e-05   -3.758305609233134e-05   0.0001467504813906555
-4.449306600063284e-05   -2.5942607338514702e-05   9.641503020890426e-05
-4.449306600063284e-05   -2.5942607338514702e-05   9.641503020890426e-05
-4.449306600063284e-05   -2.5942607338514702e-05   9.641503020890426e-05
-4.449306600063284e-05   -2.5942607338514702e-05   9.641503020890426e-05
-1.8890914407791162e-05   -1.5492937564742185e-05   2.857074278962788e-05
-1.8890914407791162e-05   -1.5492937564742185e-05   2.857074278962788e-05
-1.8890914407791162e-05   -1.5492937564742185e-05   2.857074278962788e-05
-1.8890914407791162e-05   -1.5492937564742185e-05   2.857074278962788e-05
-1.0490633703011875e-05   -8.749254826116162e-06   4.66174202741024e-05
-1.0490633703011875e-05   -8.749254826116162e-06   4.66174202741024e-05
-1.0490633703011875e-05   -8.749254826116162e-06   4.66174202741024e-05
-1.0490633703011875e-05   -8.749254826116162e-06   4.66174202741024e-05
-1.0027114689144375e-05   -1.521562912792495e-05   3.343883777096393e-05
-1.0027114689144375e-05   -1.521562912792495e-05   3.343883777096393e-05
-1.0027114689144375e-05   -1.521562912792495e-05   3.343883777096393e-05
-1.0027114689144375e-05   -1.521562912792495e-05   3.343883777096393e-05
-2.0994016069585965e-05   -1.160049996751762e-05   4.95479292421221e-05
-2.0994016069585965e-05   -1.160049996751762e-05   4.95479292421221e-05
-2.0994016069585965e-05   -1.160049996751762e-05   4.95479292421221e-05
-2.0994016069585965e-05   -1.160049996751762e-05   4.95479292421221e-05
-1.4150400529237426e-05   -1.2154798693082705e-05   3.8474482576879646e-05
-1.4150400529237426e-05   -1.2154798693082705e-05   3.8474482576879646e-05
-1.4150400529237426e-05   -1.2154798693082705e-05   3.8474482576879646e-05
-1.4150400529237426e-05   -1.2154798693082705e-05   3.8474482576879646e-05
-2.0994016069585857e-05   -1.521562912792495e-05   3.12697602747197e-05
-2.0994016069585857e-05   -1.521562912792495e-05   3.12697602747197e-05
-2.0994016069585857e-05   -1.521562912792495e-05   3.12697602747197e-05
-2.0994016069585857e-05   -1.521562912792495e-05   3.12697602747197e-05
-1.0027114689144159e-05   -1.160049996751762e-05   5.1717006738366544e-05
-1.0027114689144159e-05   -1.160049996751762e-05   5.1717006738366544e-05
-1.0027114689144159e-05   -1.160049996751762e-05   5.1717006738366544e-05
-1.0027114689144159e-05   -1.160049996751762e-05   5.1717006738366544e-05
-9.987721062018834e-06   -1.569038226888024e-05   3.571585769065978e-05
-9.987721062018834e-06   -1.569038226888024e-05   3.571585769065978e-05
-9.987721062018834e-06   -1.569038226888024e-05   3.571585769065978e-05
-9.987721062018834e-06   -1.569038226888024e-05   3.571585769065978e-05
-2.2787474660432186e-05   -1.5076779704466223e-05   5.6680618816032846e-05
-2.2787474660432186e-05   -1.5076779704466223e-05   5.6680618816032846e-05
-2.2787474660432186e-05   -1.5076779704466223e-05   5.6680618816032846e-05
-2.2787474660432186e-05   -1.5076779704466223e-05   5.6680618816032846e-05
-1.4934611933384366e-05   -1.329308183072508e-05   4.252229554670877e-05
-1.4934611933384366e-05   -1.329308183072508e-05   4.252229554670877e-05
-1.4934611933384366e-05   -1.329308183072508e-05   4.252229554670877e-05
-1.4934611933384366e-05   -1.329308183072508e-05   4.252229554670877e-05
-2.2787474660432186e-05   -1.5690382268880023e-05   3.534769615201117e-05
-2.2787474660432186e-05   -1.5690382268880023e-05   3.534769615201117e-05
-2.2787474660432186e-05   -1.5690382268880023e-05   3.534769615201117e-05
-2.2787474660432186e-05   -1.5690382268880023e-05   3.534769615201117e-05
-9.987721062018834e-06   -1.5076779704466223e-05   5.7048780354681345e-05
-9.987721062018834e-06   -1.5076779704466223e-05   5.7048780354681345e-05
-9.987721062018834e-06   -1.5076779704466223e-05   5.7048780354681345e-05
-9.987721062018834e-06   -1.5076779704466223e-05   5.7048780354681345e-05
-1.0037930305931315e-05   -1.63795395617609e-05   3.910123083206455e-05
-1.0037930305931315e-05   -1.63795395617609e-05   3.910123083206455e-05
-1.0037930305931315e-05   -1.63795395617609e-05   3.910123083206455e-05
-1.0037930305931315e-05   -1.63795395617609e-05   3.910123083206455e-05
-2.5686595835217778e-05   -1.8389014453307288e-05   6.638802498246956e-05
-2.5686595835217778e-05   -1.8389014453307288e-05   6.638802498246956e-05
-2.5686595835217778e-05   -1.8389014453307288e-05   6.638802498246956e-05
-2.5686595835217778e-05   -1.8389014453307288e-05   6.638802498246956e-05
-1.581458833913057e-05   -1.456844352652894e-05   4.764233659959073e-05
-1.581458833913057e-05   -1.456844352652894e-05   4.764233659959073e-05
-1.581458833913057e-05   -1.456844352652894e-05   4.764233659959073e-05
-1.581458833913057e-05   -1.456844352652894e-05   4.764233659959073e-05
-1.0490633703011875e-05   -6.338040846113214e-06   7.636058565192835e-06
-1.0490633703011875e-05   -6.338040846113214e-06   7.636058565192835e-06
-1.0490633703011875e-05   -6.338040846113214e-06   7.636058565192835e-06
-1.0490633703011875e-05   -6.338040846113214e-06   7.636058565192835e-06
-7.682989946898935e-06   2.020414527845898e-06   1.7330538049756304e-05
-7.682989946898935e-06   2.020414527845898e-06   1.7330538049756304e-05
-7.682989946898935e-06   2.020414527845898e-06   1.7330538049756304e-05
-7.682989946898935e-06   2.020414527845898e-06   1.7330538049756304e-05
-6.170724962245621e-06   -7.4372864628693795e-06   1.339478305315044e-05
-6.170724962245621e-06   -7.4372864628693795e-06   1.339478305315044e-05
-6.170724962245621e-06   -7.4372864628693795e-06   1.339478305315044e-05
-6.170724962245621e-06   -7.4372864628693795e-06   1.339478305315044e-05
-1.0027114689144159e-05   1.0383921044574904e-06   1.473669212425136e-05
-1.0027114689144159e-05   1.0383921044574904e-06   1.473669212425136e-05
-1.0027114689144159e-05   1.0383921044574904e-06   1.473669212425136e-05
-1.0027114689144159e-05   1.0383921044574904e-06   1.473669212425136e-05
-8.066635710578078e-06   -2.8221810868900386e-06   1.378557107478218e-05
-8.066635710578078e-06   -2.8221810868900386e-06   1.378557107478218e-05
-8.066635710578078e-06   -2.8221810868900386e-06   1.378557107478218e-05
-8.066635710578078e-06   -2.8221810868900386e-06   1.378557107478218e-05
-1.0027114689144159e-05   -7.4372864628693795e-06   8.309375912754447e-06
-1.0027114689144159e-05   -7.4372864628693795e-06   8.309375912754447e-06
-1.0027114689144159e-05   -7.4372864628693795e-06   8.309375912754447e-06
-1.0027114689144159e-05   -7.4372864628693795e-06   8.309375912754447e-06
-6.170724962245621e-06   1.0383921044574904e-06   1.982209926464757e-05
-6.170724962245621e-06   1.0383921044574904e-06   1.982209926464757e-05
-6.170724962245621e-06   1.0383921044574904e-06   1.982209926464757e-05
-6.170724962245621e-06   1.0383921044574904e-06   1.982209926464757e-05
-5.321257971796023e-06   -8.274833988695116e-06   1.470988210203368e-05
-5.321257971796023e-06   -8.274833988695116e-06   1.470988210203368e-05
-5.321257971796023e-06   -8.274833988695116e-06   1.470988210203368e-05
-5.321257971796023e-06   -8.274833988695116e-06   1.470988210203368e-05
-9.987721062018834e-06   -5.640395512342665e-07   1.786084392326132e-05
-9.987721062018834e-06   -5.640395512342665e-07   1.786084392326132e-05
-9.987721062018834e-06   -5.640395512342665e-07   1.786084392326132e-05
-9.987721062018834e-06   -5.640395512342665e-07   1.786084392326132e-05
-7.268826815919928e-06   -3.6483037195782176e-06   1.5179912014102407e-05
-7.268826815919928e-06   -3.6483037195782176e-06   1.5179912014102407e-05
-7.268826815919928e-06   -3.6483037195782176e-06   1.5179912014102407e-05
-7.268826815919928e-06   -3.6483037195782176e-06   1.5179912014102407e-05
-9.987721062018834e-06   -8.274833988695116e-06   1.0083405439556309e-05
-9.987721062018834e-06   -8.274833988695116e-06   1.0083405439556309e-05
-9.987721062018834e-06   -8.274833988695116e-06   1.0083405439556309e-05
-9.987721062018834e-06   -8.274833988695116e-06   1.0083405439556309e-05
-5.321257971796023e-06   -5.640395512342665e-07   2.2487320585737715e-05
-5.321257971796023e-06   -5.640395512342665e-07   2.2487320585737715e-05
-5.321257971796023e-06   -5.640395512342665e-07   2.2487320585737715e-05
-5.321257971796023e-06   -5.640395512342665e-07   2.2487320585737715e-05
-4.01544277941362e-06   -9.37780765385642e-06   1.6104631491189493e-05
-4.01544277941362e-06   -9.37780765385642e-06   1.6104631491189493e-05
-4.01544277941362e-06   -9.37780765385642e-06   1.6104631491189493e-05
-4.01544277941362e-06   -9.37780765385642e-06   1.6104631491189493e-05
-1.0037930305931315e-05   -3.912420021556746e-06   2.286287812267116e-05
-1.0037930305931315e-05   -3.912420021556746e-06   2.286287812267116e-05
-1.0037930305931315e-05   -3.912420021556746e-06   2.286287812267116e-05
-1.0037930305931315e-05   -3.912420021556746e-06   2.286287812267116e-05
-6.596481677410403e-06   -4.933910898541425e-06   1.7740024934662438e-05
-6.596481677410403e-06   -4.933910898541425e-06   1.7740024934662438e-05
-6.596481677410403e-06   -4.933910898541425e-06   1.7740024934662438e-05
-6.596481677410403e-06   -4.933910898541425e-06   1.7740024934662438e-05
-7.682989946898935e-06   -7.405405349329448e-07   -1.3226016654181803e-05
-7.682989946898935e-06   -7.405405349329448e-07   -1.3226016654181803e-05
-7.682989946898935e-06   -7.405405349329448e-07   -1.3226016654181803e-05
-7.682989946898935e-06   -7.405405349329448e-07   -1.3226016654181803e-05
-1.31565505258357e-06   1.1457361835203166e-06   -1.4820257992504554e-06
-1.31565505258357e-06   1.1457361835203166e-06   -1.4820257992504554e-06
-1.31565505258357e-06   1.1457361835203166e-06   -1.4820257992504554e-06
-1.31565505258357e-06   1.1457361835203166e-06   -1.4820257992504554e-06
1.735315871965841e-07   -1.0193908073642243e-06   -1.0460020304309346e-05
1.735315871965841e-07   -1.0193908073642243e-06   -1.0460020304309346e-05
1.735315871965841e-07   -1.0193908073642243e-06   -1.0460020304309346e-05
1.735315871965841e-07   -1.0193908073642243e-06   -1.0460020304309346e-05
-6.170724962245621e-06   2.0001917078985736e-06   -1.6980088977311403e-06
-6.170724962245621e-06   2.0001917078985736e-06   -1.6980088977311403e-06
-6.170724962245621e-06   2.0001917078985736e-06   -1.6980088977311403e-06
-6.170724962245621e-06   2.0001917078985736e-06   -1.6980088977311403e-06
-3.4275068846609464e-06   5.160804671044354e-07   -5.37957228256402e-06
-3.4275068846609464e-06   5.160804671044354e-07   -5.37957228256402e-06
-3.4275068846609464e-06   5.160804671044354e-07   -5.37957228256402e-06
-3.4275068846609464e-06   5.160804671044354e-07   -5.37957228256402e-06
-6.170724962245621e-06   -1.0193908073640075e-06   -1.2271769813468293e-05
-6.170724962245621e-06   -1.0193908073640075e-06   -1.2271769813468293e-05
-6.170724962245621e-06   -1.0193908073640075e-06   -1.2271769813468293e-05
-6.170724962245621e-06   -1.0193908073640075e-06   -1.2271769813468293e-05
1.735315871965841e-07   2.0001917078985736e-06   1.1374061142628913e-07
1.735315871965841e-07   2.0001917078985736e-06   1.1374061142628913e-07
1.735315871965841e-07   2.0001917078985736e-06   1.1374061142628913e-07
1.735315871965841e-07   2.0001917078985736e-06   1.1374061142628913e-07
9.74149338900561e-07   -1.401234441738208e-06   -9.472177763094995e-06
9.74149338900561e-07   -1.401234441738208e-06   -9.472177763094995e-06
9.74149338900561e-07   -1.401234441738208e-06   -9.472177763094995e-06
9.74149338900561e-07   -1.401234441738208e-06   -9.472177763094995e-06
-5.321257971796023e-06   1.7616565644005297e-06   -8.775668489504132e-07
-5.321257971796023e-06   1.7616565644005297e-06   -8.775668489504132e-07
-5.321257971796023e-06   1.7616565644005297e-06   -8.775668489504132e-07
-5.321257971796023e-06   1.7616565644005297e-06   -8.775668489504132e-07
-2.316900777779335e-06   3.4105010105899176e-07   -5.032464960971934e-06
-2.316900777779335e-06   3.4105010105899176e-07   -5.032464960971934e-06
-2.316900777779335e-06   3.4105010105899176e-07   -5.032464960971934e-06
-2.316900777779335e-06   3.4105010105899176e-07   -5.032464960971934e-06
-5.321257971796023e-06   -1.401234441738208e-06   -1.1369912366777403e-05
-5.321257971796023e-06   -1.401234441738208e-06   -1.1369912366777403e-05
-5.321257971796023e-06   -1.401234441738208e-06   -1.1369912366777403e-05
-5.321257971796023e-06   -1.401234441738208e-06   -1.1369912366777403e-05
9.74149338900561e-07   1.7616565644005297e-06   1.020167754732862e-06
9.74149338900561e-07   1.7616565644005297e-06   1.020167754732862e-06
9.74149338900561e-07   1.7616565644005297e-06   1.020167754732862e-06
9.74149338900561e-07   1.7616565644005297e-06   1.020167754732862e-06
1.983965707360539e-06   -1.849826092512703e-06   -8.04744446773406e-06
1.983965707360539e-06   -1.849826092512703e-06   -8.04744446773406e-06
1.983965707360539e-06   -1.849826092512703e-06   -8.04744446773406e-06
1.983965707360539e-06   -1.849826092512703e-06   -8.04744446773406e-06
-4.01544277941362e-06   1.6045532741184486e-06   -1.2105794309005824e-07
-4.01544277941362e-06   1.6045532741184486e-06   -1.2105794309005824e-07
-4.01544277941362e-06   1.6045532741184486e-06   -1.2105794309005824e-07
-4.01544277941362e-06   1.6045532741184486e-06   -1.2105794309005824e-07
-1.307018621939473e-06   1.3867212019392366e-07   -3.755569513191198e-06
-1.307018621939473e-06   1.3867212019392366e-07   -3.755569513191198e-06
-1.307018621939473e-06   1.3867212019392366e-07   -3.755569513191198e-06
-1.307018621939473e-06   1.3867212019392366e-07   -3.755569513191198e-06
              </DataArray>   
             <DataArray type="Float64" NumberOfComponents="3" Name="Stress" format="ascii">   
-11.82342787585362   -2.955856968963405   -2.955856968963405
-11.82342787585362   -2.955856968963405   -2.955856968963405
-11.82342787585362   -2.955856968963405   -2.955856968963405
-11.82342787585362   -2.955856968963405   -2.955856968963405
-6.843374296192406   -0.2141501402828181   -0.13616126395738853
-6.843374296192406   -0.2141501402828181   -0.13616126395738853
-6.843374296192406   -0.2141501402828181   -0.13616126395738853
-6.843374296192406   -0.2141501402828181   -0.13616126395738853
-7.378764210337767   -1.8446910525844418   -1.8446910525844418
-7.378764210337767   -1.8446910525844418   -1.8446910525844418
-7.378764210337767   -1.8446910525844418   -1.8446910525844418
-7.378764210337767   -1.8446910525844418   -1.8446910525844418
-11.396338166574711   -0.9337862576871077   -0.3564490143792517
-11.396338166574711   -0.9337862576871077   -0.3564490143792517
-11.396338166574711   -0.9337862576871077   -0.3564490143792517
-11.396338166574711   -0.9337862576871077   -0.3564490143792517
-8.938735596672927   -1.4642086372106426   -0.024537152223440675
-8.938735596672927   -1.4642086372106426   -0.024537152223440675
-8.938735596672927   -1.4642086372106426   -0.024537152223440675
-8.938735596672927   -1.4642086372106426   -0.024537152223440675
-12.375879013512733   -3.0939697533781834   -3.0939697533781834
-12.375879013512733   -3.0939697533781834   -3.0939697533781834
-12.375879013512733   -3.0939697533781834   -3.0939697533781834
-12.375879013512733   -3.0939697533781834   -3.0939697533781834
-6.6313076710430945   0.0834081354633025   -0.035507544158824345
-6.6313076710430945   0.0834081354633025   -0.035507544158824345
-6.6313076710430945   0.0834081354633025   -0.035507544158824345
-6.6313076710430945   0.0834081354633025   -0.035507544158824345
-7.401411848349409   -1.8503529620873522   -1.8503529620873522
-7.401411848349409   -1.8503529620873522   -1.8503529620873522
-7.401411848349409   -1.8503529620873522   -1.8503529620873522
-7.401411848349409   -1.8503529620873522   -1.8503529620873522
-11.781411770914543   -0.9433204055217812   -0.522570793628651
-11.781411770914543   -0.9433204055217812   -0.522570793628651
-11.781411770914543   -0.9433204055217812   -0.522570793628651
-11.781411770914543   -0.9433204055217812   -0.522570793628651
-9.274102223058552   -1.3792384769054884   -0.49236819919752506
-9.274102223058552   -1.3792384769054884   -0.49236819919752506
-9.274102223058552   -1.3792384769054884   -0.49236819919752506
-9.274102223058552   -1.3792384769054884   -0.49236819919752506
-12.764703923427197   -3.191175980856799   -3.191175980856799
-12.764703923427197   -3.191175980856799   -3.191175980856799
-12.764703923427197   -3.191175980856799   -3.191175980856799
-12.764703923427197   -3.191175980856799   -3.191175980856799
-6.613748133546045   0.20187417553839637   0.03573847430372279
-6.613748133546045   0.20187417553839637   0.03573847430372279
-6.613748133546045   0.20187417553839637   0.03573847430372279
-6.613748133546045   0.20187417553839637   0.03573847430372279
-7.399593687034543   -1.8498984217586358   -1.8498984217586358
-7.399593687034543   -1.8498984217586358   -1.8498984217586358
-7.399593687034543   -1.8498984217586358   -1.8498984217586358
-7.399593687034543   -1.8498984217586358   -1.8498984217586358
-12.468718516369176   -0.828725470474267   -0.3125466052492386
-12.468718516369176   -0.828725470474267   -0.3125466052492386
-12.468718516369176   -0.828725470474267   -0.3125466052492386
-12.468718516369176   -0.828725470474267   -0.3125466052492386
-9.523646927608404   -1.3583369849167488   -0.89022802958643
-9.523646927608404   -1.3583369849167488   -0.89022802958643
-9.523646927608404   -1.3583369849167488   -0.89022802958643
-9.523646927608404   -1.3583369849167488   -0.89022802958643
-7.525902239271529   -1.8814755598178823   -1.8814755598178823
-7.525902239271529   -1.8814755598178823   -1.8814755598178823
-7.525902239271529   -1.8814755598178823   -1.8814755598178823
-7.525902239271529   -1.8814755598178823   -1.8814755598178823
-3.137581194916969   -0.2070171845757009   -0.06744013374566311
-3.137581194916969   -0.2070171845757009   -0.06744013374566311
-3.137581194916969   -0.2070171845757009   -0.06744013374566311
-3.137581194916969   -0.2070171845757009   -0.06744013374566311
-3.2961108991449737   -0.8240277247862434   -0.8240277247862434
-3.2961108991449737   -0.8240277247862434   -0.8240277247862434
-3.2961108991449737   -0.8240277247862434   -0.8240277247862434
-3.2961108991449737   -0.8240277247862434   -0.8240277247862434
-6.85314144158469   -0.8049863303535147   -0.25628193104998165
-6.85314144158469   -0.8049863303535147   -0.25628193104998165
-6.85314144158469   -0.8049863303535147   -0.25628193104998165
-6.85314144158469   -0.8049863303535147   -0.25628193104998165
-5.053283262804588   -0.9566811702469313   0.03979441766107951
-5.053283262804588   -0.9566811702469313   0.03979441766107951
-5.053283262804588   -0.9566811702469313   0.03979441766107951
-5.053283262804588   -0.9566811702469313   0.03979441766107951
-7.378764210337762   -1.8446910525844404   -1.8446910525844404
-7.378764210337762   -1.8446910525844404   -1.8446910525844404
-7.378764210337762   -1.8446910525844404   -1.8446910525844404
-7.378764210337762   -1.8446910525844404   -1.8446910525844404
-2.9618809051576847   0.024284222678895184   -0.0011897023149373132
-2.9618809051576847   0.024284222678895184   -0.0011897023149373132
-2.9618809051576847   0.024284222678895184   -0.0011897023149373132
-2.9618809051576847   0.024284222678895184   -0.0011897023149373132
-3.224355829834135   -0.8060889574585337   -0.8060889574585337
-3.224355829834135   -0.8060889574585337   -0.8060889574585337
-3.224355829834135   -0.8060889574585337   -0.8060889574585337
-3.224355829834135   -0.8060889574585337   -0.8060889574585337
-6.837688711232106   -0.6571873827490873   -0.22490285583910458
-6.837688711232106   -0.6571873827490873   -0.22490285583910458
-6.837688711232106   -0.6571873827490873   -0.22490285583910458
-6.837688711232106   -0.6571873827490873   -0.22490285583910458
-4.984722299719434   -0.8057727149662611   -0.26081869324417284
-4.984722299719434   -0.8057727149662611   -0.26081869324417284
-4.984722299719434   -0.8057727149662611   -0.26081869324417284
-4.984722299719434   -0.8057727149662611   -0.26081869324417284
-7.401411848349409   -1.8503529620873522   -1.8503529620873522
-7.401411848349409   -1.8503529620873522   -1.8503529620873522
-7.401411848349409   -1.8503529620873522   -1.8503529620873522
-7.401411848349409   -1.8503529620873522   -1.8503529620873522
-2.846002844901448   0.2017064696951154   0.07788054005125017
-2.846002844901448   0.2017064696951154   0.07788054005125017
-2.846002844901448   0.2017064696951154   0.07788054005125017
-2.846002844901448   0.2017064696951154   0.07788054005125017
-3.159320881930032   -0.789830220482508   -0.789830220482508
-3.159320881930032   -0.789830220482508   -0.789830220482508
-3.159320881930032   -0.789830220482508   -0.789830220482508
-3.159320881930032   -0.789830220482508   -0.789830220482508
-6.789416870890061   -0.5076188787684837   -0.1412938840264596
-6.789416870890061   -0.5076188787684837   -0.1412938840264596
-6.789416870890061   -0.5076188787684837   -0.1412938840264596
-6.789416870890061   -0.5076188787684837   -0.1412938840264596
-5.011317580501703   -0.7135748158667466   -0.5813644435130301
-5.011317580501703   -0.7135748158667466   -0.5813644435130301
-5.011317580501703   -0.7135748158667466   -0.5813644435130301
-5.011317580501703   -0.7135748158667466   -0.5813644435130301
-3.425210812503002   -0.8563027031257505   -0.8563027031257505
-3.425210812503002   -0.8563027031257505   -0.8563027031257505
-3.425210812503002   -0.8563027031257505   -0.8563027031257505
-3.425210812503002   -0.8563027031257505   -0.8563027031257505
0.41190080662258616   0.027864365439892513   0.0032950463762186286
0.41190080662258616   0.027864365439892513   0.0032950463762186286
0.41190080662258616   0.027864365439892513   0.0032950463762186286
0.41190080662258616   0.027864365439892513   0.0032950463762186286
0.5322953944865958   0.13307384862164895   0.13307384862164895
0.5322953944865958   0.13307384862164895   0.13307384862164895
0.5322953944865958   0.13307384862164895   0.13307384862164895
0.5322953944865958   0.13307384862164895   0.13307384862164895
-3.0987053070298067   -0.5356383081196548   -0.12538918087702064
-3.0987053070298067   -0.5356383081196548   -0.12538918087702064
-3.0987053070298067   -0.5356383081196548   -0.12538918087702064
-3.0987053070298067   -0.5356383081196548   -0.12538918087702064
-1.323783260594229   -0.3359288513929042   0.22607223895864778
-1.323783260594229   -0.3359288513929042   0.22607223895864778
-1.323783260594229   -0.3359288513929042   0.22607223895864778
-1.323783260594229   -0.3359288513929042   0.22607223895864778
-3.2961108991449737   -0.8240277247862434   -0.8240277247862434
-3.2961108991449737   -0.8240277247862434   -0.8240277247862434
-3.2961108991449737   -0.8240277247862434   -0.8240277247862434
-3.2961108991449737   -0.8240277247862434   -0.8240277247862434
0.5415149134893129   0.23327719217579096   0.07896810008108887
0.5415149134893129   0.23327719217579096   0.07896810008108887
0.5415149134893129   0.23327719217579096   0.07896810008108887
0.5415149134893129   0.23327719217579096   0.07896810008108887
0.5964185518109376   0.1491046379527344   0.1491046379527344
0.5964185518109376   0.1491046379527344   0.1491046379527344
0.5964185518109376   0.1491046379527344   0.1491046379527344
0.5964185518109376   0.1491046379527344   0.1491046379527344
-2.9909816941564005   -0.3612004432316554   -0.08410679329679142
-2.9909816941564005   -0.3612004432316554   -0.08410679329679142
-2.9909816941564005   -0.3612004432316554   -0.08410679329679142
-2.9909816941564005   -0.3612004432316554   -0.08410679329679142
-1.2717698768828718   -0.20788946440824146   -0.07665213850454894
-1.2717698768828718   -0.20788946440824146   -0.07665213850454894
-1.2717698768828718   -0.20788946440824146   -0.07665213850454894
-1.2717698768828718   -0.20788946440824146   -0.07665213850454894
-3.224355829834135   -0.8060889574585337   -0.8060889574585337
-3.224355829834135   -0.8060889574585337   -0.8060889574585337
-3.224355829834135   -0.8060889574585337   -0.8060889574585337
-3.224355829834135   -0.8060889574585337   -0.8060889574585337
0.6453900701130652   0.40959053480401497   0.1334763326120871
0.6453900701130652   0.40959053480401497   0.1334763326120871
0.6453900701130652   0.40959053480401497   0.1334763326120871
0.6453900701130652   0.40959053480401497   0.1334763326120871
0.6833067737876858   0.17082669344692145   0.17082669344692145
0.6833067737876858   0.17082669344692145   0.17082669344692145
0.6833067737876858   0.17082669344692145   0.17082669344692145
0.6833067737876858   0.17082669344692145   0.17082669344692145
-2.873714894750644   -0.15302278434208394   0.0013922792739694823
-2.873714894750644   -0.15302278434208394   0.0013922792739694823
-2.873714894750644   -0.15302278434208394   0.0013922792739694823
-2.873714894750644   -0.15302278434208394   0.0013922792739694823
-1.2356989692849307   -0.08445807911730785   -0.3766763912028484
-1.2356989692849307   -0.08445807911730785   -0.3766763912028484
-1.2356989692849307   -0.08445807911730785   -0.3766763912028484
-1.2356989692849307   -0.08445807911730785   -0.3766763912028484
0.4507432491770718   0.11268581229426795   0.11268581229426795
0.4507432491770718   0.11268581229426795   0.11268581229426795
0.4507432491770718   0.11268581229426795   0.11268581229426795
0.4507432491770718   0.11268581229426795   0.11268581229426795
4.2958813186006335   0.39391978843581366   0.13137708204549403
4.2958813186006335   0.39391978843581366   0.13137708204549403
4.2958813186006335   0.39391978843581366   0.13137708204549403
4.2958813186006335   0.39391978843581366   0.13137708204549403
4.662368498222749   1.1655921245556873   1.1655921245556873
4.662368498222749   1.1655921245556873   1.1655921245556873
4.662368498222749   1.1655921245556873   1.1655921245556873
4.662368498222749   1.1655921245556873   1.1655921245556873
0.40571919589016403   -0.30268262240052046   -0.0640506733383484
0.40571919589016403   -0.30268262240052046   -0.0640506733383484
0.40571919589016403   -0.30268262240052046   -0.0640506733383484
0.40571919589016403   -0.30268262240052046   -0.0640506733383484
2.451049540855851   0.305043128963172   0.44570314366648645
2.451049540855851   0.305043128963172   0.44570314366648645
2.451049540855851   0.305043128963172   0.44570314366648645
2.451049540855851   0.305043128963172   0.44570314366648645
0.5322953944865976   0.1330738486216494   0.1330738486216494
0.5322953944865976   0.1330738486216494   0.1330738486216494
0.5322953944865976   0.1330738486216494   0.1330738486216494
0.5322953944865976   0.1330738486216494   0.1330738486216494
4.344554616040081   0.5385979699472824   0.20351686825074913
4.344554616040081   0.5385979699472824   0.20351686825074913
4.344554616040081   0.5385979699472824   0.20351686825074913
4.344554616040081   0.5385979699472824   0.20351686825074913
4.640348940730473   1.1600872351826184   1.1600872351826184
4.640348940730473   1.1600872351826184   1.1600872351826184
4.640348940730473   1.1600872351826184   1.1600872351826184
4.640348940730473   1.1600872351826184   1.1600872351826184
0.5102638761436024   -0.13218879717333376   -0.00037530525787819735
0.5102638761436024   -0.13218879717333376   -0.00037530525787819735
0.5102638761436024   -0.13218879717333376   -0.00037530525787819735
0.5102638761436024   -0.13218879717333376   -0.00037530525787819735
2.4308716585837047   0.39956452309659324   0.1163440155835175
2.4308716585837047   0.39956452309659324   0.1163440155835175
2.4308716585837047   0.39956452309659324   0.1163440155835175
2.4308716585837047   0.39956452309659324   0.1163440155835175
0.5964185518109382   0.14910463795273454   0.14910463795273454
0.5964185518109382   0.14910463795273454   0.14910463795273454
0.5964185518109382   0.14910463795273454   0.14910463795273454
0.5964185518109382   0.14910463795273454   0.14910463795273454
4.364782801743569   0.6893823367369818   0.2529614386937326
4.364782801743569   0.6893823367369818   0.2529614386937326
4.364782801743569   0.6893823367369818   0.2529614386937326
4.364782801743569   0.6893823367369818   0.2529614386937326
4.728247500783949   1.1820618751959873   1.1820618751959873
4.728247500783949   1.1820618751959873   1.1820618751959873
4.728247500783949   1.1820618751959873   1.1820618751959873
4.728247500783949   1.1820618751959873   1.1820618751959873
0.6478406070074482   0.09356184996874042   0.07076070302390879
0.6478406070074482   0.09356184996874042   0.07076070302390879
0.6478406070074482   0.09356184996874042   0.07076070302390879
0.6478406070074482   0.09356184996874042   0.07076070302390879
2.466595611048615   0.5415368078521925   -0.18905737094760372
2.466595611048615   0.5415368078521925   -0.18905737094760372
2.466595611048615   0.5415368078521925   -0.18905737094760372
2.466595611048615   0.5415368078521925   -0.18905737094760372
4.65646882722708   1.16411720680677   1.16411720680677
4.65646882722708   1.16411720680677   1.16411720680677
4.65646882722708   1.16411720680677   1.16411720680677
4.65646882722708   1.16411720680677   1.16411720680677
9.64689207680233   0.7346905932934134   0.2495102940321307
9.64689207680233   0.7346905932934134   0.2495102940321307
9.64689207680233   0.7346905932934134   0.2495102940321307
9.64689207680233   0.7346905932934134   0.2495102940321307
9.85815677745104   2.46453919436276   2.46453919436276
9.85815677745104   2.46453919436276   2.46453919436276
9.85815677745104   2.46453919436276   2.46453919436276
9.85815677745104   2.46453919436276   2.46453919436276
4.14385111539983   -0.23632479060116018   -0.025077874402062217
4.14385111539983   -0.23632479060116018   -0.025077874402062217
4.14385111539983   -0.23632479060116018   -0.025077874402062217
4.14385111539983   -0.23632479060116018   -0.025077874402062217
6.881769823972056   0.9733009043053048   0.7776406050292045
6.881769823972056   0.9733009043053048   0.7776406050292045
6.881769823972056   0.9733009043053048   0.7776406050292045
6.881769823972056   0.9733009043053048   0.7776406050292045
4.6623684982227465   1.1655921245556866   1.1655921245556866
4.6623684982227465   1.1655921245556866   1.1655921245556866
4.6623684982227465   1.1655921245556866   1.1655921245556866
4.6623684982227465   1.1655921245556866   1.1655921245556866
9.13472372111512   0.8577066056929403   0.4542065013531344
9.13472372111512   0.8577066056929403   0.4542065013531344
9.13472372111512   0.8577066056929403   0.4542065013531344
9.13472372111512   0.8577066056929403   0.4542065013531344
9.56122405594904   2.39030601398726   2.39030601398726
9.56122405594904   2.39030601398726   2.39030601398726
9.56122405594904   2.39030601398726   2.39030601398726
9.56122405594904   2.39030601398726   2.39030601398726
4.156407553718571   -0.13141693874271976   0.03188447404844691
4.156407553718571   -0.13141693874271976   0.03188447404844691
4.156407553718571   -0.13141693874271976   0.03188447404844691
4.156407553718571   -0.13141693874271976   0.03188447404844691
6.675371312258368   1.0007673374193908   0.3730059769859403
6.675371312258368   1.0007673374193908   0.3730059769859403
6.675371312258368   1.0007673374193908   0.3730059769859403
6.675371312258368   1.0007673374193908   0.3730059769859403
4.640348940730473   1.1600872351826184   1.1600872351826184
4.640348940730473   1.1600872351826184   1.1600872351826184
4.640348940730473   1.1600872351826184   1.1600872351826184
4.640348940730473   1.1600872351826184   1.1600872351826184
8.83841506694346   0.8599342380682715   0.30663284487849174
8.83841506694346   0.8599342380682715   0.30663284487849174
8.83841506694346   0.8599342380682715   0.30663284487849174
8.83841506694346   0.8599342380682715   0.30663284487849174
9.120608504378765   2.2801521260946913   2.2801521260946913
9.120608504378765   2.2801521260946913   2.2801521260946913
9.120608504378765   2.2801521260946913   2.2801521260946913
9.120608504378765   2.2801521260946913   2.2801521260946913
4.308139094577948   0.13318790787396473   0.13039381148800339
4.308139094577948   0.13318790787396473   0.13039381148800339
4.308139094577948   0.13318790787396473   0.13039381148800339
4.308139094577948   0.13318790787396473   0.13039381148800339
6.389831400971138   1.0843499247531814   -0.09734717139331536
6.389831400971138   1.0843499247531814   -0.09734717139331536
6.389831400971138   1.0843499247531814   -0.09734717139331536
6.389831400971138   1.0843499247531814   -0.09734717139331536
-9.362400957700608   -0.6701084208399859   0.10307399476498869
-9.362400957700608   -0.6701084208399859   0.10307399476498869
-9.362400957700608   -0.6701084208399859   0.10307399476498869
-9.362400957700608   -0.6701084208399859   0.10307399476498869
-5.957022772951137   -0.13522359544122597   -0.03771069001644228
-5.957022772951137   -0.13522359544122597   -0.03771069001644228
-5.957022772951137   -0.13522359544122597   -0.03771069001644228
-5.957022772951137   -0.13522359544122597   -0.03771069001644228
-5.999259844741228   0.24168493795137636   0.12382864197968513
-5.999259844741228   0.24168493795137636   0.12382864197968513
-5.999259844741228   0.24168493795137636   0.12382864197968513
-5.999259844741228   0.24168493795137636   0.12382864197968513
-9.502739963008635   -0.6470380110196303   -0.11149657673209545
-9.502739963008635   -0.6470380110196303   -0.11149657673209545
-9.502739963008635   -0.6470380110196303   -0.11149657673209545
-9.502739963008635   -0.6470380110196303   -0.11149657673209545
-7.401909327544186   -0.2520819570862063   -0.028148722436004026
-7.401909327544186   -0.2520819570862063   -0.028148722436004026
-7.401909327544186   -0.2520819570862063   -0.028148722436004026
-7.401909327544186   -0.2520819570862063   -0.028148722436004026
-9.434718156019686   -0.4615479693847062   0.04312241657773075
-9.434718156019686   -0.4615479693847062   0.04312241657773075
-9.434718156019686   -0.4615479693847062   0.04312241657773075
-9.434718156019686   -0.4615479693847062   0.04312241657773075
-6.077364298842429   0.046112249204222966   -0.07112093977906386
-6.077364298842429   0.046112249204222966   -0.07112093977906386
-6.077364298842429   0.046112249204222966   -0.07112093977906386
-6.077364298842429   0.046112249204222966   -0.07112093977906386
-6.00761416965487   0.344232478396993   0.14139602470555485
-6.00761416965487   0.344232478396993   0.14139602470555485
-6.00761416965487   0.344232478396993   0.14139602470555485
-6.00761416965487   0.344232478396993   0.14139602470555485
-9.562034143446878   -0.5703737137198508   -0.1473083933622259
-9.562034143446878   -0.5703737137198508   -0.1473083933622259
-9.562034143446878   -0.5703737137198508   -0.1473083933622259
-9.562034143446878   -0.5703737137198508   -0.1473083933622259
-7.611276356652728   -0.16924487839021918   -0.07160347732052957
-7.611276356652728   -0.16924487839021918   -0.07160347732052957
-7.611276356652728   -0.16924487839021918   -0.07160347732052957
-7.611276356652728   -0.16924487839021918   -0.07160347732052957
-9.391547941282083   -0.27823641676766075   0.4129853205094974
-9.391547941282083   -0.27823641676766075   0.4129853205094974
-9.391547941282083   -0.27823641676766075   0.4129853205094974
-9.391547941282083   -0.27823641676766075   0.4129853205094974
-6.106793727970914   0.12340182529355248   -0.13367111377117302
-6.106793727970914   0.12340182529355248   -0.13367111377117302
-6.106793727970914   0.12340182529355248   -0.13367111377117302
-6.106793727970914   0.12340182529355248   -0.13367111377117302
-5.8996925587630615   0.5991916592993016   0.25801308601249645
-5.8996925587630615   0.5991916592993016   0.25801308601249645
-5.8996925587630615   0.5991916592993016   0.25801308601249645
-5.8996925587630615   0.5991916592993016   0.25801308601249645
-9.30030089476963   -0.4612688527505675   -0.24153351854342187
-9.30030089476963   -0.4612688527505675   -0.24153351854342187
-9.30030089476963   -0.4612688527505675   -0.24153351854342187
-9.30030089476963   -0.4612688527505675   -0.24153351854342187
-7.322074208444547   0.06716821431801279   0.1618715297905028
-7.322074208444547   0.06716821431801279   0.1618715297905028
-7.322074208444547   0.06716821431801279   0.1618715297905028
-7.322074208444547   0.06716821431801279   0.1618715297905028
-6.105670266373315   -0.808651102192957   -0.10752065037559895
-6.105670266373315   -0.808651102192957   -0.10752065037559895
-6.105670266373315   -0.808651102192957   -0.10752065037559895
-6.105670266373315   -0.808651102192957   -0.10752065037559895
-2.8099329276127785   -0.06101668109711855   0.030171051904139184
-2.8099329276127785   -0.06101668109711855   0.030171051904139184
-2.8099329276127785   -0.06101668109711855   0.030171051904139184
-2.8099329276127785   -0.06101668109711855   0.030171051904139184
-2.8523688466754007   0.05481846812697344   0.04196946644318547
-2.8523688466754007   0.05481846812697344   0.04196946644318547
-2.8523688466754007   0.05481846812697344   0.04196946644318547
-2.8523688466754007   0.05481846812697344   0.04196946644318547
-6.227424375992794   -0.5921356539918691   -0.18317342233490233
-6.227424375992794   -0.5921356539918691   -0.18317342233490233
-6.227424375992794   -0.5921356539918691   -0.18317342233490233
-6.227424375992794   -0.5921356539918691   -0.18317342233490233
-4.498616428293046   -0.36456114893413694   -0.1025293588630698
-4.498616428293046   -0.36456114893413694   -0.1025293588630698
-4.498616428293046   -0.36456114893413694   -0.1025293588630698
-4.498616428293046   -0.36456114893413694   -0.1025293588630698
-6.221799871049775   -0.6474157836323994   -0.09977076797930459
-6.221799871049775   -0.6474157836323994   -0.09977076797930459
-6.221799871049775   -0.6474157836323994   -0.09977076797930459
-6.221799871049775   -0.6474157836323994   -0.09977076797930459
-2.8468698117311964   0.12122213765472156   0.0030609716364831674
-2.8468698117311964   0.12122213765472156   0.0030609716364831674
-2.8468698117311964   0.12122213765472156   0.0030609716364831674
-2.8468698117311964   0.12122213765472156   0.0030609716364831674
-2.8427130253232624   0.19827680356639   0.057442389829445245
-2.8427130253232624   0.19827680356639   0.057442389829445245
-2.8427130253232624   0.19827680356639   0.057442389829445245
-2.8427130253232624   0.19827680356639   0.057442389829445245
-6.2312526390853655   -0.4345356553178543   -0.198028188732071
-6.2312526390853655   -0.4345356553178543   -0.198028188732071
-6.2312526390853655   -0.4345356553178543   -0.198028188732071
-6.2312526390853655   -0.4345356553178543   -0.198028188732071
-4.490996565123236   -0.2031413088514895   -0.048699046415574376
-4.490996565123236   -0.2031413088514895   -0.048699046415574376
-4.490996565123236   -0.2031413088514895   -0.048699046415574376
-4.490996565123236   -0.2031413088514895   -0.048699046415574376
-6.207087579036422   -0.4903619115859771   -0.02137663221923139
-6.207087579036422   -0.4903619115859771   -0.02137663221923139
-6.207087579036422   -0.4903619115859771   -0.02137663221923139
-6.207087579036422   -0.4903619115859771   -0.02137663221923139
-2.84623801233048   0.27474313287625207   -0.03664887451645396
-2.84623801233048   0.27474313287625207   -0.03664887451645396
-2.84623801233048   0.27474313287625207   -0.03664887451645396
-2.84623801233048   0.27474313287625207   -0.03664887451645396
-2.796147565565737   0.3424956453099427   0.11600943104135633
-2.796147565565737   0.3424956453099427   0.11600943104135633
-2.796147565565737   0.3424956453099427   0.11600943104135633
-2.796147565565737   0.3424956453099427   0.11600943104135633
-6.165752401851721   -0.25245938043790206   -0.22063508969362533
-6.165752401851721   -0.25245938043790206   -0.22063508969362533
-6.165752401851721   -0.25245938043790206   -0.22063508969362533
-6.165752401851721   -0.25245938043790206   -0.22063508969362533
-4.473426090537878   -0.05041044706968345   0.022513352332979825
-4.473426090537878   -0.05041044706968345   0.022513352332979825
-4.473426090537878   -0.05041044706968345   0.022513352332979825
-4.473426090537878   -0.05041044706968345   0.022513352332979825
-2.9635417972510303   -0.6730509667391059   -0.1258390106451571
-2.9635417972510303   -0.6730509667391059   -0.1258390106451571
-2.9635417972510303   -0.6730509667391059   -0.1258390106451571
-2.9635417972510303   -0.6730509667391059   -0.1258390106451571
0.31307230050164253   0.07122562384413424   0.11545809896603076
0.31307230050164253   0.07122562384413424   0.11545809896603076
0.31307230050164253   0.07122562384413424   0.11545809896603076
0.31307230050164253   0.07122562384413424   0.11545809896603076
0.29799122158429575   0.17059050524446315   0.00905835732947467
0.29799122158429575   0.17059050524446315   0.00905835732947467
0.29799122158429575   0.17059050524446315   0.00905835732947467
0.29799122158429575   0.17059050524446315   0.00905835732947467
-2.9770464046941014   -0.4462929568588674   -0.08030689866447668
-2.9770464046941014   -0.4462929568588674   -0.08030689866447668
-2.9770464046941014   -0.4462929568588674   -0.08030689866447668
-2.9770464046941014   -0.4462929568588674   -0.08030689866447668
-1.3452473393631281   -0.22274724712252297   -0.0422510898223105
-1.3452473393631281   -0.22274724712252297   -0.0422510898223105
-1.3452473393631281   -0.22274724712252297   -0.0422510898223105
-1.3452473393631281   -0.22274724712252297   -0.0422510898223105
-2.997609864087556   -0.5135206782116046   -0.11589647427901234
-2.997609864087556   -0.5135206782116046   -0.11589647427901234
-2.997609864087556   -0.5135206782116046   -0.11589647427901234
-2.997609864087556   -0.5135206782116046   -0.11589647427901234
0.33006672820436916   0.2493302738238244   0.09069612185048062
0.33006672820436916   0.2493302738238244   0.09069612185048062
0.33006672820436916   0.2493302738238244   0.09069612185048062
0.33006672820436916   0.2493302738238244   0.09069612185048062
0.3202001241919875   0.32861168734861995   0.053772041256189576
0.3202001241919875   0.32861168734861995   0.053772041256189576
0.3202001241919875   0.32861168734861995   0.053772041256189576
0.3202001241919875   0.32861168734861995   0.053772041256189576
-2.9684870762718574   -0.2730367937871204   -0.10011426756001748
-2.9684870762718574   -0.2730367937871204   -0.10011426756001748
-2.9684870762718574   -0.2730367937871204   -0.10011426756001748
-2.9684870762718574   -0.2730367937871204   -0.10011426756001748
-1.3251671143951198   -0.05474351817805695   0.016087385968095225
-1.3251671143951198   -0.05474351817805695   0.016087385968095225
-1.3251671143951198   -0.05474351817805695   0.016087385968095225
-1.3251671143951198   -0.05474351817805695   0.016087385968095225
-2.976352885182839   -0.3532911199649937   -0.05918898593705209
-2.976352885182839   -0.3532911199649937   -0.05918898593705209
-2.976352885182839   -0.3532911199649937   -0.05918898593705209
-2.976352885182839   -0.3532911199649937   -0.05918898593705209
0.34044269998068044   0.42124278040420415   0.062353827144067966
0.34044269998068044   0.42124278040420415   0.062353827144067966
0.34044269998068044   0.42124278040420415   0.062353827144067966
0.34044269998068044   0.42124278040420415   0.062353827144067966
0.32659571494735234   0.5045007840274477   0.08869951142363108
0.32659571494735234   0.5045007840274477   0.08869951142363108
0.32659571494735234   0.5045007840274477   0.08869951142363108
0.32659571494735234   0.5045007840274477   0.08869951142363108
-2.9306003053313736   -0.0877405523208219   -0.12601807015604755
-2.9306003053313736   -0.0877405523208219   -0.12601807015604755
-2.9306003053313736   -0.0877405523208219   -0.12601807015604755
-2.9306003053313736   -0.0877405523208219   -0.12601807015604755
-1.292935675621755   0.12095351487728234   0.07995126071371686
-1.292935675621755   0.12095351487728234   0.07995126071371686
-1.292935675621755   0.12095351487728234   0.07995126071371686
-1.292935675621755   0.12095351487728234   0.07995126071371686
0.14632009556354192   -0.49306944413064124   -0.15400785774969697
0.14632009556354192   -0.49306944413064124   -0.15400785774969697
0.14632009556354192   -0.49306944413064124   -0.15400785774969697
0.14632009556354192   -0.49306944413064124   -0.15400785774969697
3.540562262119269   0.24499638704840054   0.21154768016086217
3.540562262119269   0.24499638704840054   0.21154768016086217
3.540562262119269   0.24499638704840054   0.21154768016086217
3.540562262119269   0.24499638704840054   0.21154768016086217
3.5354602511141042   0.3293515682126498   -0.033620775496444696
3.5354602511141042   0.3293515682126498   -0.033620775496444696
3.5354602511141042   0.3293515682126498   -0.033620775496444696
3.5354602511141042   0.3293515682126498   -0.033620775496444696
0.2067992193709296   -0.2968912553866284   0.020580106893735656
0.2067992193709296   -0.2968912553866284   0.020580106893735656
0.2067992193709296   -0.2968912553866284   0.020580106893735656
0.2067992193709296   -0.2968912553866284   0.020580106893735656
1.8344628158726657   -0.041810804937401636   0.004218830230707016
1.8344628158726657   -0.041810804937401636   0.004218830230707016
1.8344628158726657   -0.041810804937401636   0.004218830230707016
1.8344628158726657   -0.041810804937401636   0.004218830230707016
0.1670108745320047   -0.36055393878498676   -0.11469893390252833
0.1670108745320047   -0.36055393878498676   -0.11469893390252833
0.1670108745320047   -0.36055393878498676   -0.11469893390252833
0.1670108745320047   -0.36055393878498676   -0.11469893390252833
3.595876856523491   0.4136425121814644   0.18417130758163858
3.595876856523491   0.4136425121814644   0.18417130758163858
3.595876856523491   0.4136425121814644   0.18417130758163858
3.595876856523491   0.4136425121814644   0.18417130758163858
3.5622622204072494   0.48557676224783175   0.03645414758429438
3.5622622204072494   0.48557676224783175   0.03645414758429438
3.5622622204072494   0.48557676224783175   0.03645414758429438
3.5622622204072494   0.48557676224783175   0.03645414758429438
0.2131051911594987   -0.14210724686198006   -0.010983689695654372
0.2131051911594987   -0.14210724686198006   -0.010983689695654372
0.2131051911594987   -0.14210724686198006   -0.010983689695654372
0.2131051911594987   -0.14210724686198006   -0.010983689695654372
1.85788844357218   0.10756051803128103   0.07590908939116384
1.85788844357218   0.10756051803128103   0.07590908939116384
1.85788844357218   0.10756051803128103   0.07590908939116384
1.85788844357218   0.10756051803128103   0.07590908939116384
0.18422422615619272   -0.21401734869506056   -0.0834784128791025
0.18422422615619272   -0.21401734869506056   -0.0834784128791025
0.18422422615619272   -0.21401734869506056   -0.0834784128791025
0.18422422615619272   -0.21401734869506056   -0.0834784128791025
3.6060604604406716   0.5724041391110181   0.16861797088816347
3.6060604604406716   0.5724041391110181   0.16861797088816347
3.6060604604406716   0.5724041391110181   0.16861797088816347
3.6060604604406716   0.5724041391110181   0.16861797088816347
3.5042023771963966   0.6659123340511758   0.07615135324713695
3.5042023771963966   0.6659123340511758   0.07615135324713695
3.5042023771963966   0.6659123340511758   0.07615135324713695
3.5042023771963966   0.6659123340511758   0.07615135324713695
0.21031784887819266   0.04977555355212551   -0.03796458844684532
0.21031784887819266   0.04977555355212551   -0.03796458844684532
0.21031784887819266   0.04977555355212551   -0.03796458844684532
0.21031784887819266   0.04977555355212551   -0.03796458844684532
1.8843255619801742   0.2783637493234403   0.14220825438538276
1.8843255619801742   0.2783637493234403   0.14220825438538276
1.8843255619801742   0.2783637493234403   0.14220825438538276
1.8843255619801742   0.2783637493234403   0.14220825438538276
3.262733548465109   -0.6488025594939701   -0.283796941567566
3.262733548465109   -0.6488025594939701   -0.283796941567566
3.262733548465109   -0.6488025594939701   -0.283796941567566
3.262733548465109   -0.6488025594939701   -0.283796941567566
6.713179583358078   0.4433561104760757   0.20506072058926678
6.713179583358078   0.4433561104760757   0.20506072058926678
6.713179583358078   0.4433561104760757   0.20506072058926678
6.713179583358078   0.4433561104760757   0.20506072058926678
6.787952714957734   0.21215412999139538   -0.42678487099719536
6.787952714957734   0.21215412999139538   -0.42678487099719536
6.787952714957734   0.21215412999139538   -0.42678487099719536
6.787952714957734   0.21215412999139538   -0.42678487099719536
3.473829885923211   -0.1346858006252376   0.12226476738692149
3.473829885923211   -0.1346858006252376   0.12226476738692149
3.473829885923211   -0.1346858006252376   0.12226476738692149
3.473829885923211   -0.1346858006252376   0.12226476738692149
4.808105774088226   -0.08283537610647262   -0.11941527422462767
4.808105774088226   -0.08283537610647262   -0.11941527422462767
4.808105774088226   -0.08283537610647262   -0.11941527422462767
4.808105774088226   -0.08283537610647262   -0.11941527422462767
3.3533509118155633   -0.42697703099408324   -0.18783887278242578
3.3533509118155633   -0.42697703099408324   -0.18783887278242578
3.3533509118155633   -0.42697703099408324   -0.18783887278242578
3.3533509118155633   -0.42697703099408324   -0.18783887278242578
6.969838173503333   0.5658518447982006   0.12894470692399118
6.969838173503333   0.5658518447982006   0.12894470692399118
6.969838173503333   0.5658518447982006   0.12894470692399118
6.969838173503333   0.5658518447982006   0.12894470692399118
6.8610262638481325   0.38407817315180437   -0.09525867660849424
6.8610262638481325   0.38407817315180437   -0.09525867660849424
6.8610262638481325   0.38407817315180437   -0.09525867660849424
6.8610262638481325   0.38407817315180437   -0.09525867660849424
3.458831135208042   -0.05763181420518482   0.06250729804121749
3.458831135208042   -0.05763181420518482   0.06250729804121749
3.458831135208042   -0.05763181420518482   0.06250729804121749
3.458831135208042   -0.05763181420518482   0.06250729804121749
5.0579027485489645   0.1262369592614343   0.08289025972943004
5.0579027485489645   0.1262369592614343   0.08289025972943004
5.0579027485489645   0.1262369592614343   0.08289025972943004
5.0579027485489645   0.1262369592614343   0.08289025972943004
3.3623547834624503   -0.32675470215167435   -0.15075157274022083
3.3623547834624503   -0.32675470215167435   -0.15075157274022083
3.3623547834624503   -0.32675470215167435   -0.15075157274022083
3.3623547834624503   -0.32675470215167435   -0.15075157274022083
6.949249196757272   0.6449476422618491   0.08498651882715672
6.949249196757272   0.6449476422618491   0.08498651882715672
6.949249196757272   0.6449476422618491   0.08498651882715672
6.949249196757272   0.6449476422618491   0.08498651882715672
6.847615397221405   0.5857308528845231   -0.1463677661026705
6.847615397221405   0.5857308528845231   -0.1463677661026705
6.847615397221405   0.5857308528845231   -0.1463677661026705
6.847615397221405   0.5857308528845231   -0.1463677661026705
3.3867375958349752   0.1203893419552734   0.03435043853587527
3.3867375958349752   0.1203893419552734   0.03435043853587527
3.3867375958349752   0.1203893419552734   0.03435043853587527
3.3867375958349752   0.1203893419552734   0.03435043853587527
4.927230155830478   0.22054857426106123   0.06076191028005304
4.927230155830478   0.22054857426106123   0.06076191028005304
4.927230155830478   0.22054857426106123   0.06076191028005304
4.927230155830478   0.22054857426106123   0.06076191028005304
-7.372841576884157   -0.33548653925541294   0.3767933948456426
-7.372841576884157   -0.33548653925541294   0.3767933948456426
-7.372841576884157   -0.33548653925541294   0.3767933948456426
-7.372841576884157   -0.33548653925541294   0.3767933948456426
-4.892167437609639   -0.1840860624028614   -0.09804449864710132
-4.892167437609639   -0.1840860624028614   -0.09804449864710132
-4.892167437609639   -0.1840860624028614   -0.09804449864710132
-4.892167437609639   -0.1840860624028614   -0.09804449864710132
-4.717282037463459   0.39563471319759547   0.3164091188088576
-4.717282037463459   0.39563471319759547   0.3164091188088576
-4.717282037463459   0.39563471319759547   0.3164091188088576
-4.717282037463459   0.39563471319759547   0.3164091188088576
-7.407333100175592   -0.5282029740801335   -0.15379774946989389
-7.407333100175592   -0.5282029740801335   -0.15379774946989389
-7.407333100175592   -0.5282029740801335   -0.15379774946989389
-7.407333100175592   -0.5282029740801335   -0.15379774946989389
-5.84953224422043   -0.09048190213117513   -0.00955138439962444
-5.84953224422043   -0.09048190213117513   -0.00955138439962444
-5.84953224422043   -0.09048190213117513   -0.00955138439962444
-5.84953224422043   -0.09048190213117513   -0.00955138439962444
-7.2024303741285305   -0.08014516380011294   0.42265807048538817
-7.2024303741285305   -0.08014516380011294   0.42265807048538817
-7.2024303741285305   -0.08014516380011294   0.42265807048538817
-7.2024303741285305   -0.08014516380011294   0.42265807048538817
-4.889885063283125   -0.02012339685503095   -0.13084790023684678
-4.889885063283125   -0.02012339685503095   -0.13084790023684678
-4.889885063283125   -0.02012339685503095   -0.13084790023684678
-4.889885063283125   -0.02012339685503095   -0.13084790023684678
-4.69857774469743   0.490481280150314   0.29351017723914974
-4.69857774469743   0.490481280150314   0.29351017723914974
-4.69857774469743   0.490481280150314   0.29351017723914974
-4.69857774469743   0.490481280150314   0.29351017723914974
-7.293838867423199   -0.44228790168640586   -0.2107710339997697
-7.293838867423199   -0.44228790168640586   -0.2107710339997697
-7.293838867423199   -0.44228790168640586   -0.2107710339997697
-7.293838867423199   -0.44228790168640586   -0.2107710339997697
-5.862999918099555   0.02097057300209504   0.06818503626051287
-5.862999918099555   0.02097057300209504   0.06818503626051287
-5.862999918099555   0.02097057300209504   0.06818503626051287
-5.862999918099555   0.02097057300209504   0.06818503626051287
-7.102953637928131   0.009314590345147478   0.29205262144401933
-7.102953637928131   0.009314590345147478   0.29205262144401933
-7.102953637928131   0.009314590345147478   0.29205262144401933
-7.102953637928131   0.009314590345147478   0.29205262144401933
-4.878810724780064   0.04953103753121102   -0.16670448055488224
-4.878810724780064   0.04953103753121102   -0.16670448055488224
-4.878810724780064   0.04953103753121102   -0.16670448055488224
-4.878810724780064   0.04953103753121102   -0.16670448055488224
-4.703607877650146   0.5529516589884034   0.23287602303194943
-4.703607877650146   0.5529516589884034   0.23287602303194943
-4.703607877650146   0.5529516589884034   0.23287602303194943
-4.703607877650146   0.5529516589884034   0.23287602303194943
-7.146185978377075   -0.3513126331202585   -0.26895014630106273
-7.146185978377075   -0.3513126331202585   -0.26895014630106273
-7.146185978377075   -0.3513126331202585   -0.26895014630106273
-7.146185978377075   -0.3513126331202585   -0.26895014630106273
-5.695353272522583   0.12062552740445742   0.14081940519876907
-5.695353272522583   0.12062552740445742   0.14081940519876907
-5.695353272522583   0.12062552740445742   0.14081940519876907
-5.695353272522583   0.12062552740445742   0.14081940519876907
-4.907580839969985   -0.4653499904331052   0.10615241758141228
-4.907580839969985   -0.4653499904331052   0.10615241758141228
-4.907580839969985   -0.4653499904331052   0.10615241758141228
-4.907580839969985   -0.4653499904331052   0.10615241758141228
-2.4743975952153474   -0.08846880184535172   0.004934822591423346
-2.4743975952153474   -0.08846880184535172   0.004934822591423346
-2.4743975952153474   -0.08846880184535172   0.004934822591423346
-2.4743975952153474   -0.08846880184535172   0.004934822591423346
-2.404925601993237   0.24341037075470529   0.17205792739841227
-2.404925601993237   0.24341037075470529   0.17205792739841227
-2.404925601993237   0.24341037075470529   0.17205792739841227
-2.404925601993237   0.24341037075470529   0.17205792739841227
-4.985824323984356   -0.4589241142971663   -0.17174348630090702
-4.985824323984356   -0.4589241142971663   -0.17174348630090702
-4.985824323984356   -0.4589241142971663   -0.17174348630090702
-4.985824323984356   -0.4589241142971663   -0.17174348630090702
-3.679924458127   -0.18056610595939193   -0.07397898970290087
-3.679924458127   -0.18056610595939193   -0.07397898970290087
-3.679924458127   -0.18056610595939193   -0.07397898970290087
-3.679924458127   -0.18056610595939193   -0.07397898970290087
-4.892680511010206   -0.26795158639485905   0.10300305066755996
-4.892680511010206   -0.26795158639485905   0.10300305066755996
-4.892680511010206   -0.26795158639485905   0.10300305066755996
-4.892680511010206   -0.26795158639485905   0.10300305066755996
-2.4791476588736185   0.07135959894617294   -0.027001585194948274
-2.4791476588736185   0.07135959894617294   -0.027001585194948274
-2.4791476588736185   0.07135959894617294   -0.027001585194948274
-2.4791476588736185   0.07135959894617294   -0.027001585194948274
-2.397748618020674   0.4015613991781528   0.14895306268327385
-2.397748618020674   0.4015613991781528   0.14895306268327385
-2.397748618020674   0.4015613991781528   0.14895306268327385
-2.397748618020674   0.4015613991781528   0.14895306268327385
-4.958162864457001   -0.3112128002564809   -0.20272134115191032
-4.958162864457001   -0.3112128002564809   -0.20272134115191032
-4.958162864457001   -0.3112128002564809   -0.20272134115191032
-4.958162864457001   -0.3112128002564809   -0.20272134115191032
-3.640233106968878   -0.020387251002052298   5.421248898898612e-05
-3.640233106968878   -0.020387251002052298   5.421248898898612e-05
-3.640233106968878   -0.020387251002052298   5.421248898898612e-05
-3.640233106968878   -0.020387251002052298   5.421248898898612e-05
-4.8631045465809315   -0.10752409123013018   0.0688815392020857
-4.8631045465809315   -0.10752409123013018   0.0688815392020857
-4.8631045465809315   -0.10752409123013018   0.0688815392020857
-4.8631045465809315   -0.10752409123013018   0.0688815392020857
-2.477395818898712   0.21328380714984518   -0.06100534967856891
-2.477395818898712   0.21328380714984518   -0.06100534967856891
-2.477395818898712   0.21328380714984518   -0.06100534967856891
-2.477395818898712   0.21328380714984518   -0.06100534967856891
-2.3974664742497054   0.5676626920063775   0.11168934492572746
-2.3974664742497054   0.5676626920063775   0.11168934492572746
-2.3974664742497054   0.5676626920063775   0.11168934492572746
-2.3974664742497054   0.5676626920063775   0.11168934492572746
-4.934803010975908   -0.1519490327568117   -0.21819895185165558
-4.934803010975908   -0.1519490327568117   -0.21819895185165558
-4.934803010975908   -0.1519490327568117   -0.21819895185165558
-4.934803010975908   -0.1519490327568117   -0.21819895185165558
-3.6431281394467807   0.12633863240620602   0.05656039327152845
-3.6431281394467807   0.12633863240620602   0.05656039327152845
-3.6431281394467807   0.12633863240620602   0.05656039327152845
-3.6431281394467807   0.12633863240620602   0.05656039327152845
-2.566911855517088   -0.5309032360877958   -0.015202044674858134
-2.566911855517088   -0.5309032360877958   -0.015202044674858134
-2.566911855517088   -0.5309032360877958   -0.015202044674858134
-2.566911855517088   -0.5309032360877958   -0.015202044674858134
-0.07930952644423978   0.027568667149257074   0.10966028227412937
-0.07930952644423978   0.027568667149257074   0.10966028227412937
-0.07930952644423978   0.027568667149257074   0.10966028227412937
-0.07930952644423978   0.027568667149257074   0.10966028227412937
-0.08911802394406233   0.15782195925589015   0.05233930115924097
-0.08911802394406233   0.15782195925589015   0.05233930115924097
-0.08911802394406233   0.15782195925589015   0.05233930115924097
-0.08911802394406233   0.15782195925589015   0.05233930115924097
-2.569068481814042   -0.34078375549305284   -0.06446234545785579
-2.569068481814042   -0.34078375549305284   -0.06446234545785579
-2.569068481814042   -0.34078375549305284   -0.06446234545785579
-2.569068481814042   -0.34078375549305284   -0.06446234545785579
-1.3301402403616853   -0.16605315516913   -0.041284192413933024
-1.3301402403616853   -0.16605315516913   -0.041284192413933024
-1.3301402403616853   -0.16605315516913   -0.041284192413933024
-1.3301402403616853   -0.16605315516913   -0.041284192413933024
-2.566308010064115   -0.35531053886685815   -0.03613320333441658
-2.566308010064115   -0.35531053886685815   -0.03613320333441658
-2.566308010064115   -0.35531053886685815   -0.03613320333441658
-2.566308010064115   -0.35531053886685815   -0.03613320333441658
-0.07776329067866827   0.18646394764501123   0.08047097909709117
-0.07776329067866827   0.18646394764501123   0.08047097909709117
-0.07776329067866827   0.18646394764501123   0.08047097909709117
-0.07776329067866827   0.18646394764501123   0.08047097909709117
-0.07785442968352485   0.3301684959835176   0.025279534704840456
-0.07785442968352485   0.3301684959835176   0.025279534704840456
-0.07785442968352485   0.3301684959835176   0.025279534704840456
-0.07785442968352485   0.3301684959835176   0.025279534704840456
-2.563057413214124   -0.18164504854459967   -0.09438446556120388
-2.563057413214124   -0.18164504854459967   -0.09438446556120388
-2.563057413214124   -0.18164504854459967   -0.09438446556120388
-2.563057413214124   -0.18164504854459967   -0.09438446556120388
-1.317642610198375   -0.006622698855028919   0.01850879390913035
-1.317642610198375   -0.006622698855028919   0.01850879390913035
-1.317642610198375   -0.006622698855028919   0.01850879390913035
-1.317642610198375   -0.006622698855028919   0.01850879390913035
-2.5591867958939467   -0.18540764141709876   -0.07126878608781914
-2.5591867958939467   -0.18540764141709876   -0.07126878608781914
-2.5591867958939467   -0.18540764141709876   -0.07126878608781914
-2.5591867958939467   -0.18540764141709876   -0.07126878608781914
-0.07006588079038671   0.34559025506933216   0.04880052008471809
-0.07006588079038671   0.34559025506933216   0.04880052008471809
-0.07006588079038671   0.34559025506933216   0.04880052008471809
-0.07006588079038671   0.34559025506933216   0.04880052008471809
-0.07581025624215315   0.5077000078041289   -0.0036053186205138033
-0.07581025624215315   0.5077000078041289   -0.0036053186205138033
-0.07581025624215315   0.5077000078041289   -0.0036053186205138033
-0.07581025624215315   0.5077000078041289   -0.0036053186205138033
-2.5622060043960757   -0.019767887993118682   -0.12457772580663448
-2.5622060043960757   -0.019767887993118682   -0.12457772580663448
-2.5622060043960757   -0.019767887993118682   -0.12457772580663448
-2.5622060043960757   -0.019767887993118682   -0.12457772580663448
-1.3080366398564995   0.15295640229330143   0.07333230739113959
-1.3080366398564995   0.15295640229330143   0.07333230739113959
-1.3080366398564995   0.15295640229330143   0.07333230739113959
-1.3080366398564995   0.15295640229330143   0.07333230739113959
-0.24829120906289381   -0.5805164466284842   -0.12716301704139865
-0.24829120906289381   -0.5805164466284842   -0.12716301704139865
-0.24829120906289381   -0.5805164466284842   -0.12716301704139865
-0.24829120906289381   -0.5805164466284842   -0.12716301704139865
2.307576982927788   0.16354700139760125   0.2084069944814444
2.307576982927788   0.16354700139760125   0.2084069944814444
2.307576982927788   0.16354700139760125   0.2084069944814444
2.307576982927788   0.16354700139760125   0.2084069944814444
2.232238311000418   0.08776798340208802   -0.08156279079217055
2.232238311000418   0.08776798340208802   -0.08156279079217055
2.232238311000418   0.08776798340208802   -0.08156279079217055
2.232238311000418   0.08776798340208802   -0.08156279079217055
-0.16491809762012588   -0.21321995214523864   0.044380844180052996
-0.16491809762012588   -0.21321995214523864   0.044380844180052996
-0.16491809762012588   -0.21321995214523864   0.044380844180052996
-0.16491809762012588   -0.21321995214523864   0.044380844180052996
1.0170942390839324   -0.13358923588256486   -0.023163268774266874
1.0170942390839324   -0.13358923588256486   -0.023163268774266874
1.0170942390839324   -0.13358923588256486   -0.023163268774266874
1.0170942390839324   -0.13358923588256486   -0.023163268774266874
-0.24781986202863182   -0.4238338992056924   -0.15951403080202295
-0.24781986202863182   -0.4238338992056924   -0.15951403080202295
-0.24781986202863182   -0.4238338992056924   -0.15951403080202295
-0.24781986202863182   -0.4238338992056924   -0.15951403080202295
2.3311899874875963   0.3144318425412037   0.18653173250460423
2.3311899874875963   0.3144318425412037   0.18653173250460423
2.3311899874875963   0.3144318425412037   0.18653173250460423
2.3311899874875963   0.3144318425412037   0.18653173250460423
2.2675327572844948   0.2480518764183948   -0.11461563941877603
2.2675327572844948   0.2480518764183948   -0.11461563941877603
2.2675327572844948   0.2480518764183948   -0.11461563941877603
2.2675327572844948   0.2480518764183948   -0.11461563941877603
-0.16057879289391144   -0.0706573954071773   0.012483610043604836
-0.16057879289391144   -0.0706573954071773   0.012483610043604836
-0.16057879289391144   -0.0706573954071773   0.012483610043604836
-0.16057879289391144   -0.0706573954071773   0.012483610043604836
1.025365991250891   0.010511806833151977   0.036201131943884975
1.025365991250891   0.010511806833151977   0.036201131943884975
1.025365991250891   0.010511806833151977   0.036201131943884975
1.025365991250891   0.010511806833151977   0.036201131943884975
-0.24119193315901227   -0.2691815259369726   -0.19205796075210593
-0.24119193315901227   -0.2691815259369726   -0.19205796075210593
-0.24119193315901227   -0.2691815259369726   -0.19205796075210593
-0.24119193315901227   -0.2691815259369726   -0.19205796075210593
2.365632406934781   0.4640625163333755   0.15987196891767583
2.365632406934781   0.4640625163333755   0.15987196891767583
2.365632406934781   0.4640625163333755   0.15987196891767583
2.365632406934781   0.4640625163333755   0.15987196891767583
2.2890620176996084   0.4492341624055491   -0.11941571300114302
2.2890620176996084   0.4492341624055491   -0.11941571300114302
2.2890620176996084   0.4492341624055491   -0.11941571300114302
2.2890620176996084   0.4492341624055491   -0.11941571300114302
-0.16126889136095776   0.09613303886071381   -0.019331525271119795
-0.16126889136095776   0.09613303886071381   -0.019331525271119795
-0.16126889136095776   0.09613303886071381   -0.019331525271119795
-0.16126889136095776   0.09613303886071381   -0.019331525271119795
1.0600211002450415   0.17140640959571352   0.10678679118855931
1.0600211002450415   0.17140640959571352   0.10678679118855931
1.0600211002450415   0.17140640959571352   0.10678679118855931
1.0600211002450415   0.17140640959571352   0.10678679118855931
2.068580204172735   -0.5759849075484009   -0.24704499034780492
2.068580204172735   -0.5759849075484009   -0.24704499034780492
2.068580204172735   -0.5759849075484009   -0.24704499034780492
2.068580204172735   -0.5759849075484009   -0.24704499034780492
4.541350104858786   0.33731040718807925   0.23091006273082737
4.541350104858786   0.33731040718807925   0.23091006273082737
4.541350104858786   0.33731040718807925   0.23091006273082737
4.541350104858786   0.33731040718807925   0.23091006273082737
4.505765347895809   -0.018510761903933193   -0.3287955009791843
4.505765347895809   -0.018510761903933193   -0.3287955009791843
4.505765347895809   -0.018510761903933193   -0.3287955009791843
4.505765347895809   -0.018510761903933193   -0.3287955009791843
2.2520831000076735   -0.049308066643068416   0.15473720428928753
2.2520831000076735   -0.049308066643068416   0.15473720428928753
2.2520831000076735   -0.049308066643068416   0.15473720428928753
2.2520831000076735   -0.049308066643068416   0.15473720428928753
3.179767347743469   -0.11165444633921418   -0.10379452198697842
3.179767347743469   -0.11165444633921418   -0.10379452198697842
3.179767347743469   -0.11165444633921418   -0.10379452198697842
3.179767347743469   -0.11165444633921418   -0.10379452198697842
2.0700977201297506   -0.5006539496749879   -0.30384381206839994
2.0700977201297506   -0.5006539496749879   -0.30384381206839994
2.0700977201297506   -0.5006539496749879   -0.30384381206839994
2.0700977201297506   -0.5006539496749879   -0.30384381206839994
4.700844583979747   0.44592897733401293   0.1821609402025598
4.700844583979747   0.44592897733401293   0.1821609402025598
4.700844583979747   0.44592897733401293   0.1821609402025598
4.700844583979747   0.44592897733401293   0.1821609402025598
4.614728112936613   0.07291311135675838   -0.44066505187763794
4.614728112936613   0.07291311135675838   -0.44066505187763794
4.614728112936613   0.07291311135675838   -0.44066505187763794
4.614728112936613   0.07291311135675838   -0.44066505187763794
2.2679433427560625   0.020410941089526347   0.11507822326796355
2.2679433427560625   0.020410941089526347   0.11507822326796355
2.2679433427560625   0.020410941089526347   0.11507822326796355
2.2679433427560625   0.020410941089526347   0.11507822326796355
3.322365043484454   -0.012948611441902513   -0.031964874688494266
3.322365043484454   -0.012948611441902513   -0.031964874688494266
3.322365043484454   -0.012948611441902513   -0.031964874688494266
3.322365043484454   -0.012948611441902513   -0.031964874688494266
2.0928909971280723   -0.4093965118215982   -0.3303760519608797
2.0928909971280723   -0.4093965118215982   -0.3303760519608797
2.0928909971280723   -0.4093965118215982   -0.3303760519608797
2.0928909971280723   -0.4093965118215982   -0.3303760519608797
4.818680471040813   0.5316205767440878   0.12038927325608151
4.818680471040813   0.5316205767440878   0.12038927325608151
4.818680471040813   0.5316205767440878   0.12038927325608151
4.818680471040813   0.5316205767440878   0.12038927325608151
4.787828545174324   0.3109166834662582   -0.4141038032485481
4.787828545174324   0.3109166834662582   -0.4141038032485481
4.787828545174324   0.3109166834662582   -0.4141038032485481
4.787828545174324   0.3109166834662582   -0.4141038032485481
2.2748576841468506   0.17491021712270144   0.08388656451795494
2.2748576841468506   0.17491021712270144   0.08388656451795494
2.2748576841468506   0.17491021712270144   0.08388656451795494
2.2748576841468506   0.17491021712270144   0.08388656451795494
3.345584872163739   0.10012211963887252   0.04731325972071673
3.345584872163739   0.10012211963887252   0.04731325972071673
3.345584872163739   0.10012211963887252   0.04731325972071673
3.345584872163739   0.10012211963887252   0.04731325972071673
-5.281813910886568   -0.1739761673833743   0.34215144972726275
-5.281813910886568   -0.1739761673833743   0.34215144972726275
-5.281813910886568   -0.1739761673833743   0.34215144972726275
-5.281813910886568   -0.1739761673833743   0.34215144972726275
-3.68983720051134   -0.24501711188545716   -0.12957259873362614
-3.68983720051134   -0.24501711188545716   -0.12957259873362614
-3.68983720051134   -0.24501711188545716   -0.12957259873362614
-3.68983720051134   -0.24501711188545716   -0.12957259873362614
-3.473932374678343   0.3476256939554594   0.2919448652108221
-3.473932374678343   0.3476256939554594   0.2919448652108221
-3.473932374678343   0.3476256939554594   0.2919448652108221
-3.473932374678343   0.3476256939554594   0.2919448652108221
-5.282290625710772   -0.43447102904429613   -0.18946059472980764
-5.282290625710772   -0.43447102904429613   -0.18946059472980764
-5.282290625710772   -0.43447102904429613   -0.18946059472980764
-5.282290625710772   -0.43447102904429613   -0.18946059472980764
-4.250089019155188   -0.06806608615798915   -0.008198142542372
-4.250089019155188   -0.06806608615798915   -0.008198142542372
-4.250089019155188   -0.06806608615798915   -0.008198142542372
-4.250089019155188   -0.06806608615798915   -0.008198142542372
-5.08598324670908   0.03195633396168174   0.32564893727267163
-5.08598324670908   0.03195633396168174   0.32564893727267163
-5.08598324670908   0.03195633396168174   0.32564893727267163
-5.08598324670908   0.03195633396168174   0.32564893727267163
-3.654295603184266   -0.10285751855474567   -0.15938806480856132
-3.654295603184266   -0.10285751855474567   -0.15938806480856132
-3.654295603184266   -0.10285751855474567   -0.15938806480856132
-3.654295603184266   -0.10285751855474567   -0.15938806480856132
-3.4412687280637426   0.41975035648025694   0.24685011747408736
-3.4412687280637426   0.41975035648025694   0.24685011747408736
-3.4412687280637426   0.41975035648025694   0.24685011747408736
-3.4412687280637426   0.41975035648025694   0.24685011747408736
-5.1580136568984924   -0.35410599952603483   -0.23969058775109145
-5.1580136568984924   -0.35410599952603483   -0.23969058775109145
-5.1580136568984924   -0.35410599952603483   -0.23969058775109145
-5.1580136568984924   -0.35410599952603483   -0.23969058775109145
-4.220915377940505   0.027139279485801415   0.045377129721717924
-4.220915377940505   0.027139279485801415   0.045377129721717924
-4.220915377940505   0.027139279485801415   0.045377129721717924
-4.220915377940505   0.027139279485801415   0.045377129721717924
-4.9632871397710225   0.11828654193002386   0.26154945643020144
-4.9632871397710225   0.11828654193002386   0.26154945643020144
-4.9632871397710225   0.11828654193002386   0.26154945643020144
-4.9632871397710225   0.11828654193002386   0.26154945643020144
-3.6215558686049305   -0.03820280838951462   -0.19663242036205167
-3.6215558686049305   -0.03820280838951462   -0.19663242036205167
-3.6215558686049305   -0.03820280838951462   -0.19663242036205167
-3.6215558686049305   -0.03820280838951462   -0.19663242036205167
-3.423157868449895   0.4895697862149705   0.2124338404479018
-3.423157868449895   0.4895697862149705   0.2124338404479018
-3.423157868449895   0.4895697862149705   0.2124338404479018
-3.423157868449895   0.4895697862149705   0.2124338404479018
-4.991348608178705   -0.24804269640661603   -0.2870881318804149
-4.991348608178705   -0.24804269640661603   -0.2870881318804149
-4.991348608178705   -0.24804269640661603   -0.2870881318804149
-4.991348608178705   -0.24804269640661603   -0.2870881318804149
-4.062906964016789   0.11616110588426798   0.12077405564147164
-4.062906964016789   0.11616110588426798   0.12077405564147164
-4.062906964016789   0.11616110588426798   0.12077405564147164
-4.062906964016789   0.11616110588426798   0.12077405564147164
-3.6491797443097886   -0.29889390175399627   0.12759147214264183
-3.6491797443097886   -0.29889390175399627   0.12759147214264183
-3.6491797443097886   -0.29889390175399627   0.12759147214264183
-3.6491797443097886   -0.29889390175399627   0.12759147214264183
-2.1108387739137573   -0.15880270760492005   -0.020890854052460592
-2.1108387739137573   -0.15880270760492005   -0.020890854052460592
-2.1108387739137573   -0.15880270760492005   -0.020890854052460592
-2.1108387739137573   -0.15880270760492005   -0.020890854052460592
-2.003712856892504   0.20333331511083153   0.1574321936472302
-2.003712856892504   0.20333331511083153   0.1574321936472302
-2.003712856892504   0.20333331511083153   0.1574321936472302
-2.003712856892504   0.20333331511083153   0.1574321936472302
-3.703797853205787   -0.35532960547959413   -0.15442722799134612
-3.703797853205787   -0.35532960547959413   -0.15442722799134612
-3.703797853205787   -0.35532960547959413   -0.15442722799134612
-3.703797853205787   -0.35532960547959413   -0.15442722799134612
-2.8551919627617184   -0.1395801695195401   -0.05779341481051134
-2.8551919627617184   -0.1395801695195401   -0.05779341481051134
-2.8551919627617184   -0.1395801695195401   -0.05779341481051134
-2.8551919627617184   -0.1395801695195401   -0.05779341481051134
-3.6065674184710312   -0.12787080657812955   0.1042661467809523
-3.6065674184710312   -0.12787080657812955   0.1042661467809523
-3.6065674184710312   -0.12787080657812955   0.1042661467809523
-3.6065674184710312   -0.12787080657812955   0.1042661467809523
-2.0884800892043733   -0.011662281367738614   -0.05140837143354407
-2.0884800892043733   -0.011662281367738614   -0.05140837143354407
-2.0884800892043733   -0.011662281367738614   -0.05140837143354407
-2.0884800892043733   -0.011662281367738614   -0.05140837143354407
-1.9782073749744853   0.3511515377390966   0.12914485934346154
-1.9782073749744853   0.3511515377390966   0.12914485934346154
-1.9782073749744853   0.3511515377390966   0.12914485934346154
-1.9782073749744853   0.3511515377390966   0.12914485934346154
-3.654103084559326   -0.21566104262579122   -0.18191026589778245
-3.654103084559326   -0.21566104262579122   -0.18191026589778245
-3.654103084559326   -0.21566104262579122   -0.18191026589778245
-3.654103084559326   -0.21566104262579122   -0.18191026589778245
-2.8004030798176816   0.005914620798383563   0.004697084203063057
-2.8004030798176816   0.005914620798383563   0.004697084203063057
-2.8004030798176816   0.005914620798383563   0.004697084203063057
-2.8004030798176816   0.005914620798383563   0.004697084203063057
-3.5495110537939603   0.030116332639300136   0.09527251266395464
-3.5495110537939603   0.030116332639300136   0.09527251266395464
-3.5495110537939603   0.030116332639300136   0.09527251266395464
-3.5495110537939603   0.030116332639300136   0.09527251266395464
-2.0673216152492855   0.12085195296458356   -0.08612675725601077
-2.0673216152492855   0.12085195296458356   -0.08612675725601077
-2.0673216152492855   0.12085195296458356   -0.08612675725601077
-2.0673216152492855   0.12085195296458356   -0.08612675725601077
-1.9535705526816265   0.5084977476034783   0.10280249165557476
-1.9535705526816265   0.5084977476034783   0.10280249165557476
-1.9535705526816265   0.5084977476034783   0.10280249165557476
-1.9535705526816265   0.5084977476034783   0.10280249165557476
-3.6168439941667407   -0.0653145984373611   -0.20111240348398302
-3.6168439941667407   -0.0653145984373611   -0.20111240348398302
-3.6168439941667407   -0.0653145984373611   -0.20111240348398302
-3.6168439941667407   -0.0653145984373611   -0.20111240348398302
-2.77925906927565   0.14260636570894458   0.06412425817660045
-2.77925906927565   0.14260636570894458   0.06412425817660045
-2.77925906927565   0.14260636570894458   0.06412425817660045
-2.77925906927565   0.14260636570894458   0.06412425817660045
-2.1557204523172984   -0.4087216376793329   0.004619684004238428
-2.1557204523172984   -0.4087216376793329   0.004619684004238428
-2.1557204523172984   -0.4087216376793329   0.004619684004238428
-2.1557204523172984   -0.4087216376793329   0.004619684004238428
-0.5486333533060599   -0.04650673308392523   0.0880089744104451
-0.5486333533060599   -0.04650673308392523   0.0880089744104451
-0.5486333533060599   -0.04650673308392523   0.0880089744104451
-0.5486333533060599   -0.04650673308392523   0.0880089744104451
-0.5349306025523202   0.08493828768270312   0.03000999115920249
-0.5349306025523202   0.08493828768270312   0.03000999115920249
-0.5349306025523202   0.08493828768270312   0.03000999115920249
-0.5349306025523202   0.08493828768270312   0.03000999115920249
-2.1320505521634807   -0.23962524951285308   -0.04129771808399184
-2.1320505521634807   -0.23962524951285308   -0.04129771808399184
-2.1320505521634807   -0.23962524951285308   -0.04129771808399184
-2.1320505521634807   -0.23962524951285308   -0.04129771808399184
-1.3450978795087907   -0.1459998168413444   -0.041011371601737276
-1.3450978795087907   -0.1459998168413444   -0.041011371601737276
-1.3450978795087907   -0.1459998168413444   -0.041011371601737276
-1.3450978795087907   -0.1459998168413444   -0.041011371601737276
-2.1286070549512726   -0.24378341444674048   -0.019922067089063307
-2.1286070549512726   -0.24378341444674048   -0.019922067089063307
-2.1286070549512726   -0.24378341444674048   -0.019922067089063307
-2.1286070549512726   -0.24378341444674048   -0.019922067089063307
-0.5258805233592768   0.1015900290218421   0.058608645785280175
-0.5258805233592768   0.1015900290218421   0.058608645785280175
-0.5258805233592768   0.1015900290218421   0.058608645785280175
-0.5258805233592768   0.1015900290218421   0.058608645785280175
-0.5041456486113043   0.2506193136297056   0.008025580707502838
-0.5041456486113043   0.2506193136297056   0.008025580707502838
-0.5041456486113043   0.2506193136297056   0.008025580707502838
-0.5041456486113043   0.2506193136297056   0.008025580707502838
-2.1065279347583523   -0.09051743130498813   -0.07078897053178987
-2.1065279347583523   -0.09051743130498813   -0.07078897053178987
-2.1065279347583523   -0.09051743130498813   -0.07078897053178987
-2.1065279347583523   -0.09051743130498813   -0.07078897053178987
-1.3122250102996447   0.002974575555795833   0.017846518248973514
-1.3122250102996447   0.002974575555795833   0.017846518248973514
-1.3122250102996447   0.002974575555795833   0.017846518248973514
-1.3122250102996447   0.002974575555795833   0.017846518248973514
-2.0987239549117547   -0.07863230357720247   -0.04365419902658706
-2.0987239549117547   -0.07863230357720247   -0.04365419902658706
-2.0987239549117547   -0.07863230357720247   -0.04365419902658706
-2.0987239549117547   -0.07863230357720247   -0.04365419902658706
-0.5004152998057154   0.25026851455410726   0.027028123811050214
-0.5004152998057154   0.25026851455410726   0.027028123811050214
-0.5004152998057154   0.25026851455410726   0.027028123811050214
-0.5004152998057154   0.25026851455410726   0.027028123811050214
-0.4765565186626245   0.4187025235564491   -0.017875153792307585
-0.4765565186626245   0.4187025235564491   -0.017875153792307585
-0.4765565186626245   0.4187025235564491   -0.017875153792307585
-0.4765565186626245   0.4187025235564491   -0.017875153792307585
-2.0840796570471802   0.06033622803314459   -0.10158151060187756
-2.0840796570471802   0.06033622803314459   -0.10158151060187756
-2.0840796570471802   0.06033622803314459   -0.10158151060187756
-2.0840796570471802   0.06033622803314459   -0.10158151060187756
-1.2822060724505033   0.15266140692138291   0.07454946366585695
-1.2822060724505033   0.15266140692138291   0.07454946366585695
-1.2822060724505033   0.15266140692138291   0.07454946366585695
-1.2822060724505033   0.15266140692138291   0.07454946366585695
-0.6798268183990475   -0.49875681215978274   -0.11570827197864014
-0.6798268183990475   -0.49875681215978274   -0.11570827197864014
-0.6798268183990475   -0.49875681215978274   -0.11570827197864014
-0.6798268183990475   -0.49875681215978274   -0.11570827197864014
0.9940343635734418   0.07952347890860478   0.190916628098298
0.9940343635734418   0.07952347890860478   0.190916628098298
0.9940343635734418   0.07952347890860478   0.190916628098298
0.9940343635734418   0.07952347890860478   0.190916628098298
0.9260797691756333   -0.025017622220624036   -0.10560537299263312
0.9260797691756333   -0.025017622220624036   -0.10560537299263312
0.9260797691756333   -0.025017622220624036   -0.10560537299263312
0.9260797691756333   -0.025017622220624036   -0.10560537299263312
-0.5670892304373694   -0.11622000515359053   0.07037514457025013
-0.5670892304373694   -0.11622000515359053   0.07037514457025013
-0.5670892304373694   -0.11622000515359053   0.07037514457025013
-0.5670892304373694   -0.11622000515359053   0.07037514457025013
0.16198413889005525   -0.13624403065662605   -0.029145622274681295
0.16198413889005525   -0.13624403065662605   -0.029145622274681295
0.16198413889005525   -0.13624403065662605   -0.029145622274681295
0.16198413889005525   -0.13624403065662605   -0.029145622274681295
-0.6561285241767241   -0.34878872679049305   -0.14225260248962085
-0.6561285241767241   -0.34878872679049305   -0.14225260248962085
-0.6561285241767241   -0.34878872679049305   -0.14225260248962085
-0.6561285241767241   -0.34878872679049305   -0.14225260248962085
1.0299928652490602   0.22242490175035837   0.1665175834035037
1.0299928652490602   0.22242490175035837   0.1665175834035037
1.0299928652490602   0.22242490175035837   0.1665175834035037
1.0299928652490602   0.22242490175035837   0.1665175834035037
0.983261157257352   0.13169353354626837   -0.11960169534043016
0.983261157257352   0.13169353354626837   -0.11960169534043016
0.983261157257352   0.13169353354626837   -0.11960169534043016
0.983261157257352   0.13169353354626837   -0.11960169534043016
-0.5448648225063936   0.017129370591898577   0.037919654269868125
-0.5448648225063936   0.017129370591898577   0.037919654269868125
-0.5448648225063936   0.017129370591898577   0.037919654269868125
-0.5448648225063936   0.017129370591898577   0.037919654269868125
0.19233910083937114   -0.001284808603347537   0.03069005872715224
0.19233910083937114   -0.001284808603347537   0.03069005872715224
0.19233910083937114   -0.001284808603347537   0.03069005872715224
0.19233910083937114   -0.001284808603347537   0.03069005872715224
-0.6307892287564371   -0.20175900488841153   -0.17281400150004073
-0.6307892287564371   -0.20175900488841153   -0.17281400150004073
-0.6307892287564371   -0.20175900488841153   -0.17281400150004073
-0.6307892287564371   -0.20175900488841153   -0.17281400150004073
1.0820809348351395   0.3634772803543185   0.14271344574043449
1.0820809348351395   0.3634772803543185   0.14271344574043449
1.0820809348351395   0.3634772803543185   0.14271344574043449
1.0820809348351395   0.3634772803543185   0.14271344574043449
1.0292682560882846   0.3104834380220068   -0.13811667691389723
1.0292682560882846   0.3104834380220068   -0.13811667691389723
1.0292682560882846   0.3104834380220068   -0.13811667691389723
1.0292682560882846   0.3104834380220068   -0.13811667691389723
-0.5211025502562122   0.17105020082172326   0.007047010974474036
-0.5211025502562122   0.17105020082172326   0.007047010974474036
-0.5211025502562122   0.17105020082172326   0.007047010974474036
-0.5211025502562122   0.17105020082172326   0.007047010974474036
0.23943484163489592   0.1457701410676068   0.09273186521037988
0.23943484163489592   0.1457701410676068   0.09273186521037988
0.23943484163489592   0.1457701410676068   0.09273186521037988
0.23943484163489592   0.1457701410676068   0.09273186521037988
0.7935627611041004   -0.5040105459808188   -0.22790735935897716
0.7935627611041004   -0.5040105459808188   -0.22790735935897716
0.7935627611041004   -0.5040105459808188   -0.22790735935897716
0.7935627611041004   -0.5040105459808188   -0.22790735935897716
2.3690107609458844   0.23286044193509975   0.246506624850576
2.3690107609458844   0.23286044193509975   0.246506624850576
2.3690107609458844   0.23286044193509975   0.246506624850576
2.3690107609458844   0.23286044193509975   0.246506624850576
2.3458652627468783   -0.12148840872802813   -0.2999466688747774
2.3458652627468783   -0.12148840872802813   -0.2999466688747774
2.3458652627468783   -0.12148840872802813   -0.2999466688747774
2.3458652627468783   -0.12148840872802813   -0.2999466688747774
0.9971675408491768   0.04098107948560681   0.18383478366884543
0.9971675408491768   0.04098107948560681   0.18383478366884543
0.9971675408491768   0.04098107948560681   0.18383478366884543
0.9971675408491768   0.04098107948560681   0.18383478366884543
1.5417029814694108   -0.10351155133383194   -0.08074759107782022
1.5417029814694108   -0.10351155133383194   -0.08074759107782022
1.5417029814694108   -0.10351155133383194   -0.08074759107782022
1.5417029814694108   -0.10351155133383194   -0.08074759107782022
0.8154313088526456   -0.42029910424797556   -0.2635661925802202
0.8154313088526456   -0.42029910424797556   -0.2635661925802202
0.8154313088526456   -0.42029910424797556   -0.2635661925802202
0.8154313088526456   -0.42029910424797556   -0.2635661925802202
2.542766900226559   0.35495718048869207   0.20811592930695066
2.542766900226559   0.35495718048869207   0.20811592930695066
2.542766900226559   0.35495718048869207   0.20811592930695066
2.542766900226559   0.35495718048869207   0.20811592930695066
2.472225349447866   -0.03364379443733545   -0.35947746105808753
2.472225349447866   -0.03364379443733545   -0.35947746105808753
2.472225349447866   -0.03364379443733545   -0.35947746105808753
2.472225349447866   -0.03364379443733545   -0.35947746105808753
1.030546098784355   0.10531108006694972   0.14320546577388094
1.030546098784355   0.10531108006694972   0.14320546577388094
1.030546098784355   0.10531108006694972   0.14320546577388094
1.030546098784355   0.10531108006694972   0.14320546577388094
1.6697994403171568   -0.015056574013028068   -0.010139573974408567
1.6697994403171568   -0.015056574013028068   -0.010139573974408567
1.6697994403171568   -0.015056574013028068   -0.010139573974408567
1.6697994403171568   -0.015056574013028068   -0.010139573974408567
0.8503085473926398   -0.34722158738359243   -0.305449623734146
0.8503085473926398   -0.34722158738359243   -0.305449623734146
0.8503085473926398   -0.34722158738359243   -0.305449623734146
0.8503085473926398   -0.34722158738359243   -0.305449623734146
2.668243087520541   0.43466905969418523   0.15229837517381145
2.668243087520541   0.43466905969418523   0.15229837517381145
2.668243087520541   0.43466905969418523   0.15229837517381145
2.668243087520541   0.43466905969418523   0.15229837517381145
2.6659959993054114   0.1594439791279782   -0.38458294061422216
2.6659959993054114   0.1594439791279782   -0.38458294061422216
2.6659959993054114   0.1594439791279782   -0.38458294061422216
2.6659959993054114   0.1594439791279782   -0.38458294061422216
1.06472085198144   0.23590313956253778   0.11372660101134155
1.06472085198144   0.23590313956253778   0.11372660101134155
1.06472085198144   0.23590313956253778   0.11372660101134155
1.06472085198144   0.23590313956253778   0.11372660101134155
1.7329577926628303   0.08263987802802586   0.050435722928678414
1.7329577926628303   0.08263987802802586   0.050435722928678414
1.7329577926628303   0.08263987802802586   0.050435722928678414
1.7329577926628303   0.08263987802802586   0.050435722928678414
-3.1768477944434514   -0.05500028693609482   0.30752211994529666
-3.1768477944434514   -0.05500028693609482   0.30752211994529666
-3.1768477944434514   -0.05500028693609482   0.30752211994529666
-3.1768477944434514   -0.05500028693609482   0.30752211994529666
-2.470459521619882   -0.3123062401501855   -0.152727008229725
-2.470459521619882   -0.3123062401501855   -0.152727008229725
-2.470459521619882   -0.3123062401501855   -0.152727008229725
-2.470459521619882   -0.3123062401501855   -0.152727008229725
-2.2365086594748975   0.26520498908228424   0.26313752966721976
-2.2365086594748975   0.26520498908228424   0.26313752966721976
-2.2365086594748975   0.26520498908228424   0.26313752966721976
-2.2365086594748975   0.26520498908228424   0.26313752966721976
-3.163055896297008   -0.34427174796074345   -0.20764467489629593
-3.163055896297008   -0.34427174796074345   -0.20764467489629593
-3.163055896297008   -0.34427174796074345   -0.20764467489629593
-3.163055896297008   -0.34427174796074345   -0.20764467489629593
-2.6556658607183072   -0.07347883614848227   -0.03790518805089463
-2.6556658607183072   -0.07347883614848227   -0.03790518805089463
-2.6556658607183072   -0.07347883614848227   -0.03790518805089463
-2.6556658607183072   -0.07347883614848227   -0.03790518805089463
-2.9689105245346585   0.12488266443985818   0.2939277715148508
-2.9689105245346585   0.12488266443985818   0.2939277715148508
-2.9689105245346585   0.12488266443985818   0.2939277715148508
-2.9689105245346585   0.12488266443985818   0.2939277715148508
-2.4172339283981703   -0.19052932047923832   -0.18475450538760826
-2.4172339283981703   -0.19052932047923832   -0.18475450538760826
-2.4172339283981703   -0.19052932047923832   -0.18475450538760826
-2.4172339283981703   -0.19052932047923832   -0.18475450538760826
-2.180617527237374   0.33384911955704455   0.22268887800318746
-2.180617527237374   0.33384911955704455   0.22268887800318746
-2.180617527237374   0.33384911955704455   0.22268887800318746
-2.180617527237374   0.33384911955704455   0.22268887800318746
-3.018289158702634   -0.2665033452193812   -0.2596375585383762
-3.018289158702634   -0.2665033452193812   -0.2596375585383762
-3.018289158702634   -0.2665033452193812   -0.2596375585383762
-3.018289158702634   -0.2665033452193812   -0.2596375585383762
-2.580000370055773   0.01646155625865453   0.019372173673390947
-2.580000370055773   0.01646155625865453   0.019372173673390947
-2.580000370055773   0.01646155625865453   0.019372173673390947
-2.580000370055773   0.01646155625865453   0.019372173673390947
-2.8238941481565973   0.20818570797252955   0.23764844099983592
-2.8238941481565973   0.20818570797252955   0.23764844099983592
-2.8238941481565973   0.20818570797252955   0.23764844099983592
-2.8238941481565973   0.20818570797252955   0.23764844099983592
-2.3622835763144323   -0.1281109721658958   -0.22368127565915075
-2.3622835763144323   -0.1281109721658958   -0.22368127565915075
-2.3622835763144323   -0.1281109721658958   -0.22368127565915075
-2.3622835763144323   -0.1281109721658958   -0.22368127565915075
-2.135222361781257   0.419015778942775   0.19207799846915327
-2.135222361781257   0.419015778942775   0.19207799846915327
-2.135222361781257   0.419015778942775   0.19207799846915327
-2.135222361781257   0.419015778942775   0.19207799846915327
-2.823741145413671   -0.1420639126399571   -0.3005505906086522
-2.823741145413671   -0.1420639126399571   -0.3005505906086522
-2.823741145413671   -0.1420639126399571   -0.3005505906086522
-2.823741145413671   -0.1420639126399571   -0.3005505906086522
-2.4269801096054273   0.10495871918642563   0.09058778899316244
-2.4269801096054273   0.10495871918642563   0.09058778899316244
-2.4269801096054273   0.10495871918642563   0.09058778899316244
-2.4269801096054273   0.10495871918642563   0.09058778899316244
-2.3846861127893217   -0.18052270451247904   0.14435650028537
-2.3846861127893217   -0.18052270451247904   0.14435650028537
-2.3846861127893217   -0.18052270451247904   0.14435650028537
-2.3846861127893217   -0.18052270451247904   0.14435650028537
-1.7440041360465175   -0.2368787494613605   -0.045260675050411814
-1.7440041360465175   -0.2368787494613605   -0.045260675050411814
-1.7440041360465175   -0.2368787494613605   -0.045260675050411814
-1.7440041360465175   -0.2368787494613605   -0.045260675050411814
-1.6132545259104183   0.12056438853290258   0.1344994147757687
-1.6132545259104183   0.12056438853290258   0.1344994147757687
-1.6132545259104183   0.12056438853290258   0.1344994147757687
-1.6132545259104183   0.12056438853290258   0.1344994147757687
-2.419229873365477   -0.2543697667954766   -0.1308937839079022
-2.419229873365477   -0.2543697667954766   -0.1308937839079022
-2.419229873365477   -0.2543697667954766   -0.1308937839079022
-2.419229873365477   -0.2543697667954766   -0.1308937839079022
-2.0344928144241003   -0.12704833475398403   -0.054395481832558434
-2.0344928144241003   -0.12704833475398403   -0.054395481832558434
-2.0344928144241003   -0.12704833475398403   -0.054395481832558434
-2.0344928144241003   -0.12704833475398403   -0.054395481832558434
-2.322319634055586   -0.02357582240172984   0.12286346824777472
-2.322319634055586   -0.02357582240172984   0.12286346824777472
-2.322319634055586   -0.02357582240172984   0.12286346824777472
-2.322319634055586   -0.02357582240172984   0.12286346824777472
-1.6993386142061147   -0.0994034048466344   -0.07595323332317615
-1.6993386142061147   -0.0994034048466344   -0.07595323332317615
-1.6993386142061147   -0.0994034048466344   -0.07595323332317615
-1.6993386142061147   -0.0994034048466344   -0.07595323332317615
-1.565014638791101   0.2600647236374395   0.10763011965014593
-1.565014638791101   0.2600647236374395   0.10763011965014593
-1.565014638791101   0.2600647236374395   0.10763011965014593
-1.565014638791101   0.2600647236374395   0.10763011965014593
-2.3472666730440377   -0.12004378437675617   -0.15666394709628528
-2.3472666730440377   -0.12004378437675617   -0.15666394709628528
-2.3472666730440377   -0.12004378437675617   -0.15666394709628528
-2.3472666730440377   -0.12004378437675617   -0.15666394709628528
-1.9649414941369157   0.007665071117346933   0.005944535224671893
-1.9649414941369157   0.007665071117346933   0.005944535224671893
-1.9649414941369157   0.007665071117346933   0.005944535224671893
-1.9649414941369157   0.007665071117346933   0.005944535224671893
-2.2446776568042255   0.12487797170831644   0.11135937801765552
-2.2446776568042255   0.12487797170831644   0.11135937801765552
-2.2446776568042255   0.12487797170831644   0.11135937801765552
-2.2446776568042255   0.12487797170831644   0.11135937801765552
-1.655104246901632   0.02764237568161576   -0.11039557294670874
-1.655104246901632   0.02764237568161576   -0.11039557294670874
-1.655104246901632   0.02764237568161576   -0.11039557294670874
-1.655104246901632   0.02764237568161576   -0.11039557294670874
-1.5169361569687616   0.41129733172965305   0.0820394101531079
-1.5169361569687616   0.41129733172965305   0.0820394101531079
-1.5169361569687616   0.41129733172965305   0.0820394101531079
-1.5169361569687616   0.41129733172965305   0.0820394101531079
-2.2877145638278247   0.026481704923139504   -0.1778489377440191
-2.2877145638278247   0.026481704923139504   -0.1778489377440191
-2.2877145638278247   0.026481704923139504   -0.1778489377440191
-2.2877145638278247   0.026481704923139504   -0.1778489377440191
-1.9145796985691261   0.13950260206158005   0.06488333515976652
-1.9145796985691261   0.13950260206158005   0.06488333515976652
-1.9145796985691261   0.13950260206158005   0.06488333515976652
-1.9145796985691261   0.13950260206158005   0.06488333515976652
-1.7421248387861514   -0.29779617725334584   0.02505323904337238
-1.7421248387861514   -0.29779617725334584   0.02505323904337238
-1.7421248387861514   -0.29779617725334584   0.02505323904337238
-1.7421248387861514   -0.29779617725334584   0.02505323904337238
-1.0278613391065545   -0.12401343752504974   0.06420861360625778
-1.0278613391065545   -0.12401343752504974   0.06420861360625778
-1.0278613391065545   -0.12401343752504974   0.06420861360625778
-1.0278613391065545   -0.12401343752504974   0.06420861360625778
-0.991792421424951   -0.001644144028822958   0.00834967859769041
-0.991792421424951   -0.001644144028822958   0.00834967859769041
-0.991792421424951   -0.001644144028822958   0.00834967859769041
-0.991792421424951   -0.001644144028822958   0.00834967859769041
-1.6945621128973654   -0.13623134258145947   -0.015242789044604271
-1.6945621128973654   -0.13623134258145947   -0.015242789044604271
-1.6945621128973654   -0.13623134258145947   -0.015242789044604271
-1.6945621128973654   -0.13623134258145947   -0.015242789044604271
-1.3662408238228616   -0.1333999451200474   -0.03955091672486121
-1.3662408238228616   -0.1333999451200474   -0.03955091672486121
-1.3662408238228616   -0.1333999451200474   -0.03955091672486121
-1.3662408238228616   -0.1333999451200474   -0.03955091672486121
-1.6926123997419662   -0.14318599048464042   0.0014604246355569145
-1.6926123997419662   -0.14318599048464042   0.0014604246355569145
-1.6926123997419662   -0.14318599048464042   0.0014604246355569145
-1.6926123997419662   -0.14318599048464042   0.0014604246355569145
-0.9829810615777635   0.01607157687695221   0.03469075692785242
-0.9829810615777635   0.01607157687695221   0.03469075692785242
-0.9829810615777635   0.01607157687695221   0.03469075692785242
-0.9829810615777635   0.01607157687695221   0.03469075692785242
-0.9394521890433564   0.15434455553457105   -0.013554782048989938
-0.9394521890433564   0.15434455553457105   -0.013554782048989938
-0.9394521890433564   0.15434455553457105   -0.013554782048989938
-0.9394521890433564   0.15434455553457105   -0.013554782048989938
-1.6462414917829198   0.005844755164732762   -0.04428417683626373
-1.6462414917829198   0.005844755164732762   -0.04428417683626373
-1.6462414917829198   0.005844755164732762   -0.04428417683626373
-1.6462414917829198   0.005844755164732762   -0.04428417683626373
-1.3110631859516289   0.006934981890942049   0.018921527656223708
-1.3110631859516289   0.006934981890942049   0.018921527656223708
-1.3110631859516289   0.006934981890942049   0.018921527656223708
-1.3110631859516289   0.006934981890942049   0.018921527656223708
-1.6405836957890234   0.012332601879008698   -0.022483043581073336
-1.6405836957890234   0.012332601879008698   -0.022483043581073336
-1.6405836957890234   0.012332601879008698   -0.022483043581073336
-1.6405836957890234   0.012332601879008698   -0.022483043581073336
-0.9353815070542434   0.15758518680327277   0.003557996627882601
-0.9353815070542434   0.15758518680327277   0.003557996627882601
-0.9353815070542434   0.15758518680327277   0.003557996627882601
-0.9353815070542434   0.15758518680327277   0.003557996627882601
-0.89002400738535   0.3117439541278738   -0.038598529790123404
-0.89002400738535   0.3117439541278738   -0.038598529790123404
-0.89002400738535   0.3117439541278738   -0.038598529790123404
-0.89002400738535   0.3117439541278738   -0.038598529790123404
-1.6008527030881923   0.149023125504972   -0.07526911421934954
-1.6008527030881923   0.149023125504972   -0.07526911421934954
-1.6008527030881923   0.149023125504972   -0.07526911421934954
-1.6008527030881923   0.149023125504972   -0.07526911421934954
-1.2588356714115363   0.14777105037492883   0.07504550463047234
-1.2588356714115363   0.14777105037492883   0.07504550463047234
-1.2588356714115363   0.14777105037492883   0.07504550463047234
-1.2588356714115363   0.14777105037492883   0.07504550463047234
-1.1150086736190195   -0.3996472945381449   -0.09589420194298924
-1.1150086736190195   -0.3996472945381449   -0.09589420194298924
-1.1150086736190195   -0.3996472945381449   -0.09589420194298924
-1.1150086736190195   -0.3996472945381449   -0.09589420194298924
-0.3305268261447864   -0.004147718846334129   0.1684545819482916
-0.3305268261447864   -0.004147718846334129   0.1684545819482916
-0.3305268261447864   -0.004147718846334129   0.1684545819482916
-0.3305268261447864   -0.004147718846334129   0.1684545819482916
-0.37750831950174996   -0.11691476327105128   -0.12267955695267309
-0.37750831950174996   -0.11691476327105128   -0.12267955695267309
-0.37750831950174996   -0.11691476327105128   -0.12267955695267309
-0.37750831950174996   -0.11691476327105128   -0.12267955695267309
-0.9769695186051567   -0.015308013786428376   0.09612806245425859
-0.9769695186051567   -0.015308013786428376   0.09612806245425859
-0.9769695186051567   -0.015308013786428376   0.09612806245425859
-0.9769695186051567   -0.015308013786428376   0.09612806245425859
-0.7000281758696949   -0.12813624813475175   -0.02852519451741159
-0.7000281758696949   -0.12813624813475175   -0.02852519451741159
-0.7000281758696949   -0.12813624813475175   -0.02852519451741159
-0.7000281758696949   -0.12813624813475175   -0.02852519451741159
-1.0683179324117453   -0.2547709821129502   -0.121151038252172
-1.0683179324117453   -0.2547709821129502   -0.121151038252172
-1.0683179324117453   -0.2547709821129502   -0.121151038252172
-1.0683179324117453   -0.2547709821129502   -0.121151038252172
-0.2740936142056243   0.13461449654498675   0.14286470971192478
-0.2740936142056243   0.13461449654498675   0.14286470971192478
-0.2740936142056243   0.13461449654498675   0.14286470971192478
-0.2740936142056243   0.13461449654498675   0.14286470971192478
-0.30124873521165657   0.03065157686368994   -0.13808540166597333
-0.30124873521165657   0.03065157686368994   -0.13808540166597333
-0.30124873521165657   0.03065157686368994   -0.13808540166597333
-0.30124873521165657   0.03065157686368994   -0.13808540166597333
-0.9323426596079667   0.11227774893008774   0.06405967173244194
-0.9323426596079667   0.11227774893008774   0.06405967173244194
-0.9323426596079667   0.11227774893008774   0.06405967173244194
-0.9323426596079667   0.11227774893008774   0.06405967173244194
-0.6414547670564741   0.0024691228457307257   0.031029886122506643
-0.6414547670564741   0.0024691228457307257   0.031029886122506643
-0.6414547670564741   0.0024691228457307257   0.031029886122506643
-0.6414547670564741   0.0024691228457307257   0.031029886122506643
-1.0207957471836926   -0.1156886238672874   -0.15023939334882414
-1.0207957471836926   -0.1156886238672874   -0.15023939334882414
-1.0207957471836926   -0.1156886238672874   -0.15023939334882414
-1.0207957471836926   -0.1156886238672874   -0.15023939334882414
-0.20156625864960415   0.26984733864739097   0.12113121936059544
-0.20156625864960415   0.26984733864739097   0.12113121936059544
-0.20156625864960415   0.26984733864739097   0.12113121936059544
-0.20156625864960415   0.26984733864739097   0.12113121936059544
-0.23671847955180825   0.1955929522147349   -0.1546233027648718
-0.23671847955180825   0.1955929522147349   -0.1546233027648718
-0.23671847955180825   0.1955929522147349   -0.1546233027648718
-0.23671847955180825   0.1955929522147349   -0.1546233027648718
-0.8866601505631776   0.2568162315693096   0.033148476879303126
-0.8866601505631776   0.2568162315693096   0.033148476879303126
-0.8866601505631776   0.2568162315693096   0.033148476879303126
-0.8866601505631776   0.2568162315693096   0.033148476879303126
-0.58068628609186   0.13883507098334347   0.0906696721183404
-0.58068628609186   0.13883507098334347   0.0906696721183404
-0.58068628609186   0.13883507098334347   0.0906696721183404
-0.58068628609186   0.13883507098334347   0.0906696721183404
-0.4909974363008376   -0.4300431333500162   -0.20800305432828203
-0.4909974363008376   -0.4300431333500162   -0.20800305432828203
-0.4909974363008376   -0.4300431333500162   -0.20800305432828203
-0.4909974363008376   -0.4300431333500162   -0.20800305432828203
0.20088791775577375   0.12936520637905508   0.2561314003862387
0.20088791775577375   0.12936520637905508   0.2561314003862387
0.20088791775577375   0.12936520637905508   0.2561314003862387
0.20088791775577375   0.12936520637905508   0.2561314003862387
0.20284470339938143   -0.20969810390341925   -0.27523829582642834
0.20284470339938143   -0.20969810390341925   -0.27523829582642834
0.20284470339938143   -0.20969810390341925   -0.27523829582642834
0.20284470339938143   -0.20969810390341925   -0.27523829582642834
-0.26121205253704544   0.13228327846724566   0.20960373613255268
-0.26121205253704544   0.13228327846724566   0.20960373613255268
-0.26121205253704544   0.13228327846724566   0.20960373613255268
-0.26121205253704544   0.13228327846724566   0.20960373613255268
-0.09385645627594875   -0.09056081972599929   -0.04925068334527993
-0.09385645627594875   -0.09056081972599929   -0.04925068334527993
-0.09385645627594875   -0.09056081972599929   -0.04925068334527993
-0.09385645627594875   -0.09056081972599929   -0.04925068334527993
-0.4437619936784439   -0.3317869353126043   -0.23907575579458967
-0.4437619936784439   -0.3317869353126043   -0.23907575579458967
-0.4437619936784439   -0.3317869353126043   -0.23907575579458967
-0.4437619936784439   -0.3317869353126043   -0.23907575579458967
0.39830571520269675   0.26728318053835787   0.22508547874837134
0.39830571520269675   0.26728318053835787   0.22508547874837134
0.39830571520269675   0.26728318053835787   0.22508547874837134
0.39830571520269675   0.26728318053835787   0.22508547874837134
0.34840566190816563   -0.1251121368270398   -0.3267701818198774
0.34840566190816563   -0.1251121368270398   -0.3267701818198774
0.34840566190816563   -0.1251121368270398   -0.3267701818198774
0.34840566190816563   -0.1251121368270398   -0.3267701818198774
-0.2074303108327059   0.19365318834580542   0.16800510874667218
-0.2074303108327059   0.19365318834580542   0.16800510874667218
-0.2074303108327059   0.19365318834580542   0.16800510874667218
-0.2074303108327059   0.19365318834580542   0.16800510874667218
0.026290767545146736   -0.003636975121139729   0.01540345753135384
0.026290767545146736   -0.003636975121139729   0.01540345753135384
0.026290767545146736   -0.003636975121139729   0.01540345753135384
0.026290767545146736   -0.003636975121139729   0.01540345753135384
-0.38746814198526164   -0.2621991941464994   -0.2763316645238093
-0.38746814198526164   -0.2621991941464994   -0.2763316645238093
-0.38746814198526164   -0.2621991941464994   -0.2763316645238093
-0.38746814198526164   -0.2621991941464994   -0.2763316645238093
0.5413481614501626   0.3436449140547152   0.16918526500835257
0.5413481614501626   0.3436449140547152   0.16918526500835257
0.5413481614501626   0.3436449140547152   0.16918526500835257
0.5413481614501626   0.3436449140547152   0.16918526500835257
0.5519628412088742   0.0406540833336297   -0.349760669360633
0.5519628412088742   0.0406540833336297   -0.349760669360633
0.5519628412088742   0.0406540833336297   -0.349760669360633
0.5519628412088742   0.0406540833336297   -0.349760669360633
-0.1571508759155934   0.3023023662108548   0.13650530142009037
-0.1571508759155934   0.3023023662108548   0.13650530142009037
-0.1571508759155934   0.3023023662108548   0.13650530142009037
-0.1571508759155934   0.3023023662108548   0.13650530142009037
0.13379551384763455   0.08788316049168235   0.07843683701540093
0.13379551384763455   0.08788316049168235   0.07843683701540093
0.13379551384763455   0.08788316049168235   0.07843683701540093
0.13379551384763455   0.08788316049168235   0.07843683701540093
-1.064431492389799   0.057949665038786485   0.2925244884850519
-1.064431492389799   0.057949665038786485   0.2925244884850519
-1.064431492389799   0.057949665038786485   0.2925244884850519
-1.064431492389799   0.057949665038786485   0.2925244884850519
-1.2509990654372152   -0.38207605958571444   -0.1730747604751881
-1.2509990654372152   -0.38207605958571444   -0.1730747604751881
-1.2509990654372152   -0.38207605958571444   -0.1730747604751881
-1.2509990654372152   -0.38207605958571444   -0.1730747604751881
-0.9987502828570757   0.17805575751778857   0.2396872390564311
-0.9987502828570757   0.17805575751778857   0.2396872390564311
-0.9987502828570757   0.17805575751778857   0.2396872390564311
-0.9987502828570757   0.17805575751778857   0.2396872390564311
-1.0332341207932558   -0.25317632094544457   -0.22272045963246923
-1.0332341207932558   -0.25317632094544457   -0.22272045963246923
-1.0332341207932558   -0.25317632094544457   -0.22272045963246923
-1.0332341207932558   -0.25317632094544457   -0.22272045963246923
-1.058916292113047   -0.08153149640184659   -0.07935538077876622
-1.058916292113047   -0.08153149640184659   -0.07935538077876622
-1.058916292113047   -0.08153149640184659   -0.07935538077876622
-1.058916292113047   -0.08153149640184659   -0.07935538077876622
-0.8402860417185344   0.21631656741111932   0.2725270473845438
-0.8402860417185344   0.21631656741111932   0.2725270473845438
-0.8402860417185344   0.21631656741111932   0.2725270473845438
-0.8402860417185344   0.21631656741111932   0.2725270473845438
-1.1797062609851878   -0.2794450298921684   -0.20759186417415665
-1.1797062609851878   -0.2794450298921684   -0.20759186417415665
-1.1797062609851878   -0.2794450298921684   -0.20759186417415665
-1.1797062609851878   -0.2794450298921684   -0.20759186417415665
-0.9202220712042316   0.24540451043477074   0.2018346322339813
-0.9202220712042316   0.24540451043477074   0.2018346322339813
-0.9202220712042316   0.24540451043477074   0.2018346322339813
-0.9202220712042316   0.24540451043477074   0.2018346322339813
-0.8661999015371894   -0.17706349422068832   -0.2776798151715395
-0.8661999015371894   -0.17706349422068832   -0.2776798151715395
-0.8661999015371894   -0.17706349422068832   -0.2776798151715395
-0.8661999015371894   -0.17706349422068832   -0.2776798151715395
-0.9356647359738315   0.004617664173209579   -0.015889455732020802
-0.9356647359738315   0.004617664173209579   -0.015889455732020802
-0.9356647359738315   0.004617664173209579   -0.015889455732020802
-0.9356647359738315   0.004617664173209579   -0.015889455732020802
-0.672031260945578   0.2982464372940592   0.21785345627176972
-0.672031260945578   0.2982464372940592   0.21785345627176972
-0.672031260945578   0.2982464372940592   0.21785345627176972
-0.672031260945578   0.2982464372940592   0.21785345627176972
-1.1030503022162121   -0.21856501150036367   -0.24833700089077074
-1.1030503022162121   -0.21856501150036367   -0.24833700089077074
-1.1030503022162121   -0.21856501150036367   -0.24833700089077074
-1.1030503022162121   -0.21856501150036367   -0.24833700089077074
-0.8482767410927722   0.3480078578225262   0.1743438573828657
-0.8482767410927722   0.3480078578225262   0.1743438573828657
-0.8482767410927722   0.3480078578225262   0.1743438573828657
-0.8482767410927722   0.3480078578225262   0.1743438573828657
-0.6432909184852573   -0.03235780686254197   -0.312888682556692
-0.6432909184852573   -0.03235780686254197   -0.312888682556692
-0.6432909184852573   -0.03235780686254197   -0.312888682556692
-0.6432909184852573   -0.03235780686254197   -0.312888682556692
-0.7871903524743405   0.09444837429708072   0.05218430023600579
-0.7871903524743405   0.09444837429708072   0.05218430023600579
-0.7871903524743405   0.09444837429708072   0.05218430023600579
-0.7871903524743405   0.09444837429708072   0.05218430023600579
-1.1208542357827258   -0.07006830729684488   0.1656416355083744
-1.1208542357827258   -0.07006830729684488   0.1656416355083744
-1.1208542357827258   -0.07006830729684488   0.1656416355083744
-1.1208542357827258   -0.07006830729684488   0.1656416355083744
-1.381727073730296   -0.3115909670465446   -0.06764124111328193
-1.381727073730296   -0.3115909670465446   -0.06764124111328193
-1.381727073730296   -0.3115909670465446   -0.06764124111328193
-1.381727073730296   -0.3115909670465446   -0.06764124111328193
-1.2304715238420525   0.031796853486811216   0.11118096798011243
-1.2304715238420525   0.031796853486811216   0.11118096798011243
-1.2304715238420525   0.031796853486811216   0.11118096798011243
-1.2304715238420525   0.031796853486811216   0.11118096798011243
-1.1325799345301968   -0.14869128284559474   -0.10271397894576047
-1.1325799345301968   -0.14869128284559474   -0.10271397894576047
-1.1325799345301968   -0.14869128284559474   -0.10271397894576047
-1.1325799345301968   -0.14869128284559474   -0.10271397894576047
-1.217118273908398   -0.11517202620375575   -0.05619264982549103
-1.217118273908398   -0.11517202620375575   -0.05619264982549103
-1.217118273908398   -0.11517202620375575   -0.05619264982549103
-1.217118273908398   -0.11517202620375575   -0.05619264982549103
-1.0379840054557237   0.07697753357020853   0.14459685001077047
-1.0379840054557237   0.07697753357020853   0.14459685001077047
-1.0379840054557237   0.07697753357020853   0.14459685001077047
-1.0379840054557237   0.07697753357020853   0.14459685001077047
-1.315686325431879   -0.18449083544437367   -0.0986053510378501
-1.315686325431879   -0.18449083544437367   -0.0986053510378501
-1.315686325431879   -0.18449083544437367   -0.0986053510378501
-1.315686325431879   -0.18449083544437367   -0.0986053510378501
-1.160292981330937   0.16565735232224826   0.08486804468563593
-1.160292981330937   0.16565735232224826   0.08486804468563593
-1.160292981330937   0.16565735232224826   0.08486804468563593
-1.160292981330937   0.16565735232224826   0.08486804468563593
-1.0390527052819853   -0.0194515672207643   -0.12746246049923532
-1.0390527052819853   -0.0194515672207643   -0.12746246049923532
-1.0390527052819853   -0.0194515672207643   -0.12746246049923532
-1.0390527052819853   -0.0194515672207643   -0.12746246049923532
-1.1334382944417218   0.009935956661814238   0.0024509721133143675
-1.1334382944417218   0.009935956661814238   0.0024509721133143675
-1.1334382944417218   0.009935956661814238   0.0024509721133143675
-1.1334382944417218   0.009935956661814238   0.0024509721133143675
-0.9398721181288069   0.21880474802893513   0.1301841600169405
-0.9398721181288069   0.21880474802893513   0.1301841600169405
-0.9398721181288069   0.21880474802893513   0.1301841600169405
-0.9398721181288069   0.21880474802893513   0.1301841600169405
-1.2494780760714175   -0.06260347051473719   -0.13279660617979022
-1.2494780760714175   -0.06260347051473719   -0.13279660617979022
-1.2494780760714175   -0.06260347051473719   -0.13279660617979022
-1.2494780760714175   -0.06260347051473719   -0.13279660617979022
-1.089791000185584   0.3136082556796114   0.05986025239609999
-1.089791000185584   0.3136082556796114   0.05986025239609999
-1.089791000185584   0.3136082556796114   0.05986025239609999
-1.089791000185584   0.3136082556796114   0.05986025239609999
-0.9581708629382695   0.12377434726085851   -0.15089324128293777
-0.9581708629382695   0.12377434726085851   -0.15089324128293777
-0.9581708629382695   0.12377434726085851   -0.15089324128293777
-0.9581708629382695   0.12377434726085851   -0.15089324128293777
-1.0543452985872812   0.1389028024183579   0.06205482677834641
-1.0543452985872812   0.1389028024183579   0.06205482677834641
-1.0543452985872812   0.1389028024183579   0.06205482677834641
-1.0543452985872812   0.1389028024183579   0.06205482677834641
-1.334413755213093   -0.18891563881864643   0.046250023244812796
-1.334413755213093   -0.18891563881864643   0.046250023244812796
-1.334413755213093   -0.18891563881864643   0.046250023244812796
-1.334413755213093   -0.18891563881864643   0.046250023244812796
-1.5125363867362986   -0.1956151886986276   0.04104050583694148
-1.5125363867362986   -0.1956151886986276   0.04104050583694148
-1.5125363867362986   -0.1956151886986276   0.04104050583694148
-1.5125363867362986   -0.1956151886986276   0.04104050583694148
-1.4560947954057373   -0.08835041594159099   -0.014305473336890057
-1.4560947954057373   -0.08835041594159099   -0.014305473336890057
-1.4560947954057373   -0.08835041594159099   -0.014305473336890057
-1.4560947954057373   -0.08835041594159099   -0.014305473336890057
-1.2618370420936562   -0.027087273678720963   0.013237503887610781
-1.2618370420936562   -0.027087273678720963   0.013237503887610781
-1.2618370420936562   -0.027087273678720963   0.013237503887610781
-1.2618370420936562   -0.027087273678720963   0.013237503887610781
-1.3933043524148938   -0.11790006503851874   -0.03717696788300588
-1.3933043524148938   -0.11790006503851874   -0.03717696788300588
-1.3933043524148938   -0.11790006503851874   -0.03717696788300588
-1.3933043524148938   -0.11790006503851874   -0.03717696788300588
-1.2629843178465063   -0.04232037956120033   0.022734231005832356
-1.2629843178465063   -0.04232037956120033   0.022734231005832356
-1.2629843178465063   -0.04232037956120033   0.022734231005832356
-1.2629843178465063   -0.04232037956120033   0.022734231005832356
-1.4461165272686833   -0.06428631767490692   0.01152176908170819
-1.4461165272686833   -0.06428631767490692   0.01152176908170819
-1.4461165272686833   -0.06428631767490692   0.01152176908170819
-1.4461165272686833   -0.06428631767490692   0.01152176908170819
-1.3824363480408959   0.06018718347120622   -0.036377179045920194
-1.3824363480408959   0.06018718347120622   -0.036377179045920194
-1.3824363480408959   0.06018718347120622   -0.036377179045920194
-1.3824363480408959   0.06018718347120622   -0.036377179045920194
-1.191897031516191   0.10787872603953969   -0.015373579957926806
-1.191897031516191   0.10787872603953969   -0.015373579957926806
-1.191897031516191   0.10787872603953969   -0.015373579957926806
-1.191897031516191   0.10787872603953969   -0.015373579957926806
-1.3163958632348443   0.014965289219952105   0.020673587096267265
-1.3163958632348443   0.014965289219952105   0.020673587096267265
-1.3163958632348443   0.014965289219952105   0.020673587096267265
-1.3163958632348443   0.014965289219952105   0.020673587096267265
-1.1895959868733845   0.10569397114418339   -0.0016836018485457127
-1.1895959868733845   0.10569397114418339   -0.0016836018485457127
-1.1895959868733845   0.10569397114418339   -0.0016836018485457127
-1.1895959868733845   0.10569397114418339   -0.0016836018485457127
-1.3770433694658812   0.07006596158438233   -0.019291064284023454
-1.3770433694658812   0.07006596158438233   -0.019291064284023454
-1.3770433694658812   0.07006596158438233   -0.019291064284023454
-1.3770433694658812   0.07006596158438233   -0.019291064284023454
-1.3119133462494035   0.20959556041899885   -0.06134629648800419
-1.3119133462494035   0.20959556041899885   -0.06134629648800419
-1.3119133462494035   0.20959556041899885   -0.06134629648800419
-1.3119133462494035   0.20959556041899885   -0.06134629648800419
-1.125151545406776   0.2433969899280648   -0.04673120795830457
-1.125151545406776   0.2433969899280648   -0.04673120795830457
-1.125151545406776   0.2433969899280648   -0.04673120795830457
-1.125151545406776   0.2433969899280648   -0.04673120795830457
-1.242995147607036   0.14806523880317896   0.0758229619305507
-1.242995147607036   0.14806523880317896   0.0758229619305507
-1.242995147607036   0.14806523880317896   0.0758229619305507
-1.242995147607036   0.14806523880317896   0.0758229619305507
-1.5565654171473011   -0.29832526701653367   -0.07639456790019138
-1.5565654171473011   -0.29832526701653367   -0.07639456790019138
-1.5565654171473011   -0.29832526701653367   -0.07639456790019138
-1.5565654171473011   -0.29832526701653367   -0.07639456790019138
-1.6538752130507413   -0.08207175774256487   0.14502464595080933
-1.6538752130507413   -0.08207175774256487   0.14502464595080933
-1.6538752130507413   -0.08207175774256487   0.14502464595080933
-1.6538752130507413   -0.08207175774256487   0.14502464595080933
-1.6798058159144746   -0.20334918769418706   -0.14124150977521666
-1.6798058159144746   -0.20334918769418706   -0.14124150977521666
-1.6798058159144746   -0.20334918769418706   -0.14124150977521666
-1.6798058159144746   -0.20334918769418706   -0.14124150977521666
-1.3932243200835128   0.08972544202118321   0.12197104531145775
-1.3932243200835128   0.08972544202118321   0.12197104531145775
-1.3932243200835128   0.08972544202118321   0.12197104531145775
-1.3932243200835128   0.08972544202118321   0.12197104531145775
-1.564441783545583   -0.11544146109487183   -0.023319521235095737
-1.564441783545583   -0.11544146109487183   -0.023319521235095737
-1.564441783545583   -0.11544146109487183   -0.023319521235095737
-1.564441783545583   -0.11544146109487183   -0.023319521235095737
-1.4870337608023299   -0.15668051497417188   -0.10067020128728565
-1.4870337608023299   -0.15668051497417188   -0.10067020128728565
-1.4870337608023299   -0.15668051497417188   -0.10067020128728565
-1.4870337608023299   -0.15668051497417188   -0.10067020128728565
-1.5767339956891755   0.05231914880764821   0.11844925484944518
-1.5767339956891755   0.05231914880764821   0.11844925484944518
-1.5767339956891755   0.05231914880764821   0.11844925484944518
-1.5767339956891755   0.05231914880764821   0.11844925484944518
-1.5835956972699365   -0.06247553561542307   -0.15845371333301966
-1.5835956972699365   -0.06247553561542307   -0.15845371333301966
-1.5835956972699365   -0.06247553561542307   -0.15845371333301966
-1.5835956972699365   -0.06247553561542307   -0.15845371333301966
-1.3267939818154941   0.21148191153746615   0.09053992401481753
-1.3267939818154941   0.21148191153746615   0.09053992401481753
-1.3267939818154941   0.21148191153746615   0.09053992401481753
-1.3267939818154941   0.21148191153746615   0.09053992401481753
-1.4772837813801831   0.012429956169248468   0.036358645762472816
-1.4772837813801831   0.012429956169248468   0.036358645762472816
-1.4772837813801831   0.012429956169248468   0.036358645762472816
-1.4772837813801831   0.012429956169248468   0.036358645762472816
-1.4177060523668177   -0.02342880617422155   -0.1291097110301311
-1.4177060523668177   -0.02342880617422155   -0.1291097110301311
-1.4177060523668177   -0.02342880617422155   -0.1291097110301311
-1.4177060523668177   -0.02342880617422155   -0.1291097110301311
-1.4833221529777194   0.1817966558371783   0.09864181667548066
-1.4833221529777194   0.1817966558371783   0.09864181667548066
-1.4833221529777194   0.1817966558371783   0.09864181667548066
-1.4833221529777194   0.1817966558371783   0.09864181667548066
-1.4993569189892129   0.0928832358550844   -0.17381973326578765
-1.4993569189892129   0.0928832358550844   -0.17381973326578765
-1.4993569189892129   0.0928832358550844   -0.17381973326578765
-1.4993569189892129   0.0928832358550844   -0.17381973326578765
-1.260177259206179   0.3473839447467271   0.059545754400389034
-1.260177259206179   0.3473839447467271   0.059545754400389034
-1.260177259206179   0.3473839447467271   0.059545754400389034
-1.260177259206179   0.3473839447467271   0.059545754400389034
-1.4029563566038274   0.13953988595554717   0.09349676940859729
-1.4029563566038274   0.13953988595554717   0.09349676940859729
-1.4029563566038274   0.13953988595554717   0.09349676940859729
-1.4029563566038274   0.13953988595554717   0.09349676940859729
-1.7756978691867686   -0.3553419246509049   -0.19081846782101902
-1.7756978691867686   -0.3553419246509049   -0.19081846782101902
-1.7756978691867686   -0.3553419246509049   -0.19081846782101902
-1.7756978691867686   -0.3553419246509049   -0.19081846782101902
-1.9538647170722043   0.029742355753100302   0.25997879888371855
-1.9538647170722043   0.029742355753100302   0.25997879888371855
-1.9538647170722043   0.029742355753100302   0.25997879888371855
-1.9538647170722043   0.029742355753100302   0.25997879888371855
-1.9260689405443614   -0.29337025924025817   -0.25380706439765094
-1.9260689405443614   -0.29337025924025817   -0.25380706439765094
-1.9260689405443614   -0.29337025924025817   -0.25380706439765094
-1.9260689405443614   -0.29337025924025817   -0.25380706439765094
-1.5195271201469513   0.22374513774009774   0.2330576436280998
-1.5195271201469513   0.22374513774009774   0.2330576436280998
-1.5195271201469513   0.22374513774009774   0.2330576436280998
-1.5195271201469513   0.22374513774009774   0.2330576436280998
-1.7221209818167036   -0.0755584563274796   -0.012329655810383575
-1.7221209818167036   -0.0755584563274796   -0.012329655810383575
-1.7221209818167036   -0.0755584563274796   -0.012329655810383575
-1.7221209818167036   -0.0755584563274796   -0.012329655810383575
-1.7028292307472643   -0.2415853822733223   -0.21812238936006811
-1.7028292307472643   -0.2415853822733223   -0.21812238936006811
-1.7028292307472643   -0.2415853822733223   -0.21812238936006811
-1.7028292307472643   -0.2415853822733223   -0.21812238936006811
-1.7329706707557064   0.1817564199614765   0.2365576053438719
-1.7329706707557064   0.1817564199614765   0.2365576053438719
-1.7329706707557064   0.1817564199614765   0.2365576053438719
-1.7329706707557064   0.1817564199614765   0.2365576053438719
-1.760565344568061   -0.2110457437638186   -0.3023545180662155
-1.760565344568061   -0.2110457437638186   -0.3023545180662155
-1.760565344568061   -0.2110457437638186   -0.3023545180662155
-1.760565344568061   -0.2110457437638186   -0.3023545180662155
-1.444926396778337   0.2817252571995602   0.19069199630999528
-1.444926396778337   0.2817252571995602   0.19069199630999528
-1.444926396778337   0.2817252571995602   0.19069199630999528
-1.444926396778337   0.2817252571995602   0.19069199630999528
-1.60940234993073   0.010374584126251918   0.04503376519657237
-1.60940234993073   0.010374584126251918   0.04503376519657237
-1.60940234993073   0.010374584126251918   0.04503376519657237
-1.60940234993073   0.010374584126251918   0.04503376519657237
-1.624618377165807   -0.1738283136297389   -0.2522143347980711
-1.624618377165807   -0.1738283136297389   -0.2522143347980711
-1.624618377165807   -0.1738283136297389   -0.2522143347980711
-1.624618377165807   -0.1738283136297389   -0.2522143347980711
-1.5706157131412732   0.25476547810477523   0.18158241719912938
-1.5706157131412732   0.25476547810477523   0.18158241719912938
-1.5706157131412732   0.25476547810477523   0.18158241719912938
-1.5706157131412732   0.25476547810477523   0.18158241719912938
-1.543830774786674   -0.06838601547640244   -0.3302567081452382
-1.543830774786674   -0.06838601547640244   -0.3302567081452382
-1.543830774786674   -0.06838601547640244   -0.3302567081452382
-1.543830774786674   -0.06838601547640244   -0.3302567081452382
-1.3780253315479567   0.36864965833463736   0.15707178146092504
-1.3780253315479567   0.36864965833463736   0.15707178146092504
-1.3780253315479567   0.36864965833463736   0.15707178146092504
-1.3780253315479567   0.36864965833463736   0.15707178146092504
-1.4566219396148095   0.09642376019623433   0.11126345434452944
-1.4566219396148095   0.09642376019623433   0.11126345434452944
-1.4566219396148095   0.09642376019623433   0.11126345434452944
-1.4566219396148095   0.09642376019623433   0.11126345434452944
1.0726743421751892   0.17405507652277685   0.283907512454864
1.0726743421751892   0.17405507652277685   0.283907512454864
1.0726743421751892   0.17405507652277685   0.283907512454864
1.0726743421751892   0.17405507652277685   0.283907512454864
-0.030139809438336024   -0.4569163655073485   -0.18805835724110465
-0.030139809438336024   -0.4569163655073485   -0.18805835724110465
-0.030139809438336024   -0.4569163655073485   -0.18805835724110465
-0.030139809438336024   -0.4569163655073485   -0.18805835724110465
0.23993755359681096   0.08990381344668191   0.21950853793809644
0.23993755359681096   0.08990381344668191   0.21950853793809644
0.23993755359681096   0.08990381344668191   0.21950853793809644
0.23993755359681096   0.08990381344668191   0.21950853793809644
1.1210121313695676   -0.16219682889894593   -0.23508210021972853
1.1210121313695676   -0.16219682889894593   -0.23508210021972853
1.1210121313695676   -0.16219682889894593   -0.23508210021972853
1.1210121313695676   -0.16219682889894593   -0.23508210021972853
0.546958585690236   -0.08958590394916577   -0.13482801872060698
0.546958585690236   -0.08958590394916577   -0.13482801872060698
0.546958585690236   -0.08958590394916577   -0.13482801872060698
0.546958585690236   -0.08958590394916577   -0.13482801872060698
1.3141275355258184   0.3120831004811501   0.25621499118142976
1.3141275355258184   0.3120831004811501   0.25621499118142976
1.3141275355258184   0.3120831004811501   0.25621499118142976
1.3141275355258184   0.3120831004811501   0.25621499118142976
0.05859239355600329   -0.3726058718179504   -0.22470757700130944
0.05859239355600329   -0.3726058718179504   -0.22470757700130944
0.05859239355600329   -0.3726058718179504   -0.22470757700130944
0.05859239355600329   -0.3726058718179504   -0.22470757700130944
0.3392243681721868   0.15622289196108877   0.1833278460279697
0.3392243681721868   0.15622289196108877   0.1833278460279697
0.3392243681721868   0.15622289196108877   0.1833278460279697
0.3392243681721868   0.15622289196108877   0.1833278460279697
1.309921328316968   -0.08724926470739419   -0.2944146766930488
1.309921328316968   -0.08724926470739419   -0.2944146766930488
1.309921328316968   -0.08724926470739419   -0.2944146766930488
1.309921328316968   -0.08724926470739419   -0.2944146766930488
0.7172999179137687   -0.00676919919865579   -0.06300997191801447
0.7172999179137687   -0.00676919919865579   -0.06300997191801447
0.7172999179137687   -0.00676919919865579   -0.06300997191801447
0.7172999179137687   -0.00676919919865579   -0.06300997191801447
1.505269438339487   0.39315138210948736   0.2019252266026627
1.505269438339487   0.39315138210948736   0.2019252266026627
1.505269438339487   0.39315138210948736   0.2019252266026627
1.505269438339487   0.39315138210948736   0.2019252266026627
0.1554381870052683   -0.3126158260001901   -0.2667643418453287
0.1554381870052683   -0.3126158260001901   -0.2667643418453287
0.1554381870052683   -0.3126158260001901   -0.2667643418453287
0.1554381870052683   -0.3126158260001901   -0.2667643418453287
0.43563188296839694   0.27773643502997086   0.15865972545221801
0.43563188296839694   0.27773643502997086   0.15865972545221801
0.43563188296839694   0.27773643502997086   0.15865972545221801
0.43563188296839694   0.27773643502997086   0.15865972545221801
1.5605560770448976   0.08057642957567143   -0.3247958574542087
1.5605560770448976   0.08057642957567143   -0.3247958574542087
1.5605560770448976   0.08057642957567143   -0.3247958574542087
1.5605560770448976   0.08057642957567143   -0.3247958574542087
0.8609244178332949   0.08585880558712426   0.005052000963133085
0.8609244178332949   0.08585880558712426   0.005052000963133085
0.8609244178332949   0.08585880558712426   0.005052000963133085
0.8609244178332949   0.08585880558712426   0.005052000963133085
0.14645652802693412   0.04597949536926065   0.1920274692086368
0.14645652802693412   0.04597949536926065   0.1920274692086368
0.14645652802693412   0.04597949536926065   0.1920274692086368
0.14645652802693412   0.04597949536926065   0.1920274692086368
-1.029759959781967   -0.38761787523306324   -0.08621156870297503
-1.029759959781967   -0.38761787523306324   -0.08621156870297503
-1.029759959781967   -0.38761787523306324   -0.08621156870297503
-1.029759959781967   -0.38761787523306324   -0.08621156870297503
-0.8588597214904669   -0.055785791562211126   0.08809326443155062
-0.8588597214904669   -0.055785791562211126   0.08809326443155062
-0.8588597214904669   -0.055785791562211126   0.08809326443155062
-0.8588597214904669   -0.055785791562211126   0.08809326443155062
0.1550576103837645   -0.046126470421032496   -0.06886089425942135
0.1550576103837645   -0.046126470421032496   -0.06886089425942135
0.1550576103837645   -0.046126470421032496   -0.06886089425942135
0.1550576103837645   -0.046126470421032496   -0.06886089425942135
-0.4051780220561483   -0.10095626009377655   -0.0649907399674124
-0.4051780220561483   -0.10095626009377655   -0.0649907399674124
-0.4051780220561483   -0.10095626009377655   -0.0649907399674124
-0.4051780220561483   -0.10095626009377655   -0.0649907399674124
0.24856284086953676   0.18215652131098795   0.1703822664374195
0.24856284086953676   0.18215652131098795   0.1703822664374195
0.24856284086953676   0.18215652131098795   0.1703822664374195
0.24856284086953676   0.18215652131098795   0.1703822664374195
-0.943830122483515   -0.27553395380150747   -0.11701057829439385
-0.943830122483515   -0.27553395380150747   -0.11701057829439385
-0.943830122483515   -0.27553395380150747   -0.11701057829439385
-0.943830122483515   -0.27553395380150747   -0.11701057829439385
-0.7682655885806448   0.0726601467746143   0.06230899277619434
-0.7682655885806448   0.0726601467746143   0.06230899277619434
-0.7682655885806448   0.0726601467746143   0.06230899277619434
-0.7682655885806448   0.0726601467746143   0.06230899277619434
0.2678891075399098   0.07600124555717894   -0.09312681072950535
0.2678891075399098   0.07600124555717894   -0.09312681072950535
0.2678891075399098   0.07600124555717894   -0.09312681072950535
0.2678891075399098   0.07600124555717894   -0.09312681072950535
-0.30918957061225405   0.012531679782719601   -0.007732768616430942
-0.30918957061225405   0.012531679782719601   -0.007732768616430942
-0.30918957061225405   0.012531679782719601   -0.007732768616430942
-0.30918957061225405   0.012531679782719601   -0.007732768616430942
0.3653040028015347   0.3174183739357886   0.1525305372000091
0.3653040028015347   0.3174183739357886   0.1525305372000091
0.3653040028015347   0.3174183739357886   0.1525305372000091
0.3653040028015347   0.3174183739357886   0.1525305372000091
-0.8574807678306785   -0.16055726559242484   -0.15054949110693583
-0.8574807678306785   -0.16055726559242484   -0.15054949110693583
-0.8574807678306785   -0.16055726559242484   -0.15054949110693583
-0.8574807678306785   -0.16055726559242484   -0.15054949110693583
-0.6771609912729885   0.21770049044483994   0.03772760297181103
-0.6771609912729885   0.21770049044483994   0.03772760297181103
-0.6771609912729885   0.21770049044483994   0.03772760297181103
-0.6771609912729885   0.21770049044483994   0.03772760297181103
0.36740525798286694   0.2142589983369249   -0.11899596278238597
0.36740525798286694   0.2142589983369249   -0.11899596278238597
0.36740525798286694   0.2142589983369249   -0.11899596278238597
0.36740525798286694   0.2142589983369249   -0.11899596278238597
-0.20326372863336128   0.1376066980096315   0.05322689224560599
-0.20326372863336128   0.1376066980096315   0.05322689224560599
-0.20326372863336128   0.1376066980096315   0.05322689224560599
-0.20326372863336128   0.1376066980096315   0.05322689224560599
-0.9361860915154763   -0.07478770945213874   0.06882760684856322
-0.9361860915154763   -0.07478770945213874   0.06882760684856322
-0.9361860915154763   -0.07478770945213874   0.06882760684856322
-0.9361860915154763   -0.07478770945213874   0.06882760684856322
-2.011440696435723   -0.2741968380145722   0.018171742755983857
-2.011440696435723   -0.2741968380145722   0.018171742755983857
-2.011440696435723   -0.2741968380145722   0.018171742755983857
-2.011440696435723   -0.2741968380145722   0.018171742755983857
-1.9318856014424388   -0.17133931895720048   -0.03797416315600418
-1.9318856014424388   -0.17133931895720048   -0.03797416315600418
-1.9318856014424388   -0.17133931895720048   -0.03797416315600418
-1.9318856014424388   -0.17133931895720048   -0.03797416315600418
-0.8424459240293135   0.07133470556745214   0.04304175460766187
-0.8424459240293135   0.07133470556745214   0.04304175460766187
-0.8424459240293135   0.07133470556745214   0.04304175460766187
-0.8424459240293135   0.07133470556745214   0.04304175460766187
-1.432588644841054   -0.10299826541702359   -0.037679135347380134
-1.432588644841054   -0.10299826541702359   -0.037679135347380134
-1.432588644841054   -0.10299826541702359   -0.037679135347380134
-1.432588644841054   -0.10299826541702359   -0.037679135347380134
-0.8436728192104037   0.06295538914528323   0.04528659512437939
-0.8436728192104037   0.06295538914528323   0.04528659512437939
-0.8436728192104037   0.06295538914528323   0.04528659512437939
-0.8436728192104037   0.06295538914528323   0.04528659512437939
-1.9233681405106642   -0.15566943678432682   -0.011056740670004894
-1.9233681405106642   -0.15566943678432682   -0.011056740670004894
-1.9233681405106642   -0.15566943678432682   -0.011056740670004894
-1.9233681405106642   -0.15566943678432682   -0.011056740670004894
-1.8366798561255957   -0.02994775991843235   -0.0597231851383825
-1.8366798561255957   -0.02994775991843235   -0.0597231851383825
-1.8366798561255957   -0.02994775991843235   -0.0597231851383825
-1.8366798561255957   -0.02994775991843235   -0.0597231851383825
-0.7527383036762162   0.19690915653800187   0.015696407534964707
-0.7527383036762162   0.19690915653800187   0.015696407534964707
-0.7527383036762162   0.19690915653800187   0.015696407534964707
-0.7527383036762162   0.19690915653800187   0.015696407534964707
-1.3343320256613571   0.02127184708375246   0.019949229339932414
-1.3343320256613571   0.02127184708375246   0.019949229339932414
-1.3343320256613571   0.02127184708375246   0.019949229339932414
-1.3343320256613571   0.02127184708375246   0.019949229339932414
-0.7505791984698437   0.20324768888446704   0.02015340122036234
-0.7505791984698437   0.20324768888446704   0.02015340122036234
-0.7505791984698437   0.20324768888446704   0.02015340122036234
-0.7505791984698437   0.20324768888446704   0.02015340122036234
-1.8330355153271407   -0.030482846260072693   -0.04096639480448347
-1.8330355153271407   -0.030482846260072693   -0.04096639480448347
-1.8330355153271407   -0.030482846260072693   -0.04096639480448347
-1.8330355153271407   -0.030482846260072693   -0.04096639480448347
-1.745329951674762   0.11178670380999367   -0.08460423228067424
-1.745329951674762   0.11178670380999367   -0.08460423228067424
-1.745329951674762   0.11178670380999367   -0.08460423228067424
-1.745329951674762   0.11178670380999367   -0.08460423228067424
-0.6668228287402481   0.3228544635422709   -0.015735557461910604
-0.6668228287402481   0.3228544635422709   -0.015735557461910604
-0.6668228287402481   0.3228544635422709   -0.015735557461910604
-0.6668228287402481   0.3228544635422709   -0.015735557461910604
-1.2411454788735852   0.1451793347278741   0.07381423903499569
-1.2411454788735852   0.1451793347278741   0.07381423903499569
-1.2411454788735852   0.1451793347278741   0.07381423903499569
-1.2411454788735852   0.1451793347278741   0.07381423903499569
-2.01071487025963   -0.19410317604175037   -0.05829278833635235
-2.01071487025963   -0.19410317604175037   -0.05829278833635235
-2.01071487025963   -0.19410317604175037   -0.05829278833635235
-2.01071487025963   -0.19410317604175037   -0.05829278833635235
-2.981224153032928   -0.16765747243257934   0.12079324902813526
-2.981224153032928   -0.16765747243257934   0.12079324902813526
-2.981224153032928   -0.16765747243257934   0.12079324902813526
-2.981224153032928   -0.16765747243257934   0.12079324902813526
-2.9807671404263547   -0.28433875906753836   -0.1608071397893081
-2.9807671404263547   -0.28433875906753836   -0.1608071397893081
-2.9807671404263547   -0.28433875906753836   -0.1608071397893081
-2.9807671404263547   -0.28433875906753836   -0.1608071397893081
-1.8240061717144456   0.1829880426863394   0.14709562384042169
-1.8240061717144456   0.1829880426863394   0.14709562384042169
-1.8240061717144456   0.1829880426863394   0.14709562384042169
-1.8240061717144456   0.1829880426863394   0.14709562384042169
-2.4355518693007294   -0.10371315827916067   -0.015737678335145153
-2.4355518693007294   -0.10371315827916067   -0.015737678335145153
-2.4355518693007294   -0.10371315827916067   -0.015737678335145153
-2.4355518693007294   -0.10371315827916067   -0.015737678335145153
-1.917364773620329   -0.055698938624166805   -0.08101040437847606
-1.917364773620329   -0.055698938624166805   -0.08101040437847606
-1.917364773620329   -0.055698938624166805   -0.08101040437847606
-1.917364773620329   -0.055698938624166805   -0.08101040437847606
-2.8814216623452946   -0.03966490158184888   0.0912463931303294
-2.8814216623452946   -0.03966490158184888   0.0912463931303294
-2.8814216623452946   -0.03966490158184888   0.0912463931303294
-2.8814216623452946   -0.03966490158184888   0.0912463931303294
-2.861793684067252   -0.14940762107642125   -0.17890803680298412
-2.861793684067252   -0.14940762107642125   -0.17890803680298412
-2.861793684067252   -0.14940762107642125   -0.17890803680298412
-2.861793684067252   -0.14940762107642125   -0.17890803680298412
-1.7358724873825326   0.29732468445501176   0.11704121420348912
-1.7358724873825326   0.29732468445501176   0.11704121420348912
-1.7358724873825326   0.29732468445501176   0.11704121420348912
-1.7358724873825326   0.29732468445501176   0.11704121420348912
-2.3180559546141786   0.021513168999989563   0.04358314717332881
-2.3180559546141786   0.021513168999989563   0.04358314717332881
-2.3180559546141786   0.021513168999989563   0.04358314717332881
-2.3180559546141786   0.021513168999989563   0.04358314717332881
-1.8261515355741715   0.07174712293570912   -0.10877646523541307
-1.8261515355741715   0.07174712293570912   -0.10877646523541307
-1.8261515355741715   0.07174712293570912   -0.10877646523541307
-1.8261515355741715   0.07174712293570912   -0.10877646523541307
-2.764772611306513   0.08291196501198017   0.07387774091231158
-2.764772611306513   0.08291196501198017   0.07387774091231158
-2.764772611306513   0.08291196501198017   0.07387774091231158
-2.764772611306513   0.08291196501198017   0.07387774091231158
-2.75531409047092   -0.002058075817101934   -0.19252751715401542
-2.75531409047092   -0.002058075817101934   -0.19252751715401542
-2.75531409047092   -0.002058075817101934   -0.19252751715401542
-2.75531409047092   -0.002058075817101934   -0.19252751715401542
-1.6486440131339613   0.4238364077892964   0.08677575644402624
-1.6486440131339613   0.4238364077892964   0.08677575644402624
-1.6486440131339613   0.4238364077892964   0.08677575644402624
-1.6486440131339613   0.4238364077892964   0.08677575644402624
-2.229581986531072   0.1385179464177413   0.0968145404978775
-2.229581986531072   0.1385179464177413   0.0968145404978775
-2.229581986531072   0.1385179464177413   0.0968145404978775
-2.229581986531072   0.1385179464177413   0.0968145404978775
-3.0629643483077467   -0.2793219751887163   -0.1762432245898221
-3.0629643483077467   -0.2793219751887163   -0.1762432245898221
-3.0629643483077467   -0.2793219751887163   -0.1762432245898221
-3.0629643483077467   -0.2793219751887163   -0.1762432245898221
-4.085166767143712   -0.06993784358389288   0.26027586415721754
-4.085166767143712   -0.06993784358389288   0.26027586415721754
-4.085166767143712   -0.06993784358389288   0.26027586415721754
-4.085166767143712   -0.06993784358389288   0.26027586415721754
-4.026181393869365   -0.37112900755760014   -0.23465880913785356
-4.026181393869365   -0.37112900755760014   -0.23465880913785356
-4.026181393869365   -0.37112900755760014   -0.23465880913785356
-4.026181393869365   -0.37112900755760014   -0.23465880913785356
-2.7786670732578527   0.308765231263333   0.25658920572233285
-2.7786670732578527   0.308765231263333   0.25658920572233285
-2.7786670732578527   0.308765231263333   0.25658920572233285
-2.7786670732578527   0.308765231263333   0.25658920572233285
-3.3380243893723276   -0.05900344164162863   0.027044577881022713
-3.3380243893723276   -0.05900344164162863   0.027044577881022713
-3.3380243893723276   -0.05900344164162863   0.027044577881022713
-3.3380243893723276   -0.05900344164162863   0.027044577881022713
-2.9618279403751   -0.15118044562607336   -0.1992694529744841
-2.9618279403751   -0.15118044562607336   -0.1992694529744841
-2.9618279403751   -0.15118044562607336   -0.1992694529744841
-2.9618279403751   -0.15118044562607336   -0.1992694529744841
-3.8376152278791396   0.09422196820477602   0.2428210450508354
-3.8376152278791396   0.09422196820477602   0.2428210450508354
-3.8376152278791396   0.09422196820477602   0.2428210450508354
-3.8376152278791396   0.09422196820477602   0.2428210450508354
-3.8386831806029855   -0.2909913905738998   -0.2791344587326561
-3.8386831806029855   -0.2909913905738998   -0.2791344587326561
-3.8386831806029855   -0.2909913905738998   -0.2791344587326561
-3.8386831806029855   -0.2909913905738998   -0.2791344587326561
-2.6815548790633383   0.36143803086420845   0.2114403362759321
-2.6815548790633383   0.36143803086420845   0.2114403362759321
-2.6815548790633383   0.36143803086420845   0.2114403362759321
-2.6815548790633383   0.36143803086420845   0.2114403362759321
-3.2306542817454806   0.02498457066007198   0.07504573983807367
-3.2306542817454806   0.02498457066007198   0.07504573983807367
-3.2306542817454806   0.02498457066007198   0.07504573983807367
-3.2306542817454806   0.02498457066007198   0.07504573983807367
-2.8591675434913033   -0.08524863533749072   -0.22993631966216993
-2.8591675434913033   -0.08524863533749072   -0.22993631966216993
-2.8591675434913033   -0.08524863533749072   -0.22993631966216993
-2.8591675434913033   -0.08524863533749072   -0.22993631966216993
-3.654431836691157   0.1623339551116203   0.188796915140933
-3.654431836691157   0.1623339551116203   0.188796915140933
-3.654431836691157   0.1623339551116203   0.188796915140933
-3.654431836691157   0.1623339551116203   0.188796915140933
-3.608183659095405   -0.17101376769744003   -0.31108702115213693
-3.608183659095405   -0.17101376769744003   -0.31108702115213693
-3.608183659095405   -0.17101376769744003   -0.31108702115213693
-3.608183659095405   -0.17101376769744003   -0.31108702115213693
-2.596057405272618   0.42554953658641215   0.1761482964339769
-2.596057405272618   0.42554953658641215   0.1761482964339769
-2.596057405272618   0.42554953658641215   0.1761482964339769
-2.596057405272618   0.42554953658641215   0.1761482964339769
-3.0323233105923464   0.1038446432622655   0.14243357166011503
-3.0323233105923464   0.1038446432622655   0.14243357166011503
-3.0323233105923464   0.1038446432622655   0.14243357166011503
-3.0323233105923464   0.1038446432622655   0.14243357166011503
3.26173265065244   0.29601049150245207   0.2847034677171224
3.26173265065244   0.29601049150245207   0.2847034677171224
3.26173265065244   0.29601049150245207   0.2847034677171224
3.26173265065244   0.29601049150245207   0.2847034677171224
1.1967152969981139   -0.5457627365854363   -0.18749224585595503
1.1967152969981139   -0.5457627365854363   -0.18749224585595503
1.1967152969981139   -0.5457627365854363   -0.18749224585595503
1.1967152969981139   -0.5457627365854363   -0.18749224585595503
1.4806211489423369   -0.0022533164928608684   0.20502644423792743
1.4806211489423369   -0.0022533164928608684   0.20502644423792743
1.4806211489423369   -0.0022533164928608684   0.20502644423792743
1.4806211489423369   -0.0022533164928608684   0.20502644423792743
3.3225999330485134   -0.07836404450896683   -0.23924274261095899
3.3225999330485134   -0.07836404450896683   -0.23924274261095899
3.3225999330485134   -0.07836404450896683   -0.23924274261095899
3.3225999330485134   -0.07836404450896683   -0.23924274261095899
2.1729652268428454   -0.09958069596560748   -0.21063334568407346
2.1729652268428454   -0.09958069596560748   -0.21063334568407346
2.1729652268428454   -0.09958069596560748   -0.21063334568407346
2.1729652268428454   -0.09958069596560748   -0.21063334568407346
3.5183758992628156   0.4137891279283007   0.24748391602325653
3.5183758992628156   0.4137891279283007   0.24748391602325653
3.5183758992628156   0.4137891279283007   0.24748391602325653
3.5183758992628156   0.4137891279283007   0.24748391602325653
1.298622114354719   -0.48062955730344614   -0.22659248788956146
1.298622114354719   -0.48062955730344614   -0.22659248788956146
1.298622114354719   -0.48062955730344614   -0.22659248788956146
1.298622114354719   -0.48062955730344614   -0.22659248788956146
1.593382169017624   0.06216682214819491   0.16920491688424072
1.593382169017624   0.06216682214819491   0.16920491688424072
1.593382169017624   0.06216682214819491   0.16920491688424072
1.593382169017624   0.06216682214819491   0.16920491688424072
3.5271425285777913   -0.005085773073714384   -0.30176152629296976
3.5271425285777913   -0.005085773073714384   -0.30176152629296976
3.5271425285777913   -0.005085773073714384   -0.30176152629296976
3.5271425285777913   -0.005085773073714384   -0.30176152629296976
2.3861827708929777   -0.02032455407043887   -0.12734013156698665
2.3861827708929777   -0.02032455407043887   -0.12734013156698665
2.3861827708929777   -0.02032455407043887   -0.12734013156698665
2.3861827708929777   -0.02032455407043887   -0.12734013156698665
3.725187499998343   0.4928020137622498   0.19057554397379617
3.725187499998343   0.4928020137622498   0.19057554397379617
3.725187499998343   0.4928020137622498   0.19057554397379617
3.725187499998343   0.4928020137622498   0.19057554397379617
1.4100684996389479   -0.4209896626458961   -0.2642069452150353
1.4100684996389479   -0.4209896626458961   -0.2642069452150353
1.4100684996389479   -0.4209896626458961   -0.2642069452150353
1.4100684996389479   -0.4209896626458961   -0.2642069452150353
1.7059694293800065   0.20394925614527745   0.14665492305871244
1.7059694293800065   0.20394925614527745   0.14665492305871244
1.7059694293800065   0.20394925614527745   0.14665492305871244
1.7059694293800065   0.20394925614527745   0.14665492305871244
3.795549226475397   0.18607307962361752   -0.3256429309670015
3.795549226475397   0.18607307962361752   -0.3256429309670015
3.795549226475397   0.18607307962361752   -0.3256429309670015
3.795549226475397   0.18607307962361752   -0.3256429309670015
2.5187330412423483   0.07590562467897594   -0.055067698071859586
2.5187330412423483   0.07590562467897594   -0.055067698071859586
2.5187330412423483   0.07590562467897594   -0.055067698071859586
2.5187330412423483   0.07590562467897594   -0.055067698071859586
1.4217762450437603   0.1652846925250356   0.2267650652617915
1.4217762450437603   0.1652846925250356   0.2267650652617915
1.4217762450437603   0.1652846925250356   0.2267650652617915
1.4217762450437603   0.1652846925250356   0.2267650652617915
-0.688777202434492   -0.5090790585709972   -0.09808017265442308
-0.688777202434492   -0.5090790585709972   -0.09808017265442308
-0.688777202434492   -0.5090790585709972   -0.09808017265442308
-0.688777202434492   -0.5090790585709972   -0.09808017265442308
-0.4930150493653628   -0.14816315190998058   0.06902835804496546
-0.4930150493653628   -0.14816315190998058   0.06902835804496546
-0.4930150493653628   -0.14816315190998058   0.06902835804496546
-0.4930150493653628   -0.14816315190998058   0.06902835804496546
1.4342791649328726   0.001575110541394087   -0.030511902843634156
1.4342791649328726   0.001575110541394087   -0.030511902843634156
1.4342791649328726   0.001575110541394087   -0.030511902843634156
1.4342791649328726   0.001575110541394087   -0.030511902843634156
0.39988679133753563   -0.10838230047310474   -0.09003360904200608
0.39988679133753563   -0.10838230047310474   -0.09003360904200608
0.39988679133753563   -0.10838230047310474   -0.09003360904200608
0.39988679133753563   -0.10838230047310474   -0.09003360904200608
1.5374987218273528   0.2846384409613322   0.2025225512088139
1.5374987218273528   0.2846384409613322   0.2025225512088139
1.5374987218273528   0.2846384409613322   0.2025225512088139
1.5374987218273528   0.2846384409613322   0.2025225512088139
-0.5880011042022153   -0.42299298027229354   -0.13107208777698431
-0.5880011042022153   -0.42299298027229354   -0.13107208777698431
-0.5880011042022153   -0.42299298027229354   -0.13107208777698431
-0.5880011042022153   -0.42299298027229354   -0.13107208777698431
-0.3879133778043091   -0.027789559463972935   0.04372164950895424
-0.3879133778043091   -0.027789559463972935   0.04372164950895424
-0.3879133778043091   -0.027789559463972935   0.04372164950895424
-0.3879133778043091   -0.027789559463972935   0.04372164950895424
1.5577124272512273   0.10972628670836426   -0.05670325650789773
1.5577124272512273   0.10972628670836426   -0.05670325650789773
1.5577124272512273   0.10972628670836426   -0.05670325650789773
1.5577124272512273   0.10972628670836426   -0.05670325650789773
0.5015319743284304   -0.013183219299787677   -0.03584445250543833
0.5015319743284304   -0.013183219299787677   -0.03584445250543833
0.5015319743284304   -0.013183219299787677   -0.03584445250543833
0.5015319743284304   -0.013183219299787677   -0.03584445250543833
1.6650420158314727   0.40999281998477355   0.1796781531169049
1.6650420158314727   0.40999281998477355   0.1796781531169049
1.6650420158314727   0.40999281998477355   0.1796781531169049
1.6650420158314727   0.40999281998477355   0.1796781531169049
-0.4869800310922682   -0.3197931574480984   -0.1596080189467156
-0.4869800310922682   -0.3197931574480984   -0.1596080189467156
-0.4869800310922682   -0.3197931574480984   -0.1596080189467156
-0.4869800310922682   -0.3197931574480984   -0.1596080189467156
-0.2841787538709482   0.11144360571181053   0.018511085945857313
-0.2841787538709482   0.11144360571181053   0.018511085945857313
-0.2841787538709482   0.11144360571181053   0.018511085945857313
-0.2841787538709482   0.11144360571181053   0.018511085945857313
1.6673331075010067   0.23831555076869604   -0.08089298095970507
1.6673331075010067   0.23831555076869604   -0.08089298095970507
1.6673331075010067   0.23831555076869604   -0.08089298095970507
1.6673331075010067   0.23831555076869604   -0.08089298095970507
0.6266407189837706   0.10338030663370874   0.027363285138439875
0.6266407189837706   0.10338030663370874   0.027363285138439875
0.6266407189837706   0.10338030663370874   0.027363285138439875
0.6266407189837706   0.10338030663370874   0.027363285138439875
-0.5410167982600618   0.03548512583225803   0.09615766381447338
-0.5410167982600618   0.03548512583225803   0.09615766381447338
-0.5410167982600618   0.03548512583225803   0.09615766381447338
-0.5410167982600618   0.03548512583225803   0.09615766381447338
-2.536749712981232   -0.449021096188654   -0.012655416103863153
-2.536749712981232   -0.449021096188654   -0.012655416103863153
-2.536749712981232   -0.449021096188654   -0.012655416103863153
-2.536749712981232   -0.449021096188654   -0.012655416103863153
-2.4119120666455984   -0.26310781938953326   -0.05970472756098032
-2.4119120666455984   -0.26310781938953326   -0.05970472756098032
-2.4119120666455984   -0.26310781938953326   -0.05970472756098032
-2.4119120666455984   -0.26310781938953326   -0.05970472756098032
-0.4514047749144176   0.06475537818826634   0.06416120020144453
-0.4514047749144176   0.06475537818826634   0.06416120020144453
-0.4514047749144176   0.06475537818826634   0.06416120020144453
-0.4514047749144176   0.06475537818826634   0.06416120020144453
-1.4879101498217409   -0.13829643375515244   -0.05614344192128687
-1.4879101498217409   -0.13829643375515244   -0.05614344192128687
-1.4879101498217409   -0.13829643375515244   -0.05614344192128687
-1.4879101498217409   -0.13829643375515244   -0.05614344192128687
-0.4307429405430692   0.15959341782704933   0.0726323324194036
-0.4307429405430692   0.15959341782704933   0.0726323324194036
-0.4307429405430692   0.15959341782704933   0.0726323324194036
-0.4307429405430692   0.15959341782704933   0.0726323324194036
-2.4271357630109915   -0.35250772102236094   -0.046423307755118166
-2.4271357630109915   -0.35250772102236094   -0.046423307755118166
-2.4271357630109915   -0.35250772102236094   -0.046423307755118166
-2.4271357630109915   -0.35250772102236094   -0.046423307755118166
-2.296114641367232   -0.13104148250425562   -0.0806804499853073
-2.296114641367232   -0.13104148250425562   -0.0806804499853073
-2.296114641367232   -0.13104148250425562   -0.0806804499853073
-2.296114641367232   -0.13104148250425562   -0.0806804499853073
-0.3490830520408195   0.1739780001272298   0.03610571873519951
-0.3490830520408195   0.1739780001272298   0.03610571873519951
-0.3490830520408195   0.1739780001272298   0.03610571873519951
-0.3490830520408195   0.1739780001272298   0.03610571873519951
-1.3711477586626093   -0.027770416814326626   -0.000897111890577354
-1.3711477586626093   -0.027770416814326626   -0.000897111890577354
-1.3711477586626093   -0.027770416814326626   -0.000897111890577354
-1.3711477586626093   -0.027770416814326626   -0.000897111890577354
-0.3241732033081337   0.28867457300816424   0.045958389517694015
-0.3241732033081337   0.28867457300816424   0.045958389517694015
-0.3241732033081337   0.28867457300816424   0.045958389517694015
-0.3241732033081337   0.28867457300816424   0.045958389517694015
-2.3159605199799027   -0.24067408526517525   -0.07027724028774258
-2.3159605199799027   -0.24067408526517525   -0.07027724028774258
-2.3159605199799027   -0.24067408526517525   -0.07027724028774258
-2.3159605199799027   -0.24067408526517525   -0.07027724028774258
-2.1883499664601542   0.0005308378488098064   -0.10582654820930967
-2.1883499664601542   0.0005308378488098064   -0.10582654820930967
-2.1883499664601542   0.0005308378488098064   -0.10582654820930967
-2.1883499664601542   0.0005308378488098064   -0.10582654820930967
-0.25133295710805614   0.2855863734436517   0.008597302028476805
-0.25133295710805614   0.2855863734436517   0.008597302028476805
-0.25133295710805614   0.2855863734436517   0.008597302028476805
-0.25133295710805614   0.2855863734436517   0.008597302028476805
-1.263838211486545   0.08232645116796677   0.051699317357120855
-1.263838211486545   0.08232645116796677   0.051699317357120855
-1.263838211486545   0.08232645116796677   0.051699317357120855
-1.263838211486545   0.08232645116796677   0.051699317357120855
-2.471647134465698   -0.09761120205643725   -0.03855241765838413
-2.471647134465698   -0.09761120205643725   -0.03855241765838413
-2.471647134465698   -0.09761120205643725   -0.03855241765838413
-2.471647134465698   -0.09761120205643725   -0.03855241765838413
-4.340460802605351   -0.3629364380458613   0.0851456366509371
-4.340460802605351   -0.3629364380458613   0.0851456366509371
-4.340460802605351   -0.3629364380458613   0.0851456366509371
-4.340460802605351   -0.3629364380458613   0.0851456366509371
-4.278653788414729   -0.3733258772230661   -0.17982635900632232
-4.278653788414729   -0.3733258772230661   -0.17982635900632232
-4.278653788414729   -0.3733258772230661   -0.17982635900632232
-4.278653788414729   -0.3733258772230661   -0.17982635900632232
-2.2814611970983183   0.16769607872954923   0.1617457220563603
-2.2814611970983183   0.16769607872954923   0.1617457220563603
-2.2814611970983183   0.16769607872954923   0.1617457220563603
-2.2814611970983183   0.16769607872954923   0.1617457220563603
-3.319919454930353   -0.14537448639344608   -0.019505432569574155
-3.319919454930353   -0.14537448639344608   -0.019505432569574155
-3.319919454930353   -0.14537448639344608   -0.019505432569574155
-3.319919454930353   -0.14537448639344608   -0.019505432569574155
-2.351743694992184   0.03635606293835281   -0.058326751621772976
-2.351743694992184   0.03635606293835281   -0.058326751621772976
-2.351743694992184   0.03635606293835281   -0.058326751621772976
-2.351743694992184   0.03635606293835281   -0.058326751621772976
-4.208269089470328   -0.24188366038132847   0.04065491887398101
-4.208269089470328   -0.24188366038132847   0.04065491887398101
-4.208269089470328   -0.24188366038132847   0.04065491887398101
-4.208269089470328   -0.24188366038132847   0.04065491887398101
-4.127560213457473   -0.24419871974564722   -0.19888808072486586
-4.127560213457473   -0.24419871974564722   -0.19888808072486586
-4.127560213457473   -0.24419871974564722   -0.19888808072486586
-4.127560213457473   -0.24419871974564722   -0.19888808072486586
-2.1735441603924257   0.271944929509524   0.12918554287496894
-2.1735441603924257   0.271944929509524   0.12918554287496894
-2.1735441603924257   0.271944929509524   0.12918554287496894
-2.1735441603924257   0.271944929509524   0.12918554287496894
-3.166447215006574   -0.02315491937449088   0.03581689070994998
-3.166447215006574   -0.02315491937449088   0.03581689070994998
-3.166447215006574   -0.02315491937449088   0.03581689070994998
-3.166447215006574   -0.02315491937449088   0.03581689070994998
-2.239514667464864   0.15620299416858852   -0.08492505714629583
-2.239514667464864   0.15620299416858852   -0.08492505714629583
-2.239514667464864   0.15620299416858852   -0.08492505714629583
-2.239514667464864   0.15620299416858852   -0.08492505714629583
-4.058281577686897   -0.12514865570657607   0.028455034088939984
-4.058281577686897   -0.12514865570657607   0.028455034088939984
-4.058281577686897   -0.12514865570657607   0.028455034088939984
-4.058281577686897   -0.12514865570657607   0.028455034088939984
-3.9924320654141097   -0.10408714847693679   -0.20905397260699116
-3.9924320654141097   -0.10408714847693679   -0.20905397260699116
-3.9924320654141097   -0.10408714847693679   -0.20905397260699116
-3.9924320654141097   -0.10408714847693679   -0.20905397260699116
-2.0690200208147815   0.38675695105672103   0.10459706680966091
-2.0690200208147815   0.38675695105672103   0.10459706680966091
-2.0690200208147815   0.38675695105672103   0.10459706680966091
-2.0690200208147815   0.38675695105672103   0.10459706680966091
-3.0619737541446264   0.08147432868382187   0.08359206415064305
-3.0619737541446264   0.08147432868382187   0.08359206415064305
-3.0619737541446264   0.08147432868382187   0.08359206415064305
-3.0619737541446264   0.08147432868382187   0.08359206415064305
-4.359444627269662   -0.2094921444864979   -0.16321778022998001
-4.359444627269662   -0.2094921444864979   -0.16321778022998001
-4.359444627269662   -0.2094921444864979   -0.16321778022998001
-4.359444627269662   -0.2094921444864979   -0.16321778022998001
-6.209085090385434   -0.22330048000181035   0.28309514562877763
-6.209085090385434   -0.22330048000181035   0.28309514562877763
-6.209085090385434   -0.22330048000181035   0.28309514562877763
-6.209085090385434   -0.22330048000181035   0.28309514562877763
-6.0869167752056885   -0.4473123583524792   -0.21554904040889206
-6.0869167752056885   -0.4473123583524792   -0.21554904040889206
-6.0869167752056885   -0.4473123583524792   -0.21554904040889206
-6.0869167752056885   -0.4473123583524792   -0.21554904040889206
-4.040796615073554   0.348723223925018   0.28741040655146927
-4.040796615073554   0.348723223925018   0.28741040655146927
-4.040796615073554   0.348723223925018   0.28741040655146927
-4.040796615073554   0.348723223925018   0.28741040655146927
-4.944732188694165   -0.061188406795588346   0.05637756109177944
-4.944732188694165   -0.061188406795588346   0.05637756109177944
-4.944732188694165   -0.061188406795588346   0.05637756109177944
-4.944732188694165   -0.061188406795588346   0.05637756109177944
-4.217624681663669   -0.06662122671426018   -0.18138547575981562
-4.217624681663669   -0.06662122671426018   -0.18138547575981562
-4.217624681663669   -0.06662122671426018   -0.18138547575981562
-4.217624681663669   -0.06662122671426018   -0.18138547575981562
-5.9073212988924935   -0.029200497990128138   0.26431648079467757
-5.9073212988924935   -0.029200497990128138   0.26431648079467757
-5.9073212988924935   -0.029200497990128138   0.26431648079467757
-5.9073212988924935   -0.029200497990128138   0.26431648079467757
-5.859004807282433   -0.3670836197176589   -0.25371798841431026
-5.859004807282433   -0.3670836197176589   -0.25371798841431026
-5.859004807282433   -0.3670836197176589   -0.25371798841431026
-5.859004807282433   -0.3670836197176589   -0.25371798841431026
-3.91378191866899   0.398229656967823   0.22757501650407885
-3.91378191866899   0.398229656967823   0.22757501650407885
-3.91378191866899   0.398229656967823   0.22757501650407885
-3.91378191866899   0.398229656967823   0.22757501650407885
-4.825720343094334   0.026320553491364196   0.1026630597706602
-4.825720343094334   0.026320553491364196   0.1026630597706602
-4.825720343094334   0.026320553491364196   0.1026630597706602
-4.825720343094334   0.026320553491364196   0.1026630597706602
-4.080572389961267   -0.0019025626403843532   -0.206245120349103
-4.080572389961267   -0.0019025626403843532   -0.206245120349103
-4.080572389961267   -0.0019025626403843532   -0.206245120349103
-4.080572389961267   -0.0019025626403843532   -0.206245120349103
-5.689487548827324   0.03577538705336303   0.19100929709011316
-5.689487548827324   0.03577538705336303   0.19100929709011316
-5.689487548827324   0.03577538705336303   0.19100929709011316
-5.689487548827324   0.03577538705336303   0.19100929709011316
-5.610330107723561   -0.2703172595918182   -0.2889129820062323
-5.610330107723561   -0.2703172595918182   -0.2889129820062323
-5.610330107723561   -0.2703172595918182   -0.2889129820062323
-5.610330107723561   -0.2703172595918182   -0.2889129820062323
-3.801947632477642   0.44544124110525285   0.19383980249315674
-3.801947632477642   0.44544124110525285   0.19383980249315674
-3.801947632477642   0.44544124110525285   0.19383980249315674
-3.801947632477642   0.44544124110525285   0.19383980249315674
-4.575474793374029   0.09924529206404531   0.17220533432231072
-4.575474793374029   0.09924529206404531   0.17220533432231072
-4.575474793374029   0.09924529206404531   0.17220533432231072
-4.575474793374029   0.09924529206404531   0.17220533432231072
5.495386481088771   0.41007023394131603   0.29300142268714924
5.495386481088771   0.41007023394131603   0.29300142268714924
5.495386481088771   0.41007023394131603   0.29300142268714924
5.495386481088771   0.41007023394131603   0.29300142268714924
2.427198192666884   -0.6507275061494296   -0.13384098180545273
2.427198192666884   -0.6507275061494296   -0.13384098180545273
2.427198192666884   -0.6507275061494296   -0.13384098180545273
2.427198192666884   -0.6507275061494296   -0.13384098180545273
2.7091107804549535   -0.11290150716144476   0.20155909672021113
2.7091107804549535   -0.11290150716144476   0.20155909672021113
2.7091107804549535   -0.11290150716144476   0.20155909672021113
2.7091107804549535   -0.11290150716144476   0.20155909672021113
5.557564385784543   -0.013760859500469902   -0.21033770381267242
5.557564385784543   -0.013760859500469902   -0.21033770381267242
5.557564385784543   -0.013760859500469902   -0.21033770381267242
5.557564385784543   -0.013760859500469902   -0.21033770381267242
3.81009144362413   -0.11695104706588699   -0.29929148154582097
3.81009144362413   -0.11695104706588699   -0.29929148154582097
3.81009144362413   -0.11695104706588699   -0.29929148154582097
3.81009144362413   -0.11695104706588699   -0.29929148154582097
5.752313342721794   0.5044636918520792   0.24518252952098954
5.752313342721794   0.5044636918520792   0.24518252952098954
5.752313342721794   0.5044636918520792   0.24518252952098954
5.752313342721794   0.5044636918520792   0.24518252952098954
2.533031052528841   -0.6124568295028595   -0.1792842205689184
2.533031052528841   -0.6124568295028595   -0.1792842205689184
2.533031052528841   -0.6124568295028595   -0.1792842205689184
2.533031052528841   -0.6124568295028595   -0.1792842205689184
2.8199558975468357   -0.0535528728952096   0.16308960563050917
2.8199558975468357   -0.0535528728952096   0.16308960563050917
2.8199558975468357   -0.0535528728952096   0.16308960563050917
2.8199558975468357   -0.0535528728952096   0.16308960563050917
5.750371606792432   0.051739519955624536   -0.2631935502504939
5.750371606792432   0.051739519955624536   -0.2631935502504939
5.750371606792432   0.051739519955624536   -0.2631935502504939
5.750371606792432   0.051739519955624536   -0.2631935502504939
4.051607965255718   -0.046817251869756604   -0.20335680596024164
4.051607965255718   -0.046817251869756604   -0.20335680596024164
4.051607965255718   -0.046817251869756604   -0.20335680596024164
4.051607965255718   -0.046817251869756604   -0.20335680596024164
5.94403341269115   0.5750130907060798   0.18184190849264165
5.94403341269115   0.5750130907060798   0.18184190849264165
5.94403341269115   0.5750130907060798   0.18184190849264165
5.94403341269115   0.5750130907060798   0.18184190849264165
2.6426681782178814   -0.560452357075901   -0.21644950683357084
2.6426681782178814   -0.560452357075901   -0.21644950683357084
2.6426681782178814   -0.560452357075901   -0.21644950683357084
2.6426681782178814   -0.560452357075901   -0.21644950683357084
2.9202886424796817   0.10474640853576411   0.14298429758944656
2.9202886424796817   0.10474640853576411   0.14298429758944656
2.9202886424796817   0.10474640853576411   0.14298429758944656
2.9202886424796817   0.10474640853576411   0.14298429758944656
5.987292021512044   0.24326644880761183   -0.2757514897759312
5.987292021512044   0.24326644880761183   -0.2757514897759312
5.987292021512044   0.24326644880761183   -0.2757514897759312
5.987292021512044   0.24326644880761183   -0.2757514897759312
4.1431087254041   0.04737621230815814   -0.13674460526940732
4.1431087254041   0.04737621230815814   -0.13674460526940732
4.1431087254041   0.04737621230815814   -0.13674460526940732
4.1431087254041   0.04737621230815814   -0.13674460526940732
2.685293672094375   0.23877744391847683   0.2671314652640798
2.685293672094375   0.23877744391847683   0.2671314652640798
2.685293672094375   0.23877744391847683   0.2671314652640798
2.685293672094375   0.23877744391847683   0.2671314652640798
-0.3257609231513602   -0.8032147431382739   -0.076002837324969
-0.3257609231513602   -0.8032147431382739   -0.076002837324969
-0.3257609231513602   -0.8032147431382739   -0.076002837324969
-0.3257609231513602   -0.8032147431382739   -0.076002837324969
-0.0823204800345638   -0.28191358455772225   0.06864426662822061
-0.0823204800345638   -0.28191358455772225   0.06864426662822061
-0.0823204800345638   -0.28191358455772225   0.06864426662822061
-0.0823204800345638   -0.28191358455772225   0.06864426662822061
2.6632164851109144   -0.15360172089555701   0.012787833734127813
2.6632164851109144   -0.15360172089555701   0.012787833734127813
2.6632164851109144   -0.15360172089555701   0.012787833734127813
2.6632164851109144   -0.15360172089555701   0.012787833734127813
1.201672291269056   -0.22547848762643763   -0.1433201887442901
1.201672291269056   -0.22547848762643763   -0.1433201887442901
1.201672291269056   -0.22547848762643763   -0.1433201887442901
1.201672291269056   -0.22547848762643763   -0.1433201887442901
2.804485474721255   0.3290208043715463   0.23651025651874424
2.804485474721255   0.3290208043715463   0.23651025651874424
2.804485474721255   0.3290208043715463   0.23651025651874424
2.804485474721255   0.3290208043715463   0.23651025651874424
-0.21381660809150707   -0.7547632482714253   -0.11598670994279274
-0.21381660809150707   -0.7547632482714253   -0.11598670994279274
-0.21381660809150707   -0.7547632482714253   -0.11598670994279274
-0.21381660809150707   -0.7547632482714253   -0.11598670994279274
0.030745683030628607   -0.17590753925975758   0.04209435787209165
0.030745683030628607   -0.17590753925975758   0.04209435787209165
0.030745683030628607   -0.17590753925975758   0.04209435787209165
0.030745683030628607   -0.17590753925975758   0.04209435787209165
2.7788347659437695   -0.07369734441222431   -0.0223715808678088
2.7788347659437695   -0.07369734441222431   -0.0223715808678088
2.7788347659437695   -0.07369734441222431   -0.0223715808678088
2.7788347659437695   -0.07369734441222431   -0.0223715808678088
1.3001251049662172   -0.1604490575119234   -0.09303258918583017
1.3001251049662172   -0.1604490575119234   -0.09303258918583017
1.3001251049662172   -0.1604490575119234   -0.09303258918583017
1.3001251049662172   -0.1604490575119234   -0.09303258918583017
2.927693317762543   0.4372565690624788   0.21096726475135882
2.927693317762543   0.4372565690624788   0.21096726475135882
2.927693317762543   0.4372565690624788   0.21096726475135882
2.927693317762543   0.4372565690624788   0.21096726475135882
-0.11235749818628761   -0.6811060821325619   -0.16822300533968515
-0.11235749818628761   -0.6811060821325619   -0.16822300533968515
-0.11235749818628761   -0.6811060821325619   -0.16822300533968515
-0.11235749818628761   -0.6811060821325619   -0.16822300533968515
0.11946097300823044   -0.05203387215142287   0.015232038932722264
0.11946097300823044   -0.05203387215142287   0.015232038932722264
0.11946097300823044   -0.05203387215142287   0.015232038932722264
0.11946097300823044   -0.05203387215142287   0.015232038932722264
2.8655130688915675   0.02803574622355265   -0.054182908038946015
2.8655130688915675   0.02803574622355265   -0.054182908038946015
2.8655130688915675   0.02803574622355265   -0.054182908038946015
2.8655130688915675   0.02803574622355265   -0.054182908038946015
1.4200429621607225   -0.06329032124706147   -0.03925760341063851
1.4200429621607225   -0.06329032124706147   -0.03925760341063851
1.4200429621607225   -0.06329032124706147   -0.03925760341063851
1.4200429621607225   -0.06329032124706147   -0.03925760341063851
-0.11036628307216763   0.06528149750039636   0.13247412243232357
-0.11036628307216763   0.06528149750039636   0.13247412243232357
-0.11036628307216763   0.06528149750039636   0.13247412243232357
-0.11036628307216763   0.06528149750039636   0.13247412243232357
-3.0577522272515596   -1.0095347372862478   -0.06152743215675305
-3.0577522272515596   -1.0095347372862478   -0.06152743215675305
-3.0577522272515596   -1.0095347372862478   -0.06152743215675305
-3.0577522272515596   -1.0095347372862478   -0.06152743215675305
-2.810707387893633   -0.4327770112683209   -0.0641981341022767
-2.810707387893633   -0.4327770112683209   -0.0641981341022767
-2.810707387893633   -0.4327770112683209   -0.0641981341022767
-2.810707387893633   -0.4327770112683209   -0.0641981341022767
-0.09849831481632394   -0.3535426040066628   0.05938411216836045
-0.09849831481632394   -0.3535426040066628   0.05938411216836045
-0.09849831481632394   -0.3535426040066628   0.05938411216836045
-0.09849831481632394   -0.3535426040066628   0.05938411216836045
-1.5263742634441886   -0.4094766397174965   -0.12821564216335438
-1.5263742634441886   -0.4094766397174965   -0.12821564216335438
-1.5263742634441886   -0.4094766397174965   -0.12821564216335438
-1.5263742634441886   -0.4094766397174965   -0.12821564216335438
0.01518454345947904   0.16674346810908272   0.1075123314316298
0.01518454345947904   0.16674346810908272   0.1075123314316298
0.01518454345947904   0.16674346810908272   0.1075123314316298
0.01518454345947904   0.16674346810908272   0.1075123314316298
-2.91735769766379   -0.9460305348784205   -0.08419615934296196
-2.91735769766379   -0.9460305348784205   -0.08419615934296196
-2.91735769766379   -0.9460305348784205   -0.08419615934296196
-2.91735769766379   -0.9460305348784205   -0.08419615934296196
-2.670527035163922   -0.31505410816737184   -0.0876108396147064
-2.670527035163922   -0.31505410816737184   -0.0876108396147064
-2.670527035163922   -0.31505410816737184   -0.0876108396147064
-2.670527035163922   -0.31505410816737184   -0.0876108396147064
0.006896565642661653   -0.2768061189881889   0.023747350660688296
0.006896565642661653   -0.2768061189881889   0.023747350660688296
0.006896565642661653   -0.2768061189881889   0.023747350660688296
0.006896565642661653   -0.2768061189881889   0.023747350660688296
-1.3902945564046307   -0.3249395495373419   -0.07143369540924747
-1.3902945564046307   -0.3249395495373419   -0.07143369540924747
-1.3902945564046307   -0.3249395495373419   -0.07143369540924747
-1.3902945564046307   -0.3249395495373419   -0.07143369540924747
0.13009815632843297   0.2793191125619263   0.08363007253942953
0.13009815632843297   0.2793191125619263   0.08363007253942953
0.13009815632843297   0.2793191125619263   0.08363007253942953
0.13009815632843297   0.2793191125619263   0.08363007253942953
-2.7939167493550365   -0.8713674632228683   -0.1482460555147645
-2.7939167493550365   -0.8713674632228683   -0.1482460555147645
-2.7939167493550365   -0.8713674632228683   -0.1482460555147645
-2.7939167493550365   -0.8713674632228683   -0.1482460555147645
-2.5714998360553234   -0.2029338750431834   -0.11383706145843134
-2.5714998360553234   -0.2029338750431834   -0.11383706145843134
-2.5714998360553234   -0.2029338750431834   -0.11383706145843134
-2.5714998360553234   -0.2029338750431834   -0.11383706145843134
0.07618801309005364   -0.21572828845973324   -0.03743834434985119
0.07618801309005364   -0.21572828845973324   -0.03743834434985119
0.07618801309005364   -0.21572828845973324   -0.03743834434985119
0.07618801309005364   -0.21572828845973324   -0.03743834434985119
-1.2904478513250033   -0.24621992327847633   -0.03605905145113409
-1.2904478513250033   -0.24621992327847633   -0.03605905145113409
-1.2904478513250033   -0.24621992327847633   -0.03605905145113409
-1.2904478513250033   -0.24621992327847633   -0.03605905145113409
-2.8615371757157453   -0.085148518625765   -0.004838393138187902
-2.8615371757157453   -0.085148518625765   -0.004838393138187902
-2.8615371757157453   -0.085148518625765   -0.004838393138187902
-2.8615371757157453   -0.085148518625765   -0.004838393138187902
-5.800959865842192   -1.0853713205726783   -0.0498701553682029
-5.800959865842192   -1.0853713205726783   -0.0498701553682029
-5.800959865842192   -1.0853713205726783   -0.0498701553682029
-5.800959865842192   -1.0853713205726783   -0.0498701553682029
-5.534855200162967   -0.5537094347343078   -0.19188784219827534
-5.534855200162967   -0.5537094347343078   -0.19188784219827534
-5.534855200162967   -0.5537094347343078   -0.19188784219827534
-5.534855200162967   -0.5537094347343078   -0.19188784219827534
-2.7593948790691925   -0.36705298848782436   0.12664038723940196
-2.7593948790691925   -0.36705298848782436   0.12664038723940196
-2.7593948790691925   -0.36705298848782436   0.12664038723940196
-2.7593948790691925   -0.36705298848782436   0.12664038723940196
-4.201844794779663   -0.4914730527222091   -0.09047521909351905
-4.201844794779663   -0.4914730527222091   -0.09047521909351905
-4.201844794779663   -0.4914730527222091   -0.09047521909351905
-4.201844794779663   -0.4914730527222091   -0.09047521909351905
-2.706695797913483   0.04576381255105766   -0.02268100802093273
-2.706695797913483   0.04576381255105766   -0.02268100802093273
-2.706695797913483   0.04576381255105766   -0.02268100802093273
-2.706695797913483   0.04576381255105766   -0.02268100802093273
-5.590020611133287   -0.9689925655877927   -0.052431766196344834
-5.590020611133287   -0.9689925655877927   -0.052431766196344834
-5.590020611133287   -0.9689925655877927   -0.052431766196344834
-5.590020611133287   -0.9689925655877927   -0.052431766196344834
-5.334694311703666   -0.4305967583614606   -0.22237274516871322
-5.334694311703666   -0.4305967583614606   -0.22237274516871322
-5.334694311703666   -0.4305967583614606   -0.22237274516871322
-5.334694311703666   -0.4305967583614606   -0.22237274516871322
-2.623095150053152   -0.2744733161525493   0.1089677939243399
-2.623095150053152   -0.2744733161525493   0.1089677939243399
-2.623095150053152   -0.2744733161525493   0.1089677939243399
-2.623095150053152   -0.2744733161525493   0.1089677939243399
-3.9965091428712873   -0.3733723847558595   -0.030227348784854738
-3.9965091428712873   -0.3733723847558595   -0.030227348784854738
-3.9965091428712873   -0.3733723847558595   -0.030227348784854738
-3.9965091428712873   -0.3733723847558595   -0.030227348784854738
-2.566141624626591   0.15953395755717514   -0.0402718526526101
-2.566141624626591   0.15953395755717514   -0.0402718526526101
-2.566141624626591   0.15953395755717514   -0.0402718526526101
-2.566141624626591   0.15953395755717514   -0.0402718526526101
-5.401492072356893   -0.8744482672978079   -0.11251003949845736
-5.401492072356893   -0.8744482672978079   -0.11251003949845736
-5.401492072356893   -0.8744482672978079   -0.11251003949845736
-5.401492072356893   -0.8744482672978079   -0.11251003949845736
-5.171916190780115   -0.3006147164332875   -0.2293651006750489
-5.171916190780115   -0.3006147164332875   -0.2293651006750489
-5.171916190780115   -0.3006147164332875   -0.2293651006750489
-5.171916190780115   -0.3006147164332875   -0.2293651006750489
-2.544720456683939   -0.21561727942391756   0.03274323977924516
-2.544720456683939   -0.21561727942391756   0.03274323977924516
-2.544720456683939   -0.21561727942391756   0.03274323977924516
-2.544720456683939   -0.21561727942391756   0.03274323977924516
-3.8822223398017073   -0.30129992732237876   -0.01067512009226218
-3.8822223398017073   -0.30129992732237876   -0.01067512009226218
-3.8822223398017073   -0.30129992732237876   -0.01067512009226218
-3.8822223398017073   -0.30129992732237876   -0.01067512009226218
-5.641089913579259   -0.19458234724297907   -0.14130936738324057
-5.641089913579259   -0.19458234724297907   -0.14130936738324057
-5.641089913579259   -0.19458234724297907   -0.14130936738324057
-5.641089913579259   -0.19458234724297907   -0.14130936738324057
-8.505221677302211   -0.730401673295858   0.32537960383171066
-8.505221677302211   -0.730401673295858   0.32537960383171066
-8.505221677302211   -0.730401673295858   0.32537960383171066
-8.505221677302211   -0.730401673295858   0.32537960383171066
-8.208810408854324   -0.5799995630774557   -0.1881897346801294
-8.208810408854324   -0.5799995630774557   -0.1881897346801294
-8.208810408854324   -0.5799995630774557   -0.1881897346801294
-8.208810408854324   -0.5799995630774557   -0.1881897346801294
-5.296028712630511   0.15028735111748803   0.29824780961216363
-5.296028712630511   0.15028735111748803   0.29824780961216363
-5.296028712630511   0.15028735111748803   0.29824780961216363
-5.296028712630511   0.15028735111748803   0.29824780961216363
-6.603921569743699   -0.2302357873469567   0.029519924588313817
-6.603921569743699   -0.2302357873469567   0.029519924588313817
-6.603921569743699   -0.2302357873469567   0.029519924588313817
-6.603921569743699   -0.2302357873469567   0.029519924588313817
-5.420238067953346   -0.01595789261510494   -0.15655372326935352
-5.420238067953346   -0.01595789261510494   -0.15655372326935352
-5.420238067953346   -0.01595789261510494   -0.15655372326935352
-5.420238067953346   -0.01595789261510494   -0.15655372326935352
-8.064553072942168   -0.39370633875552996   0.34680372055873016
-8.064553072942168   -0.39370633875552996   0.34680372055873016
-8.064553072942168   -0.39370633875552996   0.34680372055873016
-8.064553072942168   -0.39370633875552996   0.34680372055873016
-7.891096788255041   -0.48757085806891975   -0.22411268909358406
-7.891096788255041   -0.48757085806891975   -0.22411268909358406
-7.891096788255041   -0.48757085806891975   -0.22411268909358406
-7.891096788255041   -0.48757085806891975   -0.22411268909358406
-5.0979014944023024   0.24267001059103221   0.2883245723856139
-5.0979014944023024   0.24267001059103221   0.2883245723856139
-5.0979014944023024   0.24267001059103221   0.2883245723856139
-5.0979014944023024   0.24267001059103221   0.2883245723856139
-6.414510246956223   -0.09290035897328108   0.1309556398813344
-6.414510246956223   -0.09290035897328108   0.1309556398813344
-6.414510246956223   -0.09290035897328108   0.1309556398813344
-6.414510246956223   -0.09290035897328108   0.1309556398813344
-5.22660820161725   0.056368005381455255   -0.16890695847949966
-5.22660820161725   0.056368005381455255   -0.16890695847949966
-5.22660820161725   0.056368005381455255   -0.16890695847949966
-5.22660820161725   0.056368005381455255   -0.16890695847949966
-7.758460360690756   -0.29733913251004895   0.24883772316890584
-7.758460360690756   -0.29733913251004895   0.24883772316890584
-7.758460360690756   -0.29733913251004895   0.24883772316890584
-7.758460360690756   -0.29733913251004895   0.24883772316890584
-7.5627136664048855   -0.3996230489021262   -0.2707156136164954
-7.5627136664048855   -0.3996230489021262   -0.2707156136164954
-7.5627136664048855   -0.3996230489021262   -0.2707156136164954
-7.5627136664048855   -0.3996230489021262   -0.2707156136164954
-4.95037926975577   0.35425217794338093   0.22345261007000505
-4.95037926975577   0.35425217794338093   0.22345261007000505
-4.95037926975577   0.35425217794338093   0.22345261007000505
-4.95037926975577   0.35425217794338093   0.22345261007000505
-6.062474295324559   0.02473480259681815   0.23196335915049843
-6.062474295324559   0.02473480259681815   0.23196335915049843
-6.062474295324559   0.02473480259681815   0.23196335915049843
-6.062474295324559   0.02473480259681815   0.23196335915049843
7.519310292860775   0.44939150015726326   0.2746419495341205
7.519310292860775   0.44939150015726326   0.2746419495341205
7.519310292860775   0.44939150015726326   0.2746419495341205
7.519310292860775   0.44939150015726326   0.2746419495341205
3.5885230560047336   -0.6744876573869902   0.06354371560008892
3.5885230560047336   -0.6744876573869902   0.06354371560008892
3.5885230560047336   -0.6744876573869902   0.06354371560008892
3.5885230560047336   -0.6744876573869902   0.06354371560008892
3.7884102524222283   -0.28314037409921755   0.21191885655565862
3.7884102524222283   -0.28314037409921755   0.21191885655565862
3.7884102524222283   -0.28314037409921755   0.21191885655565862
3.7884102524222283   -0.28314037409921755   0.21191885655565862
7.560078700903961   0.06011283964135883   -0.05934923955382354
7.560078700903961   0.06011283964135883   -0.05934923955382354
7.560078700903961   0.06011283964135883   -0.05934923955382354
7.560078700903961   0.06011283964135883   -0.05934923955382354
5.288887488210672   -0.14607903990688365   -0.3528386911431182
5.288887488210672   -0.14607903990688365   -0.3528386911431182
5.288887488210672   -0.14607903990688365   -0.3528386911431182
5.288887488210672   -0.14607903990688365   -0.3528386911431182
7.703578320014144   0.5009681726964359   0.21729352294201082
7.703578320014144   0.5009681726964359   0.21729352294201082
7.703578320014144   0.5009681726964359   0.21729352294201082
7.703578320014144   0.5009681726964359   0.21729352294201082
3.6794824760520224   -0.6894238644143191   0.0735634650197271
3.6794824760520224   -0.6894238644143191   0.0735634650197271
3.6794824760520224   -0.6894238644143191   0.0735634650197271
3.6794824760520224   -0.6894238644143191   0.0735634650197271
3.8645834050923726   -0.24049571579730977   0.1614184726848948
3.8645834050923726   -0.24049571579730977   0.1614184726848948
3.8645834050923726   -0.24049571579730977   0.1614184726848948
3.8645834050923726   -0.24049571579730977   0.1614184726848948
7.693978107245832   0.10826972736271978   -0.016445549796341385
7.693978107245832   0.10826972736271978   -0.016445549796341385
7.693978107245832   0.10826972736271978   -0.016445549796341385
7.693978107245832   0.10826972736271978   -0.016445549796341385
5.508493058583472   -0.11582003087729964   -0.24063645833068514
5.508493058583472   -0.11582003087729964   -0.24063645833068514
5.508493058583472   -0.11582003087729964   -0.24063645833068514
5.508493058583472   -0.11582003087729964   -0.24063645833068514
7.8152482810382224   0.5474904784671224   0.1506845680612065
7.8152482810382224   0.5474904784671224   0.1506845680612065
7.8152482810382224   0.5474904784671224   0.1506845680612065
7.8152482810382224   0.5474904784671224   0.1506845680612065
3.767366419155941   -0.6556632790457538   0.09050110625118168
3.767366419155941   -0.6556632790457538   0.09050110625118168
3.767366419155941   -0.6556632790457538   0.09050110625118168
3.767366419155941   -0.6556632790457538   0.09050110625118168
3.9764757686290553   -0.07423542425102292   0.14755539781363655
3.9764757686290553   -0.07423542425102292   0.14755539781363655
3.9764757686290553   -0.07423542425102292   0.14755539781363655
3.9764757686290553   -0.07423542425102292   0.14755539781363655
7.832914041736521   0.2178525498871382   -0.0008328551812331053
7.832914041736521   0.2178525498871382   -0.0008328551812331053
7.832914041736521   0.2178525498871382   -0.0008328551812331053
7.832914041736521   0.2178525498871382   -0.0008328551812331053
5.537060074420459   -0.05426416615943186   -0.17931614407898838
5.537060074420459   -0.05426416615943186   -0.17931614407898838
5.537060074420459   -0.05426416615943186   -0.17931614407898838
5.537060074420459   -0.05426416615943186   -0.17931614407898838
3.7863472964712375   0.09170243363359476   0.2864748269120228
3.7863472964712375   0.09170243363359476   0.2864748269120228
3.7863472964712375   0.09170243363359476   0.2864748269120228
3.7863472964712375   0.09170243363359476   0.2864748269120228
0.20888216231442436   -1.3490783017429682   0.14043598182051842
0.20888216231442436   -1.3490783017429682   0.14043598182051842
0.20888216231442436   -1.3490783017429682   0.14043598182051842
0.20888216231442436   -1.3490783017429682   0.14043598182051842
0.4701548212561757   -0.5687572587255121   0.13007180843909052
0.4701548212561757   -0.5687572587255121   0.13007180843909052
0.4701548212561757   -0.5687572587255121   0.13007180843909052
0.4701548212561757   -0.5687572587255121   0.13007180843909052
3.68867022445153   -0.6569936151365928   0.08707195773953091
3.68867022445153   -0.6569936151365928   0.08707195773953091
3.68867022445153   -0.6569936151365928   0.08707195773953091
3.68867022445153   -0.6569936151365928   0.08707195773953091
1.9720555553024406   -0.6077279392531368   -0.2270091674283713
1.9720555553024406   -0.6077279392531368   -0.2270091674283713
1.9720555553024406   -0.6077279392531368   -0.2270091674283713
1.9720555553024406   -0.6077279392531368   -0.2270091674283713
3.877337937190279   0.1344569866939883   0.23895991960273563
3.877337937190279   0.1344569866939883   0.23895991960273563
3.877337937190279   0.1344569866939883   0.23895991960273563
3.877337937190279   0.1344569866939883   0.23895991960273563
0.3312762860662065   -1.3104186830073452   0.1773405567710934
0.3312762860662065   -1.3104186830073452   0.1773405567710934
0.3312762860662065   -1.3104186830073452   0.1773405567710934
0.3312762860662065   -1.3104186830073452   0.1773405567710934
0.5754790805078303   -0.49096786441617635   0.09463150454812452
0.5754790805078303   -0.49096786441617635   0.09463150454812452
0.5754790805078303   -0.49096786441617635   0.09463150454812452
0.5754790805078303   -0.49096786441617635   0.09463150454812452
3.778698518019026   -0.6164942706459495   0.10799259216679863
3.778698518019026   -0.6164942706459495   0.10799259216679863
3.778698518019026   -0.6164942706459495   0.10799259216679863
3.778698518019026   -0.6164942706459495   0.10799259216679863
2.062006998967842   -0.5781390334049994   -0.11348057793781263
2.062006998967842   -0.5781390334049994   -0.11348057793781263
2.062006998967842   -0.5781390334049994   -0.11348057793781263
2.062006998967842   -0.5781390334049994   -0.11348057793781263
3.9621424339916915   0.2076517380398396   0.20106616334434252
3.9621424339916915   0.2076517380398396   0.20106616334434252
3.9621424339916915   0.2076517380398396   0.20106616334434252
3.9621424339916915   0.2076517380398396   0.20106616334434252
0.4399604489578475   -1.2671885886792777   0.1932590710613356
0.4399604489578475   -1.2671885886792777   0.1932590710613356
0.4399604489578475   -1.2671885886792777   0.1932590710613356
0.4399604489578475   -1.2671885886792777   0.1932590710613356
0.7369506683143106   -0.37423769104871796   0.06301230617720327
0.7369506683143106   -0.37423769104871796   0.06301230617720327
0.7369506683143106   -0.37423769104871796   0.06301230617720327
0.7369506683143106   -0.37423769104871796   0.06301230617720327
3.877381472440852   -0.5548235667464331   0.132672059368028
3.877381472440852   -0.5548235667464331   0.132672059368028
3.877381472440852   -0.5548235667464331   0.132672059368028
3.877381472440852   -0.5548235667464331   0.132672059368028
2.2187008965274293   -0.5061410159514796   0.018523317025649133
2.2187008965274293   -0.5061410159514796   0.018523317025649133
2.2187008965274293   -0.5061410159514796   0.018523317025649133
2.2187008965274293   -0.5061410159514796   0.018523317025649133
0.4351544432566886   -0.26175341649618683   0.1844725012850582
0.4351544432566886   -0.26175341649618683   0.1844725012850582
0.4351544432566886   -0.26175341649618683   0.1844725012850582
0.4351544432566886   -0.26175341649618683   0.1844725012850582
-3.200091024049516   -2.321442125266536   0.2020492447188002
-3.200091024049516   -2.321442125266536   0.2020492447188002
-3.200091024049516   -2.321442125266536   0.2020492447188002
-3.200091024049516   -2.321442125266536   0.2020492447188002
-2.7862900699689415   -0.9000451959577139   0.014662907565477279
-2.7862900699689415   -0.9000451959577139   0.014662907565477279
-2.7862900699689415   -0.9000451959577139   0.014662907565477279
-2.7862900699689415   -0.9000451959577139   0.014662907565477279
0.23316288524363837   -1.6989607642533753   0.07531563390428286
0.23316288524363837   -1.6989607642533753   0.07531563390428286
0.23316288524363837   -1.6989607642533753   0.07531563390428286
0.23316288524363837   -1.6989607642533753   0.07531563390428286
-1.3720153293152038   -1.3049307466455282   -0.2724754241404948
-1.3720153293152038   -1.3049307466455282   -0.2724754241404948
-1.3720153293152038   -1.3049307466455282   -0.2724754241404948
-1.3720153293152038   -1.3049307466455282   -0.2724754241404948
0.545438095307389   -0.20757163368467604   0.1453025536543363
0.545438095307389   -0.20757163368467604   0.1453025536543363
0.545438095307389   -0.20757163368467604   0.1453025536543363
0.545438095307389   -0.20757163368467604   0.1453025536543363
-3.0267382441814705   -2.3196072906751897   0.23198413122032135
-3.0267382441814705   -2.3196072906751897   0.23198413122032135
-3.0267382441814705   -2.3196072906751897   0.23198413122032135
-3.0267382441814705   -2.3196072906751897   0.23198413122032135
-2.626721248415868   -0.8079705254537712   0.0015431323915521822
-2.626721248415868   -0.8079705254537712   0.0015431323915521822
-2.626721248415868   -0.8079705254537712   0.0015431323915521822
-2.626721248415868   -0.8079705254537712   0.0015431323915521822
0.34412147018792344   -1.6625981180537213   0.10947370658615846
0.34412147018792344   -1.6625981180537213   0.10947370658615846
0.34412147018792344   -1.6625981180537213   0.10947370658615846
0.34412147018792344   -1.6625981180537213   0.10947370658615846
-1.2105982143298104   -1.261353999869852   -0.10218798725608114
-1.2105982143298104   -1.261353999869852   -0.10218798725608114
-1.2105982143298104   -1.261353999869852   -0.10218798725608114
-1.2105982143298104   -1.261353999869852   -0.10218798725608114
0.646255616222478   -0.13514542938614207   0.09269174809135192
0.646255616222478   -0.13514542938614207   0.09269174809135192
0.646255616222478   -0.13514542938614207   0.09269174809135192
0.646255616222478   -0.13514542938614207   0.09269174809135192
-2.8638163392171725   -2.270384158888133   0.2784813118194409
-2.8638163392171725   -2.270384158888133   0.2784813118194409
-2.8638163392171725   -2.270384158888133   0.2784813118194409
-2.8638163392171725   -2.270384158888133   0.2784813118194409
-2.363459702483862   -0.70181915979556   -0.028244985455069357
-2.363459702483862   -0.70181915979556   -0.028244985455069357
-2.363459702483862   -0.70181915979556   -0.028244985455069357
-2.363459702483862   -0.70181915979556   -0.028244985455069357
0.5173888942939856   -1.5593472773646408   0.1503130223914937
0.5173888942939856   -1.5593472773646408   0.1503130223914937
0.5173888942939856   -1.5593472773646408   0.1503130223914937
0.5173888942939856   -1.5593472773646408   0.1503130223914937
-1.0008935698134562   -1.1623183922675062   0.07663036258755301
-1.0008935698134562   -1.1623183922675062   0.07663036258755301
-1.0008935698134562   -1.1623183922675062   0.07663036258755301
-1.0008935698134562   -1.1623183922675062   0.07663036258755301
-2.8522569853721245   -0.46808437569765354   0.08786168853685276
-2.8522569853721245   -0.46808437569765354   0.08786168853685276
-2.8522569853721245   -0.46808437569765354   0.08786168853685276
-2.8522569853721245   -0.46808437569765354   0.08786168853685276
-7.13920266916147   -3.619503192734804   -0.17470578689048288
-7.13920266916147   -3.619503192734804   -0.17470578689048288
-7.13920266916147   -3.619503192734804   -0.17470578689048288
-7.13920266916147   -3.619503192734804   -0.17470578689048288
-6.455526683045948   -1.1711971642395715   -0.19794868754233264
-6.455526683045948   -1.1711971642395715   -0.19794868754233264
-6.455526683045948   -1.1711971642395715   -0.19794868754233264
-6.455526683045948   -1.1711971642395715   -0.19794868754233264
-3.2040752737684834   -3.033207606015217   0.058899298625270546
-3.2040752737684834   -3.033207606015217   0.058899298625270546
-3.2040752737684834   -3.033207606015217   0.058899298625270546
-3.2040752737684834   -3.033207606015217   0.058899298625270546
-4.907056620660066   -2.140512068309876   -0.2857802550178489
-4.907056620660066   -2.140512068309876   -0.2857802550178489
-4.907056620660066   -2.140512068309876   -0.2857802550178489
-4.907056620660066   -2.140512068309876   -0.2857802550178489
-2.6635764033662253   -0.3563168015590765   0.0845028461804197
-2.6635764033662253   -0.3563168015590765   0.0845028461804197
-2.6635764033662253   -0.3563168015590765   0.0845028461804197
-2.6635764033662253   -0.3563168015590765   0.0845028461804197
-6.9806697301928065   -3.832732145440313   -0.1621289420758879
-6.9806697301928065   -3.832732145440313   -0.1621289420758879
-6.9806697301928065   -3.832732145440313   -0.1621289420758879
-6.9806697301928065   -3.832732145440313   -0.1621289420758879
-6.243603743252388   -1.0606651765393096   -0.20148291481047162
-6.243603743252388   -1.0606651765393096   -0.20148291481047162
-6.243603743252388   -1.0606651765393096   -0.20148291481047162
-6.243603743252388   -1.0606651765393096   -0.20148291481047162
-3.0497179896205764   -3.010600616127722   0.08918951704198774
-3.0497179896205764   -3.010600616127722   0.08918951704198774
-3.0497179896205764   -3.010600616127722   0.08918951704198774
-3.0497179896205764   -3.010600616127722   0.08918951704198774
-4.685443970569003   -2.084095146107436   -0.2025338586994312
-4.685443970569003   -2.084095146107436   -0.2025338586994312
-4.685443970569003   -2.084095146107436   -0.2025338586994312
-4.685443970569003   -2.084095146107436   -0.2025338586994312
-2.5134944825387855   -0.26867121180821163   0.02837764813141555
-2.5134944825387855   -0.26867121180821163   0.02837764813141555
-2.5134944825387855   -0.26867121180821163   0.02837764813141555
-2.5134944825387855   -0.26867121180821163   0.02837764813141555
-6.780253001227785   -3.803020331752421   -0.1423740494743002
-6.780253001227785   -3.803020331752421   -0.1423740494743002
-6.780253001227785   -3.803020331752421   -0.1423740494743002
-6.780253001227785   -3.803020331752421   -0.1423740494743002
-5.9134685871823836   -0.9415819700835473   -0.22833208302070457
-5.9134685871823836   -0.9415819700835473   -0.22833208302070457
-5.9134685871823836   -0.9415819700835473   -0.22833208302070457
-5.9134685871823836   -0.9415819700835473   -0.22833208302070457
-2.715841115021553   -2.711770330312697   0.2197991223736503
-2.715841115021553   -2.711770330312697   0.2197991223736503
-2.715841115021553   -2.711770330312697   0.2197991223736503
-2.715841115021553   -2.711770330312697   0.2197991223736503
-4.437562675789295   -1.891735907242738   -0.11525210357903043
-4.437562675789295   -1.891735907242738   -0.11525210357903043
-4.437562675789295   -1.891735907242738   -0.11525210357903043
-4.437562675789295   -1.891735907242738   -0.11525210357903043
-6.469022408231303   -0.39741606270246366   -0.045891612271982074
-6.469022408231303   -0.39741606270246366   -0.045891612271982074
-6.469022408231303   -0.39741606270246366   -0.045891612271982074
-6.469022408231303   -0.39741606270246366   -0.045891612271982074
-11.436291410114997   -2.2639830278197985   0.11637627101600323
-11.436291410114997   -2.2639830278197985   0.11637627101600323
-11.436291410114997   -2.2639830278197985   0.11637627101600323
-11.436291410114997   -2.2639830278197985   0.11637627101600323
-10.983113616476883   -1.0954196681698216   -0.24320238297801283
-10.983113616476883   -1.0954196681698216   -0.24320238297801283
-10.983113616476883   -1.0954196681698216   -0.24320238297801283
-10.983113616476883   -1.0954196681698216   -0.24320238297801283
-6.319376295908182   -1.167961702000218   0.47956778590709215
-6.319376295908182   -1.167961702000218   0.47956778590709215
-6.319376295908182   -1.167961702000218   0.47956778590709215
-6.319376295908182   -1.167961702000218   0.47956778590709215
-8.44493464204941   -1.3148284702253474   0.12353992418283208
-8.44493464204941   -1.3148284702253474   0.12353992418283208
-8.44493464204941   -1.3148284702253474   0.12353992418283208
-8.44493464204941   -1.3148284702253474   0.12353992418283208
-6.19932656941367   -0.08970903240473871   0.001563748784189245
-6.19932656941367   -0.08970903240473871   0.001563748784189245
-6.19932656941367   -0.08970903240473871   0.001563748784189245
-6.19932656941367   -0.08970903240473871   0.001563748784189245
-11.146892158806194   -2.217401153600115   0.059886390805618195
-11.146892158806194   -2.217401153600115   0.059886390805618195
-11.146892158806194   -2.217401153600115   0.059886390805618195
-11.146892158806194   -2.217401153600115   0.059886390805618195
-10.731757775259526   -1.0034847400919902   -0.30859290017203045
-10.731757775259526   -1.0034847400919902   -0.30859290017203045
-10.731757775259526   -1.0034847400919902   -0.30859290017203045
-10.731757775259526   -1.0034847400919902   -0.30859290017203045
-6.101151407466396   -1.1085063033143625   0.5586198908945843
-6.101151407466396   -1.1085063033143625   0.5586198908945843
-6.101151407466396   -1.1085063033143625   0.5586198908945843
-6.101151407466396   -1.1085063033143625   0.5586198908945843
-8.310807172234549   -1.0821929918185251   0.11818064532449332
-8.310807172234549   -1.0821929918185251   0.11818064532449332
-8.310807172234549   -1.0821929918185251   0.11818064532449332
-8.310807172234549   -1.0821929918185251   0.11818064532449332
-6.004842521250809   -0.008376254603466249   -0.05996572673837214
-6.004842521250809   -0.008376254603466249   -0.05996572673837214
-6.004842521250809   -0.008376254603466249   -0.05996572673837214
-6.004842521250809   -0.008376254603466249   -0.05996572673837214
-10.844626910953451   -2.1201750382811984   0.24375171954745856
-10.844626910953451   -2.1201750382811984   0.24375171954745856
-10.844626910953451   -2.1201750382811984   0.24375171954745856
-10.844626910953451   -2.1201750382811984   0.24375171954745856
-10.209973014237827   -0.8112046762236775   -0.3442379162832311
-10.209973014237827   -0.8112046762236775   -0.3442379162832311
-10.209973014237827   -0.8112046762236775   -0.3442379162832311
-10.209973014237827   -0.8112046762236775   -0.3442379162832311
-5.762128469201231   -1.0292236553999445   0.6160101922015089
-5.762128469201231   -1.0292236553999445   0.6160101922015089
-5.762128469201231   -1.0292236553999445   0.6160101922015089
-5.762128469201231   -1.0292236553999445   0.6160101922015089
-7.808906107150639   -0.8268384322352236   0.23982332119686994
-7.808906107150639   -0.8268384322352236   0.23982332119686994
-7.808906107150639   -0.8268384322352236   0.23982332119686994
-7.808906107150639   -0.8268384322352236   0.23982332119686994
8.23550174170074   0.2655644757996305   0.11682569583718633
8.23550174170074   0.2655644757996305   0.11682569583718633
8.23550174170074   0.2655644757996305   0.11682569583718633
8.23550174170074   0.2655644757996305   0.11682569583718633
4.211575274881823   -0.21912676776632645   0.08773303205333632
4.211575274881823   -0.21912676776632645   0.08773303205333632
4.211575274881823   -0.21912676776632645   0.08773303205333632
4.211575274881823   -0.21912676776632645   0.08773303205333632
4.0449581257443   -0.5969747659111759   0.17033330784316503
4.0449581257443   -0.5969747659111759   0.17033330784316503
4.0449581257443   -0.5969747659111759   0.17033330784316503
4.0449581257443   -0.5969747659111759   0.17033330784316503
8.175454021683008   0.4609371856108897   0.06413689753158425
8.175454021683008   0.4609371856108897   0.06413689753158425
8.175454021683008   0.4609371856108897   0.06413689753158425
8.175454021683008   0.4609371856108897   0.06413689753158425
5.838160085236316   -0.0840375237935922   -0.21519797083496434
5.838160085236316   -0.0840375237935922   -0.21519797083496434
5.838160085236316   -0.0840375237935922   -0.21519797083496434
5.838160085236316   -0.0840375237935922   -0.21519797083496434
8.129119069686482   0.20372552161716273   0.08967380154267701
8.129119069686482   0.20372552161716273   0.08967380154267701
8.129119069686482   0.20372552161716273   0.08967380154267701
8.129119069686482   0.20372552161716273   0.08967380154267701
4.077543112946687   -0.353513066711588   0.08979654465551556
4.077543112946687   -0.353513066711588   0.08979654465551556
4.077543112946687   -0.353513066711588   0.08979654465551556
4.077543112946687   -0.353513066711588   0.08979654465551556
3.9390511299288917   -0.6112022545893825   0.1411215177600883
3.9390511299288917   -0.6112022545893825   0.1411215177600883
3.9390511299288917   -0.6112022545893825   0.1411215177600883
3.9390511299288917   -0.6112022545893825   0.1411215177600883
8.078393106684382   0.44046037421634665   0.1098492739409962
8.078393106684382   0.44046037421634665   0.1098492739409962
8.078393106684382   0.44046037421634665   0.1098492739409962
8.078393106684382   0.44046037421634665   0.1098492739409962
5.81917354489904   -0.11601081964284643   -0.250139874701721
5.81917354489904   -0.11601081964284643   -0.250139874701721
5.81917354489904   -0.11601081964284643   -0.250139874701721
5.81917354489904   -0.11601081964284643   -0.250139874701721
8.009750486271827   0.18011051862173622   0.026986027472747587
8.009750486271827   0.18011051862173622   0.026986027472747587
8.009750486271827   0.18011051862173622   0.026986027472747587
8.009750486271827   0.18011051862173622   0.026986027472747587
3.983145240439849   -0.3754009088963841   0.12579072462187668
3.983145240439849   -0.3754009088963841   0.12579072462187668
3.983145240439849   -0.3754009088963841   0.12579072462187668
3.983145240439849   -0.3754009088963841   0.12579072462187668
3.8271162649885104   -0.5587746751883832   0.12182879618916964
3.8271162649885104   -0.5587746751883832   0.12182879618916964
3.8271162649885104   -0.5587746751883832   0.12182879618916964
3.8271162649885104   -0.5587746751883832   0.12182879618916964
7.928590344606996   0.44400424498509783   0.15706053117140534
7.928590344606996   0.44400424498509783   0.15706053117140534
7.928590344606996   0.44400424498509783   0.15706053117140534
7.928590344606996   0.44400424498509783   0.15706053117140534
5.599018109274158   -0.11746097798049115   -0.3386483113171337
5.599018109274158   -0.11746097798049115   -0.3386483113171337
5.599018109274158   -0.11746097798049115   -0.3386483113171337
5.599018109274158   -0.11746097798049115   -0.3386483113171337
4.170336331501185   -0.5436602956607952   0.20607184304462145
4.170336331501185   -0.5436602956607952   0.20607184304462145
4.170336331501185   -0.5436602956607952   0.20607184304462145
4.170336331501185   -0.5436602956607952   0.20607184304462145
0.8257155423545826   -0.49693039950036777   0.046070100335087155
0.8257155423545826   -0.49693039950036777   0.046070100335087155
0.8257155423545826   -0.49693039950036777   0.046070100335087155
0.8257155423545826   -0.49693039950036777   0.046070100335087155
0.5385659273745702   -1.2595741531913154   0.22427356454287817
0.5385659273745702   -1.2595741531913154   0.22427356454287817
0.5385659273745702   -1.2595741531913154   0.22427356454287817
0.5385659273745702   -1.2595741531913154   0.22427356454287817
4.193918587628668   0.15844483599821668   0.15971601535561408
4.193918587628668   0.15844483599821668   0.15971601535561408
4.193918587628668   0.15844483599821668   0.15971601535561408
4.193918587628668   0.15844483599821668   0.15971601535561408
2.3948266777080764   -0.5375413493380083   -0.008877357562382338
2.3948266777080764   -0.5375413493380083   -0.008877357562382338
2.3948266777080764   -0.5375413493380083   -0.008877357562382338
2.3948266777080764   -0.5375413493380083   -0.008877357562382338
4.051265377930279   -0.5674250128469809   0.17231981570884292
4.051265377930279   -0.5674250128469809   0.17231981570884292
4.051265377930279   -0.5674250128469809   0.17231981570884292
4.051265377930279   -0.5674250128469809   0.17231981570884292
0.645227792527509   -0.5696956488915722   0.06770438600782858
0.645227792527509   -0.5696956488915722   0.06770438600782858
0.645227792527509   -0.5696956488915722   0.06770438600782858
0.645227792527509   -0.5696956488915722   0.06770438600782858
0.41021108543546453   -1.271612525986186   0.20088874804917684
0.41021108543546453   -1.271612525986186   0.20088874804917684
0.41021108543546453   -1.271612525986186   0.20088874804917684
0.41021108543546453   -1.271612525986186   0.20088874804917684
4.09621965719391   0.1262728605404334   0.18948903895536431
4.09621965719391   0.1262728605404334   0.18948903895536431
4.09621965719391   0.1262728605404334   0.18948903895536431
4.09621965719391   0.1262728605404334   0.18948903895536431
2.220748250165972   -0.5731857461235473   -0.11560634260973246
2.220748250165972   -0.5731857461235473   -0.11560634260973246
2.220748250165972   -0.5731857461235473   -0.11560634260973246
2.220748250165972   -0.5731857461235473   -0.11560634260973246
3.9462769707569616   -0.5761395042245986   0.14218797153561685
3.9462769707569616   -0.5761395042245986   0.14218797153561685
3.9462769707569616   -0.5761395042245986   0.14218797153561685
3.9462769707569616   -0.5761395042245986   0.14218797153561685
0.5210711800251083   -0.6082827530684648   0.09185944807967458
0.5210711800251083   -0.6082827530684648   0.09185944807967458
0.5210711800251083   -0.6082827530684648   0.09185944807967458
0.5210711800251083   -0.6082827530684648   0.09185944807967458
0.2665135696533835   -1.2720104964482006   0.15760531364665825
0.2665135696533835   -1.2720104964482006   0.15760531364665825
0.2665135696533835   -1.2720104964482006   0.15760531364665825
0.2665135696533835   -1.2720104964482006   0.15760531364665825
3.985343814360444   0.12740103889601007   0.2267908289644745
3.985343814360444   0.12740103889601007   0.2267908289644745
3.985343814360444   0.12740103889601007   0.2267908289644745
3.985343814360444   0.12740103889601007   0.2267908289644745
2.113930421276754   -0.569623369556141   -0.20660609839925814
2.113930421276754   -0.569623369556141   -0.20660609839925814
2.113930421276754   -0.569623369556141   -0.20660609839925814
2.113930421276754   -0.569623369556141   -0.20660609839925814
0.641719958071221   -1.5563811849188052   0.1855429643367164
0.641719958071221   -1.5563811849188052   0.1855429643367164
0.641719958071221   -1.5563811849188052   0.1855429643367164
0.641719958071221   -1.5563811849188052   0.1855429643367164
-2.4281295345471623   -0.7733875477433712   0.004413849990369173
-2.4281295345471623   -0.7733875477433712   0.004413849990369173
-2.4281295345471623   -0.7733875477433712   0.004413849990369173
-2.4281295345471623   -0.7733875477433712   0.004413849990369173
-2.947645197243959   -2.2987709796928204   0.25707263919465473
-2.947645197243959   -2.2987709796928204   0.25707263919465473
-2.947645197243959   -2.2987709796928204   0.25707263919465473
-2.947645197243959   -2.2987709796928204   0.25707263919465473
0.7382839540008284   -0.13723359840130098   0.10052314288414661
0.7382839540008284   -0.13723359840130098   0.10052314288414661
0.7382839540008284   -0.13723359840130098   0.10052314288414661
0.7382839540008284   -0.13723359840130098   0.10052314288414661
-0.9852658138067754   -1.174722502829131   0.04380738541068735
-0.9852658138067754   -1.174722502829131   0.04380738541068735
-0.9852658138067754   -1.174722502829131   0.04380738541068735
-0.9852658138067754   -1.174722502829131   0.04380738541068735
0.44306020791483036   -1.6455085530745175   0.1326793671273806
0.44306020791483036   -1.6455085530745175   0.1326793671273806
0.44306020791483036   -1.6455085530745175   0.1326793671273806
0.44306020791483036   -1.6455085530745175   0.1326793671273806
-2.7026365646962214   -0.8407111385578672   0.02405596079836507
-2.7026365646962214   -0.8407111385578672   0.02405596079836507
-2.7026365646962214   -0.8407111385578672   0.02405596079836507
-2.7026365646962214   -0.8407111385578672   0.02405596079836507
-3.1267033737643644   -2.336953453618441   0.20852187271509237
-3.1267033737643644   -2.336953453618441   0.20852187271509237
-3.1267033737643644   -2.336953453618441   0.20852187271509237
-3.1267033737643644   -2.336953453618441   0.20852187271509237
0.6180823445596703   -0.17298492375713007   0.14161744144114924
0.6180823445596703   -0.17298492375713007   0.14161744144114924
0.6180823445596703   -0.17298492375713007   0.14161744144114924
0.6180823445596703   -0.17298492375713007   0.14161744144114924
-1.2088712339178624   -1.246867750813056   -0.10572995257719203
-1.2088712339178624   -1.246867750813056   -0.10572995257719203
-1.2088712339178624   -1.246867750813056   -0.10572995257719203
-1.2088712339178624   -1.246867750813056   -0.10572995257719203
0.30633636380237234   -1.675057798223795   0.08496041212134015
0.30633636380237234   -1.675057798223795   0.08496041212134015
0.30633636380237234   -1.675057798223795   0.08496041212134015
0.30633636380237234   -1.675057798223795   0.08496041212134015
-2.874459222075199   -0.8943824082198694   0.027171585762321898
-2.874459222075199   -0.8943824082198694   0.027171585762321898
-2.874459222075199   -0.8943824082198694   0.027171585762321898
-2.874459222075199   -0.8943824082198694   0.027171585762321898
-3.3204328754300594   -2.3215909047050527   0.17691665541347956
-3.3204328754300594   -2.3215909047050527   0.17691665541347956
-3.3204328754300594   -2.3215909047050527   0.17691665541347956
-3.3204328754300594   -2.3215909047050527   0.17691665541347956
0.4842660355781276   -0.1931648524848307   0.16752199930700828
0.4842660355781276   -0.1931648524848307   0.16752199930700828
0.4842660355781276   -0.1931648524848307   0.16752199930700828
0.4842660355781276   -0.1931648524848307   0.16752199930700828
-1.3900472467221316   -1.274588430700072   -0.25461258343811477
-1.3900472467221316   -1.274588430700072   -0.25461258343811477
-1.3900472467221316   -1.274588430700072   -0.25461258343811477
-1.3900472467221316   -1.274588430700072   -0.25461258343811477
-2.7632513352579613   -2.665240257364502   0.22065755605751802
-2.7632513352579613   -2.665240257364502   0.22065755605751802
-2.7632513352579613   -2.665240257364502   0.22065755605751802
-2.7632513352579613   -2.665240257364502   0.22065755605751802
-6.135656163675232   -0.9635830500604243   -0.14329928632123518
-6.135656163675232   -0.9635830500604243   -0.14329928632123518
-6.135656163675232   -0.9635830500604243   -0.14329928632123518
-6.135656163675232   -0.9635830500604243   -0.14329928632123518
-7.042869001188967   -3.8531811397647626   -0.20217464270197383
-7.042869001188967   -3.8531811397647626   -0.20217464270197383
-7.042869001188967   -3.8531811397647626   -0.20217464270197383
-7.042869001188967   -3.8531811397647626   -0.20217464270197383
-2.5664988862250606   -0.22282022883930036   0.08685344343560365
-2.5664988862250606   -0.22282022883930036   0.08685344343560365
-2.5664988862250606   -0.22282022883930036   0.08685344343560365
-2.5664988862250606   -0.22282022883930036   0.08685344343560365
-4.583163914891097   -1.8527551361562415   -0.16267827291341858
-4.583163914891097   -1.8527551361562415   -0.16267827291341858
-4.583163914891097   -1.8527551361562415   -0.16267827291341858
-4.583163914891097   -1.8527551361562415   -0.16267827291341858
-3.127817024825618   -3.0152060930274915   0.07264861462103145
-3.127817024825618   -3.0152060930274915   0.07264861462103145
-3.127817024825618   -3.0152060930274915   0.07264861462103145
-3.127817024825618   -3.0152060930274915   0.07264861462103145
-6.46662121448514   -1.0458656274733387   -0.12825122147426246
-6.46662121448514   -1.0458656274733387   -0.12825122147426246
-6.46662121448514   -1.0458656274733387   -0.12825122147426246
-6.46662121448514   -1.0458656274733387   -0.12825122147426246
-7.255546988363432   -3.9163707418844593   -0.2338321129988421
-7.255546988363432   -3.9163707418844593   -0.2338321129988421
-7.255546988363432   -3.9163707418844593   -0.2338321129988421
-7.255546988363432   -3.9163707418844593   -0.2338321129988421
-2.731192599396705   -0.2811372421957646   0.130259533130689
-2.731192599396705   -0.2811372421957646   0.130259533130689
-2.731192599396705   -0.2811372421957646   0.130259533130689
-2.731192599396705   -0.2811372421957646   0.130259533130689
-4.842723347363881   -2.051386219245999   -0.22744300944001045
-4.842723347363881   -2.051386219245999   -0.22744300944001045
-4.842723347363881   -2.051386219245999   -0.22744300944001045
-4.842723347363881   -2.051386219245999   -0.22744300944001045
-3.310344927918405   -3.0749098146086684   0.028270462935084062
-3.310344927918405   -3.0749098146086684   0.028270462935084062
-3.310344927918405   -3.0749098146086684   0.028270462935084062
-3.310344927918405   -3.0749098146086684   0.028270462935084062
-6.67638646977017   -1.122589979400003   -0.1318102825170378
-6.67638646977017   -1.122589979400003   -0.1318102825170378
-6.67638646977017   -1.122589979400003   -0.1318102825170378
-6.67638646977017   -1.122589979400003   -0.1318102825170378
-7.437315351265443   -3.752772388190078   -0.2637369307693631
-7.437315351265443   -3.752772388190078   -0.2637369307693631
-7.437315351265443   -3.752772388190078   -0.2637369307693631
-7.437315351265443   -3.752772388190078   -0.2637369307693631
-2.9401157601058143   -0.36333786039213856   0.1202491877217435
-2.9401157601058143   -0.36333786039213856   0.1202491877217435
-2.9401157601058143   -0.36333786039213856   0.1202491877217435
-2.9401157601058143   -0.36333786039213856   0.1202491877217435
-5.0810460192703415   -2.119637753150864   -0.2887431084734871
-5.0810460192703415   -2.119637753150864   -0.2887431084734871
-5.0810460192703415   -2.119637753150864   -0.2887431084734871
-5.0810460192703415   -2.119637753150864   -0.2887431084734871
-6.022245388918539   -1.093678975252808   0.5538505126544995
-6.022245388918539   -1.093678975252808   0.5538505126544995
-6.022245388918539   -1.093678975252808   0.5538505126544995
-6.022245388918539   -1.093678975252808   0.5538505126544995
-10.635915567867402   -0.7995086836872447   -0.19229780920110667
-10.635915567867402   -0.7995086836872447   -0.19229780920110667
-10.635915567867402   -0.7995086836872447   -0.19229780920110667
-10.635915567867402   -0.7995086836872447   -0.19229780920110667
-11.292249190379293   -2.227972472885873   0.15238682594992925
-11.292249190379293   -2.227972472885873   0.15238682594992925
-11.292249190379293   -2.227972472885873   0.15238682594992925
-11.292249190379293   -2.227972472885873   0.15238682594992925
-6.20392053823994   0.08635173625036163   0.05303479602797723
-6.20392053823994   0.08635173625036163   0.05303479602797723
-6.20392053823994   0.08635173625036163   0.05303479602797723
-6.20392053823994   0.08635173625036163   0.05303479602797723
-8.13188703765649   -0.782879575082034   0.16418951587210875
-8.13188703765649   -0.782879575082034   0.16418951587210875
-8.13188703765649   -0.782879575082034   0.16418951587210875
-8.13188703765649   -0.782879575082034   0.16418951587210875
-6.368511096036579   -1.175346225456909   0.4917799687520352
-6.368511096036579   -1.175346225456909   0.4917799687520352
-6.368511096036579   -1.175346225456909   0.4917799687520352
-6.368511096036579   -1.175346225456909   0.4917799687520352
-11.098335290940323   -0.9369511695362571   -0.16906498020473426
-11.098335290940323   -0.9369511695362571   -0.16906498020473426
-11.098335290940323   -0.9369511695362571   -0.16906498020473426
-11.098335290940323   -0.9369511695362571   -0.16906498020473426
-11.572820667460434   -2.323883280763675   -0.046595736357941675
-11.572820667460434   -2.323883280763675   -0.046595736357941675
-11.572820667460434   -2.323883280763675   -0.046595736357941675
-11.572820667460434   -2.323883280763675   -0.046595736357941675
-6.401599692068315   0.021339515073729443   0.0981941115185131
-6.401599692068315   0.021339515073729443   0.0981941115185131
-6.401599692068315   0.021339515073729443   0.0981941115185131
-6.401599692068315   0.021339515073729443   0.0981941115185131
-8.62323953186599   -1.0346272065826025   0.06835150568632184
-8.62323953186599   -1.0346272065826025   0.06835150568632184
-8.62323953186599   -1.0346272065826025   0.06835150568632184
-8.62323953186599   -1.0346272065826025   0.06835150568632184
-6.591040292340363   -1.2364516111847281   0.40878223641672284
-6.591040292340363   -1.2364516111847281   0.40878223641672284
-6.591040292340363   -1.2364516111847281   0.40878223641672284
-6.591040292340363   -1.2364516111847281   0.40878223641672284
-11.325144917732368   -1.0078570050491287   -0.12424326343197012
-11.325144917732368   -1.0078570050491287   -0.12424326343197012
-11.325144917732368   -1.0078570050491287   -0.12424326343197012
-11.325144917732368   -1.0078570050491287   -0.12424326343197012
-11.818998108602866   -2.363767837693552   0.00015892013510487857
-11.818998108602866   -2.363767837693552   0.00015892013510487857
-11.818998108602866   -2.363767837693552   0.00015892013510487857
-11.818998108602866   -2.363767837693552   0.00015892013510487857
-6.678769174332686   -0.2633413389550978   0.03956290465944334
-6.678769174332686   -0.2633413389550978   0.03956290465944334
-6.678769174332686   -0.2633413389550978   0.03956290465944334
-6.678769174332686   -0.2633413389550978   0.03956290465944334
-8.73162426237331   -1.2513686335830925   0.10814954320563597
-8.73162426237331   -1.2513686335830925   0.10814954320563597
-8.73162426237331   -1.2513686335830925   0.10814954320563597
-8.73162426237331   -1.2513686335830925   0.10814954320563597
7.1945188350144385   0.3281956484006445   -0.15859844724417999
7.1945188350144385   0.3281956484006445   -0.15859844724417999
7.1945188350144385   0.3281956484006445   -0.15859844724417999
7.1945188350144385   0.3281956484006445   -0.15859844724417999
3.6266745700015877   -0.06968511563598534   0.07900449239942187
3.6266745700015877   -0.06968511563598534   0.07900449239942187
3.6266745700015877   -0.06968511563598534   0.07900449239942187
3.6266745700015877   -0.06968511563598534   0.07900449239942187
3.393113209722396   -0.5362345435131315   -0.13938093612791003
3.393113209722396   -0.5362345435131315   -0.13938093612791003
3.393113209722396   -0.5362345435131315   -0.13938093612791003
3.393113209722396   -0.5362345435131315   -0.13938093612791003
7.110427112279981   0.5208096978338361   0.09243490140670163
7.110427112279981   0.5208096978338361   0.09243490140670163
7.110427112279981   0.5208096978338361   0.09243490140670163
7.110427112279981   0.5208096978338361   0.09243490140670163
5.051698923614593   0.012326030740114291   -0.19522351686434186
5.051698923614593   0.012326030740114291   -0.19522351686434186
5.051698923614593   0.012326030740114291   -0.19522351686434186
5.051698923614593   0.012326030740114291   -0.19522351686434186
6.991725097015629   0.1794257714623877   -0.15969124854354788
6.991725097015629   0.1794257714623877   -0.15969124854354788
6.991725097015629   0.1794257714623877   -0.15969124854354788
6.991725097015629   0.1794257714623877   -0.15969124854354788
3.505141855273153   -0.20152398685527106   0.08605173496799357
3.505141855273153   -0.20152398685527106   0.08605173496799357
3.505141855273153   -0.20152398685527106   0.08605173496799357
3.505141855273153   -0.20152398685527106   0.08605173496799357
3.267474523664785   -0.5666626136952422   -0.1148470825975958
3.267474523664785   -0.5666626136952422   -0.1148470825975958
3.267474523664785   -0.5666626136952422   -0.1148470825975958
3.267474523664785   -0.5666626136952422   -0.1148470825975958
6.935656107682059   0.4778832454610007   0.13449672591804118
6.935656107682059   0.4778832454610007   0.13449672591804118
6.935656107682059   0.4778832454610007   0.13449672591804118
6.935656107682059   0.4778832454610007   0.13449672591804118
4.981783090477825   -0.0514680530728755   -0.23397756573874723
4.981783090477825   -0.0514680530728755   -0.23397756573874723
4.981783090477825   -0.0514680530728755   -0.23397756573874723
4.981783090477825   -0.0514680530728755   -0.23397756573874723
6.816131656935906   0.14082481084009046   -0.12606709319180798
6.816131656935906   0.14082481084009046   -0.12606709319180798
6.816131656935906   0.14082481084009046   -0.12606709319180798
6.816131656935906   0.14082481084009046   -0.12606709319180798
3.3778358036509903   -0.2387673498343189   0.10906405347251058
3.3778358036509903   -0.2387673498343189   0.10906405347251058
3.3778358036509903   -0.2387673498343189   0.10906405347251058
3.3778358036509903   -0.2387673498343189   0.10906405347251058
3.1456048995866013   -0.5597212318825111   -0.07858140814599823
3.1456048995866013   -0.5597212318825111   -0.07858140814599823
3.1456048995866013   -0.5597212318825111   -0.07858140814599823
3.1456048995866013   -0.5597212318825111   -0.07858140814599823
6.719083901995931   0.44762123170598334   0.1744065256383564
6.719083901995931   0.44762123170598334   0.1744065256383564
6.719083901995931   0.44762123170598334   0.1744065256383564
6.719083901995931   0.44762123170598334   0.1744065256383564
4.733143959999268   -0.09006394408719032   -0.3079182774052022
4.733143959999268   -0.09006394408719032   -0.3079182774052022
4.733143959999268   -0.09006394408719032   -0.3079182774052022
4.733143959999268   -0.09006394408719032   -0.3079182774052022
3.643666272552114   0.0635844203128143   0.030693469203221274
3.643666272552114   0.0635844203128143   0.030693469203221274
3.643666272552114   0.0635844203128143   0.030693469203221274
3.643666272552114   0.0635844203128143   0.030693469203221274
0.3606106471014591   -0.2164346728320578   -0.0071711525725422776
0.3606106471014591   -0.2164346728320578   -0.0071711525725422776
0.3606106471014591   -0.2164346728320578   -0.0071711525725422776
0.3606106471014591   -0.2164346728320578   -0.0071711525725422776
0.14055217321002111   -0.7109239048702454   -0.13376127456780373
0.14055217321002111   -0.7109239048702454   -0.13376127456780373
0.14055217321002111   -0.7109239048702454   -0.13376127456780373
0.14055217321002111   -0.7109239048702454   -0.13376127456780373
3.648528278842186   0.4201230072192915   0.18133685873859692
3.648528278842186   0.4201230072192915   0.18133685873859692
3.648528278842186   0.4201230072192915   0.18133685873859692
3.648528278842186   0.4201230072192915   0.18133685873859692
1.9125645340372937   -0.10144398495610985   -0.07660015080066332
1.9125645340372937   -0.10144398495610985   -0.07660015080066332
1.9125645340372937   -0.10144398495610985   -0.07660015080066332
1.9125645340372937   -0.10144398495610985   -0.07660015080066332
3.5404593537256206   0.006694028517874151   0.05442121185719462
3.5404593537256206   0.006694028517874151   0.05442121185719462
3.5404593537256206   0.006694028517874151   0.05442121185719462
3.5404593537256206   0.006694028517874151   0.05442121185719462
0.2526494383415444   -0.2934665861538689   0.009267732373436324
0.2526494383415444   -0.2934665861538689   0.009267732373436324
0.2526494383415444   -0.2934665861538689   0.009267732373436324
0.2526494383415444   -0.2934665861538689   0.009267732373436324
0.019417041631078324   -0.7455095804602442   -0.09262055048519195
0.019417041631078324   -0.7455095804602442   -0.09262055048519195
0.019417041631078324   -0.7455095804602442   -0.09262055048519195
0.019417041631078324   -0.7455095804602442   -0.09262055048519195
3.5155054446033747   0.35851304849584875   0.20013185990426186
3.5155054446033747   0.35851304849584875   0.20013185990426186
3.5155054446033747   0.35851304849584875   0.20013185990426186
3.5155054446033747   0.35851304849584875   0.20013185990426186
1.773506533913128   -0.1579948798913055   -0.10847091778560983
1.773506533913128   -0.1579948798913055   -0.10847091778560983
1.773506533913128   -0.1579948798913055   -0.10847091778560983
1.773506533913128   -0.1579948798913055   -0.10847091778560983
3.4134663420325415   -0.03207144264476458   0.08052083819074232
3.4134663420325415   -0.03207144264476458   0.08052083819074232
3.4134663420325415   -0.03207144264476458   0.08052083819074232
3.4134663420325415   -0.03207144264476458   0.08052083819074232
0.12083782698713325   -0.35554340653440347   0.02451720236924193
0.12083782698713325   -0.35554340653440347   0.02451720236924193
0.12083782698713325   -0.35554340653440347   0.02451720236924193
0.12083782698713325   -0.35554340653440347   0.02451720236924193
-0.11073774666343046   -0.7497318712817478   -0.0627921609006867
-0.11073774666343046   -0.7497318712817478   -0.0627921609006867
-0.11073774666343046   -0.7497318712817478   -0.0627921609006867
-0.11073774666343046   -0.7497318712817478   -0.0627921609006867
3.3813111072624227   0.31892984515746103   0.2212985531931546
3.3813111072624227   0.31892984515746103   0.2212985531931546
3.3813111072624227   0.31892984515746103   0.2212985531931546
3.3813111072624227   0.31892984515746103   0.2212985531931546
1.6640779399895635   -0.1811057041880555   -0.1360917724162621
1.6640779399895635   -0.1811057041880555   -0.1360917724162621
1.6640779399895635   -0.1811057041880555   -0.1360917724162621
1.6640779399895635   -0.1811057041880555   -0.1360917724162621
0.36472108601715303   -0.21359243316150794   0.010538802335370134
0.36472108601715303   -0.21359243316150794   0.010538802335370134
0.36472108601715303   -0.21359243316150794   0.010538802335370134
0.36472108601715303   -0.21359243316150794   0.010538802335370134
-2.7952493646694347   -0.32372936429309734   -0.08814351496866578
-2.7952493646694347   -0.32372936429309734   -0.08814351496866578
-2.7952493646694347   -0.32372936429309734   -0.08814351496866578
-2.7952493646694347   -0.32372936429309734   -0.08814351496866578
-3.0398821332701806   -0.943357579659837   -0.1519306761375247
-3.0398821332701806   -0.943357579659837   -0.1519306761375247
-3.0398821332701806   -0.943357579659837   -0.1519306761375247
-3.0398821332701806   -0.943357579659837   -0.1519306761375247
0.3915615495409153   0.306713116445551   0.10364858577087072
0.3915615495409153   0.306713116445551   0.10364858577087072
0.3915615495409153   0.306713116445551   0.10364858577087072
0.3915615495409153   0.306713116445551   0.10364858577087072
-1.2736086533250777   -0.279397356507209   -0.07627215841269784
-1.2736086533250777   -0.279397356507209   -0.07627215841269784
-1.2736086533250777   -0.279397356507209   -0.07627215841269784
-1.2736086533250777   -0.279397356507209   -0.07627215841269784
0.27376660441468587   -0.23830358464858659   0.05969056123386106
0.27376660441468587   -0.23830358464858659   0.05969056123386106
0.27376660441468587   -0.23830358464858659   0.05969056123386106
0.27376660441468587   -0.23830358464858659   0.05969056123386106
-2.9131356014908287   -0.3893892919125772   -0.07216630498802606
-2.9131356014908287   -0.3893892919125772   -0.07216630498802606
-2.9131356014908287   -0.3893892919125772   -0.07216630498802606
-2.9131356014908287   -0.3893892919125772   -0.07216630498802606
-3.1820237767793786   -0.9813182157234462   -0.09994289705138218
-3.1820237767793786   -0.9813182157234462   -0.09994289705138218
-3.1820237767793786   -0.9813182157234462   -0.09994289705138218
-3.1820237767793786   -0.9813182157234462   -0.09994289705138218
0.2586453032360069   0.24070912874675332   0.11730204833245325
0.2586453032360069   0.24070912874675332   0.11730204833245325
0.2586453032360069   0.24070912874675332   0.11730204833245325
0.2586453032360069   0.24070912874675332   0.11730204833245325
-1.3911140057602216   -0.3189158487217298   -0.09156407136701075
-1.3911140057602216   -0.3189158487217298   -0.09156407136701075
-1.3911140057602216   -0.3189158487217298   -0.09156407136701075
-1.3911140057602216   -0.3189158487217298   -0.09156407136701075
0.1479303202810317   -0.2787096370335179   0.08314589933784863
0.1479303202810317   -0.2787096370335179   0.08314589933784863
0.1479303202810317   -0.2787096370335179   0.08314589933784863
0.1479303202810317   -0.2787096370335179   0.08314589933784863
-3.0694763898859003   -0.4600670460046763   -0.05845713230278771
-3.0694763898859003   -0.4600670460046763   -0.05845713230278771
-3.0694763898859003   -0.4600670460046763   -0.05845713230278771
-3.0694763898859003   -0.4600670460046763   -0.05845713230278771
-3.339837251877756   -1.009266059946096   -0.08888075054343485
-3.339837251877756   -1.009266059946096   -0.08888075054343485
-3.339837251877756   -1.009266059946096   -0.08888075054343485
-3.339837251877756   -1.009266059946096   -0.08888075054343485
0.11488974224533668   0.18431428802803154   0.13129912433336963
0.11488974224533668   0.18431428802803154   0.13129912433336963
0.11488974224533668   0.18431428802803154   0.13129912433336963
0.11488974224533668   0.18431428802803154   0.13129912433336963
-1.5438832388546055   -0.36624052264509   -0.12828452568126333
-1.5438832388546055   -0.36624052264509   -0.12828452568126333
-1.5438832388546055   -0.36624052264509   -0.12828452568126333
-1.5438832388546055   -0.36624052264509   -0.12828452568126333
-2.754048291355822   -0.2498126007258677   0.04394508803213788
-2.754048291355822   -0.2498126007258677   0.04394508803213788
-2.754048291355822   -0.2498126007258677   0.04394508803213788
-2.754048291355822   -0.2498126007258677   0.04394508803213788
-5.872053946689141   -0.3786860417366641   -0.15604429954393903
-5.872053946689141   -0.3786860417366641   -0.15604429954393903
-5.872053946689141   -0.3786860417366641   -0.15604429954393903
-5.872053946689141   -0.3786860417366641   -0.15604429954393903
-6.150433000861634   -0.987172238753199   -0.15097249149707057
-6.150433000861634   -0.987172238753199   -0.15097249149707057
-6.150433000861634   -0.987172238753199   -0.15097249149707057
-6.150433000861634   -0.987172238753199   -0.15097249149707057
-2.768413091416873   0.23340611744054351   0.028650836028574767
-2.768413091416873   0.23340611744054351   0.028650836028574767
-2.768413091416873   0.23340611744054351   0.028650836028574767
-2.768413091416873   0.23340611744054351   0.028650836028574767
-4.349941370007243   -0.3295171572900175   -0.06456948214681096
-4.349941370007243   -0.3295171572900175   -0.06456948214681096
-4.349941370007243   -0.3295171572900175   -0.06456948214681096
-4.349941370007243   -0.3295171572900175   -0.06456948214681096
-2.854850990909733   -0.2765732060519885   0.10644066205683546
-2.854850990909733   -0.2765732060519885   0.10644066205683546
-2.854850990909733   -0.2765732060519885   0.10644066205683546
-2.854850990909733   -0.2765732060519885   0.10644066205683546
-6.046335935417432   -0.45953374930928725   -0.1581256537200192
-6.046335935417432   -0.45953374930928725   -0.1581256537200192
-6.046335935417432   -0.45953374930928725   -0.1581256537200192
-6.046335935417432   -0.45953374930928725   -0.1581256537200192
-6.34730509384182   -1.0515152313344913   -0.10551791811782925
-6.34730509384182   -1.0515152313344913   -0.10551791811782925
-6.34730509384182   -1.0515152313344913   -0.10551791811782925
-6.34730509384182   -1.0515152313344913   -0.10551791811782925
-2.9264918647379785   0.16113178890590363   0.0352666585262402
-2.9264918647379785   0.16113178890590363   0.0352666585262402
-2.9264918647379785   0.16113178890590363   0.0352666585262402
-2.9264918647379785   0.16113178890590363   0.0352666585262402
-4.475013295728619   -0.3655124366100778   -0.06499642444271056
-4.475013295728619   -0.3655124366100778   -0.06499642444271056
-4.475013295728619   -0.3655124366100778   -0.06499642444271056
-4.475013295728619   -0.3655124366100778   -0.06499642444271056
-3.0119713705607896   -0.3412872661592539   0.11028818447732695
-3.0119713705607896   -0.3412872661592539   0.11028818447732695
-3.0119713705607896   -0.3412872661592539   0.11028818447732695
-3.0119713705607896   -0.3412872661592539   0.11028818447732695
-6.250012078992962   -0.537282667243289   -0.13328540796473878
-6.250012078992962   -0.537282667243289   -0.13328540796473878
-6.250012078992962   -0.537282667243289   -0.13328540796473878
-6.250012078992962   -0.537282667243289   -0.13328540796473878
-6.570262939274528   -1.1360735936226687   -0.11328229926243918
-6.570262939274528   -1.1360735936226687   -0.11328229926243918
-6.570262939274528   -1.1360735936226687   -0.11328229926243918
-6.570262939274528   -1.1360735936226687   -0.11328229926243918
-3.0972909915831353   0.07215927868735073   0.04242521229617072
-3.0972909915831353   0.07215927868735073   0.04242521229617072
-3.0972909915831353   0.07215927868735073   0.04242521229617072
-3.0972909915831353   0.07215927868735073   0.04242521229617072
-4.695316322183119   -0.4517874750958272   -0.10504772118388264
-4.695316322183119   -0.4517874750958272   -0.10504772118388264
-4.695316322183119   -0.4517874750958272   -0.10504772118388264
-4.695316322183119   -0.4517874750958272   -0.10504772118388264
-5.671596934883244   0.271104623583027   0.19645009416584952
-5.671596934883244   0.271104623583027   0.19645009416584952
-5.671596934883244   0.271104623583027   0.19645009416584952
-5.671596934883244   0.271104623583027   0.19645009416584952
-8.796824050734921   -0.4385601230820406   -0.12024781502089638
-8.796824050734921   -0.4385601230820406   -0.12024781502089638
-8.796824050734921   -0.4385601230820406   -0.12024781502089638
-8.796824050734921   -0.4385601230820406   -0.12024781502089638
-9.016714591106915   -0.44638042599051175   0.20216803769033742
-9.016714591106915   -0.44638042599051175   0.20216803769033742
-9.016714591106915   -0.44638042599051175   0.20216803769033742
-9.016714591106915   -0.44638042599051175   0.20216803769033742
-5.896474995309605   0.18069716535877123   -0.049051867848941944
-5.896474995309605   0.18069716535877123   -0.049051867848941944
-5.896474995309605   0.18069716535877123   -0.049051867848941944
-5.896474995309605   0.18069716535877123   -0.049051867848941944
-7.003272392349758   0.0061401152725768515   0.1773127467875663
-7.003272392349758   0.0061401152725768515   0.1773127467875663
-7.003272392349758   0.0061401152725768515   0.1773127467875663
-7.003272392349758   0.0061401152725768515   0.1773127467875663
-5.833455885454463   0.19932156413246838   0.24741928265303403
-5.833455885454463   0.19932156413246838   0.24741928265303403
-5.833455885454463   0.19932156413246838   0.24741928265303403
-5.833455885454463   0.19932156413246838   0.24741928265303403
-9.075692594490436   -0.4609637182926367   -0.07813868692514919
-9.075692594490436   -0.4609637182926367   -0.07813868692514919
-9.075692594490436   -0.4609637182926367   -0.07813868692514919
-9.075692594490436   -0.4609637182926367   -0.07813868692514919
-9.294694987760161   -0.5219871911464931   0.2746558761092478
-9.294694987760161   -0.5219871911464931   0.2746558761092478
-9.294694987760161   -0.5219871911464931   0.2746558761092478
-9.294694987760161   -0.5219871911464931   0.2746558761092478
-6.100247376239553   0.12938052548460788   -0.051125086925664254
-6.100247376239553   0.12938052548460788   -0.051125086925664254
-6.100247376239553   0.12938052548460788   -0.051125086925664254
-6.100247376239553   0.12938052548460788   -0.051125086925664254
-7.360093190617838   -0.08254399785031374   0.09548575615829769
-7.360093190617838   -0.08254399785031374   0.09548575615829769
-7.360093190617838   -0.08254399785031374   0.09548575615829769
-7.360093190617838   -0.08254399785031374   0.09548575615829769
-6.042663393695745   0.12226918558344835   0.2439061656945377
-6.042663393695745   0.12226918558344835   0.2439061656945377
-6.042663393695745   0.12226918558344835   0.2439061656945377
-6.042663393695745   0.12226918558344835   0.2439061656945377
-9.363119532805229   -0.5257164137466328   -0.06373762651594622
-9.363119532805229   -0.5257164137466328   -0.06373762651594622
-9.363119532805229   -0.5257164137466328   -0.06373762651594622
-9.363119532805229   -0.5257164137466328   -0.06373762651594622
-9.689414219852942   -0.825508409958637   0.23937259516200415
-9.689414219852942   -0.825508409958637   0.23937259516200415
-9.689414219852942   -0.825508409958637   0.23937259516200415
-9.689414219852942   -0.825508409958637   0.23937259516200415
-6.335163327561765   -0.025832258409641984   -0.04802557591177303
-6.335163327561765   -0.025832258409641984   -0.04802557591177303
-6.335163327561765   -0.025832258409641984   -0.04802557591177303
-6.335163327561765   -0.025832258409641984   -0.04802557591177303
-7.514839907310182   -0.19371799300934356   0.02278860128578114
-7.514839907310182   -0.19371799300934356   0.02278860128578114
-7.514839907310182   -0.19371799300934356   0.02278860128578114
-7.514839907310182   -0.19371799300934356   0.02278860128578114
5.80995701593312   0.30917319123395637   -0.20998641918264804
5.80995701593312   0.30917319123395637   -0.20998641918264804
5.80995701593312   0.30917319123395637   -0.20998641918264804
5.80995701593312   0.30917319123395637   -0.20998641918264804
2.88473238074726   0.00014860093643120909   0.07689124947613368
2.88473238074726   0.00014860093643120909   0.07689124947613368
2.88473238074726   0.00014860093643120909   0.07689124947613368
2.88473238074726   0.00014860093643120909   0.07689124947613368
2.6334328716096422   -0.43147655772075555   -0.19200213569591817
2.6334328716096422   -0.43147655772075555   -0.19200213569591817
2.6334328716096422   -0.43147655772075555   -0.19200213569591817
2.6334328716096422   -0.43147655772075555   -0.19200213569591817
5.699008696159836   0.4712643306609061   0.09632873138383286
5.699008696159836   0.4712643306609061   0.09632873138383286
5.699008696159836   0.4712643306609061   0.09632873138383286
5.699008696159836   0.4712643306609061   0.09632873138383286
4.036713991974018   0.035798412989807016   -0.1327690191545485
4.036713991974018   0.035798412989807016   -0.1327690191545485
4.036713991974018   0.035798412989807016   -0.1327690191545485
4.036713991974018   0.035798412989807016   -0.1327690191545485
5.5761073570526225   0.15506336650730757   -0.20197699999858298
5.5761073570526225   0.15506336650730757   -0.20197699999858298
5.5761073570526225   0.15506336650730757   -0.20197699999858298
5.5761073570526225   0.15506336650730757   -0.20197699999858298
2.7510066878334793   -0.12060311645053201   0.08499350415299817
2.7510066878334793   -0.12060311645053201   0.08499350415299817
2.7510066878334793   -0.12060311645053201   0.08499350415299817
2.7510066878334793   -0.12060311645053201   0.08499350415299817
2.5077137972613093   -0.4679483100618975   -0.16671874127570052
2.5077137972613093   -0.4679483100618975   -0.16671874127570052
2.5077137972613093   -0.4679483100618975   -0.16671874127570052
2.5077137972613093   -0.4679483100618975   -0.16671874127570052
5.510866791279291   0.42128280442825683   0.13127566099993754
5.510866791279291   0.42128280442825683   0.13127566099993754
5.510866791279291   0.42128280442825683   0.13127566099993754
5.510866791279291   0.42128280442825683   0.13127566099993754
3.937244248509438   -0.029608181312683057   -0.17533382789803711
3.937244248509438   -0.029608181312683057   -0.17533382789803711
3.937244248509438   -0.029608181312683057   -0.17533382789803711
3.937244248509438   -0.029608181312683057   -0.17533382789803711
5.390649602892649   0.11023092001548007   -0.15875839652039886
5.390649602892649   0.11023092001548007   -0.15875839652039886
5.390649602892649   0.11023092001548007   -0.15875839652039886
5.390649602892649   0.11023092001548007   -0.15875839652039886
2.623204352139078   -0.16162305915794062   0.10440878220916305
2.623204352139078   -0.16162305915794062   0.10440878220916305
2.623204352139078   -0.16162305915794062   0.10440878220916305
2.623204352139078   -0.16162305915794062   0.10440878220916305
2.392777026197307   -0.47975030728295365   -0.13614429350795149
2.392777026197307   -0.47975030728295365   -0.13614429350795149
2.392777026197307   -0.47975030728295365   -0.13614429350795149
2.392777026197307   -0.47975030728295365   -0.13614429350795149
5.298763094965717   0.37671078291013427   0.16296207931388476
5.298763094965717   0.37671078291013427   0.16296207931388476
5.298763094965717   0.37671078291013427   0.16296207931388476
5.298763094965717   0.37671078291013427   0.16296207931388476
3.7089602693680876   -0.07497027051277372   -0.23857098188229336
3.7089602693680876   -0.07497027051277372   -0.23857098188229336
3.7089602693680876   -0.07497027051277372   -0.23857098188229336
3.7089602693680876   -0.07497027051277372   -0.23857098188229336
2.9327171312354023   0.30234464589991217   0.014618956953364348
2.9327171312354023   0.30234464589991217   0.014618956953364348
2.9327171312354023   0.30234464589991217   0.014618956953364348
2.9327171312354023   0.30234464589991217   0.014618956953364348
0.10685127288252405   -0.09385718006093782   -0.011135235262380024
0.10685127288252405   -0.09385718006093782   -0.011135235262380024
0.10685127288252405   -0.09385718006093782   -0.011135235262380024
0.10685127288252405   -0.09385718006093782   -0.011135235262380024
-0.08252922734325067   -0.3883940670256029   -0.13019100630019326
-0.08252922734325067   -0.3883940670256029   -0.13019100630019326
-0.08252922734325067   -0.3883940670256029   -0.13019100630019326
-0.08252922734325067   -0.3883940670256029   -0.13019100630019326
2.875403590687613   0.42614927558018056   0.16022562639295412
2.875403590687613   0.42614927558018056   0.16022562639295412
2.875403590687613   0.42614927558018056   0.16022562639295412
2.875403590687613   0.42614927558018056   0.16022562639295412
1.435423232623489   0.060659784606357875   -0.016770627816322582
1.435423232623489   0.060659784606357875   -0.016770627816322582
1.435423232623489   0.060659784606357875   -0.016770627816322582
1.435423232623489   0.060659784606357875   -0.016770627816322582
2.808886828377622   0.22223796955270675   0.031553120870482884
2.808886828377622   0.22223796955270675   0.031553120870482884
2.808886828377622   0.22223796955270675   0.031553120870482884
2.808886828377622   0.22223796955270675   0.031553120870482884
-0.014854818267350231   -0.1833251142322181   0.0031120862859241247
-0.014854818267350231   -0.1833251142322181   0.0031120862859241247
-0.014854818267350231   -0.1833251142322181   0.0031120862859241247
-0.014854818267350231   -0.1833251142322181   0.0031120862859241247
-0.20163357865381376   -0.44741691551610696   -0.11237893689808293
-0.20163357865381376   -0.44741691551610696   -0.11237893689808293
-0.20163357865381376   -0.44741691551610696   -0.11237893689808293
-0.20163357865381376   -0.44741691551610696   -0.11237893689808293
2.740504742520373   0.3518949471476772   0.17739272781001872
2.740504742520373   0.3518949471476772   0.17739272781001872
2.740504742520373   0.3518949471476772   0.17739272781001872
2.740504742520373   0.3518949471476772   0.17739272781001872
1.2902472377564482   -0.012399653483754935   -0.05833395022911296
1.2902472377564482   -0.012399653483754935   -0.05833395022911296
1.2902472377564482   -0.012399653483754935   -0.05833395022911296
1.2902472377564482   -0.012399653483754935   -0.05833395022911296
2.676451327894101   0.16039997794863775   0.0486206238777256
2.676451327894101   0.16039997794863775   0.0486206238777256
2.676451327894101   0.16039997794863775   0.0486206238777256
2.676451327894101   0.16039997794863775   0.0486206238777256
-0.1374570109133864   -0.25579879320290755   0.01688577949085425
-0.1374570109133864   -0.25579879320290755   0.01688577949085425
-0.1374570109133864   -0.25579879320290755   0.01688577949085425
-0.1374570109133864   -0.25579879320290755   0.01688577949085425
-0.31957869701669905   -0.4833326151686699   -0.0891239441583778
-0.31957869701669905   -0.4833326151686699   -0.0891239441583778
-0.31957869701669905   -0.4833326151686699   -0.0891239441583778
-0.31957869701669905   -0.4833326151686699   -0.0891239441583778
2.612215472785726   0.2889683449842278   0.19232928716692632
2.612215472785726   0.2889683449842278   0.19232928716692632
2.612215472785726   0.2889683449842278   0.19232928716692632
2.612215472785726   0.2889683449842278   0.19232928716692632
1.1824100655283063   -0.05955448995896298   -0.08911067636429332
1.1824100655283063   -0.05955448995896298   -0.08911067636429332
1.1824100655283063   -0.05955448995896298   -0.08911067636429332
1.1824100655283063   -0.05955448995896298   -0.08911067636429332
0.20231719111022267   0.30656673751629443   0.06577043829888088
0.20231719111022267   0.30656673751629443   0.06577043829888088
0.20231719111022267   0.30656673751629443   0.06577043829888088
0.20231719111022267   0.30656673751629443   0.06577043829888088
-2.583946807710684   -0.16574193239038437   -0.08910358228373672
-2.583946807710684   -0.16574193239038437   -0.08910358228373672
-2.583946807710684   -0.16574193239038437   -0.08910358228373672
-2.583946807710684   -0.16574193239038437   -0.08910358228373672
-2.731715118734132   -0.3550105134876883   -0.08169289562052348
-2.731715118734132   -0.3550105134876883   -0.08169289562052348
-2.731715118734132   -0.3550105134876883   -0.08169289562052348
-2.731715118734132   -0.3550105134876883   -0.08169289562052348
0.10641004501086546   0.34880277772442386   0.0773085107203606
0.10641004501086546   0.34880277772442386   0.0773085107203606
0.10641004501086546   0.34880277772442386   0.0773085107203606
0.10641004501086546   0.34880277772442386   0.0773085107203606
-1.2501876774982132   0.03973141221531934   0.004551705113731153
-1.2501876774982132   0.03973141221531934   0.004551705113731153
-1.2501876774982132   0.03973141221531934   0.004551705113731153
-1.2501876774982132   0.03973141221531934   0.004551705113731153
0.08607038905743843   0.24147314077521703   0.0829398679024323
0.08607038905743843   0.24147314077521703   0.0829398679024323
0.08607038905743843   0.24147314077521703   0.0829398679024323
0.08607038905743843   0.24147314077521703   0.0829398679024323
-2.7081417539885844   -0.24444716774640185   -0.07438941763407242
-2.7081417539885844   -0.24444716774640185   -0.07438941763407242
-2.7081417539885844   -0.24444716774640185   -0.07438941763407242
-2.7081417539885844   -0.24444716774640185   -0.07438941763407242
-2.859562693128189   -0.4199038053949209   -0.06755462601196685
-2.859562693128189   -0.4199038053949209   -0.06755462601196685
-2.859562693128189   -0.4199038053949209   -0.06755462601196685
-2.859562693128189   -0.4199038053949209   -0.06755462601196685
-0.016406421534610027   0.2723942872524275   0.09394564592940127
-0.016406421534610027   0.2723942872524275   0.09394564592940127
-0.016406421534610027   0.2723942872524275   0.09394564592940127
-0.016406421534610027   0.2723942872524275   0.09394564592940127
-1.3726444773423578   -0.023593752867653195   -0.0267840120458524
-1.3726444773423578   -0.023593752867653195   -0.0267840120458524
-1.3726444773423578   -0.023593752867653195   -0.0267840120458524
-1.3726444773423578   -0.023593752867653195   -0.0267840120458524
-0.03381101554781829   0.1788507066222126   0.10046625649357485
-0.03381101554781829   0.1788507066222126   0.10046625649357485
-0.03381101554781829   0.1788507066222126   0.10046625649357485
-0.03381101554781829   0.1788507066222126   0.10046625649357485
-2.8393574840134037   -0.3235596096631671   -0.06287277616977807
-2.8393574840134037   -0.3235596096631671   -0.06287277616977807
-2.8393574840134037   -0.3235596096631671   -0.06287277616977807
-2.8393574840134037   -0.3235596096631671   -0.06287277616977807
-2.986587491482444   -0.471056429446282   -0.04407722931041761
-2.986587491482444   -0.471056429446282   -0.04407722931041761
-2.986587491482444   -0.471056429446282   -0.04407722931041761
-2.986587491482444   -0.471056429446282   -0.04407722931041761
-0.14362548492096328   0.20041471485142454   0.10689478630020682
-0.14362548492096328   0.20041471485142454   0.10689478630020682
-0.14362548492096328   0.20041471485142454   0.10689478630020682
-0.14362548492096328   0.20041471485142454   0.10689478630020682
-1.5043903657892101   -0.08800888949476704   -0.06097510987777456
-1.5043903657892101   -0.08800888949476704   -0.06097510987777456
-1.5043903657892101   -0.08800888949476704   -0.06097510987777456
-1.5043903657892101   -0.08800888949476704   -0.06097510987777456
-2.435923605769356   0.3640024878021616   0.1212680072304049
-2.435923605769356   0.3640024878021616   0.1212680072304049
-2.435923605769356   0.3640024878021616   0.1212680072304049
-2.435923605769356   0.3640024878021616   0.1212680072304049
-5.182465706739562   -0.22842802878107094   -0.146381747106604
-5.182465706739562   -0.22842802878107094   -0.146381747106604
-5.182465706739562   -0.22842802878107094   -0.146381747106604
-5.182465706739562   -0.22842802878107094   -0.146381747106604
-5.297771294622186   -0.2825893776696631   -0.021968436317144957
-5.297771294622186   -0.2825893776696631   -0.021968436317144957
-5.297771294622186   -0.2825893776696631   -0.021968436317144957
-5.297771294622186   -0.2825893776696631   -0.021968436317144957
-2.592719224725481   0.26332145011972885   -0.005045389184672011
-2.592719224725481   0.26332145011972885   -0.005045389184672011
-2.592719224725481   0.26332145011972885   -0.005045389184672011
-2.592719224725481   0.26332145011972885   -0.005045389184672011
-3.8492543380131874   0.041220294945542246   0.027890915730266558
-3.8492543380131874   0.041220294945542246   0.027890915730266558
-3.8492543380131874   0.041220294945542246   0.027890915730266558
-3.8492543380131874   0.041220294945542246   0.027890915730266558
-2.5577223626219765   0.29705514190360316   0.1362052295489774
-2.5577223626219765   0.29705514190360316   0.1362052295489774
-2.5577223626219765   0.29705514190360316   0.1362052295489774
-2.5577223626219765   0.29705514190360316   0.1362052295489774
-5.328308601399651   -0.31186351412750724   -0.14538083374668365
-5.328308601399651   -0.31186351412750724   -0.14538083374668365
-5.328308601399651   -0.31186351412750724   -0.14538083374668365
-5.328308601399651   -0.31186351412750724   -0.14538083374668365
-5.455268010408806   -0.35549774552583024   -0.019104867961602406
-5.455268010408806   -0.35549774552583024   -0.019104867961602406
-5.455268010408806   -0.35549774552583024   -0.019104867961602406
-5.455268010408806   -0.35549774552583024   -0.019104867961602406
-2.722029353161073   0.19040481028999623   0.00980345813871114
-2.722029353161073   0.19040481028999623   0.00980345813871114
-2.722029353161073   0.19040481028999623   0.00980345813871114
-2.722029353161073   0.19040481028999623   0.00980345813871114
-3.9599463721962853   -0.01695341992747157   0.0021449655058948802
-3.9599463721962853   -0.01695341992747157   0.0021449655058948802
-3.9599463721962853   -0.01695341992747157   0.0021449655058948802
-3.9599463721962853   -0.01695341992747157   0.0021449655058948802
-2.683737678434342   0.23413551906158736   0.1575311230007767
-2.683737678434342   0.23413551906158736   0.1575311230007767
-2.683737678434342   0.23413551906158736   0.1575311230007767
-2.683737678434342   0.23413551906158736   0.1575311230007767
-5.4845956075921585   -0.3902643767540075   -0.1309762226502224
-5.4845956075921585   -0.3902643767540075   -0.1309762226502224
-5.4845956075921585   -0.3902643767540075   -0.1309762226502224
-5.4845956075921585   -0.3902643767540075   -0.1309762226502224
-5.600381149775835   -0.43346284702604554   0.017404741922135314
-5.600381149775835   -0.43346284702604554   0.017404741922135314
-5.600381149775835   -0.43346284702604554   0.017404741922135314
-5.600381149775835   -0.43346284702604554   0.017404741922135314
-2.8590564083524614   0.10385199666517742   0.018669760228079174
-2.8590564083524614   0.10385199666517742   0.018669760228079174
-2.8590564083524614   0.10385199666517742   0.018669760228079174
-2.8590564083524614   0.10385199666517742   0.018669760228079174
-4.131574840729569   -0.09803135808175045   -0.03226097625357344
-4.131574840729569   -0.09803135808175045   -0.03226097625357344
-4.131574840729569   -0.09803135808175045   -0.03226097625357344
-4.131574840729569   -0.09803135808175045   -0.03226097625357344
-4.9975158494549206   0.37944915190436057   0.1704903586311099
-4.9975158494549206   0.37944915190436057   0.1704903586311099
-4.9975158494549206   0.37944915190436057   0.1704903586311099
-4.9975158494549206   0.37944915190436057   0.1704903586311099
-7.647311393339645   -0.35330140545688193   -0.13625119455041868
-7.647311393339645   -0.35330140545688193   -0.13625119455041868
-7.647311393339645   -0.35330140545688193   -0.13625119455041868
-7.647311393339645   -0.35330140545688193   -0.13625119455041868
-7.75433005439916   -0.15194882408001953   0.14557324404665978
-7.75433005439916   -0.15194882408001953   0.14557324404665978
-7.75433005439916   -0.15194882408001953   0.14557324404665978
-7.75433005439916   -0.15194882408001953   0.14557324404665978
-5.221156722672165   0.15579115858350168   -0.07727611282020896
-5.221156722672165   0.15579115858350168   -0.07727611282020896
-5.221156722672165   0.15579115858350168   -0.07727611282020896
-5.221156722672165   0.15579115858350168   -0.07727611282020896
-6.1223795033718655   0.07980216562865827   0.13984557139244513
-6.1223795033718655   0.07980216562865827   0.13984557139244513
-6.1223795033718655   0.07980216562865827   0.13984557139244513
-6.1223795033718655   0.07980216562865827   0.13984557139244513
-5.120718918356509   0.3848329731562323   0.19587109418526777
-5.120718918356509   0.3848329731562323   0.19587109418526777
-5.120718918356509   0.3848329731562323   0.19587109418526777
-5.120718918356509   0.3848329731562323   0.19587109418526777
-7.848830217336893   -0.375052997274812   -0.10382339744705027
-7.848830217336893   -0.375052997274812   -0.10382339744705027
-7.848830217336893   -0.375052997274812   -0.10382339744705027
-7.848830217336893   -0.375052997274812   -0.10382339744705027
-7.949866627086209   -0.190077559642444   0.20120373828573218
-7.949866627086209   -0.190077559642444   0.20120373828573218
-7.949866627086209   -0.190077559642444   0.20120373828573218
-7.949866627086209   -0.190077559642444   0.20120373828573218
-5.371342215944588   0.11386767721985258   -0.06884131838619778
-5.371342215944588   0.11386767721985258   -0.06884131838619778
-5.371342215944588   0.11386767721985258   -0.06884131838619778
-5.371342215944588   0.11386767721985258   -0.06884131838619778
-6.389640191459824   0.03919878506022334   0.08896051214146439
-6.389640191459824   0.03919878506022334   0.08896051214146439
-6.389640191459824   0.03919878506022334   0.08896051214146439
-6.389640191459824   0.03919878506022334   0.08896051214146439
-5.260433719845878   0.35623503501155596   0.24333380431564694
-5.260433719845878   0.35623503501155596   0.24333380431564694
-5.260433719845878   0.35623503501155596   0.24333380431564694
-5.260433719845878   0.35623503501155596   0.24333380431564694
-8.055077915846887   -0.4267477100961323   -0.088182555063822
-8.055077915846887   -0.4267477100961323   -0.088182555063822
-8.055077915846887   -0.4267477100961323   -0.088182555063822
-8.055077915846887   -0.4267477100961323   -0.088182555063822
-8.215016227654932   -0.35207547895123303   0.200611221473193
-8.215016227654932   -0.35207547895123303   0.200611221473193
-8.215016227654932   -0.35207547895123303   0.200611221473193
-8.215016227654932   -0.35207547895123303   0.200611221473193
-5.532208696429707   -0.010624894421950692   -0.06457094395131768
-5.532208696429707   -0.010624894421950692   -0.06457094395131768
-5.532208696429707   -0.010624894421950692   -0.06457094395131768
-5.532208696429707   -0.010624894421950692   -0.06457094395131768
-6.469798746330982   -0.018701381783569282   0.07160374100701045
-6.469798746330982   -0.018701381783569282   0.07160374100701045
-6.469798746330982   -0.018701381783569282   0.07160374100701045
-6.469798746330982   -0.018701381783569282   0.07160374100701045
4.3847887422020735   0.24232083148352845   -0.21230395924319356
4.3847887422020735   0.24232083148352845   -0.21230395924319356
4.3847887422020735   0.24232083148352845   -0.21230395924319356
4.3847887422020735   0.24232083148352845   -0.21230395924319356
2.08818301338189   0.044669346910918006   0.08160990124089716
2.08818301338189   0.044669346910918006   0.08160990124089716
2.08818301338189   0.044669346910918006   0.08160990124089716
2.08818301338189   0.044669346910918006   0.08160990124089716
1.8519833491602147   -0.35765014627244374   -0.2012183062830504
1.8519833491602147   -0.35765014627244374   -0.2012183062830504
1.8519833491602147   -0.35765014627244374   -0.2012183062830504
1.8519833491602147   -0.35765014627244374   -0.2012183062830504
4.288099584330362   0.40453108199710097   0.10081764949133923
4.288099584330362   0.40453108199710097   0.10081764949133923
4.288099584330362   0.40453108199710097   0.10081764949133923
4.288099584330362   0.40453108199710097   0.10081764949133923
2.990412448050348   0.04055427885806251   -0.08835238716540783
2.990412448050348   0.04055427885806251   -0.08835238716540783
2.990412448050348   0.04055427885806251   -0.08835238716540783
2.990412448050348   0.04055427885806251   -0.08835238716540783
4.168100538650346   0.10573971124988757   -0.20038620816152533
4.168100538650346   0.10573971124988757   -0.20038620816152533
4.168100538650346   0.10573971124988757   -0.20038620816152533
4.168100538650346   0.10573971124988757   -0.20038620816152533
1.9695959058253467   -0.06124526454011714   0.09043959531026333
1.9695959058253467   -0.06124526454011714   0.09043959531026333
1.9695959058253467   -0.06124526454011714   0.09043959531026333
1.9695959058253467   -0.06124526454011714   0.09043959531026333
1.741505713296506   -0.3931268300636931   -0.17141143347702714
1.741505713296506   -0.3931268300636931   -0.17141143347702714
1.741505713296506   -0.3931268300636931   -0.17141143347702714
1.741505713296506   -0.3931268300636931   -0.17141143347702714
4.116354216231757   0.3539206609909977   0.13223233762814654
4.116354216231757   0.3539206609909977   0.13223233762814654
4.116354216231757   0.3539206609909977   0.13223233762814654
4.116354216231757   0.3539206609909977   0.13223233762814654
2.8905966857766363   -0.020713738444082974   -0.124864823307375
2.8905966857766363   -0.020713738444082974   -0.124864823307375
2.8905966857766363   -0.020713738444082974   -0.124864823307375
2.8905966857766363   -0.020713738444082974   -0.124864823307375
3.99922668992856   0.06066893781563443   -0.16015357071244368
3.99922668992856   0.06066893781563443   -0.16015357071244368
3.99922668992856   0.06066893781563443   -0.16015357071244368
3.99922668992856   0.06066893781563443   -0.16015357071244368
1.8556749589188397   -0.10283338756919025   0.10914135214012385
1.8556749589188397   -0.10283338756919025   0.10914135214012385
1.8556749589188397   -0.10283338756919025   0.10914135214012385
1.8556749589188397   -0.10283338756919025   0.10914135214012385
1.6418101906520504   -0.4158138556944867   -0.1427082093955532
1.6418101906520504   -0.4158138556944867   -0.1427082093955532
1.6418101906520504   -0.4158138556944867   -0.1427082093955532
1.6418101906520504   -0.4158138556944867   -0.1427082093955532
3.9227974596024167   0.29852190419584834   0.15677558171563447
3.9227974596024167   0.29852190419584834   0.15677558171563447
3.9227974596024167   0.29852190419584834   0.15677558171563447
3.9227974596024167   0.29852190419584834   0.15677558171563447
2.696107795921421   -0.06730423844488986   -0.1784056065041266
2.696107795921421   -0.06730423844488986   -0.1784056065041266
2.696107795921421   -0.06730423844488986   -0.1784056065041266
2.696107795921421   -0.06730423844488986   -0.1784056065041266
2.1218398112668084   0.3085668518197363   -0.014003614243294112
2.1218398112668084   0.3085668518197363   -0.014003614243294112
2.1218398112668084   0.3085668518197363   -0.014003614243294112
2.1218398112668084   0.3085668518197363   -0.014003614243294112
-0.1356045526878691   -0.02808411003257979   -0.00028906837372058726
-0.1356045526878691   -0.02808411003257979   -0.00028906837372058726
-0.1356045526878691   -0.02808411003257979   -0.00028906837372058726
-0.1356045526878691   -0.02808411003257979   -0.00028906837372058726
-0.30197383563459   -0.2668719782849214   -0.12750321661059802
-0.30197383563459   -0.2668719782849214   -0.12750321661059802
-0.30197383563459   -0.2668719782849214   -0.12750321661059802
-0.30197383563459   -0.2668719782849214   -0.12750321661059802
2.0655358340074113   0.3672894797472088   0.14160449193325955
2.0655358340074113   0.3672894797472088   0.14160449193325955
2.0655358340074113   0.3672894797472088   0.14160449193325955
2.0655358340074113   0.3672894797472088   0.14160449193325955
0.9230451959218047   0.09100234084298872   0.006371630298952137
0.9230451959218047   0.09100234084298872   0.006371630298952137
0.9230451959218047   0.09100234084298872   0.006371630298952137
0.9230451959218047   0.09100234084298872   0.006371630298952137
2.0091567724238253   0.22187876616782956   0.00511989759474122
2.0091567724238253   0.22187876616782956   0.00511989759474122
2.0091567724238253   0.22187876616782956   0.00511989759474122
2.0091567724238253   0.22187876616782956   0.00511989759474122
-0.2446144786085158   -0.12048096926304841   0.01290255949790032
-0.2446144786085158   -0.12048096926304841   0.01290255949790032
-0.2446144786085158   -0.12048096926304841   0.01290255949790032
-0.2446144786085158   -0.12048096926304841   0.01290255949790032
-0.40606392710413874   -0.333948202985653   -0.10525435323212057
-0.40606392710413874   -0.333948202985653   -0.10525435323212057
-0.40606392710413874   -0.333948202985653   -0.10525435323212057
-0.40606392710413874   -0.333948202985653   -0.10525435323212057
1.9428793115407152   0.28748699859912613   0.15484272908118568
1.9428793115407152   0.28748699859912613   0.15484272908118568
1.9428793115407152   0.28748699859912613   0.15484272908118568
1.9428793115407152   0.28748699859912613   0.15484272908118568
0.7950337978993042   0.01218267523256697   -0.033230050631141296
0.7950337978993042   0.01218267523256697   -0.033230050631141296
0.7950337978993042   0.01218267523256697   -0.033230050631141296
0.7950337978993042   0.01218267523256697   -0.033230050631141296
1.888350400198093   0.14993547276221703   0.019749698204997584
1.888350400198093   0.14993547276221703   0.019749698204997584
1.888350400198093   0.14993547276221703   0.019749698204997584
1.888350400198093   0.14993547276221703   0.019749698204997584
-0.3522966728503982   -0.19715833423764362   0.026792049288573254
-0.3522966728503982   -0.19715833423764362   0.026792049288573254
-0.3522966728503982   -0.19715833423764362   0.026792049288573254
-0.3522966728503982   -0.19715833423764362   0.026792049288573254
-0.5088319668417143   -0.3905759281098867   -0.08434463867620565
-0.5088319668417143   -0.3905759281098867   -0.08434463867620565
-0.5088319668417143   -0.3905759281098867   -0.08434463867620565
-0.5088319668417143   -0.3905759281098867   -0.08434463867620565
1.8296372298899768   0.2134272060428299   0.16718592505675534
1.8296372298899768   0.2134272060428299   0.16718592505675534
1.8296372298899768   0.2134272060428299   0.16718592505675534
1.8296372298899768   0.2134272060428299   0.16718592505675534
0.6964321678967015   -0.04792224656852617   -0.06634234375184946
0.6964321678967015   -0.04792224656852617   -0.06634234375184946
0.6964321678967015   -0.04792224656852617   -0.06634234375184946
0.6964321678967015   -0.04792224656852617   -0.06634234375184946
-0.04571821562350892   0.3699468365557484   0.05111167035975216
-0.04571821562350892   0.3699468365557484   0.05111167035975216
-0.04571821562350892   0.3699468365557484   0.05111167035975216
-0.04571821562350892   0.3699468365557484   0.05111167035975216
-2.3118401547809557   -0.09846505959602164   -0.07670418418339368
-2.3118401547809557   -0.09846505959602164   -0.07670418418339368
-2.3118401547809557   -0.09846505959602164   -0.07670418418339368
-2.3118401547809557   -0.09846505959602164   -0.07670418418339368
-2.419098036837304   -0.18370586366200803   -0.059726614363383945
-2.419098036837304   -0.18370586366200803   -0.059726614363383945
-2.419098036837304   -0.18370586366200803   -0.059726614363383945
-2.419098036837304   -0.18370586366200803   -0.059726614363383945
-0.15146324072644626   0.2966848030167677   0.061492976628431936
-0.15146324072644626   0.2966848030167677   0.061492976628431936
-0.15146324072644626   0.2966848030167677   0.061492976628431936
-0.15146324072644626   0.2966848030167677   0.061492976628431936
-1.2291229094886698   0.09683836093289899   0.024147448406069957
-1.2291229094886698   0.09683836093289899   0.024147448406069957
-1.2291229094886698   0.09683836093289899   0.024147448406069957
-1.2291229094886698   0.09683836093289899   0.024147448406069957
-0.1493300131272023   0.2966348729008517   0.07220904474056768
-0.1493300131272023   0.2966348729008517   0.07220904474056768
-0.1493300131272023   0.2966348729008517   0.07220904474056768
-0.1493300131272023   0.2966348729008517   0.07220904474056768
-2.4192062038494093   -0.18163087295891245   -0.06234244012700574
-2.4192062038494093   -0.18163087295891245   -0.06234244012700574
-2.4192062038494093   -0.18163087295891245   -0.06234244012700574
-2.4192062038494093   -0.18163087295891245   -0.06234244012700574
-2.525706698119735   -0.25630988732571036   -0.040274950376162605
-2.525706698119735   -0.25630988732571036   -0.040274950376162605
-2.525706698119735   -0.25630988732571036   -0.040274950376162605
-2.525706698119735   -0.25630988732571036   -0.040274950376162605
-0.25995652318792334   0.2145034324405614   0.07683103092274231
-0.25995652318792334   0.2145034324405614   0.07683103092274231
-0.25995652318792334   0.2145034324405614   0.07683103092274231
-0.25995652318792334   0.2145034324405614   0.07683103092274231
-1.336827306631365   0.02535274014344463   -0.008045446123534042
-1.336827306631365   0.02535274014344463   -0.008045446123534042
-1.336827306631365   0.02535274014344463   -0.008045446123534042
-1.336827306631365   0.02535274014344463   -0.008045446123534042
-0.2556861890985292   0.22357202609655613   0.08911410771371843
-0.2556861890985292   0.22357202609655613   0.08911410771371843
-0.2556861890985292   0.22357202609655613   0.08911410771371843
-0.2556861890985292   0.22357202609655613   0.08911410771371843
-2.5293564912303794   -0.2647579400029143   -0.05007586325217983
-2.5293564912303794   -0.2647579400029143   -0.05007586325217983
-2.5293564912303794   -0.2647579400029143   -0.05007586325217983
-2.5293564912303794   -0.2647579400029143   -0.05007586325217983
-2.6311047342645972   -0.322668909515489   -0.021044086190481197
-2.6311047342645972   -0.322668909515489   -0.021044086190481197
-2.6311047342645972   -0.322668909515489   -0.021044086190481197
-2.6311047342645972   -0.322668909515489   -0.021044086190481197
-0.3688612452490678   0.13501853293398436   0.08991450824316337
-0.3688612452490678   0.13501853293398436   0.08991450824316337
-0.3688612452490678   0.13501853293398436   0.08991450824316337
-0.3688612452490678   0.13501853293398436   0.08991450824316337
-1.449432272908947   -0.04675468655040921   -0.04387095095609429
-1.449432272908947   -0.04675468655040921   -0.04387095095609429
-1.449432272908947   -0.04675468655040921   -0.04387095095609429
-1.449432272908947   -0.04675468655040921   -0.04387095095609429
-2.169180443437691   0.4259426965732943   0.11218661636359764
-2.169180443437691   0.4259426965732943   0.11218661636359764
-2.169180443437691   0.4259426965732943   0.11218661636359764
-2.169180443437691   0.4259426965732943   0.11218661636359764
-4.436198465414528   -0.17021357643140522   -0.13869576945013287
-4.436198465414528   -0.17021357643140522   -0.13869576945013287
-4.436198465414528   -0.17021357643140522   -0.13869576945013287
-4.436198465414528   -0.17021357643140522   -0.13869576945013287
-4.494905188231823   -0.11327445028580563   0.014161072293996768
-4.494905188231823   -0.11327445028580563   0.014161072293996768
-4.494905188231823   -0.11327445028580563   0.014161072293996768
-4.494905188231823   -0.11327445028580563   0.014161072293996768
-2.3315405070563195   0.21275534466568513   -0.01840017378612513
-2.3315405070563195   0.21275534466568513   -0.01840017378612513
-2.3315405070563195   0.21275534466568513   -0.01840017378612513
-2.3315405070563195   0.21275534466568513   -0.01840017378612513
-3.3362561088824463   0.09316587646208119   0.040963055327484066
-3.3362561088824463   0.09316587646208119   0.040963055327484066
-3.3362561088824463   0.09316587646208119   0.040963055327484066
-3.3362561088824463   0.09316587646208119   0.040963055327484066
-2.272956507031727   0.3547817547465937   0.13249341625589817
-2.272956507031727   0.3547817547465937   0.13249341625589817
-2.272956507031727   0.3547817547465937   0.13249341625589817
-2.272956507031727   0.3547817547465937   0.13249341625589817
-4.552894148133843   -0.25470582024414656   -0.13435235725776018
-4.552894148133843   -0.25470582024414656   -0.13435235725776018
-4.552894148133843   -0.25470582024414656   -0.13435235725776018
-4.552894148133843   -0.25470582024414656   -0.13435235725776018
-4.619014966299098   -0.18664883827663004   0.021520828443603757
-4.619014966299098   -0.18664883827663004   0.021520828443603757
-4.619014966299098   -0.18664883827663004   0.021520828443603757
-4.619014966299098   -0.18664883827663004   0.021520828443603757
-2.439611952746306   0.13665525373325282   -0.00276636456795043
-2.439611952746306   0.13665525373325282   -0.00276636456795043
-2.439611952746306   0.13665525373325282   -0.00276636456795043
-2.439611952746306   0.13665525373325282   -0.00276636456795043
-3.4276887773231635   0.02920043217430912   0.010954505002404524
-3.4276887773231635   0.02920043217430912   0.010954505002404524
-3.4276887773231635   0.02920043217430912   0.010954505002404524
-3.4276887773231635   0.02920043217430912   0.010954505002404524
-2.3786106362381942   0.28742246365662516   0.1514730080492223
-2.3786106362381942   0.28742246365662516   0.1514730080492223
-2.3786106362381942   0.28742246365662516   0.1514730080492223
-2.3786106362381942   0.28742246365662516   0.1514730080492223
-4.676855637291055   -0.33425540268389087   -0.12007596210892035
-4.676855637291055   -0.33425540268389087   -0.12007596210892035
-4.676855637291055   -0.33425540268389087   -0.12007596210892035
-4.676855637291055   -0.33425540268389087   -0.12007596210892035
-4.731691442076468   -0.26549735933801666   0.04455801393611533
-4.731691442076468   -0.26549735933801666   0.04455801393611533
-4.731691442076468   -0.26549735933801666   0.04455801393611533
-4.731691442076468   -0.26549735933801666   0.04455801393611533
-2.5506941122704   0.04977659477052443   0.008563519494505262
-2.5506941122704   0.04977659477052443   0.008563519494505262
-2.5506941122704   0.04977659477052443   0.008563519494505262
-2.5506941122704   0.04977659477052443   0.008563519494505262
-3.5660296263768365   -0.050615860770873766   -0.02698776146826909
-3.5660296263768365   -0.050615860770873766   -0.02698776146826909
-3.5660296263768365   -0.050615860770873766   -0.02698776146826909
-3.5660296263768365   -0.050615860770873766   -0.02698776146826909
-4.26623840912062   0.3819513478455068   0.15893958774250005
-4.26623840912062   0.3819513478455068   0.15893958774250005
-4.26623840912062   0.3819513478455068   0.15893958774250005
-4.26623840912062   0.3819513478455068   0.15893958774250005
-6.4522733675641355   -0.29716838292313885   -0.15397685712846687
-6.4522733675641355   -0.29716838292313885   -0.15397685712846687
-6.4522733675641355   -0.29716838292313885   -0.15397685712846687
-6.4522733675641355   -0.29716838292313885   -0.15397685712846687
-6.525455927133827   -0.06026814977954631   0.14672654982621192
-6.525455927133827   -0.06026814977954631   0.14672654982621192
-6.525455927133827   -0.06026814977954631   0.14672654982621192
-6.525455927133827   -0.06026814977954631   0.14672654982621192
-4.472074296314096   0.10572441828382417   -0.09068333668699902
-4.472074296314096   0.10572441828382417   -0.09068333668699902
-4.472074296314096   0.10572441828382417   -0.09068333668699902
-4.472074296314096   0.10572441828382417   -0.09068333668699902
-5.189122512521166   0.08671835734492905   0.1264733294756643
-5.189122512521166   0.08671835734492905   0.1264733294756643
-5.189122512521166   0.08671835734492905   0.1264733294756643
-5.189122512521166   0.08671835734492905   0.1264733294756643
-4.36172187097031   0.38041166095922063   0.1863915473565313
-4.36172187097031   0.38041166095922063   0.1863915473565313
-4.36172187097031   0.38041166095922063   0.1863915473565313
-4.36172187097031   0.38041166095922063   0.1863915473565313
-6.63389370452215   -0.3330407444994712   -0.12268974239542219
-6.63389370452215   -0.3330407444994712   -0.12268974239542219
-6.63389370452215   -0.3330407444994712   -0.12268974239542219
-6.63389370452215   -0.3330407444994712   -0.12268974239542219
-6.687803702202042   -0.09893526598695046   0.18360545183748755
-6.687803702202042   -0.09893526598695046   0.18360545183748755
-6.687803702202042   -0.09893526598695046   0.18360545183748755
-6.687803702202042   -0.09893526598695046   0.18360545183748755
-4.588747836028779   0.0639913102554055   -0.07778366873683701
-4.588747836028779   0.0639913102554055   -0.07778366873683701
-4.588747836028779   0.0639913102554055   -0.07778366873683701
-4.588747836028779   0.0639913102554055   -0.07778366873683701
-5.414551419042799   0.04346456751590999   0.07618315652538798
-5.414551419042799   0.04346456751590999   0.07618315652538798
-5.414551419042799   0.04346456751590999   0.07618315652538798
-5.414551419042799   0.04346456751590999   0.07618315652538798
-4.471682583062486   0.3515622072862662   0.21997169906376834
-4.471682583062486   0.3515622072862662   0.21997169906376834
-4.471682583062486   0.3515622072862662   0.21997169906376834
-4.471682583062486   0.3515622072862662   0.21997169906376834
-6.801764558446721   -0.38340176629614997   -0.10173232907667312
-6.801764558446721   -0.38340176629614997   -0.10173232907667312
-6.801764558446721   -0.38340176629614997   -0.10173232907667312
-6.801764558446721   -0.38340176629614997   -0.10173232907667312
-6.902036553411273   -0.23554294285369237   0.18066667087178573
-6.902036553411273   -0.23554294285369237   0.18066667087178573
-6.902036553411273   -0.23554294285369237   0.18066667087178573
-6.902036553411273   -0.23554294285369237   0.18066667087178573
-4.711822886960186   -0.051148531928769225   -0.07044803789172227
-4.711822886960186   -0.051148531928769225   -0.07044803789172227
-4.711822886960186   -0.051148531928769225   -0.07044803789172227
-4.711822886960186   -0.051148531928769225   -0.07044803789172227
-5.474456794919236   -0.01000982184992516   0.05909511757582764
-5.474456794919236   -0.01000982184992516   0.05909511757582764
-5.474456794919236   -0.01000982184992516   0.05909511757582764
-5.474456794919236   -0.01000982184992516   0.05909511757582764
2.993527010405392   0.16834953096755084   -0.20533317549956315
2.993527010405392   0.16834953096755084   -0.20533317549956315
2.993527010405392   0.16834953096755084   -0.20533317549956315
2.993527010405392   0.16834953096755084   -0.20533317549956315
1.2788165847814679   0.08441928617993683   0.08866253859591074
1.2788165847814679   0.08441928617993683   0.08866253859591074
1.2788165847814679   0.08441928617993683   0.08866253859591074
1.2788165847814679   0.08441928617993683   0.08866253859591074
1.0667662701067382   -0.29814643135953633   -0.19123660306822407
1.0667662701067382   -0.29814643135953633   -0.19123660306822407
1.0667662701067382   -0.29814643135953633   -0.19123660306822407
1.0667662701067382   -0.29814643135953633   -0.19123660306822407
2.9217653134749533   0.34196472643329434   0.10765933607227868
2.9217653134749533   0.34196472643329434   0.10765933607227868
2.9217653134749533   0.34196472643329434   0.10765933607227868
2.9217653134749533   0.34196472643329434   0.10765933607227868
1.9557834264933127   0.04352044478625661   -0.053487697178497495
1.9557834264933127   0.04352044478625661   -0.053487697178497495
1.9557834264933127   0.04352044478625661   -0.053487697178497495
1.9557834264933127   0.04352044478625661   -0.053487697178497495
2.803413055919918   0.04916900113566225   -0.19130622640528838
2.803413055919918   0.04916900113566225   -0.19130622640528838
2.803413055919918   0.04916900113566225   -0.19130622640528838
2.803413055919918   0.04916900113566225   -0.19130622640528838
1.1828994850113548   -0.00756974871234406   0.09885278880768544
1.1828994850113548   -0.00756974871234406   0.09885278880768544
1.1828994850113548   -0.00756974871234406   0.09885278880768544
1.1828994850113548   -0.00756974871234406   0.09885278880768544
0.976292911327546   -0.33305464338721713   -0.16258287935871682
0.976292911327546   -0.33305464338721713   -0.16258287935871682
0.976292911327546   -0.33305464338721713   -0.16258287935871682
0.976292911327546   -0.33305464338721713   -0.16258287935871682
2.7730099930328853   0.292464467273292   0.13843789327033984
2.7730099930328853   0.292464467273292   0.13843789327033984
2.7730099930328853   0.292464467273292   0.13843789327033984
2.7730099930328853   0.292464467273292   0.13843789327033984
1.8615645831901024   -0.013883245662789534   -0.0878064806996921
1.8615645831901024   -0.013883245662789534   -0.0878064806996921
1.8615645831901024   -0.013883245662789534   -0.0878064806996921
1.8615645831901024   -0.013883245662789534   -0.0878064806996921
2.656675873019904   0.004487397432281548   -0.1552556369535815
2.656675873019904   0.004487397432281548   -0.1552556369535815
2.656675873019904   0.004487397432281548   -0.1552556369535815
2.656675873019904   0.004487397432281548   -0.1552556369535815
1.089385770259061   -0.048318834627676   0.11814560653932427
1.089385770259061   -0.048318834627676   0.11814560653932427
1.089385770259061   -0.048318834627676   0.11814560653932427
1.089385770259061   -0.048318834627676   0.11814560653932427
0.8953251565619698   -0.3654167280404691   -0.13544527642550588
0.8953251565619698   -0.3654167280404691   -0.13544527642550588
0.8953251565619698   -0.3654167280404691   -0.13544527642550588
0.8953251565619698   -0.3654167280404691   -0.13544527642550588
2.599525351783432   0.22693695137734143   0.15775654171888548
2.599525351783432   0.22693695137734143   0.15775654171888548
2.599525351783432   0.22693695137734143   0.15775654171888548
2.599525351783432   0.22693695137734143   0.15775654171888548
1.70417197282717   -0.06123809310026196   -0.13459024220641955
1.70417197282717   -0.06123809310026196   -0.13459024220641955
1.70417197282717   -0.06123809310026196   -0.13459024220641955
1.70417197282717   -0.06123809310026196   -0.13459024220641955
1.2863708118520236   0.24878280714655307   -0.037929847017949096
1.2863708118520236   0.24878280714655307   -0.037929847017949096
1.2863708118520236   0.24878280714655307   -0.037929847017949096
1.2863708118520236   0.24878280714655307   -0.037929847017949096
-0.39835548758925654   0.023200198596114163   0.012588547008819582
-0.39835548758925654   0.023200198596114163   0.012588547008819582
-0.39835548758925654   0.023200198596114163   0.012588547008819582
-0.39835548758925654   0.023200198596114163   0.012588547008819582
-0.5433112655338628   -0.20629537118226965   -0.11747266317285884
-0.5433112655338628   -0.20629537118226965   -0.11747266317285884
-0.5433112655338628   -0.20629537118226965   -0.11747266317285884
-0.5433112655338628   -0.20629537118226965   -0.11747266317285884
1.249701017368242   0.2994459450020816   0.12584475687769447
1.249701017368242   0.2994459450020816   0.12584475687769447
1.249701017368242   0.2994459450020816   0.12584475687769447
1.249701017368242   0.2994459450020816   0.12584475687769447
0.38982682496837007   0.0868796014501957   0.014863918677675513
0.38982682496837007   0.0868796014501957   0.014863918677675513
0.38982682496837007   0.0868796014501957   0.014863918677675513
0.38982682496837007   0.0868796014501957   0.014863918677675513
1.1925562193281873   0.1602383339671955   -0.02067162228770601
1.1925562193281873   0.1602383339671955   -0.02067162228770601
1.1925562193281873   0.1602383339671955   -0.02067162228770601
1.1925562193281873   0.1602383339671955   -0.02067162228770601
-0.48698356348437005   -0.06790485613792716   0.02577533203026231
-0.48698356348437005   -0.06790485613792716   0.02577533203026231
-0.48698356348437005   -0.06790485613792716   0.02577533203026231
-0.48698356348437005   -0.06790485613792716   0.02577533203026231
-0.6274937527329337   -0.27653289621535426   -0.09488368071744444
-0.6274937527329337   -0.27653289621535426   -0.09488368071744444
-0.6274937527329337   -0.27653289621535426   -0.09488368071744444
-0.6274937527329337   -0.27653289621535426   -0.09488368071744444
1.1465051391193135   0.2186131223676377   0.13681049384527358
1.1465051391193135   0.2186131223676377   0.13681049384527358
1.1465051391193135   0.2186131223676377   0.13681049384527358
1.1465051391193135   0.2186131223676377   0.13681049384527358
0.28621943298752517   0.007741980910180968   -0.02315585660952633
0.28621943298752517   0.007741980910180968   -0.02315585660952633
0.28621943298752517   0.007741980910180968   -0.02315585660952633
0.28621943298752517   0.007741980910180968   -0.02315585660952633
1.0911659144032997   0.08493439323497567   -0.0062069006021509415
1.0911659144032997   0.08493439323497567   -0.0062069006021509415
1.0911659144032997   0.08493439323497567   -0.0062069006021509415
1.0911659144032997   0.08493439323497567   -0.0062069006021509415
-0.5742543827796458   -0.1449540218454197   0.03973429467906872
-0.5742543827796458   -0.1449540218454197   0.03973429467906872
-0.5742543827796458   -0.1449540218454197   0.03973429467906872
-0.5742543827796458   -0.1449540218454197   0.03973429467906872
-0.7105854633146237   -0.3428555479174898   -0.07400515154024263
-0.7105854633146237   -0.3428555479174898   -0.07400515154024263
-0.7105854633146237   -0.3428555479174898   -0.07400515154024263
-0.7105854633146237   -0.3428555479174898   -0.07400515154024263
1.0533774220764056   0.1406596827315803   0.1487396403746444
1.0533774220764056   0.1406596827315803   0.1487396403746444
1.0533774220764056   0.1406596827315803   0.1487396403746444
1.0533774220764056   0.1406596827315803   0.1487396403746444
0.2027189370362957   -0.05828034639844315   -0.056840159834406614
0.2027189370362957   -0.05828034639844315   -0.056840159834406614
0.2027189370362957   -0.05828034639844315   -0.056840159834406614
0.2027189370362957   -0.05828034639844315   -0.056840159834406614
-0.3362112429093749   0.31775296117986673   0.028757007824467565
-0.3362112429093749   0.31775296117986673   0.028757007824467565
-0.3362112429093749   0.31775296117986673   0.028757007824467565
-0.3362112429093749   0.31775296117986673   0.028757007824467565
-2.050959953842187   -0.050047778373982055   -0.06217420255414134
-2.050959953842187   -0.050047778373982055   -0.06217420255414134
-2.050959953842187   -0.050047778373982055   -0.06217420255414134
-2.050959953842187   -0.050047778373982055   -0.06217420255414134
-2.133895285694689   -0.12123400103328569   -0.0456689986535917
-2.133895285694689   -0.12123400103328569   -0.0456689986535917
-2.133895285694689   -0.12123400103328569   -0.0456689986535917
-2.133895285694689   -0.12123400103328569   -0.0456689986535917
-0.42314275972430354   0.22840286819172728   0.04867162650093279
-0.42314275972430354   0.22840286819172728   0.04867162650093279
-0.42314275972430354   0.22840286819172728   0.04867162650093279
-0.42314275972430354   0.22840286819172728   0.04867162650093279
-1.233066944315368   0.09233795972791148   0.024234724945059044
-1.233066944315368   0.09233795972791148   0.024234724945059044
-1.233066944315368   0.09233795972791148   0.024234724945059044
-1.233066944315368   0.09233795972791148   0.024234724945059044
-0.4204528138174278   0.2405776149319323   0.04994660929511406
-0.4204528138174278   0.2405776149319323   0.04994660929511406
-0.4204528138174278   0.2405776149319323   0.04994660929511406
-0.4204528138174278   0.2405776149319323   0.04994660929511406
-2.1367894337813746   -0.1336129499532988   -0.04776079016700402
-2.1367894337813746   -0.1336129499532988   -0.04776079016700402
-2.1367894337813746   -0.1336129499532988   -0.04776079016700402
-2.1367894337813746   -0.1336129499532988   -0.04776079016700402
-2.218926305526461   -0.19775915352689688   -0.02551211657601138
-2.218926305526461   -0.19775915352689688   -0.02551211657601138
-2.218926305526461   -0.19775915352689688   -0.02551211657601138
-2.218926305526461   -0.19775915352689688   -0.02551211657601138
-0.5114681606717895   0.14520999962712755   0.06350138374578786
-0.5114681606717895   0.14520999962712755   0.06350138374578786
-0.5114681606717895   0.14520999962712755   0.06350138374578786
-0.5114681606717895   0.14520999962712755   0.06350138374578786
-1.3205002581136598   0.017930427485024825   -0.008501008186828918
-1.3205002581136598   0.017930427485024825   -0.008501008186828918
-1.3205002581136598   0.017930427485024825   -0.008501008186828918
-1.3205002581136598   0.017930427485024825   -0.008501008186828918
-0.5069528243849235   0.16332964914838743   0.06795841565887284
-0.5069528243849235   0.16332964914838743   0.06795841565887284
-0.5069528243849235   0.16332964914838743   0.06795841565887284
-0.5069528243849235   0.16332964914838743   0.06795841565887284
-2.2247536640790586   -0.21719082531388562   -0.035217237552009104
-2.2247536640790586   -0.21719082531388562   -0.035217237552009104
-2.2247536640790586   -0.21719082531388562   -0.035217237552009104
-2.2247536640790586   -0.21719082531388562   -0.035217237552009104
-2.3025651238423657   -0.27089410915427753   -0.005944823604848201
-2.3025651238423657   -0.27089410915427753   -0.005944823604848201
-2.3025651238423657   -0.27089410915427753   -0.005944823604848201
-2.3025651238423657   -0.27089410915427753   -0.005944823604848201
-0.5990124303262555   0.06435914662105667   0.0766453188630436
-0.5990124303262555   0.06435914662105667   0.0766453188630436
-0.5990124303262555   0.06435914662105667   0.0766453188630436
-0.5990124303262555   0.06435914662105667   0.0766453188630436
-1.4114998561848044   -0.056574520063996214   -0.043963557389172375
-1.4114998561848044   -0.056574520063996214   -0.043963557389172375
-1.4114998561848044   -0.056574520063996214   -0.043963557389172375
-1.4114998561848044   -0.056574520063996214   -0.043963557389172375
-1.9344278059424223   0.3766395508893186   0.09379920768138103
-1.9344278059424223   0.3766395508893186   0.09379920768138103
-1.9344278059424223   0.3766395508893186   0.09379920768138103
-1.9344278059424223   0.3766395508893186   0.09379920768138103
-3.672809517012676   -0.12271956609075707   -0.12704584804502503
-3.672809517012676   -0.12271956609075707   -0.12704584804502503
-3.672809517012676   -0.12271956609075707   -0.12704584804502503
-3.672809517012676   -0.12271956609075707   -0.12704584804502503
-3.7040860710284016   -0.05179150878003258   0.031411122957368476
-3.7040860710284016   -0.05179150878003258   0.031411122957368476
-3.7040860710284016   -0.05179150878003258   0.031411122957368476
-3.7040860710284016   -0.05179150878003258   0.031411122957368476
-2.0762795720568534   0.14867011585379242   -0.027494547351521265
-2.0762795720568534   0.14867011585379242   -0.027494547351521265
-2.0762795720568534   0.14867011585379242   -0.027494547351521265
-2.0762795720568534   0.14867011585379242   -0.027494547351521265
-2.830151941865174   0.08859902199731973   0.03529428000355611
-2.830151941865174   0.08859902199731973   0.03529428000355611
-2.830151941865174   0.08859902199731973   0.03529428000355611
-2.830151941865174   0.08859902199731973   0.03529428000355611
-2.0170806352667907   0.3023011702260956   0.1148690822265212
-2.0170806352667907   0.3023011702260956   0.1148690822265212
-2.0170806352667907   0.3023011702260956   0.1148690822265212
-2.0170806352667907   0.3023011702260956   0.1148690822265212
-3.765820771702974   -0.2079583270368659   -0.12109556215869197
-3.765820771702974   -0.2079583270368659   -0.12109556215869197
-3.765820771702974   -0.2079583270368659   -0.12109556215869197
-3.765820771702974   -0.2079583270368659   -0.12109556215869197
-3.8042651025507643   -0.12756164597136654   0.04080228671341135
-3.8042651025507643   -0.12756164597136654   0.04080228671341135
-3.8042651025507643   -0.12756164597136654   0.04080228671341135
-3.8042651025507643   -0.12756164597136654   0.04080228671341135
-2.162207710452547   0.07203630064766203   -0.011714595381046355
-2.162207710452547   0.07203630064766203   -0.011714595381046355
-2.162207710452547   0.07203630064766203   -0.011714595381046355
-2.162207710452547   0.07203630064766203   -0.011714595381046355
-2.904013868703307   0.02098412345066203   0.002434539934492219
-2.904013868703307   0.02098412345066203   0.002434539934492219
-2.904013868703307   0.02098412345066203   0.002434539934492219
-2.904013868703307   0.02098412345066203   0.002434539934492219
-2.1008917405091445   0.23194406674250567   0.1349574882411526
-2.1008917405091445   0.23194406674250567   0.1349574882411526
-2.1008917405091445   0.23194406674250567   0.1349574882411526
-2.1008917405091445   0.23194406674250567   0.1349574882411526
-3.865775333718343   -0.28766367329038667   -0.10664684180549361
-3.865775333718343   -0.28766367329038667   -0.10664684180549361
-3.865775333718343   -0.28766367329038667   -0.10664684180549361
-3.865775333718343   -0.28766367329038667   -0.10664684180549361
-3.893562805542949   -0.20814907377853176   0.06180387002177265
-3.893562805542949   -0.20814907377853176   0.06180387002177265
-3.893562805542949   -0.20814907377853176   0.06180387002177265
-3.893562805542949   -0.20814907377853176   0.06180387002177265
-2.249618574566628   -0.012795109828101225   0.0006889234476308709
-2.249618574566628   -0.012795109828101225   0.0006889234476308709
-2.249618574566628   -0.012795109828101225   0.0006889234476308709
-2.249618574566628   -0.012795109828101225   0.0006889234476308709
-3.0141666691235485   -0.057175440687964874   -0.03557760318079914
-3.0141666691235485   -0.057175440687964874   -0.03557760318079914
-3.0141666691235485   -0.057175440687964874   -0.03557760318079914
-3.0141666691235485   -0.057175440687964874   -0.03557760318079914
-3.5235437321687897   0.3489046813319613   0.147658828751688
-3.5235437321687897   0.3489046813319613   0.147658828751688
-3.5235437321687897   0.3489046813319613   0.147658828751688
-3.5235437321687897   0.3489046813319613   0.147658828751688
-5.194557421425658   -0.23852710701073698   -0.16609343676216107
-5.194557421425658   -0.23852710701073698   -0.16609343676216107
-5.194557421425658   -0.23852710701073698   -0.16609343676216107
-5.194557421425658   -0.23852710701073698   -0.16609343676216107
-5.245669189569342   -0.001564960436251317   0.1464646629678693
-5.245669189569342   -0.001564960436251317   0.1464646629678693
-5.245669189569342   -0.001564960436251317   0.1464646629678693
-5.245669189569342   -0.001564960436251317   0.1464646629678693
-3.7101490295332433   0.04939554915338118   -0.10009072750031237
-3.7101490295332433   0.04939554915338118   -0.10009072750031237
-3.7101490295332433   0.04939554915338118   -0.10009072750031237
-3.7101490295332433   0.04939554915338118   -0.10009072750031237
-4.224316647106753   0.08175490097835914   0.10641294309910188
-4.224316647106753   0.08175490097835914   0.10641294309910188
-4.224316647106753   0.08175490097835914   0.10641294309910188
-4.224316647106753   0.08175490097835914   0.10641294309910188
-3.5984989983759914   0.33340595058059674   0.17414902685875866
-3.5984989983759914   0.33340595058059674   0.17414902685875866
-3.5984989983759914   0.33340595058059674   0.17414902685875866
-3.5984989983759914   0.33340595058059674   0.17414902685875866
-5.3594677960920905   -0.2877239372289334   -0.13636939285316116
-5.3594677960920905   -0.2877239372289334   -0.13636939285316116
-5.3594677960920905   -0.2877239372289334   -0.13636939285316116
-5.3594677960920905   -0.2877239372289334   -0.13636939285316116
-5.387038555677812   -0.04317938820038103   0.1846535586332621
-5.387038555677812   -0.04317938820038103   0.1846535586332621
-5.387038555677812   -0.04317938820038103   0.1846535586332621
-5.387038555677812   -0.04317938820038103   0.1846535586332621
-3.8025151083629023   0.007361146470500013   -0.08537053478920448
-3.8025151083629023   0.007361146470500013   -0.08537053478920448
-3.8025151083629023   0.007361146470500013   -0.08537053478920448
-3.8025151083629023   0.007361146470500013   -0.08537053478920448
-4.414013792308734   0.033830658239978995   0.05502122985314406
-4.414013792308734   0.033830658239978995   0.05502122985314406
-4.414013792308734   0.033830658239978995   0.05502122985314406
-4.414013792308734   0.033830658239978995   0.05502122985314406
-3.6856136293616935   0.301228738894725   0.20526926779267501
-3.6856136293616935   0.301228738894725   0.20526926779267501
-3.6856136293616935   0.301228738894725   0.20526926779267501
-3.6856136293616935   0.301228738894725   0.20526926779267501
-5.505499479790616   -0.3386064257361918   -0.1122240243949501
-5.505499479790616   -0.3386064257361918   -0.1122240243949501
-5.505499479790616   -0.3386064257361918   -0.1122240243949501
-5.505499479790616   -0.3386064257361918   -0.1122240243949501
-5.5761670365097125   -0.17282734223576957   0.1855020601228029
-5.5761670365097125   -0.17282734223576957   0.1855020601228029
-5.5761670365097125   -0.17282734223576957   0.1855020601228029
-5.5761670365097125   -0.17282734223576957   0.1855020601228029
-3.8990799602722537   -0.09846328745431554   -0.0754676899490615
-3.8990799602722537   -0.09846328745431554   -0.0754676899490615
-3.8990799602722537   -0.09846328745431554   -0.0754676899490615
-3.8990799602722537   -0.09846328745431554   -0.0754676899490615
-4.469016320701554   -0.020604315388582206   0.030326728248017104
-4.469016320701554   -0.020604315388582206   0.030326728248017104
-4.469016320701554   -0.020604315388582206   0.030326728248017104
-4.469016320701554   -0.020604315388582206   0.030326728248017104
1.6284420659991186   0.09659606558580774   -0.2000790455923856
1.6284420659991186   0.09659606558580774   -0.2000790455923856
1.6284420659991186   0.09659606558580774   -0.2000790455923856
1.6284420659991186   0.09659606558580774   -0.2000790455923856
0.4679126352050476   0.12111609443978935   0.09616151687843573
0.4679126352050476   0.12111609443978935   0.09616151687843573
0.4679126352050476   0.12111609443978935   0.09616151687843573
0.4679126352050476   0.12111609443978935   0.09616151687843573
0.28139191333786273   -0.24289903270243654   -0.17628605946928494
0.28139191333786273   -0.24289903270243654   -0.17628605946928494
0.28139191333786273   -0.24289903270243654   -0.17628605946928494
0.28139191333786273   -0.24289903270243654   -0.17628605946928494
1.5822836831580616   0.2810053379166737   0.11572192076721419
1.5822836831580616   0.2810053379166737   0.11572192076721419
1.5822836831580616   0.2810053379166737   0.11572192076721419
1.5822836831580616   0.2810053379166737   0.11572192076721419
0.9319420704920107   0.046744555388165826   -0.021735770218165078
0.9319420704920107   0.046744555388165826   -0.021735770218165078
0.9319420704920107   0.046744555388165826   -0.021735770218165078
0.9319420704920107   0.046744555388165826   -0.021735770218165078
1.4647710342828002   -0.007610994798420756   -0.18322499089402056
1.4647710342828002   -0.007610994798420756   -0.18322499089402056
1.4647710342828002   -0.007610994798420756   -0.18322499089402056
1.4647710342828002   -0.007610994798420756   -0.18322499089402056
0.3952340526067187   0.04204679040622865   0.10797881376633159
0.3952340526067187   0.04204679040622865   0.10797881376633159
0.3952340526067187   0.04204679040622865   0.10797881376633159
0.3952340526067187   0.04204679040622865   0.10797881376633159
0.2109136541454732   -0.27755048404464894   -0.14954052443195262
0.2109136541454732   -0.27755048404464894   -0.14954052443195262
0.2109136541454732   -0.27755048404464894   -0.14954052443195262
0.2109136541454732   -0.27755048404464894   -0.14954052443195262
1.4556141832622618   0.2331643763676332   0.14840449020714722
1.4556141832622618   0.2331643763676332   0.14840449020714722
1.4556141832622618   0.2331643763676332   0.14840449020714722
1.4556141832622618   0.2331643763676332   0.14840449020714722
0.8429576817933015   -0.007274983652913292   -0.05694347305764626
0.8429576817933015   -0.007274983652913292   -0.05694347305764626
0.8429576817933015   -0.007274983652913292   -0.05694347305764626
0.8429576817933015   -0.007274983652913292   -0.05694347305764626
1.338844614135724   -0.05209331914315951   -0.1501856599147563
1.338844614135724   -0.05209331914315951   -0.1501856599147563
1.338844614135724   -0.05209331914315951   -0.1501856599147563
1.338844614135724   -0.05209331914315951   -0.1501856599147563
0.32278886466856327   0.0028128528626957805   0.12947219127615853
0.32278886466856327   0.0028128528626957805   0.12947219127615853
0.32278886466856327   0.0028128528626957805   0.12947219127615853
0.32278886466856327   0.0028128528626957805   0.12947219127615853
0.14784295855634966   -0.31984445144478013   -0.12446807916463962
0.14784295855634966   -0.31984445144478013   -0.12446807916463962
0.14784295855634966   -0.31984445144478013   -0.12446807916463962
0.14784295855634966   -0.31984445144478013   -0.12446807916463962
1.2989037367182126   0.15629514773972414   0.1645553823503682
1.2989037367182126   0.15629514773972414   0.1645553823503682
1.2989037367182126   0.15629514773972414   0.1645553823503682
1.2989037367182126   0.15629514773972414   0.1645553823503682
0.7212668118291032   -0.055595548710375836   -0.09975560554818333
0.7212668118291032   -0.055595548710375836   -0.09975560554818333
0.7212668118291032   -0.055595548710375836   -0.09975560554818333
0.7212668118291032   -0.055595548710375836   -0.09975560554818333
0.448388167467068   0.17830189560939982   -0.058646622981076625
0.448388167467068   0.17830189560939982   -0.058646622981076625
0.448388167467068   0.17830189560939982   -0.058646622981076625
0.448388167467068   0.17830189560939982   -0.058646622981076625
-0.675900825882703   0.0588804679830916   0.02372359967912057
-0.675900825882703   0.0588804679830916   0.02372359967912057
-0.675900825882703   0.0588804679830916   0.02372359967912057
-0.675900825882703   0.0588804679830916   0.02372359967912057
-0.795991417661193   -0.15539294700448125   -0.10265726812568526
-0.795991417661193   -0.15539294700448125   -0.10265726812568526
-0.795991417661193   -0.15539294700448125   -0.10265726812568526
-0.795991417661193   -0.15539294700448125   -0.10265726812568526
0.4313130100153853   0.2215016818861208   0.10891870932977263
0.4313130100153853   0.2215016818861208   0.10891870932977263
0.4313130100153853   0.2215016818861208   0.10891870932977263
0.4313130100153853   0.2215016818861208   0.10891870932977263
-0.1519029695850533   0.07265207830634399   0.018077223993914204
-0.1519029695850533   0.07265207830634399   0.018077223993914204
-0.1519029695850533   0.07265207830634399   0.018077223993914204
-0.1519029695850533   0.07265207830634399   0.018077223993914204
0.3747331552193413   0.09065637053660158   -0.043135253300928114
0.3747331552193413   0.09065637053660158   -0.043135253300928114
0.3747331552193413   0.09065637053660158   -0.043135253300928114
0.3747331552193413   0.09065637053660158   -0.043135253300928114
-0.7425190898517029   -0.027655162641495562   0.03696658655877914
-0.7425190898517029   -0.027655162641495562   0.03696658655877914
-0.7425190898517029   -0.027655162641495562   0.03696658655877914
-0.7425190898517029   -0.027655162641495562   0.03696658655877914
-0.8590587911090134   -0.22590990718804493   -0.0802407237046899
-0.8590587911090134   -0.22590990718804493   -0.0802407237046899
-0.8590587911090134   -0.22590990718804493   -0.0802407237046899
-0.8590587911090134   -0.22590990718804493   -0.0802407237046899
0.34856018216154966   0.14242245833977557   0.11871917326401102
0.34856018216154966   0.14242245833977557   0.11871917326401102
0.34856018216154966   0.14242245833977557   0.11871917326401102
0.34856018216154966   0.14242245833977557   0.11871917326401102
-0.22972166245257558   -0.003210540127327778   -0.01825258684213365
-0.22972166245257558   -0.003210540127327778   -0.01825258684213365
-0.22972166245257558   -0.003210540127327778   -0.01825258684213365
-0.22972166245257558   -0.003210540127327778   -0.01825258684213365
0.2936693440419209   0.015017793986839466   -0.028330352981202206
0.2936693440419209   0.015017793986839466   -0.028330352981202206
0.2936693440419209   0.015017793986839466   -0.028330352981202206
0.2936693440419209   0.015017793986839466   -0.028330352981202206
-0.8081869867760403   -0.10252427662176547   0.050732667393895835
-0.8081869867760403   -0.10252427662176547   0.050732667393895835
-0.8081869867760403   -0.10252427662176547   0.050732667393895835
-0.8081869867760403   -0.10252427662176547   0.050732667393895835
-0.9216572739366339   -0.29608987539854736   -0.05997345426295443
-0.9216572739366339   -0.29608987539854736   -0.05997345426295443
-0.9216572739366339   -0.29608987539854736   -0.05997345426295443
-0.9216572739366339   -0.29608987539854736   -0.05997345426295443
0.2761102031398022   0.06454150325831323   0.13248218904953368
0.2761102031398022   0.06454150325831323   0.13248218904953368
0.2761102031398022   0.06454150325831323   0.13248218904953368
0.2761102031398022   0.06454150325831323   0.13248218904953368
-0.2972666348332355   -0.0714124589924159   -0.052636225907264626
-0.2972666348332355   -0.0714124589924159   -0.052636225907264626
-0.2972666348332355   -0.0714124589924159   -0.052636225907264626
-0.2972666348332355   -0.0714124589924159   -0.052636225907264626
-0.6415244166521805   0.2459761602815103   0.00850995353331399
-0.6415244166521805   0.2459761602815103   0.00850995353331399
-0.6415244166521805   0.2459761602815103   0.00850995353331399
-0.6415244166521805   0.2459761602815103   0.00850995353331399
-1.8050663728138043   -0.020281472161871927   -0.04930472937506375
-1.8050663728138043   -0.020281472161871927   -0.04930472937506375
-1.8050663728138043   -0.020281472161871927   -0.04930472937506375
-1.8050663728138043   -0.020281472161871927   -0.04930472937506375
-1.8617883028311846   -0.07492357194298366   -0.02931503106574114
-1.8617883028311846   -0.07492357194298366   -0.02931503106574114
-1.8617883028311846   -0.07492357194298366   -0.02931503106574114
-1.8617883028311846   -0.07492357194298366   -0.02931503106574114
-0.7083179117676459   0.14571102119337284   0.03460629314418823
-0.7083179117676459   0.14571102119337284   0.03460629314418823
-0.7083179117676459   0.14571102119337284   0.03460629314418823
-0.7083179117676459   0.14571102119337284   0.03460629314418823
-1.2512342304135522   0.07262665172015403   0.018832115774849736
-1.2512342304135522   0.07262665172015403   0.018832115774849736
-1.2512342304135522   0.07262665172015403   0.018832115774849736
-1.2512342304135522   0.07262665172015403   0.018832115774849736
-0.7048542743748727   0.16821111685140783   0.029424384450027263
-0.7048542743748727   0.16821111685140783   0.029424384450027263
-0.7048542743748727   0.16821111685140783   0.029424384450027263
-0.7048542743748727   0.16821111685140783   0.029424384450027263
-1.8679651918482971   -0.10013691922538004   -0.03498612886892474
-1.8679651918482971   -0.10013691922538004   -0.03498612886892474
-1.8679651918482971   -0.10013691922538004   -0.03498612886892474
-1.8679651918482971   -0.10013691922538004   -0.03498612886892474
-1.9245647885429482   -0.15190443429374334   -0.00897415798740768
-1.9245647885429482   -0.15190443429374334   -0.00897415798740768
-1.9245647885429482   -0.15190443429374334   -0.00897415798740768
-1.9245647885429482   -0.15190443429374334   -0.00897415798740768
-0.7749016881846137   0.06551148692397296   0.0491233968052907
-0.7749016881846137   0.06551148692397296   0.0491233968052907
-0.7749016881846137   0.06551148692397296   0.0491233968052907
-0.7749016881846137   0.06551148692397296   0.0491233968052907
-1.3167504638016714   -0.0004399924381529585   -0.013768312658237664
-1.3167504638016714   -0.0004399924381529585   -0.013768312658237664
-1.3167504638016714   -0.0004399924381529585   -0.013768312658237664
-1.3167504638016714   -0.0004399924381529585   -0.013768312658237664
-0.770259813640404   0.09026686964525787   0.04757738680505415
-0.770259813640404   0.09026686964525787   0.04757738680505415
-0.770259813640404   0.09026686964525787   0.04757738680505415
-0.770259813640404   0.09026686964525787   0.04757738680505415
-1.9330671431407878   -0.1805202970686607   -0.022870068201703626
-1.9330671431407878   -0.1805202970686607   -0.022870068201703626
-1.9330671431407878   -0.1805202970686607   -0.022870068201703626
-1.9330671431407878   -0.1805202970686607   -0.022870068201703626
-1.9861663047482845   -0.22626355433393044   0.01068568851013673
-1.9861663047482845   -0.22626355433393044   0.01068568851013673
-1.9861663047482845   -0.22626355433393044   0.01068568851013673
-1.9861663047482845   -0.22626355433393044   0.01068568851013673
-0.8403087379831744   -0.011778185309187478   0.06245753541498306
-0.8403087379831744   -0.011778185309187478   0.06245753541498306
-0.8403087379831744   -0.011778185309187478   0.06245753541498306
-0.8403087379831744   -0.011778185309187478   0.06245753541498306
-1.3856588060937562   -0.07369743859147887   -0.04915033444385984
-1.3856588060937562   -0.07369743859147887   -0.04915033444385984
-1.3856588060937562   -0.07369743859147887   -0.04915033444385984
-1.3856588060937562   -0.07369743859147887   -0.04915033444385984
-1.7136993553377204   0.3099678441849466   0.07728104165853775
-1.7136993553377204   0.3099678441849466   0.07728104165853775
-1.7136993553377204   0.3099678441849466   0.07728104165853775
-1.7136993553377204   0.3099678441849466   0.07728104165853775
-2.908366708233349   -0.08489012246733274   -0.11299087556631732
-2.908366708233349   -0.08489012246733274   -0.11299087556631732
-2.908366708233349   -0.08489012246733274   -0.11299087556631732
-2.908366708233349   -0.08489012246733274   -0.11299087556631732
-2.914022747645092   -0.0036755479002313907   0.04852030946659838
-2.914022747645092   -0.0036755479002313907   0.04852030946659838
-2.914022747645092   -0.0036755479002313907   0.04852030946659838
-2.914022747645092   -0.0036755479002313907   0.04852030946659838
-1.8331788886201839   0.07473283845851053   -0.03592437041226319
-1.8331788886201839   0.07473283845851053   -0.03592437041226319
-1.8331788886201839   0.07473283845851053   -0.03592437041226319
-1.8331788886201839   0.07473283845851053   -0.03592437041226319
-2.330533793083814   0.0739496320920241   0.024958695120516322
-2.330533793083814   0.0739496320920241   0.024958695120516322
-2.330533793083814   0.0739496320920241   0.024958695120516322
-2.330533793083814   0.0739496320920241   0.024958695120516322
-1.774449361833982   0.23418857313679414   0.09826752884049308
-1.774449361833982   0.23418857313679414   0.09826752884049308
-1.774449361833982   0.23418857313679414   0.09826752884049308
-1.774449361833982   0.23418857313679414   0.09826752884049308
-2.9779768684348613   -0.16835587658204143   -0.10656996580046812
-2.9779768684348613   -0.16835587658204143   -0.10656996580046812
-2.9779768684348613   -0.16835587658204143   -0.10656996580046812
-2.9779768684348613   -0.16835587658204143   -0.10656996580046812
-2.991272795872219   -0.0795340184136164   0.05949889473211045
-2.991272795872219   -0.0795340184136164   0.05949889473211045
-2.991272795872219   -0.0795340184136164   0.05949889473211045
-2.991272795872219   -0.0795340184136164   0.05949889473211045
-1.896285387385068   0.0009509980328532563   -0.02043258452463223
-1.896285387385068   0.0009509980328532563   -0.02043258452463223
-1.896285387385068   0.0009509980328532563   -0.02043258452463223
-1.896285387385068   0.0009509980328532563   -0.02043258452463223
-2.386353495676772   0.005775616274816153   -0.009244317767962529
-2.386353495676772   0.005775616274816153   -0.009244317767962529
-2.386353495676772   0.005775616274816153   -0.009244317767962529
-2.386353495676772   0.005775616274816153   -0.009244317767962529
-1.8359899606127468   0.163351565971523   0.11864398139833499
-1.8359899606127468   0.163351565971523   0.11864398139833499
-1.8359899606127468   0.163351565971523   0.11864398139833499
-1.8359899606127468   0.163351565971523   0.11864398139833499
-3.054820772365812   -0.2451871360735629   -0.092587870075969
-3.054820772365812   -0.2451871360735629   -0.092587870075969
-3.054820772365812   -0.2451871360735629   -0.092587870075969
-3.054820772365812   -0.2451871360735629   -0.092587870075969
-3.0580774322747155   -0.158478720240607   0.08072972909318947
-3.0580774322747155   -0.158478720240607   0.08072972909318947
-3.0580774322747155   -0.158478720240607   0.08072972909318947
-3.0580774322747155   -0.158478720240607   0.08072972909318947
-1.9601635106033435   -0.07781551068221088   -0.007748384416924811
-1.9601635106033435   -0.07781551068221088   -0.007748384416924811
-1.9601635106033435   -0.07781551068221088   -0.007748384416924811
-1.9601635106033435   -0.07781551068221088   -0.007748384416924811
-2.4689587493172698   -0.06826918602703774   -0.04642891845473464
-2.4689587493172698   -0.06826918602703774   -0.04642891845473464
-2.4689587493172698   -0.06826918602703774   -0.04642891845473464
-2.4689587493172698   -0.06826918602703774   -0.04642891845473464
-2.7804163892511204   0.3049115884600687   0.13695900841745282
-2.7804163892511204   0.3049115884600687   0.13695900841745282
-2.7804163892511204   0.3049115884600687   0.13695900841745282
-2.7804163892511204   0.3049115884600687   0.13695900841745282
-3.9066327331321347   -0.17906329532474596   -0.17253941713814805
-3.9066327331321347   -0.17906329532474596   -0.17253941713814805
-3.9066327331321347   -0.17906329532474596   -0.17253941713814805
-3.9066327331321347   -0.17906329532474596   -0.17253941713814805
-3.935645450007884   0.05311800660755017   0.1440179802450511
-3.935645450007884   0.05311800660755017   0.1440179802450511
-3.935645450007884   0.05311800660755017   0.1440179802450511
-3.935645450007884   0.05311800660755017   0.1440179802450511
-2.9461302495594137   -0.01010599055603223   -0.10558675744927024
-2.9461302495594137   -0.01010599055603223   -0.10558675744927024
-2.9461302495594137   -0.01010599055603223   -0.10558675744927024
-2.9461302495594137   -0.01010599055603223   -0.10558675744927024
-3.246674729430436   0.07386015645640154   0.07806689967786648
-3.246674729430436   0.07386015645640154   0.07806689967786648
-3.246674729430436   0.07386015645640154   0.07806689967786648
-3.246674729430436   0.07386015645640154   0.07806689967786648
-2.8352397338011235   0.27678959996427366   0.16197023082190756
-2.8352397338011235   0.27678959996427366   0.16197023082190756
-2.8352397338011235   0.27678959996427366   0.16197023082190756
-2.8352397338011235   0.27678959996427366   0.16197023082190756
-4.052084047751076   -0.23932566589766224   -0.1457313359656356
-4.052084047751076   -0.23932566589766224   -0.1457313359656356
-4.052084047751076   -0.23932566589766224   -0.1457313359656356
-4.052084047751076   -0.23932566589766224   -0.1457313359656356
-4.055814961130533   0.010579661658101314   0.18402189391655577
-4.055814961130533   0.010579661658101314   0.18402189391655577
-4.055814961130533   0.010579661658101314   0.18402189391655577
-4.055814961130533   0.010579661658101314   0.18402189391655577
-3.0156597668360225   -0.051278840280241655   -0.09069113822034194
-3.0156597668360225   -0.051278840280241655   -0.09069113822034194
-3.0156597668360225   -0.051278840280241655   -0.09069113822034194
-3.0156597668360225   -0.051278840280241655   -0.09069113822034194
-3.3996936561938567   0.023466301482371166   0.02739779575760115
-3.3996936561938567   0.023466301482371166   0.02739779575760115
-3.3996936561938567   0.023466301482371166   0.02739779575760115
-3.3996936561938567   0.023466301482371166   0.02739779575760115
-2.9000232916240205   0.24348008024000733   0.1927323173194498
-2.9000232916240205   0.24348008024000733   0.1927323173194498
-2.9000232916240205   0.24348008024000733   0.1927323173194498
-2.9000232916240205   0.24348008024000733   0.1927323173194498
-4.176726098388057   -0.2894539209076086   -0.12050020980526407
-4.176726098388057   -0.2894539209076086   -0.12050020980526407
-4.176726098388057   -0.2894539209076086   -0.12050020980526407
-4.176726098388057   -0.2894539209076086   -0.12050020980526407
-4.2221160466870575   -0.1099397679925922   0.1901859937744814
-4.2221160466870575   -0.1099397679925922   0.1901859937744814
-4.2221160466870575   -0.1099397679925922   0.1901859937744814
-4.2221160466870575   -0.1099397679925922   0.1901859937744814
-3.0873661067251943   -0.1451107113889476   -0.07908165201092232
-3.0873661067251943   -0.1451107113889476   -0.07908165201092232
-3.0873661067251943   -0.1451107113889476   -0.07908165201092232
-3.0873661067251943   -0.1451107113889476   -0.07908165201092232
-3.4504383211307768   -0.029949190850064533   -0.002928627378187554
-3.4504383211307768   -0.029949190850064533   -0.002928627378187554
-3.4504383211307768   -0.029949190850064533   -0.002928627378187554
-3.4504383211307768   -0.029949190850064533   -0.002928627378187554
0.26800978230854655   0.022121286549580597   -0.198909669676107
0.26800978230854655   0.022121286549580597   -0.198909669676107
0.26800978230854655   0.022121286549580597   -0.198909669676107
0.26800978230854655   0.022121286549580597   -0.198909669676107
-0.3389344158337312   0.14975790577531706   0.10209482657479985
-0.3389344158337312   0.14975790577531706   0.10209482657479985
-0.3389344158337312   0.14975790577531706   0.10209482657479985
-0.3389344158337312   0.14975790577531706   0.10209482657479985
-0.5009968268685975   -0.19079569492390663   -0.16000273340902862
-0.5009968268685975   -0.19079569492390663   -0.16000273340902862
-0.5009968268685975   -0.19079569492390663   -0.16000273340902862
-0.5009968268685975   -0.19079569492390663   -0.16000273340902862
0.2434504623088839   0.20855010939989282   0.12556165032308036
0.2434504623088839   0.20855010939989282   0.12556165032308036
0.2434504623088839   0.20855010939989282   0.12556165032308036
0.2434504623088839   0.20855010939989282   0.12556165032308036
-0.08786074754323216   0.04573020826342972   0.017427053307483276
-0.08786074754323216   0.04573020826342972   0.017427053307483276
-0.08786074754323216   0.04573020826342972   0.017427053307483276
-0.08786074754323216   0.04573020826342972   0.017427053307483276
0.12737928801942872   -0.06864062300779683   -0.17760348871650578
0.12737928801942872   -0.06864062300779683   -0.17760348871650578
0.12737928801942872   -0.06864062300779683   -0.17760348871650578
0.12737928801942872   -0.06864062300779683   -0.17760348871650578
-0.39183572818065715   0.07948496188226817   0.11552210322449802
-0.39183572818065715   0.07948496188226817   0.11552210322449802
-0.39183572818065715   0.07948496188226817   0.11552210322449802
-0.39183572818065715   0.07948496188226817   0.11552210322449802
-0.5542802253151925   -0.2255855035095522   -0.13545050060120295
-0.5542802253151925   -0.2255855035095522   -0.13545050060120295
-0.5542802253151925   -0.2255855035095522   -0.13545050060120295
-0.5542802253151925   -0.2255855035095522   -0.13545050060120295
0.13347406561967917   0.16121789806396475   0.1719887398648075
0.13347406561967917   0.16121789806396475   0.1719887398648075
0.13347406561967917   0.16121789806396475   0.1719887398648075
0.13347406561967917   0.16121789806396475   0.1719887398648075
-0.1750311960449533   -0.006363326794080804   -0.022863879487090052
-0.1750311960449533   -0.006363326794080804   -0.022863879487090052
-0.1750311960449533   -0.006363326794080804   -0.022863879487090052
-0.1750311960449533   -0.006363326794080804   -0.022863879487090052
0.014779777574503442   -0.11394696939232937   -0.1463178329047847
0.014779777574503442   -0.11394696939232937   -0.1463178329047847
0.014779777574503442   -0.11394696939232937   -0.1463178329047847
0.014779777574503442   -0.11394696939232937   -0.1463178329047847
-0.44515227805626073   0.040013023160495584   0.14459070902340165
-0.44515227805626073   0.040013023160495584   0.14459070902340165
-0.44515227805626073   0.040013023160495584   0.14459070902340165
-0.44515227805626073   0.040013023160495584   0.14459070902340165
-0.603097042408688   -0.2794474965605155   -0.11215706002392936
-0.603097042408688   -0.2794474965605155   -0.11215706002392936
-0.603097042408688   -0.2794474965605155   -0.11215706002392936
-0.603097042408688   -0.2794474965605155   -0.11215706002392936
-0.019245046207042708   0.06174295697556621   0.1958777642836682
-0.019245046207042708   0.06174295697556621   0.1958777642836682
-0.019245046207042708   0.06174295697556621   0.1958777642836682
-0.019245046207042708   0.06174295697556621   0.1958777642836682
-0.2677946864970822   -0.05897760104865105   -0.06915884584367452
-0.2677946864970822   -0.05897760104865105   -0.06915884584367452
-0.2677946864970822   -0.05897760104865105   -0.06915884584367452
-0.2677946864970822   -0.05897760104865105   -0.06915884584367452
-0.385985601400476   0.09619846153918005   -0.07960165702278703
-0.385985601400476   0.09619846153918005   -0.07960165702278703
-0.385985601400476   0.09619846153918005   -0.07960165702278703
-0.385985601400476   0.09619846153918005   -0.07960165702278703
-0.9562498611797521   0.04014337205036966   0.026835219424244508
-0.9562498611797521   0.04014337205036966   0.026835219424244508
-0.9562498611797521   0.04014337205036966   0.026835219424244508
-0.9562498611797521   0.04014337205036966   0.026835219424244508
-1.0396391804157354   -0.11107555315716533   -0.0830152754555373
-1.0396391804157354   -0.11107555315716533   -0.0830152754555373
-1.0396391804157354   -0.11107555315716533   -0.0830152754555373
-1.0396391804157354   -0.11107555315716533   -0.0830152754555373
-0.3964462676680251   0.09276124384754067   0.0791931238223858
-0.3964462676680251   0.09276124384754067   0.0791931238223858
-0.3964462676680251   0.09276124384754067   0.0791931238223858
-0.3964462676680251   0.09276124384754067   0.0791931238223858
-0.6930797922435611   0.027612944734411754   0.014565417658335626
-0.6930797922435611   0.027612944734411754   0.014565417658335626
-0.6930797922435611   0.027612944734411754   0.014565417658335626
-0.6930797922435611   0.027612944734411754   0.014565417658335626
-0.44149182822977956   0.01208523778613678   -0.0653586729249826
-0.44149182822977956   0.01208523778613678   -0.0653586729249826
-0.44149182822977956   0.01208523778613678   -0.0653586729249826
-0.44149182822977956   0.01208523778613678   -0.0653586729249826
-1.0002328781071494   -0.03603880534892978   0.03897948827915771
-1.0002328781071494   -0.03603880534892978   0.03897948827915771
-1.0002328781071494   -0.03603880534892978   0.03897948827915771
-1.0002328781071494   -0.03603880534892978   0.03897948827915771
-1.0810708068386459   -0.17946887393242483   -0.06110649909679531
-1.0810708068386459   -0.17946887393242483   -0.06110649909679531
-1.0810708068386459   -0.17946887393242483   -0.06110649909679531
-1.0810708068386459   -0.17946887393242483   -0.06110649909679531
-0.4607754894515655   0.017208763844592093   0.08927891136278113
-0.4607754894515655   0.017208763844592093   0.08927891136278113
-0.4607754894515655   0.017208763844592093   0.08927891136278113
-0.4607754894515655   0.017208763844592093   0.08927891136278113
-0.7454309728979845   -0.040894350266877766   -0.01975694232851051
-0.7454309728979845   -0.040894350266877766   -0.01975694232851051
-0.7454309728979845   -0.040894350266877766   -0.01975694232851051
-0.7454309728979845   -0.040894350266877766   -0.01975694232851051
-0.5041593508187686   -0.06162634102899415   -0.048805290599641976
-0.5041593508187686   -0.06162634102899415   -0.048805290599641976
-0.5041593508187686   -0.06162634102899415   -0.048805290599641976
-0.5041593508187686   -0.06162634102899415   -0.048805290599641976
-1.043733061574431   -0.10667988516180517   0.05279323845366016
-1.043733061574431   -0.10667988516180517   0.05279323845366016
-1.043733061574431   -0.10667988516180517   0.05279323845366016
-1.043733061574431   -0.10667988516180517   0.05279323845366016
-1.1227758739983449   -0.2500710426296514   -0.04169446325214227
-1.1227758739983449   -0.2500710426296514   -0.04169446325214227
-1.1227758739983449   -0.2500710426296514   -0.04169446325214227
-1.1227758739983449   -0.2500710426296514   -0.04169446325214227
-0.514542085639483   -0.05961659634423465   0.11078682360581113
-0.514542085639483   -0.05961659634423465   0.11078682360581113
-0.514542085639483   -0.05961659634423465   0.11078682360581113
-0.514542085639483   -0.05961659634423465   0.11078682360581113
-0.7978745487744943   -0.1089224712609579   -0.054734290688016246
-0.7978745487744943   -0.1089224712609579   -0.054734290688016246
-0.7978745487744943   -0.1089224712609579   -0.054734290688016246
-0.7978745487744943   -0.1089224712609579   -0.054734290688016246
-0.9391283051010431   0.16107030135777076   -0.008483929489611602
-0.9391283051010431   0.16107030135777076   -0.008483929489611602
-0.9391283051010431   0.16107030135777076   -0.008483929489611602
-0.9391283051010431   0.16107030135777076   -0.008483929489611602
-1.5688966929154717   -0.05324435249170051   -0.04402966456447724
-1.5688966929154717   -0.05324435249170051   -0.04402966456447724
-1.5688966929154717   -0.05324435249170051   -0.04402966456447724
-1.5688966929154717   -0.05324435249170051   -0.04402966456447724
-1.5851955374099294   -0.03837564180865022   -0.00894939622364363
-1.5851955374099294   -0.03837564180865022   -0.00894939622364363
-1.5851955374099294   -0.03837564180865022   -0.00894939622364363
-1.5851955374099294   -0.03837564180865022   -0.00894939622364363
-0.9968856828140337   0.007497732257076867   0.012178927138729638
-0.9968856828140337   0.007497732257076867   0.012178927138729638
-0.9968856828140337   0.007497732257076867   0.012178927138729638
-0.9968856828140337   0.007497732257076867   0.012178927138729638
-1.2699004732670585   0.018049277780460116   0.0046922807884386825
-1.2699004732670585   0.018049277780460116   0.0046922807884386825
-1.2699004732670585   0.018049277780460116   0.0046922807884386825
-1.2699004732670585   0.018049277780460116   0.0046922807884386825
-0.9810636879992489   0.08666494501013375   0.012121688459595797
-0.9810636879992489   0.08666494501013375   0.012121688459595797
-0.9810636879992489   0.08666494501013375   0.012121688459595797
-0.9810636879992489   0.08666494501013375   0.012121688459595797
-1.606430176441501   -0.12295549877849402   -0.030542734411657425
-1.606430176441501   -0.12295549877849402   -0.030542734411657425
-1.606430176441501   -0.12295549877849402   -0.030542734411657425
-1.606430176441501   -0.12295549877849402   -0.030542734411657425
-1.6240140394998583   -0.11184308917806438   0.01146286761022617
-1.6240140394998583   -0.11184308917806438   0.01146286761022617
-1.6240140394998583   -0.11184308917806438   0.01146286761022617
-1.6240140394998583   -0.11184308917806438   0.01146286761022617
-1.0408706168005262   -0.06469510370740797   0.0251206808687867
-1.0408706168005262   -0.06469510370740797   0.0251206808687867
-1.0408706168005262   -0.06469510370740797   0.0251206808687867
-1.0408706168005262   -0.06469510370740797   0.0251206808687867
-1.3120241275644242   -0.0487642932448788   -0.02683792386631842
-1.3120241275644242   -0.0487642932448788   -0.02683792386631842
-1.3120241275644242   -0.0487642932448788   -0.02683792386631842
-1.3120241275644242   -0.0487642932448788   -0.02683792386631842
-1.0245224621271982   0.011829935733334601   0.030336414794683457
-1.0245224621271982   0.011829935733334601   0.030336414794683457
-1.0245224621271982   0.011829935733334601   0.030336414794683457
-1.0245224621271982   0.011829935733334601   0.030336414794683457
-1.646883113634326   -0.1948890480799697   -0.019836544160221972
-1.646883113634326   -0.1948890480799697   -0.019836544160221972
-1.646883113634326   -0.1948890480799697   -0.019836544160221972
-1.646883113634326   -0.1948890480799697   -0.019836544160221972
-1.6618342772374999   -0.1823736326713665   0.03100583785841355
-1.6618342772374999   -0.1823736326713665   0.03100583785841355
-1.6618342772374999   -0.1823736326713665   0.03100583785841355
-1.6618342772374999   -0.1823736326713665   0.03100583785841355
-1.08305989576753   -0.1328745528125877   0.039688938084883836
-1.08305989576753   -0.1328745528125877   0.039688938084883836
-1.08305989576753   -0.1328745528125877   0.039688938084883836
-1.08305989576753   -0.1328745528125877   0.039688938084883836
-1.3573536969618167   -0.11602221850593791   -0.06109307782805405
-1.3573536969618167   -0.11602221850593791   -0.06109307782805405
-1.3573536969618167   -0.11602221850593791   -0.06109307782805405
-1.3573536969618167   -0.11602221850593791   -0.06109307782805405
-1.4896170344734223   0.23440236869059278   0.06472190646350637
-1.4896170344734223   0.23440236869059278   0.06472190646350637
-1.4896170344734223   0.23440236869059278   0.06472190646350637
-1.4896170344734223   0.23440236869059278   0.06472190646350637
-2.156419070801326   -0.08806500183920829   -0.09897800743391844
-2.156419070801326   -0.08806500183920829   -0.09897800743391844
-2.156419070801326   -0.08806500183920829   -0.09897800743391844
-2.156419070801326   -0.08806500183920829   -0.09897800743391844
-2.1270103826560947   0.03666989223158912   0.06759239248891785
-2.1270103826560947   0.03666989223158912   0.06759239248891785
-2.1270103826560947   0.03666989223158912   0.06759239248891785
-2.1270103826560947   0.03666989223158912   0.06759239248891785
-1.591060086405194   -0.032361925203778286   -0.044285857804838055
-1.591060086405194   -0.032361925203778286   -0.044285857804838055
-1.591060086405194   -0.032361925203778286   -0.044285857804838055
-1.591060086405194   -0.032361925203778286   -0.044285857804838055
-1.8348052557570518   0.03797840335205738   0.008506706115230828
-1.8348052557570518   0.03797840335205738   0.008506706115230828
-1.8348052557570518   0.03797840335205738   0.008506706115230828
-1.8348052557570518   0.03797840335205738   0.008506706115230828
-1.5265928710008465   0.16031047905623275   0.08537781495688795
-1.5265928710008465   0.16031047905623275   0.08537781495688795
-1.5265928710008465   0.16031047905623275   0.08537781495688795
-1.5265928710008465   0.16031047905623275   0.08537781495688795
-2.1993772968673415   -0.16390221083530626   -0.09367007550045313
-2.1993772968673415   -0.16390221083530626   -0.09367007550045313
-2.1993772968673415   -0.16390221083530626   -0.09367007550045313
-2.1993772968673415   -0.16390221083530626   -0.09367007550045313
-2.1790939967597134   -0.0355715105905785   0.07976348173285411
-2.1790939967597134   -0.0355715105905785   0.07976348173285411
-2.1790939967597134   -0.0355715105905785   0.07976348173285411
-2.1790939967597134   -0.0355715105905785   0.07976348173285411
-1.6295482973928552   -0.0978968768221602   -0.030154634210661474
-1.6295482973928552   -0.0978968768221602   -0.030154634210661474
-1.6295482973928552   -0.0978968768221602   -0.030154634210661474
-1.6295482973928552   -0.0978968768221602   -0.030154634210661474
-1.870221417120792   -0.026426055972048834   -0.0256768758747815
-1.870221417120792   -0.026426055972048834   -0.0256768758747815
-1.870221417120792   -0.026426055972048834   -0.0256768758747815
-1.870221417120792   -0.026426055972048834   -0.0256768758747815
-1.5643361023583806   0.09252438730918677   0.10548507683034805
-1.5643361023583806   0.09252438730918677   0.10548507683034805
-1.5643361023583806   0.09252438730918677   0.10548507683034805
-1.5643361023583806   0.09252438730918677   0.10548507683034805
-2.2505440997605706   -0.23223068268831598   -0.08082786117372484
-2.2505440997605706   -0.23223068268831598   -0.08082786117372484
-2.2505440997605706   -0.23223068268831598   -0.08082786117372484
-2.2505440997605706   -0.23223068268831598   -0.08082786117372484
-2.2214507509097907   -0.10822767663971383   0.10147802610200742
-2.2214507509097907   -0.10822767663971383   0.10147802610200742
-2.2214507509097907   -0.10822767663971383   0.10147802610200742
-2.2214507509097907   -0.10822767663971383   0.10147802610200742
-1.6681576582777025   -0.16489254711756474   -0.01809215289641551
-1.6681576582777025   -0.16489254711756474   -0.01809215289641551
-1.6681576582777025   -0.16489254711756474   -0.01809215289641551
-1.6681576582777025   -0.16489254711756474   -0.01809215289641551
-1.9233964124836724   -0.09193811587381112   -0.06064252126721742
-1.9233964124836724   -0.09193811587381112   -0.06064252126721742
-1.9233964124836724   -0.09193811587381112   -0.06064252126721742
-1.9233964124836724   -0.09193811587381112   -0.06064252126721742
-2.0426695140232427   0.25381515570676694   0.1278896189105246
-2.0426695140232427   0.25381515570676694   0.1278896189105246
-2.0426695140232427   0.25381515570676694   0.1278896189105246
-2.0426695140232427   0.25381515570676694   0.1278896189105246
-2.6203629426996335   -0.1303889774891513   -0.16641765500042466
-2.6203629426996335   -0.1303889774891513   -0.16641765500042466
-2.6203629426996335   -0.1303889774891513   -0.16641765500042466
-2.6203629426996335   -0.1303889774891513   -0.16641765500042466
-2.622150518978009   0.1040012958350034   0.14096994392462536
-2.622150518978009   0.1040012958350034   0.14096994392462536
-2.622150518978009   0.1040012958350034   0.14096994392462536
-2.622150518978009   0.1040012958350034   0.14096994392462536
-2.1833466436291573   -0.07555708209430162   -0.10186193805050402
-2.1833466436291573   -0.07555708209430162   -0.10186193805050402
-2.1833466436291573   -0.07555708209430162   -0.10186193805050402
-2.1833466436291573   -0.07555708209430162   -0.10186193805050402
-2.2716477825354393   0.060908766652988056   0.043281387153081496
-2.2716477825354393   0.060908766652988056   0.043281387153081496
-2.2716477825354393   0.060908766652988056   0.043281387153081496
-2.2716477825354393   0.060908766652988056   0.043281387153081496
-2.074588156764491   0.2154953852737338   0.15087802890475943
-2.074588156764491   0.2154953852737338   0.15087802890475943
-2.074588156764491   0.2154953852737338   0.15087802890475943
-2.074588156764491   0.2154953852737338   0.15087802890475943
-2.7390889224253687   -0.1952310881157257   -0.14448968936141332
-2.7390889224253687   -0.1952310881157257   -0.14448968936141332
-2.7390889224253687   -0.1952310881157257   -0.14448968936141332
-2.7390889224253687   -0.1952310881157257   -0.14448968936141332
-2.7169119079310553   0.06296104602124986   0.1817604343821487
-2.7169119079310553   0.06296104602124986   0.1817604343821487
-2.7169119079310553   0.06296104602124986   0.1817604343821487
-2.7169119079310553   0.06296104602124986   0.1817604343821487
-2.2284430944518037   -0.11320893705657548   -0.08934458026159935
-2.2284430944518037   -0.11320893705657548   -0.08934458026159935
-2.2284430944518037   -0.11320893705657548   -0.08934458026159935
-2.2284430944518037   -0.11320893705657548   -0.08934458026159935
-2.3841600370320766   0.010925352265501509   -0.003941596472593373
-2.3841600370320766   0.010925352265501509   -0.003941596472593373
-2.3841600370320766   0.010925352265501509   -0.003941596472593373
-2.3841600370320766   0.010925352265501509   -0.003941596472593373
-2.1150901421138157   0.18317963431885087   0.18103161005291377
-2.1150901421138157   0.18317963431885087   0.18103161005291377
-2.1150901421138157   0.18317963431885087   0.18103161005291377
-2.1150901421138157   0.18317963431885087   0.18103161005291377
-2.8386345141707743   -0.24179717925589744   -0.1220943715392389
-2.8386345141707743   -0.24179717925589744   -0.1220943715392389
-2.8386345141707743   -0.24179717925589744   -0.1220943715392389
-2.8386345141707743   -0.24179717925589744   -0.1220943715392389
-2.8572842708370088   -0.04481481857485181   0.1923159761714947
-2.8572842708370088   -0.04481481857485181   0.1923159761714947
-2.8572842708370088   -0.04481481857485181   0.1923159761714947
-2.8572842708370088   -0.04481481857485181   0.1923159761714947
-2.273703203724957   -0.19083197432050075   -0.07717994029303989
-2.273703203724957   -0.19083197432050075   -0.07717994029303989
-2.273703203724957   -0.19083197432050075   -0.07717994029303989
-2.273703203724957   -0.19083197432050075   -0.07717994029303989
-2.427801850282588   -0.03845007479488849   -0.03761042155786562
-2.427801850282588   -0.03845007479488849   -0.03761042155786562
-2.427801850282588   -0.03845007479488849   -0.03761042155786562
-2.427801850282588   -0.03845007479488849   -0.03761042155786562
-1.1531826224876165   -0.07563093601422874   -0.21060117571904402
-1.1531826224876165   -0.07563093601422874   -0.21060117571904402
-1.1531826224876165   -0.07563093601422874   -0.21060117571904402
-1.1531826224876165   -0.07563093601422874   -0.21060117571904402
-1.126310124978687   0.16228722976038376   0.09498728227433428
-1.126310124978687   0.16228722976038376   0.09498728227433428
-1.126310124978687   0.16228722976038376   0.09498728227433428
-1.126310124978687   0.16228722976038376   0.09498728227433428
-1.2648250956478213   -0.14669198996320898   -0.1423732885357234
-1.2648250956478213   -0.14669198996320898   -0.1423732885357234
-1.2648250956478213   -0.14669198996320898   -0.1423732885357234
-1.2648250956478213   -0.14669198996320898   -0.1423732885357234
-1.175956907004489   0.08217786031418756   0.14339503572729162
-1.175956907004489   0.08217786031418756   0.14339503572729162
-1.175956907004489   0.08217786031418756   0.14339503572729162
-1.175956907004489   0.08217786031418756   0.14339503572729162
-1.1209063863283875   0.02671635288785601   0.09689118513110975
-1.1209063863283875   0.02671635288785601   0.09689118513110975
-1.1209063863283875   0.02671635288785601   0.09689118513110975
-1.1209063863283875   0.02671635288785601   0.09689118513110975
-1.2879133085693242   -0.15806399766408546   -0.176145114118603
-1.2879133085693242   -0.15806399766408546   -0.176145114118603
-1.2879133085693242   -0.15806399766408546   -0.176145114118603
-1.2879133085693242   -0.15806399766408546   -0.176145114118603
-1.1669388599290609   0.07947970216899092   0.12088619792588011
-1.1669388599290609   0.07947970216899092   0.12088619792588011
-1.1669388599290609   0.07947970216899092   0.12088619792588011
-1.1669388599290609   0.07947970216899092   0.12088619792588011
-1.3060916002601153   -0.18514395395679695   -0.12025485435920663
-1.3060916002601153   -0.18514395395679695   -0.12025485435920663
-1.3060916002601153   -0.18514395395679695   -0.12025485435920663
-1.3060916002601153   -0.18514395395679695   -0.12025485435920663
-1.2834361340338833   0.029665025110211407   0.2658359053909232
-1.2834361340338833   0.029665025110211407   0.2658359053909232
-1.2834361340338833   0.029665025110211407   0.2658359053909232
-1.2834361340338833   0.029665025110211407   0.2658359053909232
-1.2204203905898998   -0.039412241733466635   0.03843636683161246
-1.2204203905898998   -0.039412241733466635   0.03843636683161246
-1.2204203905898998   -0.039412241733466635   0.03843636683161246
-1.2204203905898998   -0.039412241733466635   0.03843636683161246
-1.4118449337331729   -0.2096268861488555   -0.13691618184644183
-1.4118449337331729   -0.2096268861488555   -0.13691618184644183
-1.4118449337331729   -0.2096268861488555   -0.13691618184644183
-1.4118449337331729   -0.2096268861488555   -0.13691618184644183
-1.21074927107534   0.021081486787758397   0.15023135082011468
-1.21074927107534   0.021081486787758397   0.15023135082011468
-1.21074927107534   0.021081486787758397   0.15023135082011468
-1.21074927107534   0.021081486787758397   0.15023135082011468
-1.339789167762355   -0.2604263280231387   -0.09442453915454405
-1.339789167762355   -0.2604263280231387   -0.09442453915454405
-1.339789167762355   -0.2604263280231387   -0.09442453915454405
-1.339789167762355   -0.2604263280231387   -0.09442453915454405
-1.450701279356118   -0.14385840991496832   0.24890554472442192
-1.450701279356118   -0.14385840991496832   0.24890554472442192
-1.450701279356118   -0.14385840991496832   0.24890554472442192
-1.450701279356118   -0.14385840991496832   0.24890554472442192
-1.3057183272861792   -0.1176762358152017   -0.05379566625011059
-1.3057183272861792   -0.1176762358152017   -0.05379566625011059
-1.3057183272861792   -0.1176762358152017   -0.05379566625011059
-1.3057183272861792   -0.1176762358152017   -0.05379566625011059
-1.2069732445984884   -0.037147138109239086   -0.108893947955063
-1.2069732445984884   -0.037147138109239086   -0.108893947955063
-1.2069732445984884   -0.037147138109239086   -0.108893947955063
-1.2069732445984884   -0.037147138109239086   -0.108893947955063
-1.2120835904852985   -0.148465474073619   -0.0062627204623166635
-1.2120835904852985   -0.148465474073619   -0.0062627204623166635
-1.2120835904852985   -0.148465474073619   -0.0062627204623166635
-1.2120835904852985   -0.148465474073619   -0.0062627204623166635
-1.220056784374356   -0.09853172102411731   -0.053661183829573265
-1.220056784374356   -0.09853172102411731   -0.053661183829573265
-1.220056784374356   -0.09853172102411731   -0.053661183829573265
-1.220056784374356   -0.09853172102411731   -0.053661183829573265
-1.2483493613178616   -0.2040071632529627   -0.002679443596169938
-1.2483493613178616   -0.2040071632529627   -0.002679443596169938
-1.2483493613178616   -0.2040071632529627   -0.002679443596169938
-1.2483493613178616   -0.2040071632529627   -0.002679443596169938
-1.2114372770729473   -0.12731409425296658   -0.005043692219813642
-1.2114372770729473   -0.12731409425296658   -0.005043692219813642
-1.2114372770729473   -0.12731409425296658   -0.005043692219813642
-1.2114372770729473   -0.12731409425296658   -0.005043692219813642
-1.2482900085253585   -0.11227008138810654   -0.094119761498517
-1.2482900085253585   -0.11227008138810654   -0.094119761498517
-1.2482900085253585   -0.11227008138810654   -0.094119761498517
-1.2482900085253585   -0.11227008138810654   -0.094119761498517
-1.227894694908276   -0.19804736063039413   0.0066649031070876285
-1.227894694908276   -0.19804736063039413   0.0066649031070876285
-1.227894694908276   -0.19804736063039413   0.0066649031070876285
-1.227894694908276   -0.19804736063039413   0.0066649031070876285
-1.2397771050646014   -0.16332464662404222   -0.03438652536735479
-1.2397771050646014   -0.16332464662404222   -0.03438652536735479
-1.2397771050646014   -0.16332464662404222   -0.03438652536735479
-1.2397771050646014   -0.16332464662404222   -0.03438652536735479
-1.2924432912397403   -0.2642055287033954   0.027048265489266945
-1.2924432912397403   -0.2642055287033954   0.027048265489266945
-1.2924432912397403   -0.2642055287033954   0.027048265489266945
-1.2924432912397403   -0.2642055287033954   0.027048265489266945
-1.2383566584665355   -0.17952615690446377   -0.03487138496339025
-1.2383566584665355   -0.17952615690446377   -0.03487138496339025
-1.2383566584665355   -0.17952615690446377   -0.03487138496339025
-1.2383566584665355   -0.17952615690446377   -0.03487138496339025
-1.2952557541452097   -0.18148915576248992   -0.06973042197898502
-1.2952557541452097   -0.18148915576248992   -0.06973042197898502
-1.2952557541452097   -0.18148915576248992   -0.06973042197898502
-1.2952557541452097   -0.18148915576248992   -0.06973042197898502
-1.2469235033654544   -0.2559998807712726   0.022556717275595075
-1.2469235033654544   -0.2559998807712726   0.022556717275595075
-1.2469235033654544   -0.2559998807712726   0.022556717275595075
-1.2469235033654544   -0.2559998807712726   0.022556717275595075
-1.2573750018150065   -0.23339622793015097   -0.015278418148124126
-1.2573750018150065   -0.23339622793015097   -0.015278418148124126
-1.2573750018150065   -0.23339622793015097   -0.015278418148124126
-1.2573750018150065   -0.23339622793015097   -0.015278418148124126
-1.326076479936916   -0.3410308664506162   0.05474343840012455
-1.326076479936916   -0.3410308664506162   0.05474343840012455
-1.326076479936916   -0.3410308664506162   0.05474343840012455
-1.326076479936916   -0.3410308664506162   0.05474343840012455
-1.2757877560807322   -0.24295362960357272   -0.07296904919743666
-1.2757877560807322   -0.24295362960357272   -0.07296904919743666
-1.2757877560807322   -0.24295362960357272   -0.07296904919743666
-1.2757877560807322   -0.24295362960357272   -0.07296904919743666
-1.17920954723835   0.02952284491365592   -0.019880823214817017
-1.17920954723835   0.02952284491365592   -0.019880823214817017
-1.17920954723835   0.02952284491365592   -0.019880823214817017
-1.17920954723835   0.02952284491365592   -0.019880823214817017
-1.3246719666899214   -0.2513681078789994   -0.06323954489094569
-1.3246719666899214   -0.2513681078789994   -0.06323954489094569
-1.3246719666899214   -0.2513681078789994   -0.06323954489094569
-1.3246719666899214   -0.2513681078789994   -0.06323954489094569
-1.2698086416519656   -0.046078418438481955   0.017221132498867663
-1.2698086416519656   -0.046078418438481955   0.017221132498867663
-1.2698086416519656   -0.046078418438481955   0.017221132498867663
-1.2698086416519656   -0.046078418438481955   0.017221132498867663
-1.2522544877531803   -0.27381468053888247   -0.03936674120894534
-1.2522544877531803   -0.27381468053888247   -0.03936674120894534
-1.2522544877531803   -0.27381468053888247   -0.03936674120894534
-1.2522544877531803   -0.27381468053888247   -0.03936674120894534
-1.2556146302472555   -0.13969428668774295   -0.02885436003253617
-1.2556146302472555   -0.13969428668774295   -0.02885436003253617
-1.2556146302472555   -0.13969428668774295   -0.02885436003253617
-1.2556146302472555   -0.13969428668774295   -0.02885436003253617
-1.1966110847922076   -0.03489667912908059   -6.772781388373478e-05
-1.1966110847922076   -0.03489667912908059   -6.772781388373478e-05
-1.1966110847922076   -0.03489667912908059   -6.772781388373478e-05
-1.1966110847922076   -0.03489667912908059   -6.772781388373478e-05
-1.3324979447516831   -0.2920423199870287   -0.05026148145117342
-1.3324979447516831   -0.2920423199870287   -0.05026148145117342
-1.3324979447516831   -0.2920423199870287   -0.05026148145117342
-1.3324979447516831   -0.2920423199870287   -0.05026148145117342
-1.283772739022295   -0.11102468099994   0.03637491662789531
-1.283772739022295   -0.11102468099994   0.03637491662789531
-1.283772739022295   -0.11102468099994   0.03637491662789531
-1.283772739022295   -0.11102468099994   0.03637491662789531
-1.2707055508259768   -0.325054670706597   -0.02729873009169331
-1.2707055508259768   -0.325054670706597   -0.02729873009169331
-1.2707055508259768   -0.325054670706597   -0.02729873009169331
-1.2707055508259768   -0.325054670706597   -0.02729873009169331
-1.2705224002429227   -0.18923090397646525   -0.05442585773915455
-1.2705224002429227   -0.18923090397646525   -0.05442585773915455
-1.2705224002429227   -0.18923090397646525   -0.05442585773915455
-1.2705224002429227   -0.18923090397646525   -0.05442585773915455
-1.216557992051511   -0.1009831969304596   0.019367590004513588
-1.216557992051511   -0.1009831969304596   0.019367590004513588
-1.216557992051511   -0.1009831969304596   0.019367590004513588
-1.216557992051511   -0.1009831969304596   0.019367590004513588
-1.3457900967743164   -0.3429659537536306   -0.04177059937852168
-1.3457900967743164   -0.3429659537536306   -0.04177059937852168
-1.3457900967743164   -0.3429659537536306   -0.04177059937852168
-1.3457900967743164   -0.3429659537536306   -0.04177059937852168
-1.2950157929835475   -0.17218809787039815   0.05507711001184918
-1.2950157929835475   -0.17218809787039815   0.05507711001184918
-1.2950157929835475   -0.17218809787039815   0.05507711001184918
-1.2950157929835475   -0.17218809787039815   0.05507711001184918
-1.28423276220734   -0.37438190808452454   -0.008581539955432205
-1.28423276220734   -0.37438190808452454   -0.008581539955432205
-1.28423276220734   -0.37438190808452454   -0.008581539955432205
-1.28423276220734   -0.37438190808452454   -0.008581539955432205
-1.288385305239919   -0.24107183037246382   -0.0825322621773476
-1.288385305239919   -0.24107183037246382   -0.0825322621773476
-1.288385305239919   -0.24107183037246382   -0.0825322621773476
-1.288385305239919   -0.24107183037246382   -0.0825322621773476
-1.2232191072830367   0.13075160100344074   0.061905043261037185
-1.2232191072830367   0.13075160100344074   0.061905043261037185
-1.2232191072830367   0.13075160100344074   0.061905043261037185
-1.2232191072830367   0.13075160100344074   0.061905043261037185
-1.4375410001548379   -0.18638477626676342   -0.08775857885445919
-1.4375410001548379   -0.18638477626676342   -0.08775857885445919
-1.4375410001548379   -0.18638477626676342   -0.08775857885445919
-1.4375410001548379   -0.18638477626676342   -0.08775857885445919
-1.3588709257245524   0.04016875300333106   0.08617837254994422
-1.3588709257245524   0.04016875300333106   0.08617837254994422
-1.3588709257245524   0.04016875300333106   0.08617837254994422
-1.3588709257245524   0.04016875300333106   0.08617837254994422
-1.3167622772456238   -0.2102012320680149   -0.05342423183989002
-1.3167622772456238   -0.2102012320680149   -0.05342423183989002
-1.3167622772456238   -0.2102012320680149   -0.05342423183989002
-1.3167622772456238   -0.2102012320680149   -0.05342423183989002
-1.3341207701294486   -0.05497469846858802   -0.017243293373702513
-1.3341207701294486   -0.05497469846858802   -0.017243293373702513
-1.3341207701294486   -0.05497469846858802   -0.017243293373702513
-1.3341207701294486   -0.05497469846858802   -0.017243293373702513
-1.2350297426626604   0.06392396408925266   0.08111324491766005
-1.2350297426626604   0.06392396408925266   0.08111324491766005
-1.2350297426626604   0.06392396408925266   0.08111324491766005
-1.2350297426626604   0.06392396408925266   0.08111324491766005
-1.4499382049137033   -0.24329118776012393   -0.08569808263235566
-1.4499382049137033   -0.24329118776012393   -0.08569808263235566
-1.4499382049137033   -0.24329118776012393   -0.08569808263235566
-1.4499382049137033   -0.24329118776012393   -0.08569808263235566
-1.3835644433097714   -0.023140199674777706   0.09764489744316737
-1.3835644433097714   -0.023140199674777706   0.09764489744316737
-1.3835644433097714   -0.023140199674777706   0.09764489744316737
-1.3835644433097714   -0.023140199674777706   0.09764489744316737
-1.328829498236355   -0.25734519357636937   -0.042588366865975516
-1.328829498236355   -0.25734519357636937   -0.042588366865975516
-1.328829498236355   -0.25734519357636937   -0.042588366865975516
-1.328829498236355   -0.25734519357636937   -0.042588366865975516
-1.346315050899457   -0.10860584938545051   -0.04721092000221374
-1.346315050899457   -0.10860584938545051   -0.04721092000221374
-1.346315050899457   -0.10860584938545051   -0.04721092000221374
-1.346315050899457   -0.10860584938545051   -0.04721092000221374
-1.2480026519195455   0.004402761119145615   0.09979791002255797
-1.2480026519195455   0.004402761119145615   0.09979791002255797
-1.2480026519195455   0.004402761119145615   0.09979791002255797
-1.2480026519195455   0.004402761119145615   0.09979791002255797
-1.4724847787175404   -0.2929816434612519   -0.07711533580920295
-1.4724847787175404   -0.2929816434612519   -0.07711533580920295
-1.4724847787175404   -0.2929816434612519   -0.07711533580920295
-1.4724847787175404   -0.2929816434612519   -0.07711533580920295
-1.3997263874650656   -0.08378281126161063   0.11902525557071804
-1.3997263874650656   -0.08378281126161063   0.11902525557071804
-1.3997263874650656   -0.08378281126161063   0.11902525557071804
-1.3997263874650656   -0.08378281126161063   0.11902525557071804
-1.3390811050054834   -0.30466828141183283   -0.032769266556395504
-1.3390811050054834   -0.30466828141183283   -0.032769266556395504
-1.3390811050054834   -0.30466828141183283   -0.032769266556395504
-1.3390811050054834   -0.30466828141183283   -0.032769266556395504
-1.367987151317817   -0.1590254147583132   -0.07619753352418412
-1.367987151317817   -0.1590254147583132   -0.07619753352418412
-1.367987151317817   -0.1590254147583132   -0.07619753352418412
-1.367987151317817   -0.1590254147583132   -0.07619753352418412
-1.3205453798270281   0.18752084615751174   0.12331390036028524
-1.3205453798270281   0.18752084615751174   0.12331390036028524
-1.3205453798270281   0.18752084615751174   0.12331390036028524
-1.3205453798270281   0.18752084615751174   0.12331390036028524
-1.4015484575419317   -0.11161390688018522   -0.12749274365424607
-1.4015484575419317   -0.11161390688018522   -0.12749274365424607
-1.4015484575419317   -0.11161390688018522   -0.12749274365424607
-1.4015484575419317   -0.11161390688018522   -0.12749274365424607
-1.368861714784937   0.13510871718824174   0.1369821295179925
-1.368861714784937   0.13510871718824174   0.1369821295179925
-1.368861714784937   0.13510871718824174   0.1369821295179925
-1.368861714784937   0.13510871718824174   0.1369821295179925
-1.4288811736359803   -0.14579537975546708   -0.07790873424842841
-1.4288811736359803   -0.14579537975546708   -0.07790873424842841
-1.4288811736359803   -0.14579537975546708   -0.07790873424842841
-1.4288811736359803   -0.14579537975546708   -0.07790873424842841
-1.3333531905202858   0.0340813733177055   0.0044011342013172555
-1.3333531905202858   0.0340813733177055   0.0044011342013172555
-1.3333531905202858   0.0340813733177055   0.0044011342013172555
-1.3333531905202858   0.0340813733177055   0.0044011342013172555
-1.3266919286275203   0.14466222560316772   0.1425798854352059
-1.3266919286275203   0.14466222560316772   0.1425798854352059
-1.3266919286275203   0.14466222560316772   0.1425798854352059
-1.3266919286275203   0.14466222560316772   0.1425798854352059
-1.4786072866445295   -0.1629052150215153   -0.11373179757018206
-1.4786072866445295   -0.1629052150215153   -0.11373179757018206
-1.4786072866445295   -0.1629052150215153   -0.11373179757018206
-1.4786072866445295   -0.1629052150215153   -0.11373179757018206
-1.4291810542356405   0.09981250772803374   0.17650060344528345
-1.4291810542356405   0.09981250772803374   0.17650060344528345
-1.4291810542356405   0.09981250772803374   0.17650060344528345
-1.4291810542356405   0.09981250772803374   0.17650060344528345
-1.4474045089876468   -0.1734687706049159   -0.07122686001610273
-1.4474045089876468   -0.1734687706049159   -0.07122686001610273
-1.4474045089876468   -0.1734687706049159   -0.07122686001610273
-1.4474045089876468   -0.1734687706049159   -0.07122686001610273
-1.39821007176051   -0.00875944944871282   -0.030739794932056308
-1.39821007176051   -0.00875944944871282   -0.030739794932056308
-1.39821007176051   -0.00875944944871282   -0.030739794932056308
-1.39821007176051   -0.00875944944871282   -0.030739794932056308
-1.3410516217365598   0.11629336222139719   0.17077544341301998
-1.3410516217365598   0.11629336222139719   0.17077544341301998
-1.3410516217365598   0.11629336222139719   0.17077544341301998
-1.3410516217365598   0.11629336222139719   0.17077544341301998
-1.545439140768437   -0.19985482437998864   -0.1051224971106764
-1.545439140768437   -0.19985482437998864   -0.1051224971106764
-1.545439140768437   -0.19985482437998864   -0.1051224971106764
-1.545439140768437   -0.19985482437998864   -0.1051224971106764
-1.5364075014829344   0.009797132871264103   0.18866989342376073
-1.5364075014829344   0.009797132871264103   0.18866989342376073
-1.5364075014829344   0.009797132871264103   0.18866989342376073
-1.5364075014829344   0.009797132871264103   0.18866989342376073
-1.4642336281126482   -0.2253541516106928   -0.061939607318113134
-1.4642336281126482   -0.2253541516106928   -0.061939607318113134
-1.4642336281126482   -0.2253541516106928   -0.061939607318113134
-1.4642336281126482   -0.2253541516106928   -0.061939607318113134
-1.4290207253939018   -0.04804359621231369   -0.06258811371853193
-1.4290207253939018   -0.04804359621231369   -0.06258811371853193
-1.4290207253939018   -0.04804359621231369   -0.06258811371853193
-1.4290207253939018   -0.04804359621231369   -0.06258811371853193
-2.8916910879557802   -0.26356655603652357   -0.2689006837331091
-2.8916910879557802   -0.26356655603652357   -0.2689006837331091
-2.8916910879557802   -0.26356655603652357   -0.2689006837331091
-2.8916910879557802   -0.26356655603652357   -0.2689006837331091
-1.825775857730186   0.15913183647667262   0.06366225088329108
-1.825775857730186   0.15913183647667262   0.06366225088329108
-1.825775857730186   0.15913183647667262   0.06366225088329108
-1.825775857730186   0.15913183647667262   0.06366225088329108
-1.9162461176133745   -0.11838589728539978   -0.11913454166175987
-1.9162461176133745   -0.11838589728539978   -0.11913454166175987
-1.9162461176133745   -0.11838589728539978   -0.11913454166175987
-1.9162461176133745   -0.11838589728539978   -0.11913454166175987
-3.0698357454611296   -0.3410323664033821   0.303328134746214
-3.0698357454611296   -0.3410323664033821   0.303328134746214
-3.0698357454611296   -0.3410323664033821   0.303328134746214
-3.0698357454611296   -0.3410323664033821   0.303328134746214
-2.2312102854677325   -0.08330384957476705   0.2931497824654784
-2.2312102854677325   -0.08330384957476705   0.2931497824654784
-2.2312102854677325   -0.08330384957476705   0.2931497824654784
-2.2312102854677325   -0.08330384957476705   0.2931497824654784
-3.1788608985482045   -0.386373287132107   -0.19645670996040426
-3.1788608985482045   -0.386373287132107   -0.19645670996040426
-3.1788608985482045   -0.386373287132107   -0.19645670996040426
-3.1788608985482045   -0.386373287132107   -0.19645670996040426
-1.8837696335900422   -0.14959364562042268   0.0744556267899236
-1.8837696335900422   -0.14959364562042268   0.0744556267899236
-1.8837696335900422   -0.14959364562042268   0.0744556267899236
-1.8837696335900422   -0.14959364562042268   0.0744556267899236
-1.9439663514491616   -0.1725950495973087   -0.08493425073139933
-1.9439663514491616   -0.1725950495973087   -0.08493425073139933
-1.9439663514491616   -0.1725950495973087   -0.08493425073139933
-1.9439663514491616   -0.1725950495973087   -0.08493425073139933
-3.165139536067968   -0.477163119003317   0.008787077154672723
-3.165139536067968   -0.477163119003317   0.008787077154672723
-3.165139536067968   -0.477163119003317   0.008787077154672723
-3.165139536067968   -0.477163119003317   0.008787077154672723
-2.4669673742948524   -0.28797062304123267   0.06727740569204177
-2.4669673742948524   -0.28797062304123267   0.06727740569204177
-2.4669673742948524   -0.28797062304123267   0.06727740569204177
-2.4669673742948524   -0.28797062304123267   0.06727740569204177
-3.190237432604315   -0.436362933823442   -0.1575025907069118
-3.190237432604315   -0.436362933823442   -0.1575025907069118
-3.190237432604315   -0.436362933823442   -0.1575025907069118
-3.190237432604315   -0.436362933823442   -0.1575025907069118
-1.9422242796662148   -0.23675105953058262   -0.01206788188340882
-1.9422242796662148   -0.23675105953058262   -0.01206788188340882
-1.9422242796662148   -0.23675105953058262   -0.01206788188340882
-1.9422242796662148   -0.23675105953058262   -0.01206788188340882
-1.9437168481404856   -0.30453992188210344   -0.06148644632688607
-1.9437168481404856   -0.30453992188210344   -0.06148644632688607
-1.9437168481404856   -0.30453992188210344   -0.06148644632688607
-1.9437168481404856   -0.30453992188210344   -0.06148644632688607
-3.237937053695048   -0.7298076686902387   0.049781697561684095
-3.237937053695048   -0.7298076686902387   0.049781697561684095
-3.237937053695048   -0.7298076686902387   0.049781697561684095
-3.237937053695048   -0.7298076686902387   0.049781697561684095
-2.462402738853479   -0.39625378294102875   0.004493216244239758
-2.462402738853479   -0.39625378294102875   0.004493216244239758
-2.462402738853479   -0.39625378294102875   0.004493216244239758
-2.462402738853479   -0.39625378294102875   0.004493216244239758
-1.9717619587152289   -0.3338132392834915   -0.17332317828174867
-1.9717619587152289   -0.3338132392834915   -0.17332317828174867
-1.9717619587152289   -0.3338132392834915   -0.17332317828174867
-1.9717619587152289   -0.3338132392834915   -0.17332317828174867
-1.3479696791376792   -0.863510462219923   -0.16226067135272074
-1.3479696791376792   -0.863510462219923   -0.16226067135272074
-1.3479696791376792   -0.863510462219923   -0.16226067135272074
-1.3479696791376792   -0.863510462219923   -0.16226067135272074
-1.1844351106910351   -0.19260042744385328   -0.009560015177510449
-1.1844351106910351   -0.19260042744385328   -0.009560015177510449
-1.1844351106910351   -0.19260042744385328   -0.009560015177510449
-1.1844351106910351   -0.19260042744385328   -0.009560015177510449
-2.093397662509801   -0.917991405051106   -0.20528675837818772
-2.093397662509801   -0.917991405051106   -0.20528675837818772
-2.093397662509801   -0.917991405051106   -0.20528675837818772
-2.093397662509801   -0.917991405051106   -0.20528675837818772
-1.6300862681927524   -0.6128195505770555   -0.04731392688776828
-1.6300862681927524   -0.6128195505770555   -0.04731392688776828
-1.6300862681927524   -0.6128195505770555   -0.04731392688776828
-1.6300862681927524   -0.6128195505770555   -0.04731392688776828
-1.9695531922466742   -0.3737693359518407   -0.1302864761618083
-1.9695531922466742   -0.3737693359518407   -0.1302864761618083
-1.9695531922466742   -0.3737693359518407   -0.1302864761618083
-1.9695531922466742   -0.3737693359518407   -0.1302864761618083
-1.3163012354860197   -0.7448441510749748   -0.11664691552131262
-1.3163012354860197   -0.7448441510749748   -0.11664691552131262
-1.3163012354860197   -0.7448441510749748   -0.11664691552131262
-1.3163012354860197   -0.7448441510749748   -0.11664691552131262
-1.1963455037722446   -0.24987373084966166   0.0026094672904402277
-1.1963455037722446   -0.24987373084966166   0.0026094672904402277
-1.1963455037722446   -0.24987373084966166   0.0026094672904402277
-1.1963455037722446   -0.24987373084966166   0.0026094672904402277
-2.0994052314674017   -0.9133091139653847   -0.1214145864545407
-2.0994052314674017   -0.9133091139653847   -0.1214145864545407
-2.0994052314674017   -0.9133091139653847   -0.1214145864545407
-2.0994052314674017   -0.9133091139653847   -0.1214145864545407
-1.6109229551016908   -0.5744675796021743   -0.05024984823191979
-1.6109229551016908   -0.5744675796021743   -0.05024984823191979
-1.6109229551016908   -0.5744675796021743   -0.05024984823191979
-1.6109229551016908   -0.5744675796021743   -0.05024984823191979
-1.99800099483593   -0.4302226883108309   -0.09747982895172044
-1.99800099483593   -0.4302226883108309   -0.09747982895172044
-1.99800099483593   -0.4302226883108309   -0.09747982895172044
-1.99800099483593   -0.4302226883108309   -0.09747982895172044
-1.3142225057971677   -0.7494329218976693   -0.08721635178619755
-1.3142225057971677   -0.7494329218976693   -0.08721635178619755
-1.3142225057971677   -0.7494329218976693   -0.08721635178619755
-1.3142225057971677   -0.7494329218976693   -0.08721635178619755
-1.194087761843412   -0.3215802522553007   0.02000779128319816
-1.194087761843412   -0.3215802522553007   0.02000779128319816
-1.194087761843412   -0.3215802522553007   0.02000779128319816
-1.194087761843412   -0.3215802522553007   0.02000779128319816
-2.0925325694758525   -0.9294380391221895   -0.1806669357636577
-2.0925325694758525   -0.9294380391221895   -0.1806669357636577
-2.0925325694758525   -0.9294380391221895   -0.1806669357636577
-2.0925325694758525   -0.9294380391221895   -0.1806669357636577
-1.6334815712467674   -0.6182691510702416   -0.09317286346276693
-1.6334815712467674   -0.6182691510702416   -0.09317286346276693
-1.6334815712467674   -0.6182691510702416   -0.09317286346276693
-1.6334815712467674   -0.6182691510702416   -0.09317286346276693
-1.1886668118905444   -0.21447543950694067   -0.014781357830029157
-1.1886668118905444   -0.21447543950694067   -0.014781357830029157
-1.1886668118905444   -0.21447543950694067   -0.014781357830029157
-1.1886668118905444   -0.21447543950694067   -0.014781357830029157
-0.9899743094073423   -0.6592081887891762   -0.11381596912751928
-0.9899743094073423   -0.6592081887891762   -0.11381596912751928
-0.9899743094073423   -0.6592081887891762   -0.11381596912751928
-0.9899743094073423   -0.6592081887891762   -0.11381596912751928
-0.8528098033258049   -0.17684488910425306   0.04603753153682647
-0.8528098033258049   -0.17684488910425306   0.04603753153682647
-0.8528098033258049   -0.17684488910425306   0.04603753153682647
-0.8528098033258049   -0.17684488910425306   0.04603753153682647
-1.3129386211301464   -0.7184380229247411   -0.12623997189217853
-1.3129386211301464   -0.7184380229247411   -0.12623997189217853
-1.3129386211301464   -0.7184380229247411   -0.12623997189217853
-1.3129386211301464   -0.7184380229247411   -0.12623997189217853
-1.0812154000905363   -0.4486722301366594   -0.05264240406021642
-1.0812154000905363   -0.4486722301366594   -0.05264240406021642
-1.0812154000905363   -0.4486722301366594   -0.05264240406021642
-1.0812154000905363   -0.4486722301366594   -0.05264240406021642
-1.1943470025551903   -0.2539198463716028   0.0021999444294630395
-1.1943470025551903   -0.2539198463716028   0.0021999444294630395
-1.1943470025551903   -0.2539198463716028   0.0021999444294630395
-1.1943470025551903   -0.2539198463716028   0.0021999444294630395
-0.9784564460958914   -0.6484180898525218   -0.11062248156533735
-0.9784564460958914   -0.6484180898525218   -0.11062248156533735
-0.9784564460958914   -0.6484180898525218   -0.11062248156533735
-0.9784564460958914   -0.6484180898525218   -0.11062248156533735
-0.8516062282205312   -0.22386457812153798   0.05955241022815588
-0.8516062282205312   -0.22386457812153798   0.05955241022815588
-0.8516062282205312   -0.22386457812153798   0.05955241022815588
-0.8516062282205312   -0.22386457812153798   0.05955241022815588
-1.3155628501833339   -0.7298504894740976   -0.11350050614060031
-1.3155628501833339   -0.7298504894740976   -0.11350050614060031
-1.3155628501833339   -0.7298504894740976   -0.11350050614060031
-1.3155628501833339   -0.7298504894740976   -0.11350050614060031
-1.0779956277004585   -0.4665607897512962   -0.06827520505636364
-1.0779956277004585   -0.4665607897512962   -0.06827520505636364
-1.0779956277004585   -0.4665607897512962   -0.06827520505636364
-1.0779956277004585   -0.4665607897512962   -0.06827520505636364
-1.2027452846282498   -0.3015462541804737   0.02228308634119597
-1.2027452846282498   -0.3015462541804737   0.02228308634119597
-1.2027452846282498   -0.3015462541804737   0.02228308634119597
-1.2027452846282498   -0.3015462541804737   0.02228308634119597
-0.9682811298452506   -0.6560261494847921   -0.09166052653215595
-0.9682811298452506   -0.6560261494847921   -0.09166052653215595
-0.9682811298452506   -0.6560261494847921   -0.09166052653215595
-0.9682811298452506   -0.6560261494847921   -0.09166052653215595
-0.8398718302174395   -0.26895017162367685   0.07421621035884446
-0.8398718302174395   -0.26895017162367685   0.07421621035884446
-0.8398718302174395   -0.26895017162367685   0.07421621035884446
-0.8398718302174395   -0.26895017162367685   0.07421621035884446
-1.298088698455838   -0.7395617817465423   -0.0820153622877065
-1.298088698455838   -0.7395617817465423   -0.0820153622877065
-1.298088698455838   -0.7395617817465423   -0.0820153622877065
-1.298088698455838   -0.7395617817465423   -0.0820153622877065
-1.0730876905258648   -0.4898785655740928   -0.07890037771133561
-1.0730876905258648   -0.4898785655740928   -0.07890037771133561
-1.0730876905258648   -0.4898785655740928   -0.07890037771133561
-1.0730876905258648   -0.4898785655740928   -0.07890037771133561
-0.8252317504827927   -0.030194569350215167   0.08088320605623688
-0.8252317504827927   -0.030194569350215167   0.08088320605623688
-0.8252317504827927   -0.030194569350215167   0.08088320605623688
-0.8252317504827927   -0.030194569350215167   0.08088320605623688
-0.7731339938688105   -0.3474885261080829   -0.067475856946584
-0.7731339938688105   -0.3474885261080829   -0.067475856946584
-0.7731339938688105   -0.3474885261080829   -0.067475856946584
-0.7731339938688105   -0.3474885261080829   -0.067475856946584
-0.6651717897400489   -0.05041650469015799   0.09390891754381937
-0.6651717897400489   -0.05041650469015799   0.09390891754381937
-0.6651717897400489   -0.05041650469015799   0.09390891754381937
-0.6651717897400489   -0.05041650469015799   0.09390891754381937
-0.9169577787879717   -0.4034801746937082   -0.04806706018455234
-0.9169577787879717   -0.4034801746937082   -0.04806706018455234
-0.9169577787879717   -0.4034801746937082   -0.04806706018455234
-0.9169577787879717   -0.4034801746937082   -0.04806706018455234
-0.7978354911746307   -0.20609226537727032   -0.028473740340560987
-0.7978354911746307   -0.20609226537727032   -0.028473740340560987
-0.7978354911746307   -0.20609226537727032   -0.028473740340560987
-0.7978354911746307   -0.20609226537727032   -0.028473740340560987
-0.8244751905565616   -0.08240485592205528   0.0932705622008456
-0.8244751905565616   -0.08240485592205528   0.0932705622008456
-0.8244751905565616   -0.08240485592205528   0.0932705622008456
-0.8244751905565616   -0.08240485592205528   0.0932705622008456
-0.7650826324879852   -0.3789200779783372   -0.07714172290768356
-0.7650826324879852   -0.3789200779783372   -0.07714172290768356
-0.7650826324879852   -0.3789200779783372   -0.07714172290768356
-0.7650826324879852   -0.3789200779783372   -0.07714172290768356
-0.6647006507993152   -0.09583355996589263   0.10084095374936826
-0.6647006507993152   -0.09583355996589263   0.10084095374936826
-0.6647006507993152   -0.09583355996589263   0.10084095374936826
-0.6647006507993152   -0.09583355996589263   0.10084095374936826
-0.9151112652286516   -0.4279729379271658   -0.05386441500681856
-0.9151112652286516   -0.4279729379271658   -0.05386441500681856
-0.9151112652286516   -0.4279729379271658   -0.05386441500681856
-0.9151112652286516   -0.4279729379271658   -0.05386441500681856
-0.7930138649616296   -0.24269225715263965   -0.04820027158278227
-0.7930138649616296   -0.24269225715263965   -0.04820027158278227
-0.7930138649616296   -0.24269225715263965   -0.04820027158278227
-0.7930138649616296   -0.24269225715263965   -0.04820027158278227
-0.8227933856656331   -0.12639157392733508   0.1061436188084741
-0.8227933856656331   -0.12639157392733508   0.1061436188084741
-0.8227933856656331   -0.12639157392733508   0.1061436188084741
-0.8227933856656331   -0.12639157392733508   0.1061436188084741
-0.7615102240130063   -0.40190661761639607   -0.0771338546685845
-0.7615102240130063   -0.40190661761639607   -0.0771338546685845
-0.7615102240130063   -0.40190661761639607   -0.0771338546685845
-0.7615102240130063   -0.40190661761639607   -0.0771338546685845
-0.657454020753777   -0.13842873161985914   0.11680139815182786
-0.657454020753777   -0.13842873161985914   0.11680139815182786
-0.657454020753777   -0.13842873161985914   0.11680139815182786
-0.657454020753777   -0.13842873161985914   0.11680139815182786
-0.8988586608689381   -0.4525810930686578   -0.03708702145366735
-0.8988586608689381   -0.4525810930686578   -0.03708702145366735
-0.8988586608689381   -0.4525810930686578   -0.03708702145366735
-0.8988586608689381   -0.4525810930686578   -0.03708702145366735
-0.7889778863349742   -0.2739196035860979   -0.061723593715338684
-0.7889778863349742   -0.2739196035860979   -0.061723593715338684
-0.7889778863349742   -0.2739196035860979   -0.061723593715338684
-0.7889778863349742   -0.2739196035860979   -0.061723593715338684
-0.6470398775673882   0.08990633128005135   0.12559986717239335
-0.6470398775673882   0.08990633128005135   0.12559986717239335
-0.6470398775673882   0.08990633128005135   0.12559986717239335
-0.6470398775673882   0.08990633128005135   0.12559986717239335
-0.42015957734452186   -0.11319330286982837   -0.041020451311608294
-0.42015957734452186   -0.11319330286982837   -0.041020451311608294
-0.42015957734452186   -0.11319330286982837   -0.041020451311608294
-0.42015957734452186   -0.11319330286982837   -0.041020451311608294
-0.3640196790139362   0.10752690073345594   0.12384117357408125
-0.3640196790139362   0.10752690073345594   0.12384117357408125
-0.3640196790139362   0.10752690073345594   0.12384117357408125
-0.3640196790139362   0.10752690073345594   0.12384117357408125
-0.7132447783452032   -0.17572685129322013   -0.02114567887889037
-0.7132447783452032   -0.17572685129322013   -0.02114567887889037
-0.7132447783452032   -0.17572685129322013   -0.02114567887889037
-0.7132447783452032   -0.17572685129322013   -0.02114567887889037
-0.529157592098904   -0.010873617736677596   -0.023248550479705674
-0.529157592098904   -0.010873617736677596   -0.023248550479705674
-0.529157592098904   -0.010873617736677596   -0.023248550479705674
-0.529157592098904   -0.010873617736677596   -0.023248550479705674
-0.6352696365331388   0.055924425243690956   0.1370787536445202
-0.6352696365331388   0.055924425243690956   0.1370787536445202
-0.6352696365331388   0.055924425243690956   0.1370787536445202
-0.6352696365331388   0.055924425243690956   0.1370787536445202
-0.44264934057071953   -0.12477889554818426   -0.03700133792816407
-0.44264934057071953   -0.12477889554818426   -0.03700133792816407
-0.44264934057071953   -0.12477889554818426   -0.03700133792816407
-0.44264934057071953   -0.12477889554818426   -0.03700133792816407
-0.37901823859281697   0.08563256925642013   0.15589356889574751
-0.37901823859281697   0.08563256925642013   0.15589356889574751
-0.37901823859281697   0.08563256925642013   0.15589356889574751
-0.37901823859281697   0.08563256925642013   0.15589356889574751
-0.7085568427054588   -0.18685084699310966   -0.027422718754133144
-0.7085568427054588   -0.18685084699310966   -0.027422718754133144
-0.7085568427054588   -0.18685084699310966   -0.027422718754133144
-0.7085568427054588   -0.18685084699310966   -0.027422718754133144
-0.5434126281209388   -0.03482323137055518   -0.03206761595136073
-0.5434126281209388   -0.03482323137055518   -0.03206761595136073
-0.5434126281209388   -0.03482323137055518   -0.03206761595136073
-0.5434126281209388   -0.03482323137055518   -0.03206761595136073
-0.6268258517782366   0.03647384218163359   0.15790754670723448
-0.6268258517782366   0.03647384218163359   0.15790754670723448
-0.6268258517782366   0.03647384218163359   0.15790754670723448
-0.6268258517782366   0.03647384218163359   0.15790754670723448
-0.466343143610891   -0.14328603400917497   -0.051812352929058086
-0.466343143610891   -0.14328603400917497   -0.051812352929058086
-0.466343143610891   -0.14328603400917497   -0.051812352929058086
-0.466343143610891   -0.14328603400917497   -0.051812352929058086
-0.4341748464208614   0.025485199498181746   0.16219836653447278
-0.4341748464208614   0.025485199498181746   0.16219836653447278
-0.4341748464208614   0.025485199498181746   0.16219836653447278
-0.4341748464208614   0.025485199498181746   0.16219836653447278
-0.6970318836115251   -0.19638315390980238   -0.023133493846969895
-0.6970318836115251   -0.19638315390980238   -0.023133493846969895
-0.6970318836115251   -0.19638315390980238   -0.023133493846969895
-0.6970318836115251   -0.19638315390980238   -0.023133493846969895
-0.5497346906992654   -0.05189772327973784   -0.0468159722124112
-0.5497346906992654   -0.05189772327973784   -0.0468159722124112
-0.5497346906992654   -0.05189772327973784   -0.0468159722124112
-0.5497346906992654   -0.05189772327973784   -0.0468159722124112
-6.771108831575373   -0.954595010737723   -0.5596390113434995
-6.771108831575373   -0.954595010737723   -0.5596390113434995
-6.771108831575373   -0.954595010737723   -0.5596390113434995
-6.771108831575373   -0.954595010737723   -0.5596390113434995
-2.3432033235886047   -3.6354972339908196   -0.43905113418298036
-2.3432033235886047   -3.6354972339908196   -0.43905113418298036
-2.3432033235886047   -3.6354972339908196   -0.43905113418298036
-2.3432033235886047   -3.6354972339908196   -0.43905113418298036
-1.8180676980667263   -0.1506967508016818   0.0032381653603123714
-1.8180676980667263   -0.1506967508016818   0.0032381653603123714
-1.8180676980667263   -0.1506967508016818   0.0032381653603123714
-1.8180676980667263   -0.1506967508016818   0.0032381653603123714
-7.216000369957359   -4.28405034132216   -2.300010142255904
-7.216000369957359   -4.28405034132216   -2.300010142255904
-7.216000369957359   -4.28405034132216   -2.300010142255904
-7.216000369957359   -4.28405034132216   -2.300010142255904
-4.423951471223225   -2.1327586939101613   -0.31058021746236836
-4.423951471223225   -2.1327586939101613   -0.31058021746236836
-4.423951471223225   -2.1327586939101613   -0.31058021746236836
-4.423951471223225   -2.1327586939101613   -0.31058021746236836
-6.290898980294004   -1.1980177894762227   -0.7605357457851141
-6.290898980294004   -1.1980177894762227   -0.7605357457851141
-6.290898980294004   -1.1980177894762227   -0.7605357457851141
-6.290898980294004   -1.1980177894762227   -0.7605357457851141
-2.5283266579763164   -3.0218868728938597   -0.6768665120954449
-2.5283266579763164   -3.0218868728938597   -0.6768665120954449
-2.5283266579763164   -3.0218868728938597   -0.6768665120954449
-2.5283266579763164   -3.0218868728938597   -0.6768665120954449
-1.852873165027861   -0.2024547190634804   0.0700627058137486
-1.852873165027861   -0.2024547190634804   0.0700627058137486
-1.852873165027861   -0.2024547190634804   0.0700627058137486
-1.852873165027861   -0.2024547190634804   0.0700627058137486
-6.751290983603015   -3.815710078528116   -2.1134002124262263
-6.751290983603015   -3.815710078528116   -2.1134002124262263
-6.751290983603015   -3.815710078528116   -2.1134002124262263
-6.751290983603015   -3.815710078528116   -2.1134002124262263
-4.165765375641605   -1.921305535693381   0.17006400685407486
-4.165765375641605   -1.921305535693381   0.17006400685407486
-4.165765375641605   -1.921305535693381   0.17006400685407486
-4.165765375641605   -1.921305535693381   0.17006400685407486
-5.906788246341795   -1.1404746645155623   -0.5661219401327284
-5.906788246341795   -1.1404746645155623   -0.5661219401327284
-5.906788246341795   -1.1404746645155623   -0.5661219401327284
-5.906788246341795   -1.1404746645155623   -0.5661219401327284
-2.4588421094758255   -2.6391563402627836   -0.5230803952267532
-2.4588421094758255   -2.6391563402627836   -0.5230803952267532
-2.4588421094758255   -2.6391563402627836   -0.5230803952267532
-2.4588421094758255   -2.6391563402627836   -0.5230803952267532
-2.1248546553967413   -0.5389544557995767   -0.10903463628331228
-2.1248546553967413   -0.5389544557995767   -0.10903463628331228
-2.1248546553967413   -0.5389544557995767   -0.10903463628331228
-2.1248546553967413   -0.5389544557995767   -0.10903463628331228
-6.152543151200469   -3.1994526372482053   -1.8703991576897347
-6.152543151200469   -3.1994526372482053   -1.8703991576897347
-6.152543151200469   -3.1994526372482053   -1.8703991576897347
-6.152543151200469   -3.1994526372482053   -1.8703991576897347
-3.857585415590704   -1.6643019621673731   0.7124615406333039
-3.857585415590704   -1.6643019621673731   0.7124615406333039
-3.857585415590704   -1.6643019621673731   0.7124615406333039
-3.857585415590704   -1.6643019621673731   0.7124615406333039
-1.7437910935564498   -0.938100045363117   -0.13938717264991932
-1.7437910935564498   -0.938100045363117   -0.13938717264991932
-1.7437910935564498   -0.938100045363117   -0.13938717264991932
-1.7437910935564498   -0.938100045363117   -0.13938717264991932
-0.8004136676852063   -1.1315131866979031   -0.19749076302566368
-0.8004136676852063   -1.1315131866979031   -0.19749076302566368
-0.8004136676852063   -1.1315131866979031   -0.19749076302566368
-0.8004136676852063   -1.1315131866979031   -0.19749076302566368
-0.7096504952866225   -0.5964203837068102   0.01882118112011258
-0.7096504952866225   -0.5964203837068102   0.01882118112011258
-0.7096504952866225   -0.5964203837068102   0.01882118112011258
-0.7096504952866225   -0.5964203837068102   0.01882118112011258
-2.122951992806847   -1.6699821982612433   -0.0018978608807136421
-2.122951992806847   -1.6699821982612433   -0.0018978608807136421
-2.122951992806847   -1.6699821982612433   -0.0018978608807136421
-2.122951992806847   -1.6699821982612433   -0.0018978608807136421
-1.1429587265863648   -0.8114663005110128   0.36413758726819956
-1.1429587265863648   -0.8114663005110128   0.36413758726819956
-1.1429587265863648   -0.8114663005110128   0.36413758726819956
-1.1429587265863648   -0.8114663005110128   0.36413758726819956
-1.9809528228209143   -0.8723516060667962   -0.08953260314552525
-1.9809528228209143   -0.8723516060667962   -0.08953260314552525
-1.9809528228209143   -0.8723516060667962   -0.08953260314552525
-1.9809528228209143   -0.8723516060667962   -0.08953260314552525
-0.9109233997239569   -1.4533247103526639   -0.13063901442070638
-0.9109233997239569   -1.4533247103526639   -0.13063901442070638
-0.9109233997239569   -1.4533247103526639   -0.13063901442070638
-0.9109233997239569   -1.4533247103526639   -0.13063901442070638
-0.7647514222641743   -0.6183011035064864   0.018971656636754125
-0.7647514222641743   -0.6183011035064864   0.018971656636754125
-0.7647514222641743   -0.6183011035064864   0.018971656636754125
-0.7647514222641743   -0.6183011035064864   0.018971656636754125
-2.223841476765302   -1.6463678922187104   -0.3408656797182117
-2.223841476765302   -1.6463678922187104   -0.3408656797182117
-2.223841476765302   -1.6463678922187104   -0.3408656797182117
-2.223841476765302   -1.6463678922187104   -0.3408656797182117
-1.3595053688569168   -1.0429694105981073   0.16783491478413695
-1.3595053688569168   -1.0429694105981073   0.16783491478413695
-1.3595053688569168   -1.0429694105981073   0.16783491478413695
-1.3595053688569168   -1.0429694105981073   0.16783491478413695
-2.0419436149824195   -0.9109022716516592   -0.16684199137086442
-2.0419436149824195   -0.9109022716516592   -0.16684199137086442
-2.0419436149824195   -0.9109022716516592   -0.16684199137086442
-2.0419436149824195   -0.9109022716516592   -0.16684199137086442
-0.9410301487541919   -1.3481475887806726   -0.13257549053913276
-0.9410301487541919   -1.3481475887806726   -0.13257549053913276
-0.9410301487541919   -1.3481475887806726   -0.13257549053913276
-0.9410301487541919   -1.3481475887806726   -0.13257549053913276
-0.8491683480189378   -0.6390579113002964   0.027869481888923575
-0.8491683480189378   -0.6390579113002964   0.027869481888923575
-0.8491683480189378   -0.6390579113002964   0.027869481888923575
-0.8491683480189378   -0.6390579113002964   0.027869481888923575
-2.3744745946146297   -1.5980943033086397   -0.29799448486368435
-2.3744745946146297   -1.5980943033086397   -0.29799448486368435
-2.3744745946146297   -1.5980943033086397   -0.29799448486368435
-2.3744745946146297   -1.5980943033086397   -0.29799448486368435
-1.4200962624303626   -0.9826146123154097   0.17790213925314471
-1.4200962624303626   -0.9826146123154097   0.17790213925314471
-1.4200962624303626   -0.9826146123154097   0.17790213925314471
-1.4200962624303626   -0.9826146123154097   0.17790213925314471
-0.6380184130903789   -0.5578827925418072   0.04085511579236249
-0.6380184130903789   -0.5578827925418072   0.04085511579236249
-0.6380184130903789   -0.5578827925418072   0.04085511579236249
-0.6380184130903789   -0.5578827925418072   0.04085511579236249
-0.38482684132843414   -0.34375932281497684   -0.0959502148510133
-0.38482684132843414   -0.34375932281497684   -0.0959502148510133
-0.38482684132843414   -0.34375932281497684   -0.0959502148510133
-0.38482684132843414   -0.34375932281497684   -0.0959502148510133
-0.37490309906100994   -0.4972655645755852   0.04158679778446464
-0.37490309906100994   -0.4972655645755852   0.04158679778446464
-0.37490309906100994   -0.4972655645755852   0.04158679778446464
-0.37490309906100994   -0.4972655645755852   0.04158679778446464
-0.6988672667519227   -0.4773368453448108   -0.04634621456838818
-0.6988672667519227   -0.4773368453448108   -0.04634621456838818
-0.6988672667519227   -0.4773368453448108   -0.04634621456838818
-0.6988672667519227   -0.4773368453448108   -0.04634621456838818
-0.443254864400445   -0.3961919210977961   0.18219927398266722
-0.443254864400445   -0.3961919210977961   0.18219927398266722
-0.443254864400445   -0.3961919210977961   0.18219927398266722
-0.443254864400445   -0.3961919210977961   0.18219927398266722
-0.6976507671129192   -0.5613771417387494   0.0437765800205526
-0.6976507671129192   -0.5613771417387494   0.0437765800205526
-0.6976507671129192   -0.5613771417387494   0.0437765800205526
-0.6976507671129192   -0.5613771417387494   0.0437765800205526
-0.38182172456141716   -0.41892739404305795   -0.07134450025012945
-0.38182172456141716   -0.41892739404305795   -0.07134450025012945
-0.38182172456141716   -0.41892739404305795   -0.07134450025012945
-0.38182172456141716   -0.41892739404305795   -0.07134450025012945
-0.37774872689041594   -0.5122364870188973   0.03675538284248303
-0.37774872689041594   -0.5122364870188973   0.03675538284248303
-0.37774872689041594   -0.5122364870188973   0.03675538284248303
-0.37774872689041594   -0.5122364870188973   0.03675538284248303
-0.7400012193340831   -0.5581573299558859   0.08257889773662455
-0.7400012193340831   -0.5581573299558859   0.08257889773662455
-0.7400012193340831   -0.5581573299558859   0.08257889773662455
-0.7400012193340831   -0.5581573299558859   0.08257889773662455
-0.479713189482461   -0.4410004378947462   0.15568207905632908
-0.479713189482461   -0.4410004378947462   0.15568207905632908
-0.479713189482461   -0.4410004378947462   0.15568207905632908
-0.479713189482461   -0.4410004378947462   0.15568207905632908
-0.7494625600048496   -0.582089464437411   0.05920432886431774
-0.7494625600048496   -0.582089464437411   0.05920432886431774
-0.7494625600048496   -0.582089464437411   0.05920432886431774
-0.7494625600048496   -0.582089464437411   0.05920432886431774
-0.39994424566363185   -0.5199612119813494   -0.06649748606114463
-0.39994424566363185   -0.5199612119813494   -0.06649748606114463
-0.39994424566363185   -0.5199612119813494   -0.06649748606114463
-0.39994424566363185   -0.5199612119813494   -0.06649748606114463
-0.379620486359835   -0.529176771309816   0.0514414777999222
-0.379620486359835   -0.529176771309816   0.0514414777999222
-0.379620486359835   -0.529176771309816   0.0514414777999222
-0.379620486359835   -0.529176771309816   0.0514414777999222
-0.8619088057242801   -0.6898075114675577   0.014916793529473199
-0.8619088057242801   -0.6898075114675577   0.014916793529473199
-0.8619088057242801   -0.6898075114675577   0.014916793529473199
-0.8619088057242801   -0.6898075114675577   0.014916793529473199
-0.5332377484049304   -0.503849499907742   0.07542500787006552
-0.5332377484049304   -0.503849499907742   0.07542500787006552
-0.5332377484049304   -0.503849499907742   0.07542500787006552
-0.5332377484049304   -0.503849499907742   0.07542500787006552
-0.3196904890594901   -0.22175850751762996   0.10773073119636004
-0.3196904890594901   -0.22175850751762996   0.10773073119636004
-0.3196904890594901   -0.22175850751762996   0.10773073119636004
-0.3196904890594901   -0.22175850751762996   0.10773073119636004
-0.21989332253447336   0.00894529966159232   -0.021268834847759634
-0.21989332253447336   0.00894529966159232   -0.021268834847759634
-0.21989332253447336   0.00894529966159232   -0.021268834847759634
-0.21989332253447336   0.00894529966159232   -0.021268834847759634
-0.20898684043794807   -0.23885658249432504   0.06707996246234005
-0.20898684043794807   -0.23885658249432504   0.06707996246234005
-0.20898684043794807   -0.23885658249432504   0.06707996246234005
-0.20898684043794807   -0.23885658249432504   0.06707996246234005
-0.29330996341036186   -0.032348428194589635   -0.01536466034332121
-0.29330996341036186   -0.032348428194589635   -0.01536466034332121
-0.29330996341036186   -0.032348428194589635   -0.01536466034332121
-0.29330996341036186   -0.032348428194589635   -0.01536466034332121
-0.24107169250440405   -0.11738997096242779   0.05346046148720556
-0.24107169250440405   -0.11738997096242779   0.05346046148720556
-0.24107169250440405   -0.11738997096242779   0.05346046148720556
-0.24107169250440405   -0.11738997096242779   0.05346046148720556
-0.3141089344683269   -0.25303215213201335   0.10132420830427724
-0.3141089344683269   -0.25303215213201335   0.10132420830427724
-0.3141089344683269   -0.25303215213201335   0.10132420830427724
-0.3141089344683269   -0.25303215213201335   0.10132420830427724
-0.1824287584045787   -0.012413747581496964   -0.02657246228364105
-0.1824287584045787   -0.012413747581496964   -0.02657246228364105
-0.1824287584045787   -0.012413747581496964   -0.02657246228364105
-0.1824287584045787   -0.012413747581496964   -0.02657246228364105
-0.19024594030605574   -0.259901108037926   0.06162940951678457
-0.19024594030605574   -0.259901108037926   0.06162940951678457
-0.19024594030605574   -0.259901108037926   0.06162940951678457
-0.19024594030605574   -0.259901108037926   0.06162940951678457
-0.29382417223602675   -0.071582349940024   0.01572401903555543
-0.29382417223602675   -0.071582349940024   0.01572401903555543
-0.29382417223602675   -0.071582349940024   0.01572401903555543
-0.29382417223602675   -0.071582349940024   0.01572401903555543
-0.21959972135830527   -0.13421571833624663   0.06475610599739004
-0.21959972135830527   -0.13421571833624663   0.06475610599739004
-0.21959972135830527   -0.13421571833624663   0.06475610599739004
-0.21959972135830527   -0.13421571833624663   0.06475610599739004
-0.3143296935463199   -0.27393410673376883   0.11554816927783444
-0.3143296935463199   -0.27393410673376883   0.11554816927783444
-0.3143296935463199   -0.27393410673376883   0.11554816927783444
-0.3143296935463199   -0.27393410673376883   0.11554816927783444
-0.17108052345483626   -0.05888945570325484   -0.0435551585617892
-0.17108052345483626   -0.05888945570325484   -0.0435551585617892
-0.17108052345483626   -0.05888945570325484   -0.0435551585617892
-0.17108052345483626   -0.05888945570325484   -0.0435551585617892
-0.15677515710457302   -0.2832375953935158   0.06754696315767786
-0.15677515710457302   -0.2832375953935158   0.06754696315767786
-0.15677515710457302   -0.2832375953935158   0.06754696315767786
-0.15677515710457302   -0.2832375953935158   0.06754696315767786
-0.3137587754926748   -0.16929882461950785   0.0208720854454151
-0.3137587754926748   -0.16929882461950785   0.0208720854454151
-0.3137587754926748   -0.16929882461950785   0.0208720854454151
-0.3137587754926748   -0.16929882461950785   0.0208720854454151
-0.20923455511155892   -0.1700255942432322   0.05725497603900963
-0.20923455511155892   -0.1700255942432322   0.05725497603900963
-0.20923455511155892   -0.1700255942432322   0.05725497603900963
-0.20923455511155892   -0.1700255942432322   0.05725497603900963
-0.20389530891076854   -0.040169210278570594   0.10783574321092725
-0.20389530891076854   -0.040169210278570594   0.10783574321092725
-0.20389530891076854   -0.040169210278570594   0.10783574321092725
-0.20389530891076854   -0.040169210278570594   0.10783574321092725
-0.03257299708029623   0.025474812904487103   -0.0021746083653930715
-0.03257299708029623   0.025474812904487103   -0.0021746083653930715
-0.03257299708029623   0.025474812904487103   -0.0021746083653930715
-0.03257299708029623   0.025474812904487103   -0.0021746083653930715
0.015679205709307645   -0.012453880762418088   0.06629518972063966
0.015679205709307645   -0.012453880762418088   0.06629518972063966
0.015679205709307645   -0.012453880762418088   0.06629518972063966
0.015679205709307645   -0.012453880762418088   0.06629518972063966
-0.17249996407384938   0.020197487397051225   -0.009539725608542677
-0.17249996407384938   0.020197487397051225   -0.009539725608542677
-0.17249996407384938   0.020197487397051225   -0.009539725608542677
-0.17249996407384938   0.020197487397051225   -0.009539725608542677
-0.10017501211989412   -0.007172077074093855   -0.008710759345852779
-0.10017501211989412   -0.007172077074093855   -0.008710759345852779
-0.10017501211989412   -0.007172077074093855   -0.008710759345852779
-0.10017501211989412   -0.007172077074093855   -0.008710759345852779
-0.15992111288584035   -0.03843548239988227   0.11198750012843603
-0.15992111288584035   -0.03843548239988227   0.11198750012843603
-0.15992111288584035   -0.03843548239988227   0.11198750012843603
-0.15992111288584035   -0.03843548239988227   0.11198750012843603
0.009269597199093616   0.05234833171231554   -0.030555065305164112
0.009269597199093616   0.05234833171231554   -0.030555065305164112
0.009269597199093616   0.05234833171231554   -0.030555065305164112
0.009269597199093616   0.05234833171231554   -0.030555065305164112
0.0408619665994357   -0.015157500893961933   0.08162520243671106
0.0408619665994357   -0.015157500893961933   0.08162520243671106
0.0408619665994357   -0.015157500893961933   0.08162520243671106
0.0408619665994357   -0.015157500893961933   0.08162520243671106
-0.1500320785336669   0.017006655944968495   -0.014209045604165598
-0.1500320785336669   0.017006655944968495   -0.014209045604165598
-0.1500320785336669   0.017006655944968495   -0.014209045604165598
-0.1500320785336669   0.017006655944968495   -0.014209045604165598
-0.06354393190879944   -0.0008605903495288812   0.010982390861307686
-0.06354393190879944   -0.0008605903495288812   0.010982390861307686
-0.06354393190879944   -0.0008605903495288812   0.010982390861307686
-0.06354393190879944   -0.0008605903495288812   0.010982390861307686
-0.1351310620697792   -0.042683840485915725   0.11998653314615702
-0.1351310620697792   -0.042683840485915725   0.11998653314615702
-0.1351310620697792   -0.042683840485915725   0.11998653314615702
-0.1351310620697792   -0.042683840485915725   0.11998653314615702
0.03165880467651485   0.05023085007788911   -0.029778958149744246
0.03165880467651485   0.05023085007788911   -0.029778958149744246
0.03165880467651485   0.05023085007788911   -0.029778958149744246
0.03165880467651485   0.05023085007788911   -0.029778958149744246
0.06731897840279395   -0.023094611544216666   0.07895835596667018
0.06731897840279395   -0.023094611544216666   0.07895835596667018
0.06731897840279395   -0.023094611544216666   0.07895835596667018
0.06731897840279395   -0.023094611544216666   0.07895835596667018
-0.11297234102840018   0.01956589923406444   -0.01624245108903813
-0.11297234102840018   0.01956589923406444   -0.01624245108903813
-0.11297234102840018   0.01956589923406444   -0.01624245108903813
-0.11297234102840018   0.01956589923406444   -0.01624245108903813
-0.030530737087596408   0.0035634695810495354   0.02872597998540388
-0.030530737087596408   0.0035634695810495354   0.02872597998540388
-0.030530737087596408   0.0035634695810495354   0.02872597998540388
-0.030530737087596408   0.0035634695810495354   0.02872597998540388
              </DataArray>   
             <DataArray type="Float64" NumberOfComponents="3" Name="Displacements" format="ascii">   
0.0   0.0   0.0
-0.018800503689519864   -0.01229980640608479   -0.00629579535960856
0.0   0.0   0.0
0.0   0.0   0.0
-0.018800503689519864   -0.01229980640608479   -0.00629579535960856
-0.011966982359265665   -0.01104706049963906   -0.004625147676588019
0.0   0.0   0.0
-0.011733017295590073   -0.011603454647988754   -0.003874061914905064
0.0   0.0   0.0
0.0   0.0   0.0
-0.011733017295590073   -0.011603454647988754   -0.003874061914905064
0.0   0.0   0.0
0.0   0.0   0.0
-0.011733017295590073   -0.011603454647988754   -0.003874061914905064
-0.01967895956212269   -0.013105332222374286   -0.005053406743311085
-0.018800503689519864   -0.01229980640608479   -0.00629579535960856
0.0   0.0   0.0
-0.011733017295590073   -0.011603454647988754   -0.003874061914905064
-0.018800503689519864   -0.01229980640608479   -0.00629579535960856
0.0   0.0   0.0
0.0   0.0   0.0
-0.01967895956212269   -0.013105332222374286   -0.005053406743311085
0.0   0.0   0.0
0.0   0.0   0.0
-0.01967895956212269   -0.013105332222374286   -0.005053406743311085
-0.011733017295590073   -0.011603454647988754   -0.003874061914905064
0.0   0.0   0.0
-0.011769029440838265   -0.011888253195775574   -0.0031237248342471527
0.0   0.0   0.0
0.0   0.0   0.0
-0.011769029440838265   -0.011888253195775574   -0.0031237248342471527
0.0   0.0   0.0
0.0   0.0   0.0
-0.011769029440838265   -0.011888253195775574   -0.0031237248342471527
-0.02029723238707502   -0.013496885111733374   -0.0038623727965156713
-0.01967895956212269   -0.013105332222374286   -0.005053406743311085
0.0   0.0   0.0
-0.011769029440838265   -0.011888253195775574   -0.0031237248342471527
-0.01967895956212269   -0.013105332222374286   -0.005053406743311085
0.0   0.0   0.0
0.0   0.0   0.0
-0.02029723238707502   -0.013496885111733374   -0.0038623727965156713
0.0   0.0   0.0
0.0   0.0   0.0
-0.02029723238707502   -0.013496885111733374   -0.0038623727965156713
-0.011769029440838265   -0.011888253195775574   -0.0031237248342471527
0.0   0.0   0.0
-0.011766138371609681   -0.011960974143841747   -0.002347450826057959
0.0   0.0   0.0
0.0   0.0   0.0
-0.011766138371609681   -0.011960974143841747   -0.002347450826057959
0.0   0.0   0.0
0.0   0.0   0.0
-0.011766138371609681   -0.011960974143841747   -0.002347450826057959
-0.021626261662940776   -0.01379227543767505   -0.0024801924713569847
-0.02029723238707502   -0.013496885111733374   -0.0038623727965156713
0.0   0.0   0.0
-0.011766138371609681   -0.011960974143841747   -0.002347450826057959
-0.02029723238707502   -0.013496885111733374   -0.0038623727965156713
0.0   0.0   0.0
0.0   0.0   0.0
-0.011966982359265665   -0.01104706049963906   -0.004625147676588019
0.0   0.0   0.0
0.0   0.0   0.0
-0.011966982359265665   -0.01104706049963906   -0.004625147676588019
-0.005446448288432328   -0.010587003523147726   -0.0035167289095739377
0.0   0.0   0.0
-0.00524116574068988   -0.010949498806108805   -0.0031625006750905034
0.0   0.0   0.0
0.0   0.0   0.0
-0.00524116574068988   -0.010949498806108805   -0.0031625006750905034
0.0   0.0   0.0
0.0   0.0   0.0
-0.00524116574068988   -0.010949498806108805   -0.0031625006750905034
-0.011733017295590073   -0.011603454647988754   -0.003874061914905064
-0.011966982359265665   -0.01104706049963906   -0.004625147676588019
0.0   0.0   0.0
-0.00524116574068988   -0.010949498806108805   -0.0031625006750905034
-0.011966982359265665   -0.01104706049963906   -0.004625147676588019
0.0   0.0   0.0
0.0   0.0   0.0
-0.011733017295590073   -0.011603454647988754   -0.003874061914905064
0.0   0.0   0.0
0.0   0.0   0.0
-0.011733017295590073   -0.011603454647988754   -0.003874061914905064
-0.00524116574068988   -0.010949498806108805   -0.0031625006750905034
0.0   0.0   0.0
-0.0051270675739411966   -0.011087549028992725   -0.0028171946478933183
0.0   0.0   0.0
0.0   0.0   0.0
-0.0051270675739411966   -0.011087549028992725   -0.0028171946478933183
0.0   0.0   0.0
0.0   0.0   0.0
-0.0051270675739411966   -0.011087549028992725   -0.0028171946478933183
-0.011769029440838265   -0.011888253195775574   -0.0031237248342471527
-0.011733017295590073   -0.011603454647988754   -0.003874061914905064
0.0   0.0   0.0
-0.0051270675739411966   -0.011087549028992725   -0.0028171946478933183
-0.011733017295590073   -0.011603454647988754   -0.003874061914905064
0.0   0.0   0.0
0.0   0.0   0.0
-0.011769029440838265   -0.011888253195775574   -0.0031237248342471527
0.0   0.0   0.0
0.0   0.0   0.0
-0.011769029440838265   -0.011888253195775574   -0.0031237248342471527
-0.0051270675739411966   -0.011087549028992725   -0.0028171946478933183
0.0   0.0   0.0
-0.0050236551126095885   -0.011029677388843704   -0.002459868490595017
0.0   0.0   0.0
0.0   0.0   0.0
-0.0050236551126095885   -0.011029677388843704   -0.002459868490595017
0.0   0.0   0.0
0.0   0.0   0.0
-0.0050236551126095885   -0.011029677388843704   -0.002459868490595017
-0.011766138371609681   -0.011960974143841747   -0.002347450826057959
-0.011769029440838265   -0.011888253195775574   -0.0031237248342471527
0.0   0.0   0.0
-0.0050236551126095885   -0.011029677388843704   -0.002459868490595017
-0.011769029440838265   -0.011888253195775574   -0.0031237248342471527
0.0   0.0   0.0
0.0   0.0   0.0
-0.005446448288432328   -0.010587003523147726   -0.0035167289095739377
0.0   0.0   0.0
0.0   0.0   0.0
-0.005446448288432328   -0.010587003523147726   -0.0035167289095739377
0.0007167295481614206   -0.010645492715896702   -0.0028096103520071337
0.0   0.0   0.0
0.0008464061043073095   -0.010833759665336675   -0.0028594678243488753
0.0   0.0   0.0
0.0   0.0   0.0
0.0008464061043073095   -0.010833759665336675   -0.0028594678243488753
0.0   0.0   0.0
0.0   0.0   0.0
0.0008464061043073095   -0.010833759665336675   -0.0028594678243488753
-0.00524116574068988   -0.010949498806108805   -0.0031625006750905034
-0.005446448288432328   -0.010587003523147726   -0.0035167289095739377
0.0   0.0   0.0
0.0008464061043073095   -0.010833759665336675   -0.0028594678243488753
-0.005446448288432328   -0.010587003523147726   -0.0035167289095739377
0.0   0.0   0.0
0.0   0.0   0.0
-0.00524116574068988   -0.010949498806108805   -0.0031625006750905034
0.0   0.0   0.0
0.0   0.0   0.0
-0.00524116574068988   -0.010949498806108805   -0.0031625006750905034
0.0008464061043073095   -0.010833759665336675   -0.0028594678243488753
0.0   0.0   0.0
0.0009483687219608551   -0.01081848480186306   -0.0029042206636020742
0.0   0.0   0.0
0.0   0.0   0.0
0.0009483687219608551   -0.01081848480186306   -0.0029042206636020742
0.0   0.0   0.0
0.0   0.0   0.0
0.0009483687219608551   -0.01081848480186306   -0.0029042206636020742
-0.0051270675739411966   -0.011087549028992725   -0.0028171946478933183
-0.00524116574068988   -0.010949498806108805   -0.0031625006750905034
0.0   0.0   0.0
0.0009483687219608551   -0.01081848480186306   -0.0029042206636020742
-0.00524116574068988   -0.010949498806108805   -0.0031625006750905034
0.0   0.0   0.0
0.0   0.0   0.0
-0.0051270675739411966   -0.011087549028992725   -0.0028171946478933183
0.0   0.0   0.0
0.0   0.0   0.0
-0.0051270675739411966   -0.011087549028992725   -0.0028171946478933183
0.0009483687219608551   -0.01081848480186306   -0.0029042206636020742
0.0   0.0   0.0
0.0010865302056694654   -0.010582919361896793   -0.0029498742492153423
0.0   0.0   0.0
0.0   0.0   0.0
0.0010865302056694654   -0.010582919361896793   -0.0029498742492153423
0.0   0.0   0.0
0.0   0.0   0.0
0.0010865302056694654   -0.010582919361896793   -0.0029498742492153423
-0.0050236551126095885   -0.011029677388843704   -0.002459868490595017
-0.0051270675739411966   -0.011087549028992725   -0.0028171946478933183
0.0   0.0   0.0
0.0010865302056694654   -0.010582919361896793   -0.0029498742492153423
-0.0051270675739411966   -0.011087549028992725   -0.0028171946478933183
0.0   0.0   0.0
0.0   0.0   0.0
0.0007167295481614206   -0.010645492715896702   -0.0028096103520071337
0.0   0.0   0.0
0.0   0.0   0.0
0.0007167295481614206   -0.010645492715896702   -0.0028096103520071337
0.007404279053894639   -0.01116655125832788   -0.0024588728026742907
0.0   0.0   0.0
0.007413660156184574   -0.011227063192097328   -0.0029338923193773505
0.0   0.0   0.0
0.0   0.0   0.0
0.007413660156184574   -0.011227063192097328   -0.0029338923193773505
0.0   0.0   0.0
0.0   0.0   0.0
0.007413660156184574   -0.011227063192097328   -0.0029338923193773505
0.0008464061043073095   -0.010833759665336675   -0.0028594678243488753
0.0007167295481614206   -0.010645492715896702   -0.0028096103520071337
0.0   0.0   0.0
0.007413660156184574   -0.011227063192097328   -0.0029338923193773505
0.0007167295481614206   -0.010645492715896702   -0.0028096103520071337
0.0   0.0   0.0
0.0   0.0   0.0
0.0008464061043073095   -0.010833759665336675   -0.0028594678243488753
0.0   0.0   0.0
0.0   0.0   0.0
0.0008464061043073095   -0.010833759665336675   -0.0028594678243488753
0.007413660156184574   -0.011227063192097328   -0.0029338923193773505
0.0   0.0   0.0
0.0073786467255431455   -0.011066717852764626   -0.0033892007109831944
0.0   0.0   0.0
0.0   0.0   0.0
0.0073786467255431455   -0.011066717852764626   -0.0033892007109831944
0.0   0.0   0.0
0.0   0.0   0.0
0.0073786467255431455   -0.011066717852764626   -0.0033892007109831944
0.0009483687219608551   -0.01081848480186306   -0.0029042206636020742
0.0008464061043073095   -0.010833759665336675   -0.0028594678243488753
0.0   0.0   0.0
0.0073786467255431455   -0.011066717852764626   -0.0033892007109831944
0.0008464061043073095   -0.010833759665336675   -0.0028594678243488753
0.0   0.0   0.0
0.0   0.0   0.0
0.0009483687219608551   -0.01081848480186306   -0.0029042206636020742
0.0   0.0   0.0
0.0   0.0   0.0
0.0009483687219608551   -0.01081848480186306   -0.0029042206636020742
0.0073786467255431455   -0.011066717852764626   -0.0033892007109831944
0.0   0.0   0.0
0.007518414753896728   -0.010636090823420678   -0.0038355326244121565
0.0   0.0   0.0
0.0   0.0   0.0
0.007518414753896728   -0.010636090823420678   -0.0038355326244121565
0.0   0.0   0.0
0.0   0.0   0.0
0.007518414753896728   -0.010636090823420678   -0.0038355326244121565
0.0010865302056694654   -0.010582919361896793   -0.0029498742492153423
0.0009483687219608551   -0.01081848480186306   -0.0029042206636020742
0.0   0.0   0.0
0.007518414753896728   -0.010636090823420678   -0.0038355326244121565
0.0009483687219608551   -0.01081848480186306   -0.0029042206636020742
0.0   0.0   0.0
0.0   0.0   0.0
0.007404279053894639   -0.01116655125832788   -0.0024588728026742907
0.0   0.0   0.0
0.0   0.0   0.0
0.007404279053894639   -0.01116655125832788   -0.0024588728026742907
0.016696204769147068   -0.012485904488935811   -0.002317495206246439
0.0   0.0   0.0
0.015675514310434492   -0.01235082231450091   -0.0033933528269690662
0.0   0.0   0.0
0.0   0.0   0.0
0.015675514310434492   -0.01235082231450091   -0.0033933528269690662
0.0   0.0   0.0
0.0   0.0   0.0
0.015675514310434492   -0.01235082231450091   -0.0033933528269690662
0.007413660156184574   -0.011227063192097328   -0.0029338923193773505
0.007404279053894639   -0.01116655125832788   -0.0024588728026742907
0.0   0.0   0.0
0.015675514310434492   -0.01235082231450091   -0.0033933528269690662
0.007404279053894639   -0.01116655125832788   -0.0024588728026742907
0.0   0.0   0.0
0.0   0.0   0.0
0.007413660156184574   -0.011227063192097328   -0.0029338923193773505
0.0   0.0   0.0
0.0   0.0   0.0
0.007413660156184574   -0.011227063192097328   -0.0029338923193773505
0.015675514310434492   -0.01235082231450091   -0.0033933528269690662
0.0   0.0   0.0
0.015203359806279373   -0.012094006203608572   -0.004302822534865698
0.0   0.0   0.0
0.0   0.0   0.0
0.015203359806279373   -0.012094006203608572   -0.004302822534865698
0.0   0.0   0.0
0.0   0.0   0.0
0.015203359806279373   -0.012094006203608572   -0.004302822534865698
0.0073786467255431455   -0.011066717852764626   -0.0033892007109831944
0.007413660156184574   -0.011227063192097328   -0.0029338923193773505
0.0   0.0   0.0
0.015203359806279373   -0.012094006203608572   -0.004302822534865698
0.007413660156184574   -0.011227063192097328   -0.0029338923193773505
0.0   0.0   0.0
0.0   0.0   0.0
0.0073786467255431455   -0.011066717852764626   -0.0033892007109831944
0.0   0.0   0.0
0.0   0.0   0.0
0.0073786467255431455   -0.011066717852764626   -0.0033892007109831944
0.015203359806279373   -0.012094006203608572   -0.004302822534865698
0.0   0.0   0.0
0.014502734370920303   -0.011435933940034696   -0.005264564004903305
0.0   0.0   0.0
0.0   0.0   0.0
0.014502734370920303   -0.011435933940034696   -0.005264564004903305
0.0   0.0   0.0
0.0   0.0   0.0
0.014502734370920303   -0.011435933940034696   -0.005264564004903305
0.007518414753896728   -0.010636090823420678   -0.0038355326244121565
0.0073786467255431455   -0.011066717852764626   -0.0033892007109831944
0.0   0.0   0.0
0.014502734370920303   -0.011435933940034696   -0.005264564004903305
0.0073786467255431455   -0.011066717852764626   -0.0033892007109831944
0.0   0.0   0.0
-0.018800503689519864   -0.01229980640608479   -0.00629579535960856
-0.03514148261617291   -0.03438486675883228   -0.008480817898785365
-0.011966982359265665   -0.01104706049963906   -0.004625147676588019
-0.01967895956212269   -0.013105332222374286   -0.005053406743311085
-0.03514148261617291   -0.03438486675883228   -0.008480817898785365
-0.02243065005513071   -0.03325724510107367   -0.006978023799483898
-0.011966982359265665   -0.01104706049963906   -0.004625147676588019
-0.02246157305659264   -0.03382703321038058   -0.006282653608870216
-0.01967895956212269   -0.013105332222374286   -0.005053406743311085
-0.011733017295590073   -0.011603454647988754   -0.003874061914905064
-0.02246157305659264   -0.03382703321038058   -0.006282653608870216
-0.011966982359265665   -0.01104706049963906   -0.004625147676588019
-0.01967895956212269   -0.013105332222374286   -0.005053406743311085
-0.02246157305659264   -0.03382703321038058   -0.006282653608870216
-0.03620021935975221   -0.035179481228326   -0.007350983376951703
-0.03514148261617291   -0.03438486675883228   -0.008480817898785365
-0.01967895956212269   -0.013105332222374286   -0.005053406743311085
-0.02246157305659264   -0.03382703321038058   -0.006282653608870216
-0.03514148261617291   -0.03438486675883228   -0.008480817898785365
-0.011966982359265665   -0.01104706049963906   -0.004625147676588019
-0.01967895956212269   -0.013105332222374286   -0.005053406743311085
-0.03620021935975221   -0.035179481228326   -0.007350983376951703
-0.011733017295590073   -0.011603454647988754   -0.003874061914905064
-0.02029723238707502   -0.013496885111733374   -0.0038623727965156713
-0.03620021935975221   -0.035179481228326   -0.007350983376951703
-0.02246157305659264   -0.03382703321038058   -0.006282653608870216
-0.011733017295590073   -0.011603454647988754   -0.003874061914905064
-0.022554788928957334   -0.034173976522308594   -0.005614143909136074
-0.02029723238707502   -0.013496885111733374   -0.0038623727965156713
-0.011769029440838265   -0.011888253195775574   -0.0031237248342471527
-0.022554788928957334   -0.034173976522308594   -0.005614143909136074
-0.011733017295590073   -0.011603454647988754   -0.003874061914905064
-0.02029723238707502   -0.013496885111733374   -0.0038623727965156713
-0.022554788928957334   -0.034173976522308594   -0.005614143909136074
-0.03693768772635146   -0.03562785792899619   -0.006244285392221951
-0.03620021935975221   -0.035179481228326   -0.007350983376951703
-0.02029723238707502   -0.013496885111733374   -0.0038623727965156713
-0.022554788928957334   -0.034173976522308594   -0.005614143909136074
-0.03620021935975221   -0.035179481228326   -0.007350983376951703
-0.011733017295590073   -0.011603454647988754   -0.003874061914905064
-0.02029723238707502   -0.013496885111733374   -0.0038623727965156713
-0.03693768772635146   -0.03562785792899619   -0.006244285392221951
-0.011769029440838265   -0.011888253195775574   -0.0031237248342471527
-0.021626261662940776   -0.01379227543767505   -0.0024801924713569847
-0.03693768772635146   -0.03562785792899619   -0.006244285392221951
-0.022554788928957334   -0.034173976522308594   -0.005614143909136074
-0.011769029440838265   -0.011888253195775574   -0.0031237248342471527
-0.02249252266105391   -0.03435334571849533   -0.004988109005270173
-0.021626261662940776   -0.01379227543767505   -0.0024801924713569847
-0.011766138371609681   -0.011960974143841747   -0.002347450826057959
-0.02249252266105391   -0.03435334571849533   -0.004988109005270173
-0.011769029440838265   -0.011888253195775574   -0.0031237248342471527
-0.021626261662940776   -0.01379227543767505   -0.0024801924713569847
-0.02249252266105391   -0.03435334571849533   -0.004988109005270173
-0.03780954862497405   -0.03588737189861411   -0.005236758636650326
-0.03693768772635146   -0.03562785792899619   -0.006244285392221951
-0.021626261662940776   -0.01379227543767505   -0.0024801924713569847
-0.02249252266105391   -0.03435334571849533   -0.004988109005270173
-0.03693768772635146   -0.03562785792899619   -0.006244285392221951
-0.011769029440838265   -0.011888253195775574   -0.0031237248342471527
-0.011966982359265665   -0.01104706049963906   -0.004625147676588019
-0.02243065005513071   -0.03325724510107367   -0.006978023799483898
-0.005446448288432328   -0.010587003523147726   -0.0035167289095739377
-0.011733017295590073   -0.011603454647988754   -0.003874061914905064
-0.02243065005513071   -0.03325724510107367   -0.006978023799483898
-0.010400094581319578   -0.03273257828759882   -0.0059517559652254495
-0.005446448288432328   -0.010587003523147726   -0.0035167289095739377
-0.010314887354805496   -0.03309560150825302   -0.005595830774621139
-0.011733017295590073   -0.011603454647988754   -0.003874061914905064
-0.00524116574068988   -0.010949498806108805   -0.0031625006750905034
-0.010314887354805496   -0.03309560150825302   -0.005595830774621139
-0.005446448288432328   -0.010587003523147726   -0.0035167289095739377
-0.011733017295590073   -0.011603454647988754   -0.003874061914905064
-0.010314887354805496   -0.03309560150825302   -0.005595830774621139
-0.02246157305659264   -0.03382703321038058   -0.006282653608870216
-0.02243065005513071   -0.03325724510107367   -0.006978023799483898
-0.011733017295590073   -0.011603454647988754   -0.003874061914905064
-0.010314887354805496   -0.03309560150825302   -0.005595830774621139
-0.02243065005513071   -0.03325724510107367   -0.006978023799483898
-0.005446448288432328   -0.010587003523147726   -0.0035167289095739377
-0.011733017295590073   -0.011603454647988754   -0.003874061914905064
-0.02246157305659264   -0.03382703321038058   -0.006282653608870216
-0.00524116574068988   -0.010949498806108805   -0.0031625006750905034
-0.011769029440838265   -0.011888253195775574   -0.0031237248342471527
-0.02246157305659264   -0.03382703321038058   -0.006282653608870216
-0.010314887354805496   -0.03309560150825302   -0.005595830774621139
-0.00524116574068988   -0.010949498806108805   -0.0031625006750905034
-0.010239888888433132   -0.03327151661745456   -0.005272985953389232
-0.011769029440838265   -0.011888253195775574   -0.0031237248342471527
-0.0051270675739411966   -0.011087549028992725   -0.0028171946478933183
-0.010239888888433132   -0.03327151661745456   -0.005272985953389232
-0.00524116574068988   -0.010949498806108805   -0.0031625006750905034
-0.011769029440838265   -0.011888253195775574   -0.0031237248342471527
-0.010239888888433132   -0.03327151661745456   -0.005272985953389232
-0.022554788928957334   -0.034173976522308594   -0.005614143909136074
-0.02246157305659264   -0.03382703321038058   -0.006282653608870216
-0.011769029440838265   -0.011888253195775574   -0.0031237248342471527
-0.010239888888433132   -0.03327151661745456   -0.005272985953389232
-0.02246157305659264   -0.03382703321038058   -0.006282653608870216
-0.00524116574068988   -0.010949498806108805   -0.0031625006750905034
-0.011769029440838265   -0.011888253195775574   -0.0031237248342471527
-0.022554788928957334   -0.034173976522308594   -0.005614143909136074
-0.0051270675739411966   -0.011087549028992725   -0.0028171946478933183
-0.011766138371609681   -0.011960974143841747   -0.002347450826057959
-0.022554788928957334   -0.034173976522308594   -0.005614143909136074
-0.010239888888433132   -0.03327151661745456   -0.005272985953389232
-0.0051270675739411966   -0.011087549028992725   -0.0028171946478933183
-0.010125861085818078   -0.033266966088243206   -0.004991684362473808
-0.011766138371609681   -0.011960974143841747   -0.002347450826057959
-0.0050236551126095885   -0.011029677388843704   -0.002459868490595017
-0.010125861085818078   -0.033266966088243206   -0.004991684362473808
-0.0051270675739411966   -0.011087549028992725   -0.0028171946478933183
-0.011766138371609681   -0.011960974143841747   -0.002347450826057959
-0.010125861085818078   -0.033266966088243206   -0.004991684362473808
-0.02249252266105391   -0.03435334571849533   -0.004988109005270173
-0.022554788928957334   -0.034173976522308594   -0.005614143909136074
-0.011766138371609681   -0.011960974143841747   -0.002347450826057959
-0.010125861085818078   -0.033266966088243206   -0.004991684362473808
-0.022554788928957334   -0.034173976522308594   -0.005614143909136074
-0.0051270675739411966   -0.011087549028992725   -0.0028171946478933183
-0.005446448288432328   -0.010587003523147726   -0.0035167289095739377
-0.010400094581319578   -0.03273257828759882   -0.0059517559652254495
0.0007167295481614206   -0.010645492715896702   -0.0028096103520071337
-0.00524116574068988   -0.010949498806108805   -0.0031625006750905034
-0.010400094581319578   -0.03273257828759882   -0.0059517559652254495
0.0012038948413409438   -0.03274792859436497   -0.005301988645173431
0.0007167295481614206   -0.010645492715896702   -0.0028096103520071337
0.0013094121980696915   -0.032920501468875436   -0.005279256893644058
-0.00524116574068988   -0.010949498806108805   -0.0031625006750905034
0.0008464061043073095   -0.010833759665336675   -0.0028594678243488753
0.0013094121980696915   -0.032920501468875436   -0.005279256893644058
0.0007167295481614206   -0.010645492715896702   -0.0028096103520071337
-0.00524116574068988   -0.010949498806108805   -0.0031625006750905034
0.0013094121980696915   -0.032920501468875436   -0.005279256893644058
-0.010314887354805496   -0.03309560150825302   -0.005595830774621139
-0.010400094581319578   -0.03273257828759882   -0.0059517559652254495
-0.00524116574068988   -0.010949498806108805   -0.0031625006750905034
0.0013094121980696915   -0.032920501468875436   -0.005279256893644058
-0.010400094581319578   -0.03273257828759882   -0.0059517559652254495
0.0007167295481614206   -0.010645492715896702   -0.0028096103520071337
-0.00524116574068988   -0.010949498806108805   -0.0031625006750905034
-0.010314887354805496   -0.03309560150825302   -0.005595830774621139
0.0008464061043073095   -0.010833759665336675   -0.0028594678243488753
-0.0051270675739411966   -0.011087549028992725   -0.0028171946478933183
-0.010314887354805496   -0.03309560150825302   -0.005595830774621139
0.0013094121980696915   -0.032920501468875436   -0.005279256893644058
0.0008464061043073095   -0.010833759665336675   -0.0028594678243488753
0.0013789753977047174   -0.03291036805740588   -0.005294088035313762
-0.0051270675739411966   -0.011087549028992725   -0.0028171946478933183
0.0009483687219608551   -0.01081848480186306   -0.0029042206636020742
0.0013789753977047174   -0.03291036805740588   -0.005294088035313762
0.0008464061043073095   -0.010833759665336675   -0.0028594678243488753
-0.0051270675739411966   -0.011087549028992725   -0.0028171946478933183
0.0013789753977047174   -0.03291036805740588   -0.005294088035313762
-0.010239888888433132   -0.03327151661745456   -0.005272985953389232
-0.010314887354805496   -0.03309560150825302   -0.005595830774621139
-0.0051270675739411966   -0.011087549028992725   -0.0028171946478933183
0.0013789753977047174   -0.03291036805740588   -0.005294088035313762
-0.010314887354805496   -0.03309560150825302   -0.005595830774621139
0.0008464061043073095   -0.010833759665336675   -0.0028594678243488753
-0.0051270675739411966   -0.011087549028992725   -0.0028171946478933183
-0.010239888888433132   -0.03327151661745456   -0.005272985953389232
0.0009483687219608551   -0.01081848480186306   -0.0029042206636020742
-0.0050236551126095885   -0.011029677388843704   -0.002459868490595017
-0.010239888888433132   -0.03327151661745456   -0.005272985953389232
0.0013789753977047174   -0.03291036805740588   -0.005294088035313762
0.0009483687219608551   -0.01081848480186306   -0.0029042206636020742
0.0014539430252050432   -0.03271193097575911   -0.005347081715486264
-0.0050236551126095885   -0.011029677388843704   -0.002459868490595017
0.0010865302056694654   -0.010582919361896793   -0.0029498742492153423
0.0014539430252050432   -0.03271193097575911   -0.005347081715486264
0.0009483687219608551   -0.01081848480186306   -0.0029042206636020742
-0.0050236551126095885   -0.011029677388843704   -0.002459868490595017
0.0014539430252050432   -0.03271193097575911   -0.005347081715486264
-0.010125861085818078   -0.033266966088243206   -0.004991684362473808
-0.010239888888433132   -0.03327151661745456   -0.005272985953389232
-0.0050236551126095885   -0.011029677388843704   -0.002459868490595017
0.0014539430252050432   -0.03271193097575911   -0.005347081715486264
-0.010239888888433132   -0.03327151661745456   -0.005272985953389232
0.0009483687219608551   -0.01081848480186306   -0.0029042206636020742
0.0007167295481614206   -0.010645492715896702   -0.0028096103520071337
0.0012038948413409438   -0.03274792859436497   -0.005301988645173431
0.007404279053894639   -0.01116655125832788   -0.0024588728026742907
0.0008464061043073095   -0.010833759665336675   -0.0028594678243488753
0.0012038948413409438   -0.03274792859436497   -0.005301988645173431
0.013498366419049097   -0.03328371545098083   -0.004997423714335151
0.007404279053894639   -0.01116655125832788   -0.0024588728026742907
0.013555557846239125   -0.0332834348123096   -0.005318721741233073
0.0008464061043073095   -0.010833759665336675   -0.0028594678243488753
0.007413660156184574   -0.011227063192097328   -0.0029338923193773505
0.013555557846239125   -0.0332834348123096   -0.005318721741233073
0.007404279053894639   -0.01116655125832788   -0.0024588728026742907
0.0008464061043073095   -0.010833759665336675   -0.0028594678243488753
0.013555557846239125   -0.0332834348123096   -0.005318721741233073
0.0013094121980696915   -0.032920501468875436   -0.005279256893644058
0.0012038948413409438   -0.03274792859436497   -0.005301988645173431
0.0008464061043073095   -0.010833759665336675   -0.0028594678243488753
0.013555557846239125   -0.0332834348123096   -0.005318721741233073
0.0012038948413409438   -0.03274792859436497   -0.005301988645173431
0.007404279053894639   -0.01116655125832788   -0.0024588728026742907
0.0008464061043073095   -0.010833759665336675   -0.0028594678243488753
0.0013094121980696915   -0.032920501468875436   -0.005279256893644058
0.007413660156184574   -0.011227063192097328   -0.0029338923193773505
0.0009483687219608551   -0.01081848480186306   -0.0029042206636020742
0.0013094121980696915   -0.032920501468875436   -0.005279256893644058
0.013555557846239125   -0.0332834348123096   -0.005318721741233073
0.007413660156184574   -0.011227063192097328   -0.0029338923193773505
0.01348793301254109   -0.033103864397145896   -0.005682521839088994
0.0009483687219608551   -0.01081848480186306   -0.0029042206636020742
0.0073786467255431455   -0.011066717852764626   -0.0033892007109831944
0.01348793301254109   -0.033103864397145896   -0.005682521839088994
0.007413660156184574   -0.011227063192097328   -0.0029338923193773505
0.0009483687219608551   -0.01081848480186306   -0.0029042206636020742
0.01348793301254109   -0.033103864397145896   -0.005682521839088994
0.0013789753977047174   -0.03291036805740588   -0.005294088035313762
0.0013094121980696915   -0.032920501468875436   -0.005279256893644058
0.0009483687219608551   -0.01081848480186306   -0.0029042206636020742
0.01348793301254109   -0.033103864397145896   -0.005682521839088994
0.0013094121980696915   -0.032920501468875436   -0.005279256893644058
0.007413660156184574   -0.011227063192097328   -0.0029338923193773505
0.0009483687219608551   -0.01081848480186306   -0.0029042206636020742
0.0013789753977047174   -0.03291036805740588   -0.005294088035313762
0.0073786467255431455   -0.011066717852764626   -0.0033892007109831944
0.0010865302056694654   -0.010582919361896793   -0.0029498742492153423
0.0013789753977047174   -0.03291036805740588   -0.005294088035313762
0.01348793301254109   -0.033103864397145896   -0.005682521839088994
0.0073786467255431455   -0.011066717852764626   -0.0033892007109831944
0.013447371714562359   -0.032695706698586825   -0.006075381055238685
0.0010865302056694654   -0.010582919361896793   -0.0029498742492153423
0.007518414753896728   -0.010636090823420678   -0.0038355326244121565
0.013447371714562359   -0.032695706698586825   -0.006075381055238685
0.0073786467255431455   -0.011066717852764626   -0.0033892007109831944
0.0010865302056694654   -0.010582919361896793   -0.0029498742492153423
0.013447371714562359   -0.032695706698586825   -0.006075381055238685
0.0014539430252050432   -0.03271193097575911   -0.005347081715486264
0.0013789753977047174   -0.03291036805740588   -0.005294088035313762
0.0010865302056694654   -0.010582919361896793   -0.0029498742492153423
0.013447371714562359   -0.032695706698586825   -0.006075381055238685
0.0013789753977047174   -0.03291036805740588   -0.005294088035313762
0.0073786467255431455   -0.011066717852764626   -0.0033892007109831944
0.007404279053894639   -0.01116655125832788   -0.0024588728026742907
0.013498366419049097   -0.03328371545098083   -0.004997423714335151
0.016696204769147068   -0.012485904488935811   -0.002317495206246439
0.007413660156184574   -0.011227063192097328   -0.0029338923193773505
0.013498366419049097   -0.03328371545098083   -0.004997423714335151
0.028327823527353805   -0.03428049137004096   -0.004912647501948877
0.016696204769147068   -0.012485904488935811   -0.002317495206246439
0.027744204881386608   -0.03418863417409822   -0.005634818537389137
0.007413660156184574   -0.011227063192097328   -0.0029338923193773505
0.015675514310434492   -0.01235082231450091   -0.0033933528269690662
0.027744204881386608   -0.03418863417409822   -0.005634818537389137
0.016696204769147068   -0.012485904488935811   -0.002317495206246439
0.007413660156184574   -0.011227063192097328   -0.0029338923193773505
0.027744204881386608   -0.03418863417409822   -0.005634818537389137
0.013555557846239125   -0.0332834348123096   -0.005318721741233073
0.013498366419049097   -0.03328371545098083   -0.004997423714335151
0.007413660156184574   -0.011227063192097328   -0.0029338923193773505
0.027744204881386608   -0.03418863417409822   -0.005634818537389137
0.013498366419049097   -0.03328371545098083   -0.004997423714335151
0.016696204769147068   -0.012485904488935811   -0.002317495206246439
0.007413660156184574   -0.011227063192097328   -0.0029338923193773505
0.013555557846239125   -0.0332834348123096   -0.005318721741233073
0.015675514310434492   -0.01235082231450091   -0.0033933528269690662
0.0073786467255431455   -0.011066717852764626   -0.0033892007109831944
0.013555557846239125   -0.0332834348123096   -0.005318721741233073
0.027744204881386608   -0.03418863417409822   -0.005634818537389137
0.015675514310434492   -0.01235082231450091   -0.0033933528269690662
0.02722325797684381   -0.033911531712539925   -0.006446475367033609
0.0073786467255431455   -0.011066717852764626   -0.0033892007109831944
0.015203359806279373   -0.012094006203608572   -0.004302822534865698
0.02722325797684381   -0.033911531712539925   -0.006446475367033609
0.015675514310434492   -0.01235082231450091   -0.0033933528269690662
0.0073786467255431455   -0.011066717852764626   -0.0033892007109831944
0.02722325797684381   -0.033911531712539925   -0.006446475367033609
0.01348793301254109   -0.033103864397145896   -0.005682521839088994
0.013555557846239125   -0.0332834348123096   -0.005318721741233073
0.0073786467255431455   -0.011066717852764626   -0.0033892007109831944
0.02722325797684381   -0.033911531712539925   -0.006446475367033609
0.013555557846239125   -0.0332834348123096   -0.005318721741233073
0.015675514310434492   -0.01235082231450091   -0.0033933528269690662
0.0073786467255431455   -0.011066717852764626   -0.0033892007109831944
0.01348793301254109   -0.033103864397145896   -0.005682521839088994
0.015203359806279373   -0.012094006203608572   -0.004302822534865698
0.007518414753896728   -0.010636090823420678   -0.0038355326244121565
0.01348793301254109   -0.033103864397145896   -0.005682521839088994
0.02722325797684381   -0.033911531712539925   -0.006446475367033609
0.015203359806279373   -0.012094006203608572   -0.004302822534865698
0.026445742815911537   -0.033293404505921345   -0.0072909116738514345
0.007518414753896728   -0.010636090823420678   -0.0038355326244121565
0.014502734370920303   -0.011435933940034696   -0.005264564004903305
0.026445742815911537   -0.033293404505921345   -0.0072909116738514345
0.015203359806279373   -0.012094006203608572   -0.004302822534865698
0.007518414753896728   -0.010636090823420678   -0.0038355326244121565
0.026445742815911537   -0.033293404505921345   -0.0072909116738514345
0.013447371714562359   -0.032695706698586825   -0.006075381055238685
0.01348793301254109   -0.033103864397145896   -0.005682521839088994
0.007518414753896728   -0.010636090823420678   -0.0038355326244121565
0.026445742815911537   -0.033293404505921345   -0.0072909116738514345
0.01348793301254109   -0.033103864397145896   -0.005682521839088994
0.015203359806279373   -0.012094006203608572   -0.004302822534865698
-0.03514148261617291   -0.03438486675883228   -0.008480817898785365
-0.04818230054550543   -0.06455305479913202   -0.00965584072090901
-0.02243065005513071   -0.03325724510107367   -0.006978023799483898
-0.03620021935975221   -0.035179481228326   -0.007350983376951703
-0.04818230054550543   -0.06455305479913202   -0.00965584072090901
-0.030974362644176023   -0.06369020357137745   -0.008435003235086674
-0.02243065005513071   -0.03325724510107367   -0.006978023799483898
-0.031047599211830715   -0.06418270826152322   -0.007894834683051693
-0.03620021935975221   -0.035179481228326   -0.007350983376951703
-0.02246157305659264   -0.03382703321038058   -0.006282653608870216
-0.031047599211830715   -0.06418270826152322   -0.007894834683051693
-0.02243065005513071   -0.03325724510107367   -0.006978023799483898
-0.03620021935975221   -0.035179481228326   -0.007350983376951703
-0.031047599211830715   -0.06418270826152322   -0.007894834683051693
-0.04904639065916138   -0.06522584239139845   -0.008811724427987189
-0.04818230054550543   -0.06455305479913202   -0.00965584072090901
-0.03620021935975221   -0.035179481228326   -0.007350983376951703
-0.031047599211830715   -0.06418270826152322   -0.007894834683051693
-0.04818230054550543   -0.06455305479913202   -0.00965584072090901
-0.02243065005513071   -0.03325724510107367   -0.006978023799483898
-0.03620021935975221   -0.035179481228326   -0.007350983376951703
-0.04904639065916138   -0.06522584239139845   -0.008811724427987189
-0.02246157305659264   -0.03382703321038058   -0.006282653608870216
-0.03693768772635146   -0.03562785792899619   -0.006244285392221951
-0.04904639065916138   -0.06522584239139845   -0.008811724427987189
-0.031047599211830715   -0.06418270826152322   -0.007894834683051693
-0.02246157305659264   -0.03382703321038058   -0.006282653608870216
-0.031133191819726458   -0.06452504121028994   -0.0073935662544352115
-0.03693768772635146   -0.03562785792899619   -0.006244285392221951
-0.022554788928957334   -0.034173976522308594   -0.005614143909136074
-0.031133191819726458   -0.06452504121028994   -0.0073935662544352115
-0.02246157305659264   -0.03382703321038058   -0.006282653608870216
-0.03693768772635146   -0.03562785792899619   -0.006244285392221951
-0.031133191819726458   -0.06452504121028994   -0.0073935662544352115
-0.04959356596007225   -0.06564726814873326   -0.008024648856831622
-0.04904639065916138   -0.06522584239139845   -0.008811724427987189
-0.03693768772635146   -0.03562785792899619   -0.006244285392221951
-0.031133191819726458   -0.06452504121028994   -0.0073935662544352115
-0.04904639065916138   -0.06522584239139845   -0.008811724427987189
-0.02246157305659264   -0.03382703321038058   -0.006282653608870216
-0.03693768772635146   -0.03562785792899619   -0.006244285392221951
-0.04959356596007225   -0.06564726814873326   -0.008024648856831622
-0.022554788928957334   -0.034173976522308594   -0.005614143909136074
-0.03780954862497405   -0.03588737189861411   -0.005236758636650326
-0.04959356596007225   -0.06564726814873326   -0.008024648856831622
-0.031133191819726458   -0.06452504121028994   -0.0073935662544352115
-0.022554788928957334   -0.034173976522308594   -0.005614143909136074
-0.031080461555142637   -0.06474964097902636   -0.006922923464744465
-0.03780954862497405   -0.03588737189861411   -0.005236758636650326
-0.02249252266105391   -0.03435334571849533   -0.004988109005270173
-0.031080461555142637   -0.06474964097902636   -0.006922923464744465
-0.022554788928957334   -0.034173976522308594   -0.005614143909136074
-0.03780954862497405   -0.03588737189861411   -0.005236758636650326
-0.031080461555142637   -0.06474964097902636   -0.006922923464744465
-0.05021614477778819   -0.06594933842618046   -0.0072999435706134815
-0.04959356596007225   -0.06564726814873326   -0.008024648856831622
-0.03780954862497405   -0.03588737189861411   -0.005236758636650326
-0.031080461555142637   -0.06474964097902636   -0.006922923464744465
-0.04959356596007225   -0.06564726814873326   -0.008024648856831622
-0.022554788928957334   -0.034173976522308594   -0.005614143909136074
-0.02243065005513071   -0.03325724510107367   -0.006978023799483898
-0.030974362644176023   -0.06369020357137745   -0.008435003235086674
-0.010400094581319578   -0.03273257828759882   -0.0059517559652254495
-0.02246157305659264   -0.03382703321038058   -0.006282653608870216
-0.030974362644176023   -0.06369020357137745   -0.008435003235086674
-0.014742304474189822   -0.06326042574168193   -0.007586596672581389
-0.010400094581319578   -0.03273257828759882   -0.0059517559652254495
-0.014710681103257546   -0.06357572298121239   -0.007281821583062211
-0.02246157305659264   -0.03382703321038058   -0.006282653608870216
-0.010314887354805496   -0.03309560150825302   -0.005595830774621139
-0.014710681103257546   -0.06357572298121239   -0.007281821583062211
-0.010400094581319578   -0.03273257828759882   -0.0059517559652254495
-0.02246157305659264   -0.03382703321038058   -0.006282653608870216
-0.014710681103257546   -0.06357572298121239   -0.007281821583062211
-0.031047599211830715   -0.06418270826152322   -0.007894834683051693
-0.030974362644176023   -0.06369020357137745   -0.008435003235086674
-0.02246157305659264   -0.03382703321038058   -0.006282653608870216
-0.014710681103257546   -0.06357572298121239   -0.007281821583062211
-0.030974362644176023   -0.06369020357137745   -0.008435003235086674
-0.010400094581319578   -0.03273257828759882   -0.0059517559652254495
-0.02246157305659264   -0.03382703321038058   -0.006282653608870216
-0.031047599211830715   -0.06418270826152322   -0.007894834683051693
-0.010314887354805496   -0.03309560150825302   -0.005595830774621139
-0.022554788928957334   -0.034173976522308594   -0.005614143909136074
-0.031047599211830715   -0.06418270826152322   -0.007894834683051693
-0.014710681103257546   -0.06357572298121239   -0.007281821583062211
-0.010314887354805496   -0.03309560150825302   -0.005595830774621139
-0.014670721945664517   -0.0637607683754504   -0.007014120742785097
-0.022554788928957334   -0.034173976522308594   -0.005614143909136074
-0.010239888888433132   -0.03327151661745456   -0.005272985953389232
-0.014670721945664517   -0.0637607683754504   -0.007014120742785097
-0.010314887354805496   -0.03309560150825302   -0.005595830774621139
-0.022554788928957334   -0.034173976522308594   -0.005614143909136074
-0.014670721945664517   -0.0637607683754504   -0.007014120742785097
-0.031133191819726458   -0.06452504121028994   -0.0073935662544352115
-0.031047599211830715   -0.06418270826152322   -0.007894834683051693
-0.022554788928957334   -0.034173976522308594   -0.005614143909136074
-0.014670721945664517   -0.0637607683754504   -0.007014120742785097
-0.031047599211830715   -0.06418270826152322   -0.007894834683051693
-0.010314887354805496   -0.03309560150825302   -0.005595830774621139
-0.022554788928957334   -0.034173976522308594   -0.005614143909136074
-0.031133191819726458   -0.06452504121028994   -0.0073935662544352115
-0.010239888888433132   -0.03327151661745456   -0.005272985953389232
-0.02249252266105391   -0.03435334571849533   -0.004988109005270173
-0.031133191819726458   -0.06452504121028994   -0.0073935662544352115
-0.014670721945664517   -0.0637607683754504   -0.007014120742785097
-0.010239888888433132   -0.03327151661745456   -0.005272985953389232
-0.014601721300722894   -0.06381820844212668   -0.006783368650517014
-0.02249252266105391   -0.03435334571849533   -0.004988109005270173
-0.010125861085818078   -0.033266966088243206   -0.004991684362473808
-0.014601721300722894   -0.06381820844212668   -0.006783368650517014
-0.010239888888433132   -0.03327151661745456   -0.005272985953389232
-0.02249252266105391   -0.03435334571849533   -0.004988109005270173
-0.014601721300722894   -0.06381820844212668   -0.006783368650517014
-0.031080461555142637   -0.06474964097902636   -0.006922923464744465
-0.031133191819726458   -0.06452504121028994   -0.0073935662544352115
-0.02249252266105391   -0.03435334571849533   -0.004988109005270173
-0.014601721300722894   -0.06381820844212668   -0.006783368650517014
-0.031133191819726458   -0.06452504121028994   -0.0073935662544352115
-0.010239888888433132   -0.03327151661745456   -0.005272985953389232
-0.010400094581319578   -0.03273257828759882   -0.0059517559652254495
-0.014742304474189822   -0.06326042574168193   -0.007586596672581389
0.0012038948413409438   -0.03274792859436497   -0.005301988645173431
-0.010314887354805496   -0.03309560150825302   -0.005595830774621139
-0.014742304474189822   -0.06326042574168193   -0.007586596672581389
0.001015281208250984   -0.0632376357954099   -0.007059597582443862
0.0012038948413409438   -0.03274792859436497   -0.005301988645173431
0.0010776979294705947   -0.06337863208726045   -0.006988921225475001
-0.010314887354805496   -0.03309560150825302   -0.005595830774621139
0.0013094121980696915   -0.032920501468875436   -0.005279256893644058
0.0010776979294705947   -0.06337863208726045   -0.006988921225475001
0.0012038948413409438   -0.03274792859436497   -0.005301988645173431
-0.010314887354805496   -0.03309560150825302   -0.005595830774621139
0.0010776979294705947   -0.06337863208726045   -0.006988921225475001
-0.014710681103257546   -0.06357572298121239   -0.007281821583062211
-0.014742304474189822   -0.06326042574168193   -0.007586596672581389
-0.010314887354805496   -0.03309560150825302   -0.005595830774621139
0.0010776979294705947   -0.06337863208726045   -0.006988921225475001
-0.014742304474189822   -0.06326042574168193   -0.007586596672581389
0.0012038948413409438   -0.03274792859436497   -0.005301988645173431
-0.010314887354805496   -0.03309560150825302   -0.005595830774621139
-0.014710681103257546   -0.06357572298121239   -0.007281821583062211
0.0013094121980696915   -0.032920501468875436   -0.005279256893644058
-0.010239888888433132   -0.03327151661745456   -0.005272985953389232
-0.014710681103257546   -0.06357572298121239   -0.007281821583062211
0.0010776979294705947   -0.06337863208726045   -0.006988921225475001
0.0013094121980696915   -0.032920501468875436   -0.005279256893644058
0.0011158233909534863   -0.06338990972469725   -0.006954332975943892
-0.010239888888433132   -0.03327151661745456   -0.005272985953389232
0.0013789753977047174   -0.03291036805740588   -0.005294088035313762
0.0011158233909534863   -0.06338990972469725   -0.006954332975943892
0.0013094121980696915   -0.032920501468875436   -0.005279256893644058
-0.010239888888433132   -0.03327151661745456   -0.005272985953389232
0.0011158233909534863   -0.06338990972469725   -0.006954332975943892
-0.014670721945664517   -0.0637607683754504   -0.007014120742785097
-0.014710681103257546   -0.06357572298121239   -0.007281821583062211
-0.010239888888433132   -0.03327151661745456   -0.005272985953389232
0.0011158233909534863   -0.06338990972469725   -0.006954332975943892
-0.014710681103257546   -0.06357572298121239   -0.007281821583062211
0.0013094121980696915   -0.032920501468875436   -0.005279256893644058
-0.010239888888433132   -0.03327151661745456   -0.005272985953389232
-0.014670721945664517   -0.0637607683754504   -0.007014120742785097
0.0013789753977047174   -0.03291036805740588   -0.005294088035313762
-0.010125861085818078   -0.033266966088243206   -0.004991684362473808
-0.014670721945664517   -0.0637607683754504   -0.007014120742785097
0.0011158233909534863   -0.06338990972469725   -0.006954332975943892
0.0013789753977047174   -0.03291036805740588   -0.005294088035313762
0.0011418773112847665   -0.06326952767387853   -0.00695804578794099
-0.010125861085818078   -0.033266966088243206   -0.004991684362473808
0.0014539430252050432   -0.03271193097575911   -0.005347081715486264
0.0011418773112847665   -0.06326952767387853   -0.00695804578794099
0.0013789753977047174   -0.03291036805740588   -0.005294088035313762
-0.010125861085818078   -0.033266966088243206   -0.004991684362473808
0.0011418773112847665   -0.06326952767387853   -0.00695804578794099
-0.014601721300722894   -0.06381820844212668   -0.006783368650517014
-0.014670721945664517   -0.0637607683754504   -0.007014120742785097
-0.010125861085818078   -0.033266966088243206   -0.004991684362473808
0.0011418773112847665   -0.06326952767387853   -0.00695804578794099
-0.014670721945664517   -0.0637607683754504   -0.007014120742785097
0.0013789753977047174   -0.03291036805740588   -0.005294088035313762
0.0012038948413409438   -0.03274792859436497   -0.005301988645173431
0.001015281208250984   -0.0632376357954099   -0.007059597582443862
0.013498366419049097   -0.03328371545098083   -0.004997423714335151
0.0013094121980696915   -0.032920501468875436   -0.005279256893644058
0.001015281208250984   -0.0632376357954099   -0.007059597582443862
0.017443925047586156   -0.06359768858065823   -0.006844849642502116
0.013498366419049097   -0.03328371545098083   -0.004997423714335151
0.017497249140370628   -0.06357910470364621   -0.007013175792315799
0.0013094121980696915   -0.032920501468875436   -0.005279256893644058
0.013555557846239125   -0.0332834348123096   -0.005318721741233073
0.017497249140370628   -0.06357910470364621   -0.007013175792315799
0.013498366419049097   -0.03328371545098083   -0.004997423714335151
0.0013094121980696915   -0.032920501468875436   -0.005279256893644058
0.017497249140370628   -0.06357910470364621   -0.007013175792315799
0.0010776979294705947   -0.06337863208726045   -0.006988921225475001
0.001015281208250984   -0.0632376357954099   -0.007059597582443862
0.0013094121980696915   -0.032920501468875436   -0.005279256893644058
0.017497249140370628   -0.06357910470364621   -0.007013175792315799
0.001015281208250984   -0.0632376357954099   -0.007059597582443862
0.013498366419049097   -0.03328371545098083   -0.004997423714335151
0.0013094121980696915   -0.032920501468875436   -0.005279256893644058
0.0010776979294705947   -0.06337863208726045   -0.006988921225475001
0.013555557846239125   -0.0332834348123096   -0.005318721741233073
0.0013789753977047174   -0.03291036805740588   -0.005294088035313762
0.0010776979294705947   -0.06337863208726045   -0.006988921225475001
0.017497249140370628   -0.06357910470364621   -0.007013175792315799
0.013555557846239125   -0.0332834348123096   -0.005318721741233073
0.017447024019404286   -0.06343341328530197   -0.007214938238429554
0.0013789753977047174   -0.03291036805740588   -0.005294088035313762
0.01348793301254109   -0.033103864397145896   -0.005682521839088994
0.017447024019404286   -0.06343341328530197   -0.007214938238429554
0.013555557846239125   -0.0332834348123096   -0.005318721741233073
0.0013789753977047174   -0.03291036805740588   -0.005294088035313762
0.017447024019404286   -0.06343341328530197   -0.007214938238429554
0.0011158233909534863   -0.06338990972469725   -0.006954332975943892
0.0010776979294705947   -0.06337863208726045   -0.006988921225475001
0.0013789753977047174   -0.03291036805740588   -0.005294088035313762
0.017447024019404286   -0.06343341328530197   -0.007214938238429554
0.0010776979294705947   -0.06337863208726045   -0.006988921225475001
0.013555557846239125   -0.0332834348123096   -0.005318721741233073
0.0013789753977047174   -0.03291036805740588   -0.005294088035313762
0.0011158233909534863   -0.06338990972469725   -0.006954332975943892
0.01348793301254109   -0.033103864397145896   -0.005682521839088994
0.0014539430252050432   -0.03271193097575911   -0.005347081715486264
0.0011158233909534863   -0.06338990972469725   -0.006954332975943892
0.017447024019404286   -0.06343341328530197   -0.007214938238429554
0.01348793301254109   -0.033103864397145896   -0.005682521839088994
0.01737510727607954   -0.06312933001784976   -0.007454082535093838
0.0014539430252050432   -0.03271193097575911   -0.005347081715486264
0.013447371714562359   -0.032695706698586825   -0.006075381055238685
0.01737510727607954   -0.06312933001784976   -0.007454082535093838
0.01348793301254109   -0.033103864397145896   -0.005682521839088994
0.0014539430252050432   -0.03271193097575911   -0.005347081715486264
0.01737510727607954   -0.06312933001784976   -0.007454082535093838
0.0011418773112847665   -0.06326952767387853   -0.00695804578794099
0.0011158233909534863   -0.06338990972469725   -0.006954332975943892
0.0014539430252050432   -0.03271193097575911   -0.005347081715486264
0.01737510727607954   -0.06312933001784976   -0.007454082535093838
0.0011158233909534863   -0.06338990972469725   -0.006954332975943892
0.01348793301254109   -0.033103864397145896   -0.005682521839088994
0.013498366419049097   -0.03328371545098083   -0.004997423714335151
0.017443925047586156   -0.06359768858065823   -0.006844849642502116
0.028327823527353805   -0.03428049137004096   -0.004912647501948877
0.013555557846239125   -0.0332834348123096   -0.005318721741233073
0.017443925047586156   -0.06359768858065823   -0.006844849642502116
0.03615062566670895   -0.06425190231881707   -0.006845142991472997
0.028327823527353805   -0.03428049137004096   -0.004912647501948877
0.03582764410483615   -0.06414165466212937   -0.007283789657950351
0.013555557846239125   -0.0332834348123096   -0.005318721741233073
0.027744204881386608   -0.03418863417409822   -0.005634818537389137
0.03582764410483615   -0.06414165466212937   -0.007283789657950351
0.028327823527353805   -0.03428049137004096   -0.004912647501948877
0.013555557846239125   -0.0332834348123096   -0.005318721741233073
0.03582764410483615   -0.06414165466212937   -0.007283789657950351
0.017497249140370628   -0.06357910470364621   -0.007013175792315799
0.017443925047586156   -0.06359768858065823   -0.006844849642502116
0.013555557846239125   -0.0332834348123096   -0.005318721741233073
0.03582764410483615   -0.06414165466212937   -0.007283789657950351
0.017443925047586156   -0.06359768858065823   -0.006844849642502116
0.028327823527353805   -0.03428049137004096   -0.004912647501948877
0.013555557846239125   -0.0332834348123096   -0.005318721741233073
0.017497249140370628   -0.06357910470364621   -0.007013175792315799
0.027744204881386608   -0.03418863417409822   -0.005634818537389137
0.01348793301254109   -0.033103864397145896   -0.005682521839088994
0.017497249140370628   -0.06357910470364621   -0.007013175792315799
0.03582764410483615   -0.06414165466212937   -0.007283789657950351
0.027744204881386608   -0.03418863417409822   -0.005634818537389137
0.03550643554052012   -0.06391701049955846   -0.007782725919469899
0.01348793301254109   -0.033103864397145896   -0.005682521839088994
0.02722325797684381   -0.033911531712539925   -0.006446475367033609
0.03550643554052012   -0.06391701049955846   -0.007782725919469899
0.027744204881386608   -0.03418863417409822   -0.005634818537389137
0.01348793301254109   -0.033103864397145896   -0.005682521839088994
0.03550643554052012   -0.06391701049955846   -0.007782725919469899
0.017447024019404286   -0.06343341328530197   -0.007214938238429554
0.017497249140370628   -0.06357910470364621   -0.007013175792315799
0.01348793301254109   -0.033103864397145896   -0.005682521839088994
0.03550643554052012   -0.06391701049955846   -0.007782725919469899
0.017497249140370628   -0.06357910470364621   -0.007013175792315799
0.027744204881386608   -0.03418863417409822   -0.005634818537389137
0.01348793301254109   -0.033103864397145896   -0.005682521839088994
0.017447024019404286   -0.06343341328530197   -0.007214938238429554
0.02722325797684381   -0.033911531712539925   -0.006446475367033609
0.013447371714562359   -0.032695706698586825   -0.006075381055238685
0.017447024019404286   -0.06343341328530197   -0.007214938238429554
0.03550643554052012   -0.06391701049955846   -0.007782725919469899
0.02722325797684381   -0.033911531712539925   -0.006446475367033609
0.03494126572957016   -0.06344399994641188   -0.00834201386782143
0.013447371714562359   -0.032695706698586825   -0.006075381055238685
0.026445742815911537   -0.033293404505921345   -0.0072909116738514345
0.03494126572957016   -0.06344399994641188   -0.00834201386782143
0.02722325797684381   -0.033911531712539925   -0.006446475367033609
0.013447371714562359   -0.032695706698586825   -0.006075381055238685
0.03494126572957016   -0.06344399994641188   -0.00834201386782143
0.01737510727607954   -0.06312933001784976   -0.007454082535093838
0.017447024019404286   -0.06343341328530197   -0.007214938238429554
0.013447371714562359   -0.032695706698586825   -0.006075381055238685
0.03494126572957016   -0.06344399994641188   -0.00834201386782143
0.017447024019404286   -0.06343341328530197   -0.007214938238429554
0.02722325797684381   -0.033911531712539925   -0.006446475367033609
-0.04818230054550543   -0.06455305479913202   -0.00965584072090901
-0.057573553138006044   -0.10036484523244676   -0.010292542818185514
-0.030974362644176023   -0.06369020357137745   -0.008435003235086674
-0.04904639065916138   -0.06522584239139845   -0.008811724427987189
-0.057573553138006044   -0.10036484523244676   -0.010292542818185514
-0.03736114578620344   -0.09981481182471157   -0.009295404962567217
-0.030974362644176023   -0.06369020357137745   -0.008435003235086674
-0.037411285583759335   -0.10023915964360235   -0.008908244618782923
-0.04904639065916138   -0.06522584239139845   -0.008811724427987189
-0.031047599211830715   -0.06418270826152322   -0.007894834683051693
-0.037411285583759335   -0.10023915964360235   -0.008908244618782923
-0.030974362644176023   -0.06369020357137745   -0.008435003235086674
-0.04904639065916138   -0.06522584239139845   -0.008811724427987189
-0.037411285583759335   -0.10023915964360235   -0.008908244618782923
-0.05815858907074434   -0.1009386782461223   -0.009730769121942165
-0.057573553138006044   -0.10036484523244676   -0.010292542818185514
-0.04904639065916138   -0.06522584239139845   -0.008811724427987189
-0.037411285583759335   -0.10023915964360235   -0.008908244618782923
-0.057573553138006044   -0.10036484523244676   -0.010292542818185514
-0.030974362644176023   -0.06369020357137745   -0.008435003235086674
-0.04904639065916138   -0.06522584239139845   -0.008811724427987189
-0.05815858907074434   -0.1009386782461223   -0.009730769121942165
-0.031047599211830715   -0.06418270826152322   -0.007894834683051693
-0.04959356596007225   -0.06564726814873326   -0.008024648856831622
-0.05815858907074434   -0.1009386782461223   -0.009730769121942165
-0.037411285583759335   -0.10023915964360235   -0.008908244618782923
-0.031047599211830715   -0.06418270826152322   -0.007894834683051693
-0.037448719775299975   -0.1005751527712202   -0.008559574089018942
-0.04959356596007225   -0.06564726814873326   -0.008024648856831622
-0.031133191819726458   -0.06452504121028994   -0.0073935662544352115
-0.037448719775299975   -0.1005751527712202   -0.008559574089018942
-0.031047599211830715   -0.06418270826152322   -0.007894834683051693
-0.04959356596007225   -0.06564726814873326   -0.008024648856831622
-0.037448719775299975   -0.1005751527712202   -0.008559574089018942
-0.05849684217816954   -0.10134416497906884   -0.009222681169330968
-0.05815858907074434   -0.1009386782461223   -0.009730769121942165
-0.04959356596007225   -0.06564726814873326   -0.008024648856831622
-0.037448719775299975   -0.1005751527712202   -0.008559574089018942
-0.05815858907074434   -0.1009386782461223   -0.009730769121942165
-0.031047599211830715   -0.06418270826152322   -0.007894834683051693
-0.04959356596007225   -0.06564726814873326   -0.008024648856831622
-0.05849684217816954   -0.10134416497906884   -0.009222681169330968
-0.031133191819726458   -0.06452504121028994   -0.0073935662544352115
-0.05021614477778819   -0.06594933842618046   -0.0072999435706134815
-0.05849684217816954   -0.10134416497906884   -0.009222681169330968
-0.037448719775299975   -0.1005751527712202   -0.008559574089018942
-0.031133191819726458   -0.06452504121028994   -0.0073935662544352115
-0.03737650147348622   -0.10085060844041659   -0.008244309474745186
-0.05021614477778819   -0.06594933842618046   -0.0072999435706134815
-0.031080461555142637   -0.06474964097902636   -0.006922923464744465
-0.03737650147348622   -0.10085060844041659   -0.008244309474745186
-0.031133191819726458   -0.06452504121028994   -0.0073935662544352115
-0.05021614477778819   -0.06594933842618046   -0.0072999435706134815
-0.03737650147348622   -0.10085060844041659   -0.008244309474745186
-0.058845689729239245   -0.10170676884847864   -0.008774630445516686
-0.05849684217816954   -0.10134416497906884   -0.009222681169330968
-0.05021614477778819   -0.06594933842618046   -0.0072999435706134815
-0.03737650147348622   -0.10085060844041659   -0.008244309474745186
-0.05849684217816954   -0.10134416497906884   -0.009222681169330968
-0.031133191819726458   -0.06452504121028994   -0.0073935662544352115
-0.030974362644176023   -0.06369020357137745   -0.008435003235086674
-0.03736114578620344   -0.09981481182471157   -0.009295404962567217
-0.014742304474189822   -0.06326042574168193   -0.007586596672581389
-0.031047599211830715   -0.06418270826152322   -0.007894834683051693
-0.03736114578620344   -0.09981481182471157   -0.009295404962567217
-0.018408205643063107   -0.09953119710599603   -0.008604784984464283
-0.014742304474189822   -0.06326042574168193   -0.007586596672581389
-0.018378288804042197   -0.09979783588661312   -0.008349757044386973
-0.031047599211830715   -0.06418270826152322   -0.007894834683051693
-0.014710681103257546   -0.06357572298121239   -0.007281821583062211
-0.018378288804042197   -0.09979783588661312   -0.008349757044386973
-0.014742304474189822   -0.06326042574168193   -0.007586596672581389
-0.031047599211830715   -0.06418270826152322   -0.007894834683051693
-0.018378288804042197   -0.09979783588661312   -0.008349757044386973
-0.037411285583759335   -0.10023915964360235   -0.008908244618782923
-0.03736114578620344   -0.09981481182471157   -0.009295404962567217
-0.031047599211830715   -0.06418270826152322   -0.007894834683051693
-0.018378288804042197   -0.09979783588661312   -0.008349757044386973
-0.03736114578620344   -0.09981481182471157   -0.009295404962567217
-0.014742304474189822   -0.06326042574168193   -0.007586596672581389
-0.031047599211830715   -0.06418270826152322   -0.007894834683051693
-0.037411285583759335   -0.10023915964360235   -0.008908244618782923
-0.014710681103257546   -0.06357572298121239   -0.007281821583062211
-0.031133191819726458   -0.06452504121028994   -0.0073935662544352115
-0.037411285583759335   -0.10023915964360235   -0.008908244618782923
-0.018378288804042197   -0.09979783588661312   -0.008349757044386973
-0.014710681103257546   -0.06357572298121239   -0.007281821583062211
-0.01833550402056027   -0.09999047966789974   -0.008132666288980095
-0.031133191819726458   -0.06452504121028994   -0.0073935662544352115
-0.014670721945664517   -0.0637607683754504   -0.007014120742785097
-0.01833550402056027   -0.09999047966789974   -0.008132666288980095
-0.014710681103257546   -0.06357572298121239   -0.007281821583062211
-0.031133191819726458   -0.06452504121028994   -0.0073935662544352115
-0.01833550402056027   -0.09999047966789974   -0.008132666288980095
-0.037448719775299975   -0.1005751527712202   -0.008559574089018942
-0.037411285583759335   -0.10023915964360235   -0.008908244618782923
-0.031133191819726458   -0.06452504121028994   -0.0073935662544352115
-0.01833550402056027   -0.09999047966789974   -0.008132666288980095
-0.037411285583759335   -0.10023915964360235   -0.008908244618782923
-0.014710681103257546   -0.06357572298121239   -0.007281821583062211
-0.031133191819726458   -0.06452504121028994   -0.0073935662544352115
-0.037448719775299975   -0.1005751527712202   -0.008559574089018942
-0.014670721945664517   -0.0637607683754504   -0.007014120742785097
-0.031080461555142637   -0.06474964097902636   -0.006922923464744465
-0.037448719775299975   -0.1005751527712202   -0.008559574089018942
-0.01833550402056027   -0.09999047966789974   -0.008132666288980095
-0.014670721945664517   -0.0637607683754504   -0.007014120742785097
-0.018269266531347337   -0.10011038581028289   -0.007954122605116179
-0.031080461555142637   -0.06474964097902636   -0.006922923464744465
-0.014601721300722894   -0.06381820844212668   -0.006783368650517014
-0.018269266531347337   -0.10011038581028289   -0.007954122605116179
-0.014670721945664517   -0.0637607683754504   -0.007014120742785097
-0.031080461555142637   -0.06474964097902636   -0.006922923464744465
-0.018269266531347337   -0.10011038581028289   -0.007954122605116179
-0.03737650147348622   -0.10085060844041659   -0.008244309474745186
-0.037448719775299975   -0.1005751527712202   -0.008559574089018942
-0.031080461555142637   -0.06474964097902636   -0.006922923464744465
-0.018269266531347337   -0.10011038581028289   -0.007954122605116179
-0.037448719775299975   -0.1005751527712202   -0.008559574089018942
-0.014670721945664517   -0.0637607683754504   -0.007014120742785097
-0.014742304474189822   -0.06326042574168193   -0.007586596672581389
-0.018408205643063107   -0.09953119710599603   -0.008604784984464283
0.001015281208250984   -0.0632376357954099   -0.007059597582443862
-0.014710681103257546   -0.06357572298121239   -0.007281821583062211
-0.018408205643063107   -0.09953119710599603   -0.008604784984464283
3.129922667613761e-05   -0.0994828386508421   -0.0082015366354077
0.001015281208250984   -0.0632376357954099   -0.007059597582443862
9.197309144815398e-05   -0.09959107503374742   -0.00807960672275255
-0.014710681103257546   -0.06357572298121239   -0.007281821583062211
0.0010776979294705947   -0.06337863208726045   -0.006988921225475001
9.197309144815398e-05   -0.09959107503374742   -0.00807960672275255
0.001015281208250984   -0.0632376357954099   -0.007059597582443862
-0.014710681103257546   -0.06357572298121239   -0.007281821583062211
9.197309144815398e-05   -0.09959107503374742   -0.00807960672275255
-0.018378288804042197   -0.09979783588661312   -0.008349757044386973
-0.018408205643063107   -0.09953119710599603   -0.008604784984464283
-0.014710681103257546   -0.06357572298121239   -0.007281821583062211
9.197309144815398e-05   -0.09959107503374742   -0.00807960672275255
-0.018408205643063107   -0.09953119710599603   -0.008604784984464283
0.001015281208250984   -0.0632376357954099   -0.007059597582443862
-0.014710681103257546   -0.06357572298121239   -0.007281821583062211
-0.018378288804042197   -0.09979783588661312   -0.008349757044386973
0.0010776979294705947   -0.06337863208726045   -0.006988921225475001
-0.014670721945664517   -0.0637607683754504   -0.007014120742785097
-0.018378288804042197   -0.09979783588661312   -0.008349757044386973
9.197309144815398e-05   -0.09959107503374742   -0.00807960672275255
0.0010776979294705947   -0.06337863208726045   -0.006988921225475001
0.00013371274169774936   -0.09962481258335588   -0.007995115118127834
-0.014670721945664517   -0.0637607683754504   -0.007014120742785097
0.0011158233909534863   -0.06338990972469725   -0.006954332975943892
0.00013371274169774936   -0.09962481258335588   -0.007995115118127834
0.0010776979294705947   -0.06337863208726045   -0.006988921225475001
-0.014670721945664517   -0.0637607683754504   -0.007014120742785097
0.00013371274169774936   -0.09962481258335588   -0.007995115118127834
-0.01833550402056027   -0.09999047966789974   -0.008132666288980095
-0.018378288804042197   -0.09979783588661312   -0.008349757044386973
-0.014670721945664517   -0.0637607683754504   -0.007014120742785097
0.00013371274169774936   -0.09962481258335588   -0.007995115118127834
-0.018378288804042197   -0.09979783588661312   -0.008349757044386973
0.0010776979294705947   -0.06337863208726045   -0.006988921225475001
-0.014670721945664517   -0.0637607683754504   -0.007014120742785097
-0.01833550402056027   -0.09999047966789974   -0.008132666288980095
0.0011158233909534863   -0.06338990972469725   -0.006954332975943892
-0.014601721300722894   -0.06381820844212668   -0.006783368650517014
-0.01833550402056027   -0.09999047966789974   -0.008132666288980095
0.00013371274169774936   -0.09962481258335588   -0.007995115118127834
0.0011158233909534863   -0.06338990972469725   -0.006954332975943892
0.00015826955048008114   -0.09958303408424442   -0.007949733798421491
-0.014601721300722894   -0.06381820844212668   -0.006783368650517014
0.0011418773112847665   -0.06326952767387853   -0.00695804578794099
0.00015826955048008114   -0.09958303408424442   -0.007949733798421491
0.0011158233909534863   -0.06338990972469725   -0.006954332975943892
-0.014601721300722894   -0.06381820844212668   -0.006783368650517014
0.00015826955048008114   -0.09958303408424442   -0.007949733798421491
-0.018269266531347337   -0.10011038581028289   -0.007954122605116179
-0.01833550402056027   -0.09999047966789974   -0.008132666288980095
-0.014601721300722894   -0.06381820844212668   -0.006783368650517014
0.00015826955048008114   -0.09958303408424442   -0.007949733798421491
-0.01833550402056027   -0.09999047966789974   -0.008132666288980095
0.0011158233909534863   -0.06338990972469725   -0.006954332975943892
0.001015281208250984   -0.0632376357954099   -0.007059597582443862
3.129922667613761e-05   -0.0994828386508421   -0.0082015366354077
0.017443925047586156   -0.06359768858065823   -0.006844849642502116
0.0010776979294705947   -0.06337863208726045   -0.006988921225475001
3.129922667613761e-05   -0.0994828386508421   -0.0082015366354077
0.01910460763092902   -0.09964976450182346   -0.008083844526783849
0.017443925047586156   -0.06359768858065823   -0.006844849642502116
0.019179589013547813   -0.09960896604574053   -0.008097858037030087
0.0010776979294705947   -0.06337863208726045   -0.006988921225475001
0.017497249140370628   -0.06357910470364621   -0.007013175792315799
0.019179589013547813   -0.09960896604574053   -0.008097858037030087
0.017443925047586156   -0.06359768858065823   -0.006844849642502116
0.0010776979294705947   -0.06337863208726045   -0.006988921225475001
0.019179589013547813   -0.09960896604574053   -0.008097858037030087
9.197309144815398e-05   -0.09959107503374742   -0.00807960672275255
3.129922667613761e-05   -0.0994828386508421   -0.0082015366354077
0.0010776979294705947   -0.06337863208726045   -0.006988921225475001
0.019179589013547813   -0.09960896604574053   -0.008097858037030087
3.129922667613761e-05   -0.0994828386508421   -0.0082015366354077
0.017443925047586156   -0.06359768858065823   -0.006844849642502116
0.0010776979294705947   -0.06337863208726045   -0.006988921225475001
9.197309144815398e-05   -0.09959107503374742   -0.00807960672275255
0.017497249140370628   -0.06357910470364621   -0.007013175792315799
0.0011158233909534863   -0.06338990972469725   -0.006954332975943892
9.197309144815398e-05   -0.09959107503374742   -0.00807960672275255
0.019179589013547813   -0.09960896604574053   -0.008097858037030087
0.017497249140370628   -0.06357910470364621   -0.007013175792315799
0.019179961810245606   -0.09949917469900336   -0.008147307960467295
0.0011158233909534863   -0.06338990972469725   -0.006954332975943892
0.017447024019404286   -0.06343341328530197   -0.007214938238429554
0.019179961810245606   -0.09949917469900336   -0.008147307960467295
0.017497249140370628   -0.06357910470364621   -0.007013175792315799
0.0011158233909534863   -0.06338990972469725   -0.006954332975943892
0.019179961810245606   -0.09949917469900336   -0.008147307960467295
0.00013371274169774936   -0.09962481258335588   -0.007995115118127834
9.197309144815398e-05   -0.09959107503374742   -0.00807960672275255
0.0011158233909534863   -0.06338990972469725   -0.006954332975943892
0.019179961810245606   -0.09949917469900336   -0.008147307960467295
9.197309144815398e-05   -0.09959107503374742   -0.00807960672275255
0.017497249140370628   -0.06357910470364621   -0.007013175792315799
0.0011158233909534863   -0.06338990972469725   -0.006954332975943892
0.00013371274169774936   -0.09962481258335588   -0.007995115118127834
0.017447024019404286   -0.06343341328530197   -0.007214938238429554
0.0011418773112847665   -0.06326952767387853   -0.00695804578794099
0.00013371274169774936   -0.09962481258335588   -0.007995115118127834
0.019179961810245606   -0.09949917469900336   -0.008147307960467295
0.017447024019404286   -0.06343341328530197   -0.007214938238429554
0.01913269544545527   -0.09929272174288957   -0.008233525980077105
0.0011418773112847665   -0.06326952767387853   -0.00695804578794099
0.01737510727607954   -0.06312933001784976   -0.007454082535093838
0.01913269544545527   -0.09929272174288957   -0.008233525980077105
0.017447024019404286   -0.06343341328530197   -0.007214938238429554
0.0011418773112847665   -0.06326952767387853   -0.00695804578794099
0.01913269544545527   -0.09929272174288957   -0.008233525980077105
0.00015826955048008114   -0.09958303408424442   -0.007949733798421491
0.00013371274169774936   -0.09962481258335588   -0.007995115118127834
0.0011418773112847665   -0.06326952767387853   -0.00695804578794099
0.01913269544545527   -0.09929272174288957   -0.008233525980077105
0.00013371274169774936   -0.09962481258335588   -0.007995115118127834
0.017447024019404286   -0.06343341328530197   -0.007214938238429554
0.017443925047586156   -0.06359768858065823   -0.006844849642502116
0.01910460763092902   -0.09964976450182346   -0.008083844526783849
0.03615062566670895   -0.06425190231881707   -0.006845142991472997
0.017497249140370628   -0.06357910470364621   -0.007013175792315799
0.01910460763092902   -0.09964976450182346   -0.008083844526783849
0.040166769390363996   -0.09995744263103638   -0.008188429004200309
0.03615062566670895   -0.06425190231881707   -0.006845142991472997
0.04012119936679275   -0.09981591239070661   -0.008349717352684185
0.017497249140370628   -0.06357910470364621   -0.007013175792315799
0.03582764410483615   -0.06414165466212937   -0.007283789657950351
0.04012119936679275   -0.09981591239070661   -0.008349717352684185
0.03615062566670895   -0.06425190231881707   -0.006845142991472997
0.017497249140370628   -0.06357910470364621   -0.007013175792315799
0.04012119936679275   -0.09981591239070661   -0.008349717352684185
0.019179589013547813   -0.09960896604574053   -0.008097858037030087
0.01910460763092902   -0.09964976450182346   -0.008083844526783849
0.017497249140370628   -0.06357910470364621   -0.007013175792315799
0.04012119936679275   -0.09981591239070661   -0.008349717352684185
0.01910460763092902   -0.09964976450182346   -0.008083844526783849
0.03615062566670895   -0.06425190231881707   -0.006845142991472997
0.017497249140370628   -0.06357910470364621   -0.007013175792315799
0.019179589013547813   -0.09960896604574053   -0.008097858037030087
0.03582764410483615   -0.06414165466212937   -0.007283789657950351
0.017447024019404286   -0.06343341328530197   -0.007214938238429554
0.019179589013547813   -0.09960896604574053   -0.008097858037030087
0.04012119936679275   -0.09981591239070661   -0.008349717352684185
0.03582764410483615   -0.06414165466212937   -0.007283789657950351
0.04001323695491402   -0.0996363894334677   -0.008568462280149498
0.017447024019404286   -0.06343341328530197   -0.007214938238429554
0.03550643554052012   -0.06391701049955846   -0.007782725919469899
0.04001323695491402   -0.0996363894334677   -0.008568462280149498
0.03582764410483615   -0.06414165466212937   -0.007283789657950351
0.017447024019404286   -0.06343341328530197   -0.007214938238429554
0.04001323695491402   -0.0996363894334677   -0.008568462280149498
0.019179961810245606   -0.09949917469900336   -0.008147307960467295
0.019179589013547813   -0.09960896604574053   -0.008097858037030087
0.017447024019404286   -0.06343341328530197   -0.007214938238429554
0.04001323695491402   -0.0996363894334677   -0.008568462280149498
0.019179589013547813   -0.09960896604574053   -0.008097858037030087
0.03582764410483615   -0.06414165466212937   -0.007283789657950351
0.017447024019404286   -0.06343341328530197   -0.007214938238429554
0.019179961810245606   -0.09949917469900336   -0.008147307960467295
0.03550643554052012   -0.06391701049955846   -0.007782725919469899
0.01737510727607954   -0.06312933001784976   -0.007454082535093838
0.019179961810245606   -0.09949917469900336   -0.008147307960467295
0.04001323695491402   -0.0996363894334677   -0.008568462280149498
0.03550643554052012   -0.06391701049955846   -0.007782725919469899
0.03973106041438051   -0.09929249525988888   -0.008844247942263241
0.01737510727607954   -0.06312933001784976   -0.007454082535093838
0.03494126572957016   -0.06344399994641188   -0.00834201386782143
0.03973106041438051   -0.09929249525988888   -0.008844247942263241
0.03550643554052012   -0.06391701049955846   -0.007782725919469899
0.01737510727607954   -0.06312933001784976   -0.007454082535093838
0.03973106041438051   -0.09929249525988888   -0.008844247942263241
0.01913269544545527   -0.09929272174288957   -0.008233525980077105
0.019179961810245606   -0.09949917469900336   -0.008147307960467295
0.01737510727607954   -0.06312933001784976   -0.007454082535093838
0.03973106041438051   -0.09929249525988888   -0.008844247942263241
0.019179961810245606   -0.09949917469900336   -0.008147307960467295
0.03550643554052012   -0.06391701049955846   -0.007782725919469899
-0.057573553138006044   -0.10036484523244676   -0.010292542818185514
-0.06327558875822742   -0.13938445114805748   -0.010475361213982267
-0.03736114578620344   -0.09981481182471157   -0.009295404962567217
-0.05815858907074434   -0.1009386782461223   -0.009730769121942165
-0.06327558875822742   -0.13938445114805748   -0.010475361213982267
-0.041561592556422354   -0.13915936521255953   -0.009679560447704696
-0.03736114578620344   -0.09981481182471157   -0.009295404962567217
-0.04154940778026959   -0.13952195281977464   -0.009441735863414773
-0.05815858907074434   -0.1009386782461223   -0.009730769121942165
-0.037411285583759335   -0.10023915964360235   -0.008908244618782923
-0.04154940778026959   -0.13952195281977464   -0.009441735863414773
-0.03736114578620344   -0.09981481182471157   -0.009295404962567217
-0.05815858907074434   -0.1009386782461223   -0.009730769121942165
-0.04154940778026959   -0.13952195281977464   -0.009441735863414773
-0.06355200357909346   -0.13987163660028126   -0.010184536211652906
-0.06327558875822742   -0.13938445114805748   -0.010475361213982267
-0.05815858907074434   -0.1009386782461223   -0.009730769121942165
-0.04154940778026959   -0.13952195281977464   -0.009441735863414773
-0.06327558875822742   -0.13938445114805748   -0.010475361213982267
-0.03736114578620344   -0.09981481182471157   -0.009295404962567217
-0.05815858907074434   -0.1009386782461223   -0.009730769121942165
-0.06355200357909346   -0.13987163660028126   -0.010184536211652906
-0.037411285583759335   -0.10023915964360235   -0.008908244618782923
-0.05849684217816954   -0.10134416497906884   -0.009222681169330968
-0.06355200357909346   -0.13987163660028126   -0.010184536211652906
-0.04154940778026959   -0.13952195281977464   -0.009441735863414773
-0.037411285583759335   -0.10023915964360235   -0.008908244618782923
-0.04149805745506928   -0.13985596236924214   -0.009243385955059136
-0.05849684217816954   -0.10134416497906884   -0.009222681169330968
-0.037448719775299975   -0.1005751527712202   -0.008559574089018942
-0.04149805745506928   -0.13985596236924214   -0.009243385955059136
-0.037411285583759335   -0.10023915964360235   -0.008908244618782923
-0.05849684217816954   -0.10134416497906884   -0.009222681169330968
-0.04149805745506928   -0.13985596236924214   -0.009243385955059136
-0.06364359302260608   -0.1402684167843257   -0.009950542723875504
-0.06355200357909346   -0.13987163660028126   -0.010184536211652906
-0.05849684217816954   -0.10134416497906884   -0.009222681169330968
-0.04149805745506928   -0.13985596236924214   -0.009243385955059136
-0.06355200357909346   -0.13987163660028126   -0.010184536211652906
-0.037411285583759335   -0.10023915964360235   -0.008908244618782923
-0.05849684217816954   -0.10134416497906884   -0.009222681169330968
-0.06364359302260608   -0.1402684167843257   -0.009950542723875504
-0.037448719775299975   -0.1005751527712202   -0.008559574089018942
-0.058845689729239245   -0.10170676884847864   -0.008774630445516686
-0.06364359302260608   -0.1402684167843257   -0.009950542723875504
-0.04149805745506928   -0.13985596236924214   -0.009243385955059136
-0.037448719775299975   -0.1005751527712202   -0.008559574089018942
-0.041364913341443196   -0.1401868091513885   -0.009081785463871317
-0.058845689729239245   -0.10170676884847864   -0.008774630445516686
-0.03737650147348622   -0.10085060844041659   -0.008244309474745186
-0.041364913341443196   -0.1401868091513885   -0.009081785463871317
-0.037448719775299975   -0.1005751527712202   -0.008559574089018942
-0.058845689729239245   -0.10170676884847864   -0.008774630445516686
-0.041364913341443196   -0.1401868091513885   -0.009081785463871317
-0.06367823079772679   -0.14069860537177492   -0.009778216209740008
-0.06364359302260608   -0.1402684167843257   -0.009950542723875504
-0.058845689729239245   -0.10170676884847864   -0.008774630445516686
-0.041364913341443196   -0.1401868091513885   -0.009081785463871317
-0.06364359302260608   -0.1402684167843257   -0.009950542723875504
-0.037448719775299975   -0.1005751527712202   -0.008559574089018942
-0.03736114578620344   -0.09981481182471157   -0.009295404962567217
-0.041561592556422354   -0.13915936521255953   -0.009679560447704696
-0.018408205643063107   -0.09953119710599603   -0.008604784984464283
-0.037411285583759335   -0.10023915964360235   -0.008908244618782923
-0.041561592556422354   -0.13915936521255953   -0.009679560447704696
-0.021389789125649962   -0.1390311239976217   -0.009137638154990904
-0.018408205643063107   -0.09953119710599603   -0.008604784984464283
-0.021318690370424092   -0.1392509404897472   -0.008930973901721668
-0.037411285583759335   -0.10023915964360235   -0.008908244618782923
-0.018378288804042197   -0.09979783588661312   -0.008349757044386973
-0.021318690370424092   -0.1392509404897472   -0.008930973901721668
-0.018408205643063107   -0.09953119710599603   -0.008604784984464283
-0.037411285583759335   -0.10023915964360235   -0.008908244618782923
-0.021318690370424092   -0.1392509404897472   -0.008930973901721668
-0.04154940778026959   -0.13952195281977464   -0.009441735863414773
-0.041561592556422354   -0.13915936521255953   -0.009679560447704696
-0.037411285583759335   -0.10023915964360235   -0.008908244618782923
-0.021318690370424092   -0.1392509404897472   -0.008930973901721668
-0.041561592556422354   -0.13915936521255953   -0.009679560447704696
-0.018408205643063107   -0.09953119710599603   -0.008604784984464283
-0.037411285583759335   -0.10023915964360235   -0.008908244618782923
-0.04154940778026959   -0.13952195281977464   -0.009441735863414773
-0.018378288804042197   -0.09979783588661312   -0.008349757044386973
-0.037448719775299975   -0.1005751527712202   -0.008559574089018942
-0.04154940778026959   -0.13952195281977464   -0.009441735863414773
-0.021318690370424092   -0.1392509404897472   -0.008930973901721668
-0.018378288804042197   -0.09979783588661312   -0.008349757044386973
-0.02123047505845535   -0.13945234858162592   -0.00876383893677033
-0.037448719775299975   -0.1005751527712202   -0.008559574089018942
-0.01833550402056027   -0.09999047966789974   -0.008132666288980095
-0.02123047505845535   -0.13945234858162592   -0.00876383893677033
-0.018378288804042197   -0.09979783588661312   -0.008349757044386973
-0.037448719775299975   -0.1005751527712202   -0.008559574089018942
-0.02123047505845535   -0.13945234858162592   -0.00876383893677033
-0.04149805745506928   -0.13985596236924214   -0.009243385955059136
-0.04154940778026959   -0.13952195281977464   -0.009441735863414773
-0.037448719775299975   -0.1005751527712202   -0.008559574089018942
-0.02123047505845535   -0.13945234858162592   -0.00876383893677033
-0.04154940778026959   -0.13952195281977464   -0.009441735863414773
-0.018378288804042197   -0.09979783588661312   -0.008349757044386973
-0.037448719775299975   -0.1005751527712202   -0.008559574089018942
-0.04149805745506928   -0.13985596236924214   -0.009243385955059136
-0.01833550402056027   -0.09999047966789974   -0.008132666288980095
-0.03737650147348622   -0.10085060844041659   -0.008244309474745186
-0.04149805745506928   -0.13985596236924214   -0.009243385955059136
-0.02123047505845535   -0.13945234858162592   -0.00876383893677033
-0.01833550402056027   -0.09999047966789974   -0.008132666288980095
-0.02112368968566768   -0.1396360023613841   -0.008637162375346716
-0.03737650147348622   -0.10085060844041659   -0.008244309474745186
-0.018269266531347337   -0.10011038581028289   -0.007954122605116179
-0.02112368968566768   -0.1396360023613841   -0.008637162375346716
-0.01833550402056027   -0.09999047966789974   -0.008132666288980095
-0.03737650147348622   -0.10085060844041659   -0.008244309474745186
-0.02112368968566768   -0.1396360023613841   -0.008637162375346716
-0.041364913341443196   -0.1401868091513885   -0.009081785463871317
-0.04149805745506928   -0.13985596236924214   -0.009243385955059136
-0.03737650147348622   -0.10085060844041659   -0.008244309474745186
-0.02112368968566768   -0.1396360023613841   -0.008637162375346716
-0.04149805745506928   -0.13985596236924214   -0.009243385955059136
-0.01833550402056027   -0.09999047966789974   -0.008132666288980095
-0.018408205643063107   -0.09953119710599603   -0.008604784984464283
-0.021389789125649962   -0.1390311239976217   -0.009137638154990904
3.129922667613761e-05   -0.0994828386508421   -0.0082015366354077
-0.018378288804042197   -0.09979783588661312   -0.008349757044386973
-0.021389789125649962   -0.1390311239976217   -0.009137638154990904
-0.0017635777597598953   -0.1389582790072595   -0.008856219333058224
3.129922667613761e-05   -0.0994828386508421   -0.0082015366354077
-0.0016626797854753848   -0.13903285253447484   -0.00868273077656083
-0.018378288804042197   -0.09979783588661312   -0.008349757044386973
9.197309144815398e-05   -0.09959107503374742   -0.00807960672275255
-0.0016626797854753848   -0.13903285253447484   -0.00868273077656083
3.129922667613761e-05   -0.0994828386508421   -0.0082015366354077
-0.018378288804042197   -0.09979783588661312   -0.008349757044386973
-0.0016626797854753848   -0.13903285253447484   -0.00868273077656083
-0.021318690370424092   -0.1392509404897472   -0.008930973901721668
-0.021389789125649962   -0.1390311239976217   -0.009137638154990904
-0.018378288804042197   -0.09979783588661312   -0.008349757044386973
-0.0016626797854753848   -0.13903285253447484   -0.00868273077656083
-0.021389789125649962   -0.1390311239976217   -0.009137638154990904
3.129922667613761e-05   -0.0994828386508421   -0.0082015366354077
-0.018378288804042197   -0.09979783588661312   -0.008349757044386973
-0.021318690370424092   -0.1392509404897472   -0.008930973901721668
9.197309144815398e-05   -0.09959107503374742   -0.00807960672275255
-0.01833550402056027   -0.09999047966789974   -0.008132666288980095
-0.021318690370424092   -0.1392509404897472   -0.008930973901721668
-0.0016626797854753848   -0.13903285253447484   -0.00868273077656083
9.197309144815398e-05   -0.09959107503374742   -0.00807960672275255
-0.0015758458161476093   -0.1390877373919914   -0.008548412370278135
-0.01833550402056027   -0.09999047966789974   -0.008132666288980095
0.00013371274169774936   -0.09962481258335588   -0.007995115118127834
-0.0015758458161476093   -0.1390877373919914   -0.008548412370278135
9.197309144815398e-05   -0.09959107503374742   -0.00807960672275255
-0.01833550402056027   -0.09999047966789974   -0.008132666288980095
-0.0015758458161476093   -0.1390877373919914   -0.008548412370278135
-0.02123047505845535   -0.13945234858162592   -0.00876383893677033
-0.021318690370424092   -0.1392509404897472   -0.008930973901721668
-0.01833550402056027   -0.09999047966789974   -0.008132666288980095
-0.0015758458161476093   -0.1390877373919914   -0.008548412370278135
-0.021318690370424092   -0.1392509404897472   -0.008930973901721668
9.197309144815398e-05   -0.09959107503374742   -0.00807960672275255
-0.01833550402056027   -0.09999047966789974   -0.008132666288980095
-0.02123047505845535   -0.13945234858162592   -0.00876383893677033
0.00013371274169774936   -0.09962481258335588   -0.007995115118127834
-0.018269266531347337   -0.10011038581028289   -0.007954122605116179
-0.02123047505845535   -0.13945234858162592   -0.00876383893677033
-0.0015758458161476093   -0.1390877373919914   -0.008548412370278135
0.00013371274169774936   -0.09962481258335588   -0.007995115118127834
-0.0015107288457264535   -0.13912266580064225   -0.008454703736192106
-0.018269266531347337   -0.10011038581028289   -0.007954122605116179
0.00015826955048008114   -0.09958303408424442   -0.007949733798421491
-0.0015107288457264535   -0.13912266580064225   -0.008454703736192106
0.00013371274169774936   -0.09962481258335588   -0.007995115118127834
-0.018269266531347337   -0.10011038581028289   -0.007954122605116179
-0.0015107288457264535   -0.13912266580064225   -0.008454703736192106
-0.02112368968566768   -0.1396360023613841   -0.008637162375346716
-0.02123047505845535   -0.13945234858162592   -0.00876383893677033
-0.018269266531347337   -0.10011038581028289   -0.007954122605116179
-0.0015107288457264535   -0.13912266580064225   -0.008454703736192106
-0.02123047505845535   -0.13945234858162592   -0.00876383893677033
0.00013371274169774936   -0.09962481258335588   -0.007995115118127834
3.129922667613761e-05   -0.0994828386508421   -0.0082015366354077
-0.0017635777597598953   -0.1389582790072595   -0.008856219333058224
0.01910460763092902   -0.09964976450182346   -0.008083844526783849
9.197309144815398e-05   -0.09959107503374742   -0.00807960672275255
-0.0017635777597598953   -0.1389582790072595   -0.008856219333058224
0.018462579011202556   -0.13892831427581817   -0.008837591477713526
0.01910460763092902   -0.09964976450182346   -0.008083844526783849
0.0185972754880054   -0.138862329272167   -0.008698963980100737
9.197309144815398e-05   -0.09959107503374742   -0.00807960672275255
0.019179589013547813   -0.09960896604574053   -0.008097858037030087
0.0185972754880054   -0.138862329272167   -0.008698963980100737
0.01910460763092902   -0.09964976450182346   -0.008083844526783849
9.197309144815398e-05   -0.09959107503374742   -0.00807960672275255
0.0185972754880054   -0.138862329272167   -0.008698963980100737
-0.0016626797854753848   -0.13903285253447484   -0.00868273077656083
-0.0017635777597598953   -0.1389582790072595   -0.008856219333058224
9.197309144815398e-05   -0.09959107503374742   -0.00807960672275255
0.0185972754880054   -0.138862329272167   -0.008698963980100737
-0.0017635777597598953   -0.1389582790072595   -0.008856219333058224
0.01910460763092902   -0.09964976450182346   -0.008083844526783849
9.197309144815398e-05   -0.09959107503374742   -0.00807960672275255
-0.0016626797854753848   -0.13903285253447484   -0.00868273077656083
0.019179589013547813   -0.09960896604574053   -0.008097858037030087
0.00013371274169774936   -0.09962481258335588   -0.007995115118127834
-0.0016626797854753848   -0.13903285253447484   -0.00868273077656083
0.0185972754880054   -0.138862329272167   -0.008698963980100737
0.019179589013547813   -0.09960896604574053   -0.008097858037030087
0.018685682710861858   -0.1387846267773216   -0.008598398295033569
0.00013371274169774936   -0.09962481258335588   -0.007995115118127834
0.019179961810245606   -0.09949917469900336   -0.008147307960467295
0.018685682710861858   -0.1387846267773216   -0.008598398295033569
0.019179589013547813   -0.09960896604574053   -0.008097858037030087
0.00013371274169774936   -0.09962481258335588   -0.007995115118127834
0.018685682710861858   -0.1387846267773216   -0.008598398295033569
-0.0015758458161476093   -0.1390877373919914   -0.008548412370278135
-0.0016626797854753848   -0.13903285253447484   -0.00868273077656083
0.00013371274169774936   -0.09962481258335588   -0.007995115118127834
0.018685682710861858   -0.1387846267773216   -0.008598398295033569
-0.0016626797854753848   -0.13903285253447484   -0.00868273077656083
0.019179589013547813   -0.09960896604574053   -0.008097858037030087
0.00013371274169774936   -0.09962481258335588   -0.007995115118127834
-0.0015758458161476093   -0.1390877373919914   -0.008548412370278135
0.019179961810245606   -0.09949917469900336   -0.008147307960467295
0.00015826955048008114   -0.09958303408424442   -0.007949733798421491
-0.0015758458161476093   -0.1390877373919914   -0.008548412370278135
0.018685682710861858   -0.1387846267773216   -0.008598398295033569
0.019179961810245606   -0.09949917469900336   -0.008147307960467295
0.01869998800827898   -0.13866946590703155   -0.008535103240050626
0.00015826955048008114   -0.09958303408424442   -0.007949733798421491
0.01913269544545527   -0.09929272174288957   -0.008233525980077105
0.01869998800827898   -0.13866946590703155   -0.008535103240050626
0.019179961810245606   -0.09949917469900336   -0.008147307960467295
0.00015826955048008114   -0.09958303408424442   -0.007949733798421491
0.01869998800827898   -0.13866946590703155   -0.008535103240050626
-0.0015107288457264535   -0.13912266580064225   -0.008454703736192106
-0.0015758458161476093   -0.1390877373919914   -0.008548412370278135
0.00015826955048008114   -0.09958303408424442   -0.007949733798421491
0.01869998800827898   -0.13866946590703155   -0.008535103240050626
-0.0015758458161476093   -0.1390877373919914   -0.008548412370278135
0.019179961810245606   -0.09949917469900336   -0.008147307960467295
0.01910460763092902   -0.09964976450182346   -0.008083844526783849
0.018462579011202556   -0.13892831427581817   -0.008837591477713526
0.040166769390363996   -0.09995744263103638   -0.008188429004200309
0.019179589013547813   -0.09960896604574053   -0.008097858037030087
0.018462579011202556   -0.13892831427581817   -0.008837591477713526
0.04038547715785996   -0.13888807256972208   -0.00905467318213289
0.040166769390363996   -0.09995744263103638   -0.008188429004200309
0.04065093785326864   -0.1387111579558262   -0.008942729262486675
0.019179589013547813   -0.09960896604574053   -0.008097858037030087
0.04012119936679275   -0.09981591239070661   -0.008349717352684185
0.04065093785326864   -0.1387111579558262   -0.008942729262486675
0.040166769390363996   -0.09995744263103638   -0.008188429004200309
0.019179589013547813   -0.09960896604574053   -0.008097858037030087
0.04065093785326864   -0.1387111579558262   -0.008942729262486675
0.0185972754880054   -0.138862329272167   -0.008698963980100737
0.018462579011202556   -0.13892831427581817   -0.008837591477713526
0.019179589013547813   -0.09960896604574053   -0.008097858037030087
0.04065093785326864   -0.1387111579558262   -0.008942729262486675
0.018462579011202556   -0.13892831427581817   -0.008837591477713526
0.040166769390363996   -0.09995744263103638   -0.008188429004200309
0.019179589013547813   -0.09960896604574053   -0.008097858037030087
0.0185972754880054   -0.138862329272167   -0.008698963980100737
0.04012119936679275   -0.09981591239070661   -0.008349717352684185
0.019179961810245606   -0.09949917469900336   -0.008147307960467295
0.0185972754880054   -0.138862329272167   -0.008698963980100737
0.04065093785326864   -0.1387111579558262   -0.008942729262486675
0.04012119936679275   -0.09981591239070661   -0.008349717352684185
0.04078847039243619   -0.13857098201184842   -0.008888566895230985
0.019179961810245606   -0.09949917469900336   -0.008147307960467295
0.04001323695491402   -0.0996363894334677   -0.008568462280149498
0.04078847039243619   -0.13857098201184842   -0.008888566895230985
0.04012119936679275   -0.09981591239070661   -0.008349717352684185
0.019179961810245606   -0.09949917469900336   -0.008147307960467295
0.04078847039243619   -0.13857098201184842   -0.008888566895230985
0.018685682710861858   -0.1387846267773216   -0.008598398295033569
0.0185972754880054   -0.138862329272167   -0.008698963980100737
0.019179961810245606   -0.09949917469900336   -0.008147307960467295
0.04078847039243619   -0.13857098201184842   -0.008888566895230985
0.0185972754880054   -0.138862329272167   -0.008698963980100737
0.04012119936679275   -0.09981591239070661   -0.008349717352684185
0.019179961810245606   -0.09949917469900336   -0.008147307960467295
0.018685682710861858   -0.1387846267773216   -0.008598398295033569
0.04001323695491402   -0.0996363894334677   -0.008568462280149498
0.01913269544545527   -0.09929272174288957   -0.008233525980077105
0.018685682710861858   -0.1387846267773216   -0.008598398295033569
0.04078847039243619   -0.13857098201184842   -0.008888566895230985
0.04001323695491402   -0.0996363894334677   -0.008568462280149498
0.040815484722532935   -0.13834462688111993   -0.008893168397052318
0.01913269544545527   -0.09929272174288957   -0.008233525980077105
0.03973106041438051   -0.09929249525988888   -0.008844247942263241
0.040815484722532935   -0.13834462688111993   -0.008893168397052318
0.04001323695491402   -0.0996363894334677   -0.008568462280149498
0.01913269544545527   -0.09929272174288957   -0.008233525980077105
0.040815484722532935   -0.13834462688111993   -0.008893168397052318
0.01869998800827898   -0.13866946590703155   -0.008535103240050626
0.018685682710861858   -0.1387846267773216   -0.008598398295033569
0.01913269544545527   -0.09929272174288957   -0.008233525980077105
0.040815484722532935   -0.13834462688111993   -0.008893168397052318
0.018685682710861858   -0.1387846267773216   -0.008598398295033569
0.04001323695491402   -0.0996363894334677   -0.008568462280149498
-0.06327558875822742   -0.13938445114805748   -0.010475361213982267
-0.06528005222659239   -0.17914245544299068   -0.010293048022142141
-0.041561592556422354   -0.13915936521255953   -0.009679560447704696
-0.06355200357909346   -0.13987163660028126   -0.010184536211652906
-0.06528005222659239   -0.17914245544299068   -0.010293048022142141
-0.04357567188756199   -0.17924555928864783   -0.009703308954708058
-0.041561592556422354   -0.13915936521255953   -0.009679560447704696
-0.04346159661802917   -0.17954492576037331   -0.009612884770650698
-0.06355200357909346   -0.13987163660028126   -0.010184536211652906
-0.04154940778026959   -0.13952195281977464   -0.009441735863414773
-0.04346159661802917   -0.17954492576037331   -0.009612884770650698
-0.041561592556422354   -0.13915936521255953   -0.009679560447704696
-0.06355200357909346   -0.13987163660028126   -0.010184536211652906
-0.04346159661802917   -0.17954492576037331   -0.009612884770650698
-0.06520934415272893   -0.1795428210909101   -0.01027269370605541
-0.06528005222659239   -0.17914245544299068   -0.010293048022142141
-0.06355200357909346   -0.13987163660028126   -0.010184536211652906
-0.04346159661802917   -0.17954492576037331   -0.009612884770650698
-0.06528005222659239   -0.17914245544299068   -0.010293048022142141
-0.041561592556422354   -0.13915936521255953   -0.009679560447704696
-0.06355200357909346   -0.13987163660028126   -0.010184536211652906
-0.06520934415272893   -0.1795428210909101   -0.01027269370605541
-0.04154940778026959   -0.13952195281977464   -0.009441735863414773
-0.06364359302260608   -0.1402684167843257   -0.009950542723875504
-0.06520934415272893   -0.1795428210909101   -0.01027269370605541
-0.04346159661802917   -0.17954492576037331   -0.009612884770650698
-0.04154940778026959   -0.13952195281977464   -0.009441735863414773
-0.04328192653587844   -0.17987600907839874   -0.00956327440904804
-0.06364359302260608   -0.1402684167843257   -0.009950542723875504
-0.04149805745506928   -0.13985596236924214   -0.009243385955059136
-0.04328192653587844   -0.17987600907839874   -0.00956327440904804
-0.04154940778026959   -0.13952195281977464   -0.009441735863414773
-0.06364359302260608   -0.1402684167843257   -0.009950542723875504
-0.04328192653587844   -0.17987600907839874   -0.00956327440904804
-0.06501329485945899   -0.1799308279290571   -0.010313345729624293
-0.06520934415272893   -0.1795428210909101   -0.01027269370605541
-0.06364359302260608   -0.1402684167843257   -0.009950542723875504
-0.04328192653587844   -0.17987600907839874   -0.00956327440904804
-0.06520934415272893   -0.1795428210909101   -0.01027269370605541
-0.04154940778026959   -0.13952195281977464   -0.009441735863414773
-0.06364359302260608   -0.1402684167843257   -0.009950542723875504
-0.06501329485945899   -0.1799308279290571   -0.010313345729624293
-0.04149805745506928   -0.13985596236924214   -0.009243385955059136
-0.06367823079772679   -0.14069860537177492   -0.009778216209740008
-0.06501329485945899   -0.1799308279290571   -0.010313345729624293
-0.04328192653587844   -0.17987600907839874   -0.00956327440904804
-0.04149805745506928   -0.13985596236924214   -0.009243385955059136
-0.04304821207666202   -0.18026156368478125   -0.009553859767203196
-0.06367823079772679   -0.14069860537177492   -0.009778216209740008
-0.041364913341443196   -0.1401868091513885   -0.009081785463871317
-0.04304821207666202   -0.18026156368478125   -0.009553859767203196
-0.04149805745506928   -0.13985596236924214   -0.009243385955059136
-0.06367823079772679   -0.14069860537177492   -0.009778216209740008
-0.04304821207666202   -0.18026156368478125   -0.009553859767203196
-0.06469279196486709   -0.18042998571306307   -0.010418032971960648
-0.06501329485945899   -0.1799308279290571   -0.010313345729624293
-0.06367823079772679   -0.14069860537177492   -0.009778216209740008
-0.04304821207666202   -0.18026156368478125   -0.009553859767203196
-0.06501329485945899   -0.1799308279290571   -0.010313345729624293
-0.04149805745506928   -0.13985596236924214   -0.009243385955059136
-0.041561592556422354   -0.13915936521255953   -0.009679560447704696
-0.04357567188756199   -0.17924555928864783   -0.009703308954708058
-0.021389789125649962   -0.1390311239976217   -0.009137638154990904
-0.04154940778026959   -0.13952195281977464   -0.009441735863414773
-0.04357567188756199   -0.17924555928864783   -0.009703308954708058
-0.023696998722996833   -0.17926858116576214   -0.00931116150932785
-0.021389789125649962   -0.1390311239976217   -0.009137638154990904
-0.023543190526140408   -0.179440649258766   -0.009151548807889638
-0.04154940778026959   -0.13952195281977464   -0.009441735863414773
-0.021318690370424092   -0.1392509404897472   -0.008930973901721668
-0.023543190526140408   -0.179440649258766   -0.009151548807889638
-0.021389789125649962   -0.1390311239976217   -0.009137638154990904
-0.04154940778026959   -0.13952195281977464   -0.009441735863414773
-0.023543190526140408   -0.179440649258766   -0.009151548807889638
-0.04346159661802917   -0.17954492576037331   -0.009612884770650698
-0.04357567188756199   -0.17924555928864783   -0.009703308954708058
-0.04154940778026959   -0.13952195281977464   -0.009441735863414773
-0.023543190526140408   -0.179440649258766   -0.009151548807889638
-0.04357567188756199   -0.17924555928864783   -0.009703308954708058
-0.021389789125649962   -0.1390311239976217   -0.009137638154990904
-0.04154940778026959   -0.13952195281977464   -0.009441735863414773
-0.04346159661802917   -0.17954492576037331   -0.009612884770650698
-0.021318690370424092   -0.1392509404897472   -0.008930973901721668
-0.04149805745506928   -0.13985596236924214   -0.009243385955059136
-0.04346159661802917   -0.17954492576037331   -0.009612884770650698
-0.023543190526140408   -0.179440649258766   -0.009151548807889638
-0.021318690370424092   -0.1392509404897472   -0.008930973901721668
-0.023368987533247777   -0.1796493114113293   -0.009032920962696821
-0.04149805745506928   -0.13985596236924214   -0.009243385955059136
-0.02123047505845535   -0.13945234858162592   -0.00876383893677033
-0.023368987533247777   -0.1796493114113293   -0.009032920962696821
-0.021318690370424092   -0.1392509404897472   -0.008930973901721668
-0.04149805745506928   -0.13985596236924214   -0.009243385955059136
-0.023368987533247777   -0.1796493114113293   -0.009032920962696821
-0.04328192653587844   -0.17987600907839874   -0.00956327440904804
-0.04346159661802917   -0.17954492576037331   -0.009612884770650698
-0.04149805745506928   -0.13985596236924214   -0.009243385955059136
-0.023368987533247777   -0.1796493114113293   -0.009032920962696821
-0.04346159661802917   -0.17954492576037331   -0.009612884770650698
-0.021318690370424092   -0.1392509404897472   -0.008930973901721668
-0.04149805745506928   -0.13985596236924214   -0.009243385955059136
-0.04328192653587844   -0.17987600907839874   -0.00956327440904804
-0.02123047505845535   -0.13945234858162592   -0.00876383893677033
-0.041364913341443196   -0.1401868091513885   -0.009081785463871317
-0.04328192653587844   -0.17987600907839874   -0.00956327440904804
-0.023368987533247777   -0.1796493114113293   -0.009032920962696821
-0.02123047505845535   -0.13945234858162592   -0.00876383893677033
-0.0231810831517467   -0.17989521686346843   -0.008956584270625302
-0.041364913341443196   -0.1401868091513885   -0.009081785463871317
-0.02112368968566768   -0.1396360023613841   -0.008637162375346716
-0.0231810831517467   -0.17989521686346843   -0.008956584270625302
-0.02123047505845535   -0.13945234858162592   -0.00876383893677033
-0.041364913341443196   -0.1401868091513885   -0.009081785463871317
-0.0231810831517467   -0.17989521686346843   -0.008956584270625302
-0.04304821207666202   -0.18026156368478125   -0.009553859767203196
-0.04328192653587844   -0.17987600907839874   -0.00956327440904804
-0.041364913341443196   -0.1401868091513885   -0.009081785463871317
-0.0231810831517467   -0.17989521686346843   -0.008956584270625302
-0.04328192653587844   -0.17987600907839874   -0.00956327440904804
-0.02123047505845535   -0.13945234858162592   -0.00876383893677033
-0.021389789125649962   -0.1390311239976217   -0.009137638154990904
-0.023696998722996833   -0.17926858116576214   -0.00931116150932785
-0.0017635777597598953   -0.1389582790072595   -0.008856219333058224
-0.021318690370424092   -0.1392509404897472   -0.008930973901721668
-0.023696998722996833   -0.17926858116576214   -0.00931116150932785
-0.004381283502099046   -0.17916396916489863   -0.009149565356276037
-0.0017635777597598953   -0.1389582790072595   -0.008856219333058224
-0.004199011265245776   -0.1792046429330107   -0.008924199737357353
-0.021318690370424092   -0.1392509404897472   -0.008930973901721668
-0.0016626797854753848   -0.13903285253447484   -0.00868273077656083
-0.004199011265245776   -0.1792046429330107   -0.008924199737357353
-0.0017635777597598953   -0.1389582790072595   -0.008856219333058224
-0.021318690370424092   -0.1392509404897472   -0.008930973901721668
-0.004199011265245776   -0.1792046429330107   -0.008924199737357353
-0.023543190526140408   -0.179440649258766   -0.009151548807889638
-0.023696998722996833   -0.17926858116576214   -0.00931116150932785
-0.021318690370424092   -0.1392509404897472   -0.008930973901721668
-0.004199011265245776   -0.1792046429330107   -0.008924199737357353
-0.023696998722996833   -0.17926858116576214   -0.00931116150932785
-0.0017635777597598953   -0.1389582790072595   -0.008856219333058224
-0.021318690370424092   -0.1392509404897472   -0.008930973901721668
-0.023543190526140408   -0.179440649258766   -0.009151548807889638
-0.0016626797854753848   -0.13903285253447484   -0.00868273077656083
-0.02123047505845535   -0.13945234858162592   -0.00876383893677033
-0.023543190526140408   -0.179440649258766   -0.009151548807889638
-0.004199011265245776   -0.1792046429330107   -0.008924199737357353
-0.0016626797854753848   -0.13903285253447484   -0.00868273077656083
-0.004026726291281799   -0.17927899390426108   -0.008739510492321767
-0.02123047505845535   -0.13945234858162592   -0.00876383893677033
-0.0015758458161476093   -0.1390877373919914   -0.008548412370278135
-0.004026726291281799   -0.17927899390426108   -0.008739510492321767
-0.0016626797854753848   -0.13903285253447484   -0.00868273077656083
-0.02123047505845535   -0.13945234858162592   -0.00876383893677033
-0.004026726291281799   -0.17927899390426108   -0.008739510492321767
-0.023368987533247777   -0.1796493114113293   -0.009032920962696821
-0.023543190526140408   -0.179440649258766   -0.009151548807889638
-0.02123047505845535   -0.13945234858162592   -0.00876383893677033
-0.004026726291281799   -0.17927899390426108   -0.008739510492321767
-0.023543190526140408   -0.179440649258766   -0.009151548807889638
-0.0016626797854753848   -0.13903285253447484   -0.00868273077656083
-0.02123047505845535   -0.13945234858162592   -0.00876383893677033
-0.023368987533247777   -0.1796493114113293   -0.009032920962696821
-0.0015758458161476093   -0.1390877373919914   -0.008548412370278135
-0.02112368968566768   -0.1396360023613841   -0.008637162375346716
-0.023368987533247777   -0.1796493114113293   -0.009032920962696821
-0.004026726291281799   -0.17927899390426108   -0.008739510492321767
-0.0015758458161476093   -0.1390877373919914   -0.008548412370278135
-0.003880981847556136   -0.17938874314551675   -0.008596928385553641
-0.02112368968566768   -0.1396360023613841   -0.008637162375346716
-0.0015107288457264535   -0.13912266580064225   -0.008454703736192106
-0.003880981847556136   -0.17938874314551675   -0.008596928385553641
-0.0015758458161476093   -0.1390877373919914   -0.008548412370278135
-0.02112368968566768   -0.1396360023613841   -0.008637162375346716
-0.003880981847556136   -0.17938874314551675   -0.008596928385553641
-0.0231810831517467   -0.17989521686346843   -0.008956584270625302
-0.023368987533247777   -0.1796493114113293   -0.009032920962696821
-0.02112368968566768   -0.1396360023613841   -0.008637162375346716
-0.003880981847556136   -0.17938874314551675   -0.008596928385553641
-0.023368987533247777   -0.1796493114113293   -0.009032920962696821
-0.0015758458161476093   -0.1390877373919914   -0.008548412370278135
-0.0017635777597598953   -0.1389582790072595   -0.008856219333058224
-0.004381283502099046   -0.17916396916489863   -0.009149565356276037
0.018462579011202556   -0.13892831427581817   -0.008837591477713526
-0.0016626797854753848   -0.13903285253447484   -0.00868273077656083
-0.004381283502099046   -0.17916396916489863   -0.009149565356276037
0.015518293161922719   -0.178931073381495   -0.00922603959377942
0.018462579011202556   -0.13892831427581817   -0.008837591477713526
0.015751184186908948   -0.17884000396095176   -0.008936160889356882
-0.0016626797854753848   -0.13903285253447484   -0.00868273077656083
0.0185972754880054   -0.138862329272167   -0.008698963980100737
0.015751184186908948   -0.17884000396095176   -0.008936160889356882
0.018462579011202556   -0.13892831427581817   -0.008837591477713526
-0.0016626797854753848   -0.13903285253447484   -0.00868273077656083
0.015751184186908948   -0.17884000396095176   -0.008936160889356882
-0.004199011265245776   -0.1792046429330107   -0.008924199737357353
-0.004381283502099046   -0.17916396916489863   -0.009149565356276037
-0.0016626797854753848   -0.13903285253447484   -0.00868273077656083
0.015751184186908948   -0.17884000396095176   -0.008936160889356882
-0.004381283502099046   -0.17916396916489863   -0.009149565356276037
0.018462579011202556   -0.13892831427581817   -0.008837591477713526
-0.0016626797854753848   -0.13903285253447484   -0.00868273077656083
-0.004199011265245776   -0.1792046429330107   -0.008924199737357353
0.0185972754880054   -0.138862329272167   -0.008698963980100737
-0.0015758458161476093   -0.1390877373919914   -0.008548412370278135
-0.004199011265245776   -0.1792046429330107   -0.008924199737357353
0.015751184186908948   -0.17884000396095176   -0.008936160889356882
0.0185972754880054   -0.138862329272167   -0.008698963980100737
0.015965877326621136   -0.1787927047985039   -0.008686848625384118
-0.0015758458161476093   -0.1390877373919914   -0.008548412370278135
0.018685682710861858   -0.1387846267773216   -0.008598398295033569
0.015965877326621136   -0.1787927047985039   -0.008686848625384118
0.0185972754880054   -0.138862329272167   -0.008698963980100737
-0.0015758458161476093   -0.1390877373919914   -0.008548412370278135
0.015965877326621136   -0.1787927047985039   -0.008686848625384118
-0.004026726291281799   -0.17927899390426108   -0.008739510492321767
-0.004199011265245776   -0.1792046429330107   -0.008924199737357353
-0.0015758458161476093   -0.1390877373919914   -0.008548412370278135
0.015965877326621136   -0.1787927047985039   -0.008686848625384118
-0.004199011265245776   -0.1792046429330107   -0.008924199737357353
0.0185972754880054   -0.138862329272167   -0.008698963980100737
-0.0015758458161476093   -0.1390877373919914   -0.008548412370278135
-0.004026726291281799   -0.17927899390426108   -0.008739510492321767
0.018685682710861858   -0.1387846267773216   -0.008598398295033569
-0.0015107288457264535   -0.13912266580064225   -0.008454703736192106
-0.004026726291281799   -0.17927899390426108   -0.008739510492321767
0.015965877326621136   -0.1787927047985039   -0.008686848625384118
0.018685682710861858   -0.1387846267773216   -0.008598398295033569
0.016079546984414897   -0.17876594076490768   -0.008475454681860214
-0.0015107288457264535   -0.13912266580064225   -0.008454703736192106
0.01869998800827898   -0.13866946590703155   -0.008535103240050626
0.016079546984414897   -0.17876594076490768   -0.008475454681860214
0.018685682710861858   -0.1387846267773216   -0.008598398295033569
-0.0015107288457264535   -0.13912266580064225   -0.008454703736192106
0.016079546984414897   -0.17876594076490768   -0.008475454681860214
-0.003880981847556136   -0.17938874314551675   -0.008596928385553641
-0.004026726291281799   -0.17927899390426108   -0.008739510492321767
-0.0015107288457264535   -0.13912266580064225   -0.008454703736192106
0.016079546984414897   -0.17876594076490768   -0.008475454681860214
-0.004026726291281799   -0.17927899390426108   -0.008739510492321767
0.018685682710861858   -0.1387846267773216   -0.008598398295033569
0.018462579011202556   -0.13892831427581817   -0.008837591477713526
0.015518293161922719   -0.178931073381495   -0.00922603959377942
0.04038547715785996   -0.13888807256972208   -0.00905467318213289
0.0185972754880054   -0.138862329272167   -0.008698963980100737
0.015518293161922719   -0.178931073381495   -0.00922603959377942
0.03683104438754269   -0.17854041662595704   -0.009552532545817827
0.04038547715785996   -0.13888807256972208   -0.00905467318213289
0.03744133807267362   -0.1783300685902339   -0.009172789747733293
0.0185972754880054   -0.138862329272167   -0.008698963980100737
0.04065093785326864   -0.1387111579558262   -0.008942729262486675
0.03744133807267362   -0.1783300685902339   -0.009172789747733293
0.04038547715785996   -0.13888807256972208   -0.00905467318213289
0.0185972754880054   -0.138862329272167   -0.008698963980100737
0.03744133807267362   -0.1783300685902339   -0.009172789747733293
0.015751184186908948   -0.17884000396095176   -0.008936160889356882
0.015518293161922719   -0.178931073381495   -0.00922603959377942
0.0185972754880054   -0.138862329272167   -0.008698963980100737
0.03744133807267362   -0.1783300685902339   -0.009172789747733293
0.015518293161922719   -0.178931073381495   -0.00922603959377942
0.04038547715785996   -0.13888807256972208   -0.00905467318213289
0.0185972754880054   -0.138862329272167   -0.008698963980100737
0.015751184186908948   -0.17884000396095176   -0.008936160889356882
0.04065093785326864   -0.1387111579558262   -0.008942729262486675
0.018685682710861858   -0.1387846267773216   -0.008598398295033569
0.015751184186908948   -0.17884000396095176   -0.008936160889356882
0.03744133807267362   -0.1783300685902339   -0.009172789747733293
0.04065093785326864   -0.1387111579558262   -0.008942729262486675
0.03785934443448202   -0.17822814069536622   -0.008850763566636284
0.018685682710861858   -0.1387846267773216   -0.008598398295033569
0.04078847039243619   -0.13857098201184842   -0.008888566895230985
0.03785934443448202   -0.17822814069536622   -0.008850763566636284
0.04065093785326864   -0.1387111579558262   -0.008942729262486675
0.018685682710861858   -0.1387846267773216   -0.008598398295033569
0.03785934443448202   -0.17822814069536622   -0.008850763566636284
0.015965877326621136   -0.1787927047985039   -0.008686848625384118
0.015751184186908948   -0.17884000396095176   -0.008936160889356882
0.018685682710861858   -0.1387846267773216   -0.008598398295033569
0.03785934443448202   -0.17822814069536622   -0.008850763566636284
0.015751184186908948   -0.17884000396095176   -0.008936160889356882
0.04065093785326864   -0.1387111579558262   -0.008942729262486675
0.018685682710861858   -0.1387846267773216   -0.008598398295033569
0.015965877326621136   -0.1787927047985039   -0.008686848625384118
0.04078847039243619   -0.13857098201184842   -0.008888566895230985
0.01869998800827898   -0.13866946590703155   -0.008535103240050626
0.015965877326621136   -0.1787927047985039   -0.008686848625384118
0.03785934443448202   -0.17822814069536622   -0.008850763566636284
0.04078847039243619   -0.13857098201184842   -0.008888566895230985
0.03822873166588568   -0.1781162866641811   -0.008588836320342744
0.01869998800827898   -0.13866946590703155   -0.008535103240050626
0.040815484722532935   -0.13834462688111993   -0.008893168397052318
0.03822873166588568   -0.1781162866641811   -0.008588836320342744
0.04078847039243619   -0.13857098201184842   -0.008888566895230985
0.01869998800827898   -0.13866946590703155   -0.008535103240050626
0.03822873166588568   -0.1781162866641811   -0.008588836320342744
0.016079546984414897   -0.17876594076490768   -0.008475454681860214
0.015965877326621136   -0.1787927047985039   -0.008686848625384118
0.01869998800827898   -0.13866946590703155   -0.008535103240050626
0.03822873166588568   -0.1781162866641811   -0.008588836320342744
0.015965877326621136   -0.1787927047985039   -0.008686848625384118
0.04078847039243619   -0.13857098201184842   -0.008888566895230985
-0.06528005222659239   -0.17914245544299068   -0.010293048022142141
-0.0635466921128474   -0.21713911521911367   -0.009836677864754381
-0.04357567188756199   -0.17924555928864783   -0.009703308954708058
-0.06520934415272893   -0.1795428210909101   -0.01027269370605541
-0.0635466921128474   -0.21713911521911367   -0.009836677864754381
-0.04340101617181755   -0.2175772177620516   -0.009480460361867362
-0.04357567188756199   -0.17924555928864783   -0.009703308954708058
-0.04314701166516723   -0.21780106681079595   -0.009533845003947437
-0.06520934415272893   -0.1795428210909101   -0.01027269370605541
-0.04346159661802917   -0.17954492576037331   -0.009612884770650698
-0.04314701166516723   -0.21780106681079595   -0.009533845003947437
-0.04357567188756199   -0.17924555928864783   -0.009703308954708058
-0.06520934415272893   -0.1795428210909101   -0.01027269370605541
-0.04314701166516723   -0.21780106681079595   -0.009533845003947437
-0.06308837610115066   -0.21744129702090664   -0.010088058995916839
-0.0635466921128474   -0.21713911521911367   -0.009836677864754381
-0.06520934415272893   -0.1795428210909101   -0.01027269370605541
-0.04314701166516723   -0.21780106681079595   -0.009533845003947437
-0.0635466921128474   -0.21713911521911367   -0.009836677864754381
-0.04357567188756199   -0.17924555928864783   -0.009703308954708058
-0.06520934415272893   -0.1795428210909101   -0.01027269370605541
-0.06308837610115066   -0.21744129702090664   -0.010088058995916839
-0.04346159661802917   -0.17954492576037331   -0.009612884770650698
-0.06501329485945899   -0.1799308279290571   -0.010313345729624293
-0.06308837610115066   -0.21744129702090664   -0.010088058995916839
-0.04314701166516723   -0.21780106681079595   -0.009533845003947437
-0.04346159661802917   -0.17954492576037331   -0.009612884770650698
-0.0428025727892806   -0.21811898828159973   -0.009629195346320183
-0.06501329485945899   -0.1799308279290571   -0.010313345729624293
-0.04328192653587844   -0.17987600907839874   -0.00956327440904804
-0.0428025727892806   -0.21811898828159973   -0.009629195346320183
-0.04346159661802917   -0.17954492576037331   -0.009612884770650698
-0.06501329485945899   -0.1799308279290571   -0.010313345729624293
-0.0428025727892806   -0.21811898828159973   -0.009629195346320183
-0.06256408263932285   -0.21781119613138894   -0.010405461286502802
-0.06308837610115066   -0.21744129702090664   -0.010088058995916839
-0.06501329485945899   -0.1799308279290571   -0.010313345729624293
-0.0428025727892806   -0.21811898828159973   -0.009629195346320183
-0.06308837610115066   -0.21744129702090664   -0.010088058995916839
-0.04346159661802917   -0.17954492576037331   -0.009612884770650698
-0.06501329485945899   -0.1799308279290571   -0.010313345729624293
-0.06256408263932285   -0.21781119613138894   -0.010405461286502802
-0.04328192653587844   -0.17987600907839874   -0.00956327440904804
-0.06469279196486709   -0.18042998571306307   -0.010418032971960648
-0.06256408263932285   -0.21781119613138894   -0.010405461286502802
-0.0428025727892806   -0.21811898828159973   -0.009629195346320183
-0.04328192653587844   -0.17987600907839874   -0.00956327440904804
-0.04243274802918506   -0.2185503384441566   -0.00976778710959836
-0.06469279196486709   -0.18042998571306307   -0.010418032971960648
-0.04304821207666202   -0.18026156368478125   -0.009553859767203196
-0.04243274802918506   -0.2185503384441566   -0.00976778710959836
-0.04328192653587844   -0.17987600907839874   -0.00956327440904804
-0.06469279196486709   -0.18042998571306307   -0.010418032971960648
-0.04243274802918506   -0.2185503384441566   -0.00976778710959836
-0.061849329133381925   -0.21837375652082539   -0.010790044536666713
-0.06256408263932285   -0.21781119613138894   -0.010405461286502802
-0.06469279196486709   -0.18042998571306307   -0.010418032971960648
-0.04243274802918506   -0.2185503384441566   -0.00976778710959836
-0.06256408263932285   -0.21781119613138894   -0.010405461286502802
-0.04328192653587844   -0.17987600907839874   -0.00956327440904804
-0.04357567188756199   -0.17924555928864783   -0.009703308954708058
-0.04340101617181755   -0.2175772177620516   -0.009480460361867362
-0.023696998722996833   -0.17926858116576214   -0.00931116150932785
-0.04346159661802917   -0.17954492576037331   -0.009612884770650698
-0.04340101617181755   -0.2175772177620516   -0.009480460361867362
-0.025348931710620082   -0.2177515183658001   -0.009252230484157539
-0.023696998722996833   -0.17926858116576214   -0.00931116150932785
-0.025072026596925454   -0.21786823905140998   -0.009136056162426071
-0.04346159661802917   -0.17954492576037331   -0.009612884770650698
-0.023543190526140408   -0.179440649258766   -0.009151548807889638
-0.025072026596925454   -0.21786823905140998   -0.009136056162426071
-0.023696998722996833   -0.17926858116576214   -0.00931116150932785
-0.04346159661802917   -0.17954492576037331   -0.009612884770650698
-0.025072026596925454   -0.21786823905140998   -0.009136056162426071
-0.04314701166516723   -0.21780106681079595   -0.009533845003947437
-0.04340101617181755   -0.2175772177620516   -0.009480460361867362
-0.04346159661802917   -0.17954492576037331   -0.009612884770650698
-0.025072026596925454   -0.21786823905140998   -0.009136056162426071
-0.04340101617181755   -0.2175772177620516   -0.009480460361867362
-0.023696998722996833   -0.17926858116576214   -0.00931116150932785
-0.04346159661802917   -0.17954492576037331   -0.009612884770650698
-0.04314701166516723   -0.21780106681079595   -0.009533845003947437
-0.023543190526140408   -0.179440649258766   -0.009151548807889638
-0.04328192653587844   -0.17987600907839874   -0.00956327440904804
-0.04314701166516723   -0.21780106681079595   -0.009533845003947437
-0.025072026596925454   -0.21786823905140998   -0.009136056162426071
-0.023543190526140408   -0.179440649258766   -0.009151548807889638
-0.024774039505846376   -0.21807547366725863   -0.009061343419809693
-0.04328192653587844   -0.17987600907839874   -0.00956327440904804
-0.023368987533247777   -0.1796493114113293   -0.009032920962696821
-0.024774039505846376   -0.21807547366725863   -0.009061343419809693
-0.023543190526140408   -0.179440649258766   -0.009151548807889638
-0.04328192653587844   -0.17987600907839874   -0.00956327440904804
-0.024774039505846376   -0.21807547366725863   -0.009061343419809693
-0.0428025727892806   -0.21811898828159973   -0.009629195346320183
-0.04314701166516723   -0.21780106681079595   -0.009533845003947437
-0.04328192653587844   -0.17987600907839874   -0.00956327440904804
-0.024774039505846376   -0.21807547366725863   -0.009061343419809693
-0.04314701166516723   -0.21780106681079595   -0.009533845003947437
-0.023543190526140408   -0.179440649258766   -0.009151548807889638
-0.04328192653587844   -0.17987600907839874   -0.00956327440904804
-0.0428025727892806   -0.21811898828159973   -0.009629195346320183
-0.023368987533247777   -0.1796493114113293   -0.009032920962696821
-0.04304821207666202   -0.18026156368478125   -0.009553859767203196
-0.0428025727892806   -0.21811898828159973   -0.009629195346320183
-0.024774039505846376   -0.21807547366725863   -0.009061343419809693
-0.023368987533247777   -0.1796493114113293   -0.009032920962696821
-0.02446773793965539   -0.21837587504560874   -0.009030096001919419
-0.04304821207666202   -0.18026156368478125   -0.009553859767203196
-0.0231810831517467   -0.17989521686346843   -0.008956584270625302
-0.02446773793965539   -0.21837587504560874   -0.009030096001919419
-0.023368987533247777   -0.1796493114113293   -0.009032920962696821
-0.04304821207666202   -0.18026156368478125   -0.009553859767203196
-0.02446773793965539   -0.21837587504560874   -0.009030096001919419
-0.04243274802918506   -0.2185503384441566   -0.00976778710959836
-0.0428025727892806   -0.21811898828159973   -0.009629195346320183
-0.04304821207666202   -0.18026156368478125   -0.009553859767203196
-0.02446773793965539   -0.21837587504560874   -0.009030096001919419
-0.0428025727892806   -0.21811898828159973   -0.009629195346320183
-0.023368987533247777   -0.1796493114113293   -0.009032920962696821
-0.023696998722996833   -0.17926858116576214   -0.00931116150932785
-0.025348931710620082   -0.2177515183658001   -0.009252230484157539
-0.004381283502099046   -0.17916396916489863   -0.009149565356276037
-0.023543190526140408   -0.179440649258766   -0.009151548807889638
-0.025348931710620082   -0.2177515183658001   -0.009252230484157539
-0.007844597419738633   -0.21761958520037109   -0.009212804603944134
-0.004381283502099046   -0.17916396916489863   -0.009149565356276037
-0.007538274348319624   -0.21762313423927027   -0.008932887495789809
-0.023543190526140408   -0.179440649258766   -0.009151548807889638
-0.004199011265245776   -0.1792046429330107   -0.008924199737357353
-0.007538274348319624   -0.21762313423927027   -0.008932887495789809
-0.004381283502099046   -0.17916396916489863   -0.009149565356276037
-0.023543190526140408   -0.179440649258766   -0.009151548807889638
-0.007538274348319624   -0.21762313423927027   -0.008932887495789809
-0.025072026596925454   -0.21786823905140998   -0.009136056162426071
-0.025348931710620082   -0.2177515183658001   -0.009252230484157539
-0.023543190526140408   -0.179440649258766   -0.009151548807889638
-0.007538274348319624   -0.21762313423927027   -0.008932887495789809
-0.025348931710620082   -0.2177515183658001   -0.009252230484157539
-0.004381283502099046   -0.17916396916489863   -0.009149565356276037
-0.023543190526140408   -0.179440649258766   -0.009151548807889638
-0.025072026596925454   -0.21786823905140998   -0.009136056162426071
-0.004199011265245776   -0.1792046429330107   -0.008924199737357353
-0.023368987533247777   -0.1796493114113293   -0.009032920962696821
-0.025072026596925454   -0.21786823905140998   -0.009136056162426071
-0.007538274348319624   -0.21762313423927027   -0.008932887495789809
-0.004199011265245776   -0.1792046429330107   -0.008924199737357353
-0.007240057858621428   -0.21771047274595165   -0.008694518370472382
-0.023368987533247777   -0.1796493114113293   -0.009032920962696821
-0.004026726291281799   -0.17927899390426108   -0.008739510492321767
-0.007240057858621428   -0.21771047274595165   -0.008694518370472382
-0.004199011265245776   -0.1792046429330107   -0.008924199737357353
-0.023368987533247777   -0.1796493114113293   -0.009032920962696821
-0.007240057858621428   -0.21771047274595165   -0.008694518370472382
-0.024774039505846376   -0.21807547366725863   -0.009061343419809693
-0.025072026596925454   -0.21786823905140998   -0.009136056162426071
-0.023368987533247777   -0.1796493114113293   -0.009032920962696821
-0.007240057858621428   -0.21771047274595165   -0.008694518370472382
-0.025072026596925454   -0.21786823905140998   -0.009136056162426071
-0.004199011265245776   -0.1792046429330107   -0.008924199737357353
-0.023368987533247777   -0.1796493114113293   -0.009032920962696821
-0.024774039505846376   -0.21807547366725863   -0.009061343419809693
-0.004026726291281799   -0.17927899390426108   -0.008739510492321767
-0.0231810831517467   -0.17989521686346843   -0.008956584270625302
-0.024774039505846376   -0.21807547366725863   -0.009061343419809693
-0.007240057858621428   -0.21771047274595165   -0.008694518370472382
-0.004026726291281799   -0.17927899390426108   -0.008739510492321767
-0.006974208783917662   -0.21788891447234085   -0.008499148949086658
-0.0231810831517467   -0.17989521686346843   -0.008956584270625302
-0.003880981847556136   -0.17938874314551675   -0.008596928385553641
-0.006974208783917662   -0.21788891447234085   -0.008499148949086658
-0.004026726291281799   -0.17927899390426108   -0.008739510492321767
-0.0231810831517467   -0.17989521686346843   -0.008956584270625302
-0.006974208783917662   -0.21788891447234085   -0.008499148949086658
-0.02446773793965539   -0.21837587504560874   -0.009030096001919419
-0.024774039505846376   -0.21807547366725863   -0.009061343419809693
-0.0231810831517467   -0.17989521686346843   -0.008956584270625302
-0.006974208783917662   -0.21788891447234085   -0.008499148949086658
-0.024774039505846376   -0.21807547366725863   -0.009061343419809693
-0.004026726291281799   -0.17927899390426108   -0.008739510492321767
-0.004381283502099046   -0.17916396916489863   -0.009149565356276037
-0.007844597419738633   -0.21761958520037109   -0.009212804603944134
0.015518293161922719   -0.178931073381495   -0.00922603959377942
-0.004199011265245776   -0.1792046429330107   -0.008924199737357353
-0.007844597419738633   -0.21761958520037109   -0.009212804603944134
0.010267672475788383   -0.21719086218796643   -0.009377034872474311
0.015518293161922719   -0.178931073381495   -0.00922603959377942
0.010642106517907205   -0.21707362524394044   -0.008935003321166162
-0.004199011265245776   -0.1792046429330107   -0.008924199737357353
0.015751184186908948   -0.17884000396095176   -0.008936160889356882
0.010642106517907205   -0.21707362524394044   -0.008935003321166162
0.015518293161922719   -0.178931073381495   -0.00922603959377942
-0.004199011265245776   -0.1792046429330107   -0.008924199737357353
0.010642106517907205   -0.21707362524394044   -0.008935003321166162
-0.007538274348319624   -0.21762313423927027   -0.008932887495789809
-0.007844597419738633   -0.21761958520037109   -0.009212804603944134
-0.004199011265245776   -0.1792046429330107   -0.008924199737357353
0.010642106517907205   -0.21707362524394044   -0.008935003321166162
-0.007844597419738633   -0.21761958520037109   -0.009212804603944134
0.015518293161922719   -0.178931073381495   -0.00922603959377942
-0.004199011265245776   -0.1792046429330107   -0.008924199737357353
-0.007538274348319624   -0.21762313423927027   -0.008932887495789809
0.015751184186908948   -0.17884000396095176   -0.008936160889356882
-0.004026726291281799   -0.17927899390426108   -0.008739510492321767
-0.007538274348319624   -0.21762313423927027   -0.008932887495789809
0.010642106517907205   -0.21707362524394044   -0.008935003321166162
0.015751184186908948   -0.17884000396095176   -0.008936160889356882
0.011025717339887272   -0.2170520724571628   -0.00853720372993191
-0.004026726291281799   -0.17927899390426108   -0.008739510492321767
0.015965877326621136   -0.1787927047985039   -0.008686848625384118
0.011025717339887272   -0.2170520724571628   -0.00853720372993191
0.015751184186908948   -0.17884000396095176   -0.008936160889356882
-0.004026726291281799   -0.17927899390426108   -0.008739510492321767
0.011025717339887272   -0.2170520724571628   -0.00853720372993191
-0.007240057858621428   -0.21771047274595165   -0.008694518370472382
-0.007538274348319624   -0.21762313423927027   -0.008932887495789809
-0.004026726291281799   -0.17927899390426108   -0.008739510492321767
0.011025717339887272   -0.2170520724571628   -0.00853720372993191
-0.007538274348319624   -0.21762313423927027   -0.008932887495789809
0.015751184186908948   -0.17884000396095176   -0.008936160889356882
-0.004026726291281799   -0.17927899390426108   -0.008739510492321767
-0.007240057858621428   -0.21771047274595165   -0.008694518370472382
0.015965877326621136   -0.1787927047985039   -0.008686848625384118
-0.003880981847556136   -0.17938874314551675   -0.008596928385553641
-0.007240057858621428   -0.21771047274595165   -0.008694518370472382
0.011025717339887272   -0.2170520724571628   -0.00853720372993191
0.015965877326621136   -0.1787927047985039   -0.008686848625384118
0.011280259048236995   -0.2171084797806865   -0.008177810402387024
-0.003880981847556136   -0.17938874314551675   -0.008596928385553641
0.016079546984414897   -0.17876594076490768   -0.008475454681860214
0.011280259048236995   -0.2171084797806865   -0.008177810402387024
0.015965877326621136   -0.1787927047985039   -0.008686848625384118
-0.003880981847556136   -0.17938874314551675   -0.008596928385553641
0.011280259048236995   -0.2171084797806865   -0.008177810402387024
-0.006974208783917662   -0.21788891447234085   -0.008499148949086658
-0.007240057858621428   -0.21771047274595165   -0.008694518370472382
-0.003880981847556136   -0.17938874314551675   -0.008596928385553641
0.011280259048236995   -0.2171084797806865   -0.008177810402387024
-0.007240057858621428   -0.21771047274595165   -0.008694518370472382
0.015965877326621136   -0.1787927047985039   -0.008686848625384118
0.015518293161922719   -0.178931073381495   -0.00922603959377942
0.010267672475788383   -0.21719086218796643   -0.009377034872474311
0.03683104438754269   -0.17854041662595704   -0.009552532545817827
0.015751184186908948   -0.17884000396095176   -0.008936160889356882
0.010267672475788383   -0.21719086218796643   -0.009377034872474311
0.029546178007227527   -0.21645407031127376   -0.009804005173302219
0.03683104438754269   -0.17854041662595704   -0.009552532545817827
0.030542002683044172   -0.21621159612227567   -0.009161309775008496
0.015751184186908948   -0.17884000396095176   -0.008936160889356882
0.03744133807267362   -0.1783300685902339   -0.009172789747733293
0.030542002683044172   -0.21621159612227567   -0.009161309775008496
0.03683104438754269   -0.17854041662595704   -0.009552532545817827
0.015751184186908948   -0.17884000396095176   -0.008936160889356882
0.030542002683044172   -0.21621159612227567   -0.009161309775008496
0.010642106517907205   -0.21707362524394044   -0.008935003321166162
0.010267672475788383   -0.21719086218796643   -0.009377034872474311
0.015751184186908948   -0.17884000396095176   -0.008936160889356882
0.030542002683044172   -0.21621159612227567   -0.009161309775008496
0.010267672475788383   -0.21719086218796643   -0.009377034872474311
0.03683104438754269   -0.17854041662595704   -0.009552532545817827
0.015751184186908948   -0.17884000396095176   -0.008936160889356882
0.010642106517907205   -0.21707362524394044   -0.008935003321166162
0.03744133807267362   -0.1783300685902339   -0.009172789747733293
0.015965877326621136   -0.1787927047985039   -0.008686848625384118
0.010642106517907205   -0.21707362524394044   -0.008935003321166162
0.030542002683044172   -0.21621159612227567   -0.009161309775008496
0.03744133807267362   -0.1783300685902339   -0.009172789747733293
0.03127867657098083   -0.21614522340477232   -0.008577387691978043
0.015965877326621136   -0.1787927047985039   -0.008686848625384118
0.03785934443448202   -0.17822814069536622   -0.008850763566636284
0.03127867657098083   -0.21614522340477232   -0.008577387691978043
0.03744133807267362   -0.1783300685902339   -0.009172789747733293
0.015965877326621136   -0.1787927047985039   -0.008686848625384118
0.03127867657098083   -0.21614522340477232   -0.008577387691978043
0.011025717339887272   -0.2170520724571628   -0.00853720372993191
0.010642106517907205   -0.21707362524394044   -0.008935003321166162
0.015965877326621136   -0.1787927047985039   -0.008686848625384118
0.03127867657098083   -0.21614522340477232   -0.008577387691978043
0.010642106517907205   -0.21707362524394044   -0.008935003321166162
0.03744133807267362   -0.1783300685902339   -0.009172789747733293
0.015965877326621136   -0.1787927047985039   -0.008686848625384118
0.011025717339887272   -0.2170520724571628   -0.00853720372993191
0.03785934443448202   -0.17822814069536622   -0.008850763566636284
0.016079546984414897   -0.17876594076490768   -0.008475454681860214
0.011025717339887272   -0.2170520724571628   -0.00853720372993191
0.03127867657098083   -0.21614522340477232   -0.008577387691978043
0.03785934443448202   -0.17822814069536622   -0.008850763566636284
0.032024202511600375   -0.2161443122629966   -0.008054880924335615
0.016079546984414897   -0.17876594076490768   -0.008475454681860214
0.03822873166588568   -0.1781162866641811   -0.008588836320342744
0.032024202511600375   -0.2161443122629966   -0.008054880924335615
0.03785934443448202   -0.17822814069536622   -0.008850763566636284
0.016079546984414897   -0.17876594076490768   -0.008475454681860214
0.032024202511600375   -0.2161443122629966   -0.008054880924335615
0.011280259048236995   -0.2171084797806865   -0.008177810402387024
0.011025717339887272   -0.2170520724571628   -0.00853720372993191
0.016079546984414897   -0.17876594076490768   -0.008475454681860214
0.032024202511600375   -0.2161443122629966   -0.008054880924335615
0.011025717339887272   -0.2170520724571628   -0.00853720372993191
0.03785934443448202   -0.17822814069536622   -0.008850763566636284
-0.0635466921128474   -0.21713911521911367   -0.009836677864754381
-0.05798911285700196   -0.25078527025582054   -0.009169690227264712
-0.04340101617181755   -0.2175772177620516   -0.009480460361867362
-0.06308837610115066   -0.21744129702090664   -0.010088058995916839
-0.05798911285700196   -0.25078527025582054   -0.009169690227264712
-0.04102757749074618   -0.25157778687788473   -0.0091115248946172
-0.04340101617181755   -0.2175772177620516   -0.009480460361867362
-0.04060272452136278   -0.25169255885502334   -0.009298617213780032
-0.06308837610115066   -0.21744129702090664   -0.010088058995916839
-0.04314701166516723   -0.21780106681079595   -0.009533845003947437
-0.04060272452136278   -0.25169255885502334   -0.009298617213780032
-0.04340101617181755   -0.2175772177620516   -0.009480460361867362
-0.06308837610115066   -0.21744129702090664   -0.010088058995916839
-0.04060272452136278   -0.25169255885502334   -0.009298617213780032
-0.0571058296515526   -0.2509557721243557   -0.009692711381751677
-0.05798911285700196   -0.25078527025582054   -0.009169690227264712
-0.06308837610115066   -0.21744129702090664   -0.010088058995916839
-0.04060272452136278   -0.25169255885502334   -0.009298617213780032
-0.05798911285700196   -0.25078527025582054   -0.009169690227264712
-0.04340101617181755   -0.2175772177620516   -0.009480460361867362
-0.06308837610115066   -0.21744129702090664   -0.010088058995916839
-0.0571058296515526   -0.2509557721243557   -0.009692711381751677
-0.04314701166516723   -0.21780106681079595   -0.009533845003947437
-0.06256408263932285   -0.21781119613138894   -0.010405461286502802
-0.0571058296515526   -0.2509557721243557   -0.009692711381751677
-0.04060272452136278   -0.25169255885502334   -0.009298617213780032
-0.04314701166516723   -0.21780106681079595   -0.009533845003947437
-0.04006916674473796   -0.25196680550558964   -0.009528411677443057
-0.06256408263932285   -0.21781119613138894   -0.010405461286502802
-0.0428025727892806   -0.21811898828159973   -0.009629195346320183
-0.04006916674473796   -0.25196680550558964   -0.009528411677443057
-0.04314701166516723   -0.21780106681079595   -0.009533845003947437
-0.06256408263932285   -0.21781119613138894   -0.010405461286502802
-0.04006916674473796   -0.25196680550558964   -0.009528411677443057
-0.05622395545124665   -0.2512775878658045   -0.010285274913785709
-0.0571058296515526   -0.2509557721243557   -0.009692711381751677
-0.06256408263932285   -0.21781119613138894   -0.010405461286502802
-0.04006916674473796   -0.25196680550558964   -0.009528411677443057
-0.0571058296515526   -0.2509557721243557   -0.009692711381751677
-0.04314701166516723   -0.21780106681079595   -0.009533845003947437
-0.06256408263932285   -0.21781119613138894   -0.010405461286502802
-0.05622395545124665   -0.2512775878658045   -0.010285274913785709
-0.0428025727892806   -0.21811898828159973   -0.009629195346320183
-0.061849329133381925   -0.21837375652082539   -0.010790044536666713
-0.05622395545124665   -0.2512775878658045   -0.010285274913785709
-0.04006916674473796   -0.25196680550558964   -0.009528411677443057
-0.0428025727892806   -0.21811898828159973   -0.009629195346320183
-0.03954255616780837   -0.2524160892017545   -0.00980050985919432
-0.061849329133381925   -0.21837375652082539   -0.010790044536666713
-0.04243274802918506   -0.2185503384441566   -0.00976778710959836
-0.03954255616780837   -0.2524160892017545   -0.00980050985919432
-0.0428025727892806   -0.21811898828159973   -0.009629195346320183
-0.061849329133381925   -0.21837375652082539   -0.010790044536666713
-0.03954255616780837   -0.2524160892017545   -0.00980050985919432
-0.05509409380344541   -0.2518776706369368   -0.010946033095285593
-0.05622395545124665   -0.2512775878658045   -0.010285274913785709
-0.061849329133381925   -0.21837375652082539   -0.010790044536666713
-0.03954255616780837   -0.2524160892017545   -0.00980050985919432
-0.05622395545124665   -0.2512775878658045   -0.010285274913785709
-0.0428025727892806   -0.21811898828159973   -0.009629195346320183
-0.04340101617181755   -0.2175772177620516   -0.009480460361867362
-0.04102757749074618   -0.25157778687788473   -0.0091115248946172
-0.025348931710620082   -0.2177515183658001   -0.009252230484157539
-0.04314701166516723   -0.21780106681079595   -0.009533845003947437
-0.04102757749074618   -0.25157778687788473   -0.0091115248946172
-0.02635130866501833   -0.25195062177211075   -0.009087955188712134
-0.025348931710620082   -0.2177515183658001   -0.009252230484157539
-0.02591511509620524   -0.25198850762733055   -0.009004627108884881
-0.04314701166516723   -0.21780106681079595   -0.009533845003947437
-0.025072026596925454   -0.21786823905140998   -0.009136056162426071
-0.02591511509620524   -0.25198850762733055   -0.009004627108884881
-0.025348931710620082   -0.2177515183658001   -0.009252230484157539
-0.04314701166516723   -0.21780106681079595   -0.009533845003947437
-0.02591511509620524   -0.25198850762733055   -0.009004627108884881
-0.04060272452136278   -0.25169255885502334   -0.009298617213780032
-0.04102757749074618   -0.25157778687788473   -0.0091115248946172
-0.04314701166516723   -0.21780106681079595   -0.009533845003947437
-0.02591511509620524   -0.25198850762733055   -0.009004627108884881
-0.04102757749074618   -0.25157778687788473   -0.0091115248946172
-0.025348931710620082   -0.2177515183658001   -0.009252230484157539
-0.04314701166516723   -0.21780106681079595   -0.009533845003947437
-0.04060272452136278   -0.25169255885502334   -0.009298617213780032
-0.025072026596925454   -0.21786823905140998   -0.009136056162426071
-0.0428025727892806   -0.21811898828159973   -0.009629195346320183
-0.04060272452136278   -0.25169255885502334   -0.009298617213780032
-0.02591511509620524   -0.25198850762733055   -0.009004627108884881
-0.025072026596925454   -0.21786823905140998   -0.009136056162426071
-0.025465028544385784   -0.2521687230470458   -0.00896273857583546
-0.0428025727892806   -0.21811898828159973   -0.009629195346320183
-0.024774039505846376   -0.21807547366725863   -0.009061343419809693
-0.025465028544385784   -0.2521687230470458   -0.00896273857583546
-0.025072026596925454   -0.21786823905140998   -0.009136056162426071
-0.0428025727892806   -0.21811898828159973   -0.009629195346320183
-0.025465028544385784   -0.2521687230470458   -0.00896273857583546
-0.04006916674473796   -0.25196680550558964   -0.009528411677443057
-0.04060272452136278   -0.25169255885502334   -0.009298617213780032
-0.0428025727892806   -0.21811898828159973   -0.009629195346320183
-0.025465028544385784   -0.2521687230470458   -0.00896273857583546
-0.04060272452136278   -0.25169255885502334   -0.009298617213780032
-0.025072026596925454   -0.21786823905140998   -0.009136056162426071
-0.0428025727892806   -0.21811898828159973   -0.009629195346320183
-0.04006916674473796   -0.25196680550558964   -0.009528411677443057
-0.024774039505846376   -0.21807547366725863   -0.009061343419809693
-0.04243274802918506   -0.2185503384441566   -0.00976778710959836
-0.04006916674473796   -0.25196680550558964   -0.009528411677443057
-0.025465028544385784   -0.2521687230470458   -0.00896273857583546
-0.024774039505846376   -0.21807547366725863   -0.009061343419809693
-0.025015740929412427   -0.2524998056058601   -0.00896170994287824
-0.04243274802918506   -0.2185503384441566   -0.00976778710959836
-0.02446773793965539   -0.21837587504560874   -0.009030096001919419
-0.025015740929412427   -0.2524998056058601   -0.00896170994287824
-0.024774039505846376   -0.21807547366725863   -0.009061343419809693
-0.04243274802918506   -0.2185503384441566   -0.00976778710959836
-0.025015740929412427   -0.2524998056058601   -0.00896170994287824
-0.03954255616780837   -0.2524160892017545   -0.00980050985919432
-0.04006916674473796   -0.25196680550558964   -0.009528411677443057
-0.04243274802918506   -0.2185503384441566   -0.00976778710959836
-0.025015740929412427   -0.2524998056058601   -0.00896170994287824
-0.04006916674473796   -0.25196680550558964   -0.009528411677443057
-0.024774039505846376   -0.21807547366725863   -0.009061343419809693
-0.025348931710620082   -0.2177515183658001   -0.009252230484157539
-0.02635130866501833   -0.25195062177211075   -0.009087955188712134
-0.007844597419738633   -0.21761958520037109   -0.009212804603944134
-0.025072026596925454   -0.21786823905140998   -0.009136056162426071
-0.02635130866501833   -0.25195062177211075   -0.009087955188712134
-0.012163350795220488   -0.2518861059456496   -0.009191972768122964
-0.007844597419738633   -0.21761958520037109   -0.009212804603944134
-0.01168553505018446   -0.2518377612388526   -0.008847745002675312
-0.025072026596925454   -0.21786823905140998   -0.009136056162426071
-0.007538274348319624   -0.21762313423927027   -0.008932887495789809
-0.01168553505018446   -0.2518377612388526   -0.008847745002675312
-0.007844597419738633   -0.21761958520037109   -0.009212804603944134
-0.025072026596925454   -0.21786823905140998   -0.009136056162426071
-0.01168553505018446   -0.2518377612388526   -0.008847745002675312
-0.02591511509620524   -0.25198850762733055   -0.009004627108884881
-0.02635130866501833   -0.25195062177211075   -0.009087955188712134
-0.025072026596925454   -0.21786823905140998   -0.009136056162426071
-0.01168553505018446   -0.2518377612388526   -0.008847745002675312
-0.02635130866501833   -0.25195062177211075   -0.009087955188712134
-0.007844597419738633   -0.21761958520037109   -0.009212804603944134
-0.025072026596925454   -0.21786823905140998   -0.009136056162426071
-0.02591511509620524   -0.25198850762733055   -0.009004627108884881
-0.007538274348319624   -0.21762313423927027   -0.008932887495789809
-0.024774039505846376   -0.21807547366725863   -0.009061343419809693
-0.02591511509620524   -0.25198850762733055   -0.009004627108884881
-0.01168553505018446   -0.2518377612388526   -0.008847745002675312
-0.007538274348319624   -0.21762313423927027   -0.008932887495789809
-0.011221984103973584   -0.25191793845327726   -0.008547682936096071
-0.024774039505846376   -0.21807547366725863   -0.009061343419809693
-0.007240057858621428   -0.21771047274595165   -0.008694518370472382
-0.011221984103973584   -0.25191793845327726   -0.008547682936096071
-0.007538274348319624   -0.21762313423927027   -0.008932887495789809
-0.024774039505846376   -0.21807547366725863   -0.009061343419809693
-0.011221984103973584   -0.25191793845327726   -0.008547682936096071
-0.025465028544385784   -0.2521687230470458   -0.00896273857583546
-0.02591511509620524   -0.25198850762733055   -0.009004627108884881
-0.024774039505846376   -0.21807547366725863   -0.009061343419809693
-0.011221984103973584   -0.25191793845327726   -0.008547682936096071
-0.02591511509620524   -0.25198850762733055   -0.009004627108884881
-0.007538274348319624   -0.21762313423927027   -0.008932887495789809
-0.024774039505846376   -0.21807547366725863   -0.009061343419809693
-0.025465028544385784   -0.2521687230470458   -0.00896273857583546
-0.007240057858621428   -0.21771047274595165   -0.008694518370472382
-0.02446773793965539   -0.21837587504560874   -0.009030096001919419
-0.025465028544385784   -0.2521687230470458   -0.00896273857583546
-0.011221984103973584   -0.25191793845327726   -0.008547682936096071
-0.007240057858621428   -0.21771047274595165   -0.008694518370472382
-0.010803344516052034   -0.2521456004774577   -0.008287936363209574
-0.02446773793965539   -0.21837587504560874   -0.009030096001919419
-0.006974208783917662   -0.21788891447234085   -0.008499148949086658
-0.010803344516052034   -0.2521456004774577   -0.008287936363209574
-0.007240057858621428   -0.21771047274595165   -0.008694518370472382
-0.02446773793965539   -0.21837587504560874   -0.009030096001919419
-0.010803344516052034   -0.2521456004774577   -0.008287936363209574
-0.025015740929412427   -0.2524998056058601   -0.00896170994287824
-0.025465028544385784   -0.2521687230470458   -0.00896273857583546
-0.02446773793965539   -0.21837587504560874   -0.009030096001919419
-0.010803344516052034   -0.2521456004774577   -0.008287936363209574
-0.025465028544385784   -0.2521687230470458   -0.00896273857583546
-0.007240057858621428   -0.21771047274595165   -0.008694518370472382
-0.007844597419738633   -0.21761958520037109   -0.009212804603944134
-0.012163350795220488   -0.2518861059456496   -0.009191972768122964
0.010267672475788383   -0.21719086218796643   -0.009377034872474311
-0.007538274348319624   -0.21762313423927027   -0.008932887495789809
-0.012163350795220488   -0.2518861059456496   -0.009191972768122964
0.002697173107720608   -0.2513686572582167   -0.009446908350573534
0.010267672475788383   -0.21719086218796643   -0.009377034872474311
0.0032781076819198337   -0.25121058190273465   -0.008842771080384382
-0.007538274348319624   -0.21762313423927027   -0.008932887495789809
0.010642106517907205   -0.21707362524394044   -0.008935003321166162
0.0032781076819198337   -0.25121058190273465   -0.008842771080384382
0.010267672475788383   -0.21719086218796643   -0.009377034872474311
-0.007538274348319624   -0.21762313423927027   -0.008932887495789809
0.0032781076819198337   -0.25121058190273465   -0.008842771080384382
-0.01168553505018446   -0.2518377612388526   -0.008847745002675312
-0.012163350795220488   -0.2518861059456496   -0.009191972768122964
-0.007538274348319624   -0.21762313423927027   -0.008932887495789809
0.0032781076819198337   -0.25121058190273465   -0.008842771080384382
-0.012163350795220488   -0.2518861059456496   -0.009191972768122964
0.010267672475788383   -0.21719086218796643   -0.009377034872474311
-0.007538274348319624   -0.21762313423927027   -0.008932887495789809
-0.01168553505018446   -0.2518377612388526   -0.008847745002675312
0.010642106517907205   -0.21707362524394044   -0.008935003321166162
-0.007240057858621428   -0.21771047274595165   -0.008694518370472382
-0.01168553505018446   -0.2518377612388526   -0.008847745002675312
0.0032781076819198337   -0.25121058190273465   -0.008842771080384382
0.010642106517907205   -0.21707362524394044   -0.008935003321166162
0.0038897759028495246   -0.25119622468683234   -0.00829466420827348
-0.007240057858621428   -0.21771047274595165   -0.008694518370472382
0.011025717339887272   -0.2170520724571628   -0.00853720372993191
0.0038897759028495246   -0.25119622468683234   -0.00829466420827348
0.010642106517907205   -0.21707362524394044   -0.008935003321166162
-0.007240057858621428   -0.21771047274595165   -0.008694518370472382
0.0038897759028495246   -0.25119622468683234   -0.00829466420827348
-0.011221984103973584   -0.25191793845327726   -0.008547682936096071
-0.01168553505018446   -0.2518377612388526   -0.008847745002675312
-0.007240057858621428   -0.21771047274595165   -0.008694518370472382
0.0038897759028495246   -0.25119622468683234   -0.00829466420827348
-0.01168553505018446   -0.2518377612388526   -0.008847745002675312
0.010642106517907205   -0.21707362524394044   -0.008935003321166162
-0.007240057858621428   -0.21771047274595165   -0.008694518370472382
-0.011221984103973584   -0.25191793845327726   -0.008547682936096071
0.011025717339887272   -0.2170520724571628   -0.00853720372993191
-0.006974208783917662   -0.21788891447234085   -0.008499148949086658
-0.011221984103973584   -0.25191793845327726   -0.008547682936096071
0.0038897759028495246   -0.25119622468683234   -0.00829466420827348
0.011025717339887272   -0.2170520724571628   -0.00853720372993191
0.004337142721033253   -0.2513191253447463   -0.00778515827142564
-0.006974208783917662   -0.21788891447234085   -0.008499148949086658
0.011280259048236995   -0.2171084797806865   -0.008177810402387024
0.004337142721033253   -0.2513191253447463   -0.00778515827142564
0.011025717339887272   -0.2170520724571628   -0.00853720372993191
-0.006974208783917662   -0.21788891447234085   -0.008499148949086658
0.004337142721033253   -0.2513191253447463   -0.00778515827142564
-0.010803344516052034   -0.2521456004774577   -0.008287936363209574
-0.011221984103973584   -0.25191793845327726   -0.008547682936096071
-0.006974208783917662   -0.21788891447234085   -0.008499148949086658
0.004337142721033253   -0.2513191253447463   -0.00778515827142564
-0.011221984103973584   -0.25191793845327726   -0.008547682936096071
0.011025717339887272   -0.2170520724571628   -0.00853720372993191
0.010267672475788383   -0.21719086218796643   -0.009377034872474311
0.002697173107720608   -0.2513686572582167   -0.009446908350573534
0.029546178007227527   -0.21645407031127376   -0.009804005173302219
0.010642106517907205   -0.21707362524394044   -0.008935003321166162
0.002697173107720608   -0.2513686572582167   -0.009446908350573534
0.01855493414943452   -0.2503489779201077   -0.009994619801841955
0.029546178007227527   -0.21645407031127376   -0.009804005173302219
0.020021959404857924   -0.25004513971302145   -0.009070254513440172
0.010642106517907205   -0.21707362524394044   -0.008935003321166162
0.030542002683044172   -0.21621159612227567   -0.009161309775008496
0.020021959404857924   -0.25004513971302145   -0.009070254513440172
0.029546178007227527   -0.21645407031127376   -0.009804005173302219
0.010642106517907205   -0.21707362524394044   -0.008935003321166162
0.020021959404857924   -0.25004513971302145   -0.009070254513440172
0.0032781076819198337   -0.25121058190273465   -0.008842771080384382
0.002697173107720608   -0.2513686572582167   -0.009446908350573534
0.010642106517907205   -0.21707362524394044   -0.008935003321166162
0.020021959404857924   -0.25004513971302145   -0.009070254513440172
0.002697173107720608   -0.2513686572582167   -0.009446908350573534
0.029546178007227527   -0.21645407031127376   -0.009804005173302219
0.010642106517907205   -0.21707362524394044   -0.008935003321166162
0.0032781076819198337   -0.25121058190273465   -0.008842771080384382
0.030542002683044172   -0.21621159612227567   -0.009161309775008496
0.011025717339887272   -0.2170520724571628   -0.00853720372993191
0.0032781076819198337   -0.25121058190273465   -0.008842771080384382
0.020021959404857924   -0.25004513971302145   -0.009070254513440172
0.030542002683044172   -0.21621159612227567   -0.009161309775008496
0.0211464424973836   -0.24999254514188451   -0.008215354136425327
0.011025717339887272   -0.2170520724571628   -0.00853720372993191
0.03127867657098083   -0.21614522340477232   -0.008577387691978043
0.0211464424973836   -0.24999254514188451   -0.008215354136425327
0.030542002683044172   -0.21621159612227567   -0.009161309775008496
0.011025717339887272   -0.2170520724571628   -0.00853720372993191
0.0211464424973836   -0.24999254514188451   -0.008215354136425327
0.0038897759028495246   -0.25119622468683234   -0.00829466420827348
0.0032781076819198337   -0.25121058190273465   -0.008842771080384382
0.011025717339887272   -0.2170520724571628   -0.00853720372993191
0.0211464424973836   -0.24999254514188451   -0.008215354136425327
0.0032781076819198337   -0.25121058190273465   -0.008842771080384382
0.030542002683044172   -0.21621159612227567   -0.009161309775008496
0.011025717339887272   -0.2170520724571628   -0.00853720372993191
0.0038897759028495246   -0.25119622468683234   -0.00829466420827348
0.03127867657098083   -0.21614522340477232   -0.008577387691978043
0.011280259048236995   -0.2171084797806865   -0.008177810402387024
0.0038897759028495246   -0.25119622468683234   -0.00829466420827348
0.0211464424973836   -0.24999254514188451   -0.008215354136425327
0.03127867657098083   -0.21614522340477232   -0.008577387691978043
0.022309566364243586   -0.25008195629128116   -0.007436937334632096
0.011280259048236995   -0.2171084797806865   -0.008177810402387024
0.032024202511600375   -0.2161443122629966   -0.008054880924335615
0.022309566364243586   -0.25008195629128116   -0.007436937334632096
0.03127867657098083   -0.21614522340477232   -0.008577387691978043
0.011280259048236995   -0.2171084797806865   -0.008177810402387024
0.022309566364243586   -0.25008195629128116   -0.007436937334632096
0.004337142721033253   -0.2513191253447463   -0.00778515827142564
0.0038897759028495246   -0.25119622468683234   -0.00829466420827348
0.011280259048236995   -0.2171084797806865   -0.008177810402387024
0.022309566364243586   -0.25008195629128116   -0.007436937334632096
0.0038897759028495246   -0.25119622468683234   -0.00829466420827348
0.03127867657098083   -0.21614522340477232   -0.008577387691978043
-0.05798911285700196   -0.25078527025582054   -0.009169690227264712
-0.048528384677208526   -0.2772069909287006   -0.008316550414189362
-0.04102757749074618   -0.25157778687788473   -0.0091115248946172
-0.0571058296515526   -0.2509557721243557   -0.009692711381751677
-0.048528384677208526   -0.2772069909287006   -0.008316550414189362
-0.03646200878004324   -0.27838303221667415   -0.008669818581122023
-0.04102757749074618   -0.25157778687788473   -0.0091115248946172
-0.03584763748506737   -0.27832160735428446   -0.008957884022293368
-0.0571058296515526   -0.2509557721243557   -0.009692711381751677
-0.04060272452136278   -0.25169255885502334   -0.009298617213780032
-0.03584763748506737   -0.27832160735428446   -0.008957884022293368
-0.04102757749074618   -0.25157778687788473   -0.0091115248946172
-0.0571058296515526   -0.2509557721243557   -0.009692711381751677
-0.03584763748506737   -0.27832160735428446   -0.008957884022293368
-0.04720762453062118   -0.2771733322349613   -0.009093404600920509
-0.048528384677208526   -0.2772069909287006   -0.008316550414189362
-0.0571058296515526   -0.2509557721243557   -0.009692711381751677
-0.03584763748506737   -0.27832160735428446   -0.008957884022293368
-0.048528384677208526   -0.2772069909287006   -0.008316550414189362
-0.04102757749074618   -0.25157778687788473   -0.0091115248946172
-0.0571058296515526   -0.2509557721243557   -0.009692711381751677
-0.04720762453062118   -0.2771733322349613   -0.009093404600920509
-0.04060272452136278   -0.25169255885502334   -0.009298617213780032
-0.05622395545124665   -0.2512775878658045   -0.010285274913785709
-0.04720762453062118   -0.2771733322349613   -0.009093404600920509
-0.03584763748506737   -0.27832160735428446   -0.008957884022293368
-0.04060272452136278   -0.25169255885502334   -0.009298617213780032
-0.03512561806805991   -0.27848938771301207   -0.009289685591889432
-0.05622395545124665   -0.2512775878658045   -0.010285274913785709
-0.04006916674473796   -0.25196680550558964   -0.009528411677443057
-0.03512561806805991   -0.27848938771301207   -0.009289685591889432
-0.04060272452136278   -0.25169255885502334   -0.009298617213780032
-0.05622395545124665   -0.2512775878658045   -0.010285274913785709
-0.03512561806805991   -0.27848938771301207   -0.009289685591889432
-0.0459895695628166   -0.2773808759553943   -0.009931812007045423
-0.04720762453062118   -0.2771733322349613   -0.009093404600920509
-0.05622395545124665   -0.2512775878658045   -0.010285274913785709
-0.03512561806805991   -0.27848938771301207   -0.009289685591889432
-0.04720762453062118   -0.2771733322349613   -0.009093404600920509
-0.04060272452136278   -0.25169255885502334   -0.009298617213780032
-0.05622395545124665   -0.2512775878658045   -0.010285274913785709
-0.0459895695628166   -0.2773808759553943   -0.009931812007045423
-0.04006916674473796   -0.25196680550558964   -0.009528411677443057
-0.05509409380344541   -0.2518776706369368   -0.010946033095285593
-0.0459895695628166   -0.2773808759553943   -0.009931812007045423
-0.03512561806805991   -0.27848938771301207   -0.009289685591889432
-0.04006916674473796   -0.25196680550558964   -0.009528411677443057
-0.03447057295004398   -0.27889010846141   -0.009662413902291061
-0.05509409380344541   -0.2518776706369368   -0.010946033095285593
-0.03954255616780837   -0.2524160892017545   -0.00980050985919432
-0.03447057295004398   -0.27889010846141   -0.009662413902291061
-0.04006916674473796   -0.25196680550558964   -0.009528411677443057
-0.05509409380344541   -0.2518776706369368   -0.010946033095285593
-0.03447057295004398   -0.27889010846141   -0.009662413902291061
-0.0445043605354141   -0.27793706076790514   -0.010828080077622492
-0.0459895695628166   -0.2773808759553943   -0.009931812007045423
-0.05509409380344541   -0.2518776706369368   -0.010946033095285593
-0.03447057295004398   -0.27889010846141   -0.009662413902291061
-0.0459895695628166   -0.2773808759553943   -0.009931812007045423
-0.04006916674473796   -0.25196680550558964   -0.009528411677443057
-0.04102757749074618   -0.25157778687788473   -0.0091115248946172
-0.03646200878004324   -0.27838303221667415   -0.008669818581122023
-0.02635130866501833   -0.25195062177211075   -0.009087955188712134
-0.04060272452136278   -0.25169255885502334   -0.009298617213780032
-0.03646200878004324   -0.27838303221667415   -0.008669818581122023
-0.026616180408938317   -0.27914931701283285   -0.008946147247973189
-0.02635130866501833   -0.25195062177211075   -0.009087955188712134
-0.025985197457421963   -0.2790517867726568   -0.008857930348130457
-0.04060272452136278   -0.25169255885502334   -0.009298617213780032
-0.02591511509620524   -0.25198850762733055   -0.009004627108884881
-0.025985197457421963   -0.2790517867726568   -0.008857930348130457
-0.02635130866501833   -0.25195062177211075   -0.009087955188712134
-0.04060272452136278   -0.25169255885502334   -0.009298617213780032
-0.025985197457421963   -0.2790517867726568   -0.008857930348130457
-0.03584763748506737   -0.27832160735428446   -0.008957884022293368
-0.03646200878004324   -0.27838303221667415   -0.008669818581122023
-0.04060272452136278   -0.25169255885502334   -0.009298617213780032
-0.025985197457421963   -0.2790517867726568   -0.008857930348130457
-0.03646200878004324   -0.27838303221667415   -0.008669818581122023
-0.02635130866501833   -0.25195062177211075   -0.009087955188712134
-0.04060272452136278   -0.25169255885502334   -0.009298617213780032
-0.03584763748506737   -0.27832160735428446   -0.008957884022293368
-0.02591511509620524   -0.25198850762733055   -0.009004627108884881
-0.04006916674473796   -0.25196680550558964   -0.009528411677443057
-0.03584763748506737   -0.27832160735428446   -0.008957884022293368
-0.025985197457421963   -0.2790517867726568   -0.008857930348130457
-0.02591511509620524   -0.25198850762733055   -0.009004627108884881
-0.025363423739954406   -0.2791519212622284   -0.008812153397995124
-0.04006916674473796   -0.25196680550558964   -0.009528411677443057
-0.025465028544385784   -0.2521687230470458   -0.00896273857583546
-0.025363423739954406   -0.2791519212622284   -0.008812153397995124
-0.02591511509620524   -0.25198850762733055   -0.009004627108884881
-0.04006916674473796   -0.25196680550558964   -0.009528411677443057
-0.025363423739954406   -0.2791519212622284   -0.008812153397995124
-0.03512561806805991   -0.27848938771301207   -0.009289685591889432
-0.03584763748506737   -0.27832160735428446   -0.008957884022293368
-0.04006916674473796   -0.25196680550558964   -0.009528411677443057
-0.025363423739954406   -0.2791519212622284   -0.008812153397995124
-0.03584763748506737   -0.27832160735428446   -0.008957884022293368
-0.02591511509620524   -0.25198850762733055   -0.009004627108884881
-0.04006916674473796   -0.25196680550558964   -0.009528411677443057
-0.03512561806805991   -0.27848938771301207   -0.009289685591889432
-0.025465028544385784   -0.2521687230470458   -0.00896273857583546
-0.03954255616780837   -0.2524160892017545   -0.00980050985919432
-0.03512561806805991   -0.27848938771301207   -0.009289685591889432
-0.025363423739954406   -0.2791519212622284   -0.008812153397995124
-0.025465028544385784   -0.2521687230470458   -0.00896273857583546
-0.02479167495829587   -0.27945643031930434   -0.00881776605363465
-0.03954255616780837   -0.2524160892017545   -0.00980050985919432
-0.025015740929412427   -0.2524998056058601   -0.00896170994287824
-0.02479167495829587   -0.27945643031930434   -0.00881776605363465
-0.025465028544385784   -0.2521687230470458   -0.00896273857583546
-0.03954255616780837   -0.2524160892017545   -0.00980050985919432
-0.02479167495829587   -0.27945643031930434   -0.00881776605363465
-0.03447057295004398   -0.27889010846141   -0.009662413902291061
-0.03512561806805991   -0.27848938771301207   -0.009289685591889432
-0.03954255616780837   -0.2524160892017545   -0.00980050985919432
-0.02479167495829587   -0.27945643031930434   -0.00881776605363465
-0.03512561806805991   -0.27848938771301207   -0.009289685591889432
-0.025465028544385784   -0.2521687230470458   -0.00896273857583546
-0.02635130866501833   -0.25195062177211075   -0.009087955188712134
-0.026616180408938317   -0.27914931701283285   -0.008946147247973189
-0.012163350795220488   -0.2518861059456496   -0.009191972768122964
-0.02591511509620524   -0.25198850762733055   -0.009004627108884881
-0.026616180408938317   -0.27914931701283285   -0.008946147247973189
-0.01718727269162147   -0.27955816380301435   -0.009271314393555675
-0.012163350795220488   -0.2518861059456496   -0.009191972768122964
-0.016475839571066984   -0.2794182741544346   -0.008828481672265447
-0.02591511509620524   -0.25198850762733055   -0.009004627108884881
-0.01168553505018446   -0.2518377612388526   -0.008847745002675312
-0.016475839571066984   -0.2794182741544346   -0.008828481672265447
-0.012163350795220488   -0.2518861059456496   -0.009191972768122964
-0.02591511509620524   -0.25198850762733055   -0.009004627108884881
-0.016475839571066984   -0.2794182741544346   -0.008828481672265447
-0.025985197457421963   -0.2790517867726568   -0.008857930348130457
-0.026616180408938317   -0.27914931701283285   -0.008946147247973189
-0.02591511509620524   -0.25198850762733055   -0.009004627108884881
-0.016475839571066984   -0.2794182741544346   -0.008828481672265447
-0.026616180408938317   -0.27914931701283285   -0.008946147247973189
-0.012163350795220488   -0.2518861059456496   -0.009191972768122964
-0.02591511509620524   -0.25198850762733055   -0.009004627108884881
-0.025985197457421963   -0.2790517867726568   -0.008857930348130457
-0.01168553505018446   -0.2518377612388526   -0.008847745002675312
-0.025465028544385784   -0.2521687230470458   -0.00896273857583546
-0.025985197457421963   -0.2790517867726568   -0.008857930348130457
-0.016475839571066984   -0.2794182741544346   -0.008828481672265447
-0.01168553505018446   -0.2518377612388526   -0.008847745002675312
-0.015797945315294267   -0.27945185225401165   -0.008423015543192726
-0.025465028544385784   -0.2521687230470458   -0.00896273857583546
-0.011221984103973584   -0.25191793845327726   -0.008547682936096071
-0.015797945315294267   -0.27945185225401165   -0.008423015543192726
-0.01168553505018446   -0.2518377612388526   -0.008847745002675312
-0.025465028544385784   -0.2521687230470458   -0.00896273857583546
-0.015797945315294267   -0.27945185225401165   -0.008423015543192726
-0.025363423739954406   -0.2791519212622284   -0.008812153397995124
-0.025985197457421963   -0.2790517867726568   -0.008857930348130457
-0.025465028544385784   -0.2521687230470458   -0.00896273857583546
-0.015797945315294267   -0.27945185225401165   -0.008423015543192726
-0.025985197457421963   -0.2790517867726568   -0.008857930348130457
-0.01168553505018446   -0.2518377612388526   -0.008847745002675312
-0.025465028544385784   -0.2521687230470458   -0.00896273857583546
-0.025363423739954406   -0.2791519212622284   -0.008812153397995124
-0.011221984103973584   -0.25191793845327726   -0.008547682936096071
-0.025015740929412427   -0.2524998056058601   -0.00896170994287824
-0.025363423739954406   -0.2791519212622284   -0.008812153397995124
-0.015797945315294267   -0.27945185225401165   -0.008423015543192726
-0.011221984103973584   -0.25191793845327726   -0.008547682936096071
-0.01523469725236829   -0.2796933330283585   -0.008078604007856557
-0.025015740929412427   -0.2524998056058601   -0.00896170994287824
-0.010803344516052034   -0.2521456004774577   -0.008287936363209574
-0.01523469725236829   -0.2796933330283585   -0.008078604007856557
-0.011221984103973584   -0.25191793845327726   -0.008547682936096071
-0.025015740929412427   -0.2524998056058601   -0.00896170994287824
-0.01523469725236829   -0.2796933330283585   -0.008078604007856557
-0.02479167495829587   -0.27945643031930434   -0.00881776605363465
-0.025363423739954406   -0.2791519212622284   -0.008812153397995124
-0.025015740929412427   -0.2524998056058601   -0.00896170994287824
-0.01523469725236829   -0.2796933330283585   -0.008078604007856557
-0.025363423739954406   -0.2791519212622284   -0.008812153397995124
-0.011221984103973584   -0.25191793845327726   -0.008547682936096071
-0.012163350795220488   -0.2518861059456496   -0.009191972768122964
-0.01718727269162147   -0.27955816380301435   -0.009271314393555675
0.002697173107720608   -0.2513686572582167   -0.009446908350573534
-0.01168553505018446   -0.2518377612388526   -0.008847745002675312
-0.01718727269162147   -0.27955816380301435   -0.009271314393555675
-0.00715072719378824   -0.27946827544576763   -0.009653174667897394
0.002697173107720608   -0.2513686572582167   -0.009446908350573534
-0.006237326496130435   -0.2792491950980267   -0.008871433748041816
-0.01168553505018446   -0.2518377612388526   -0.008847745002675312
0.0032781076819198337   -0.25121058190273465   -0.008842771080384382
-0.006237326496130435   -0.2792491950980267   -0.008871433748041816
0.002697173107720608   -0.2513686572582167   -0.009446908350573534
-0.01168553505018446   -0.2518377612388526   -0.008847745002675312
-0.006237326496130435   -0.2792491950980267   -0.008871433748041816
-0.016475839571066984   -0.2794182741544346   -0.008828481672265447
-0.01718727269162147   -0.27955816380301435   -0.009271314393555675
-0.01168553505018446   -0.2518377612388526   -0.008847745002675312
-0.006237326496130435   -0.2792491950980267   -0.008871433748041816
-0.01718727269162147   -0.27955816380301435   -0.009271314393555675
0.002697173107720608   -0.2513686572582167   -0.009446908350573534
-0.01168553505018446   -0.2518377612388526   -0.008847745002675312
-0.016475839571066984   -0.2794182741544346   -0.008828481672265447
0.0032781076819198337   -0.25121058190273465   -0.008842771080384382
-0.011221984103973584   -0.25191793845327726   -0.008547682936096071
-0.016475839571066984   -0.2794182741544346   -0.008828481672265447
-0.006237326496130435   -0.2792491950980267   -0.008871433748041816
0.0032781076819198337   -0.25121058190273465   -0.008842771080384382
-0.0053047477914925836   -0.2792097828316725   -0.008129754790946487
-0.011221984103973584   -0.25191793845327726   -0.008547682936096071
0.0038897759028495246   -0.25119622468683234   -0.00829466420827348
-0.0053047477914925836   -0.2792097828316725   -0.008129754790946487
0.0032781076819198337   -0.25121058190273465   -0.008842771080384382
-0.011221984103973584   -0.25191793845327726   -0.008547682936096071
-0.0053047477914925836   -0.2792097828316725   -0.008129754790946487
-0.015797945315294267   -0.27945185225401165   -0.008423015543192726
-0.016475839571066984   -0.2794182741544346   -0.008828481672265447
-0.011221984103973584   -0.25191793845327726   -0.008547682936096071
-0.0053047477914925836   -0.2792097828316725   -0.008129754790946487
-0.016475839571066984   -0.2794182741544346   -0.008828481672265447
0.0032781076819198337   -0.25121058190273465   -0.008842771080384382
-0.011221984103973584   -0.25191793845327726   -0.008547682936096071
-0.015797945315294267   -0.27945185225401165   -0.008423015543192726
0.0038897759028495246   -0.25119622468683234   -0.00829466420827348
-0.010803344516052034   -0.2521456004774577   -0.008287936363209574
-0.015797945315294267   -0.27945185225401165   -0.008423015543192726
-0.0053047477914925836   -0.2792097828316725   -0.008129754790946487
0.0038897759028495246   -0.25119622468683234   -0.00829466420827348
-0.0046132463732396255   -0.279389327907556   -0.007456799532741256
-0.010803344516052034   -0.2521456004774577   -0.008287936363209574
0.004337142721033253   -0.2513191253447463   -0.00778515827142564
-0.0046132463732396255   -0.279389327907556   -0.007456799532741256
0.0038897759028495246   -0.25119622468683234   -0.00829466420827348
-0.010803344516052034   -0.2521456004774577   -0.008287936363209574
-0.0046132463732396255   -0.279389327907556   -0.007456799532741256
-0.01523469725236829   -0.2796933330283585   -0.008078604007856557
-0.015797945315294267   -0.27945185225401165   -0.008423015543192726
-0.010803344516052034   -0.2521456004774577   -0.008287936363209574
-0.0046132463732396255   -0.279389327907556   -0.007456799532741256
-0.015797945315294267   -0.27945185225401165   -0.008423015543192726
0.0038897759028495246   -0.25119622468683234   -0.00829466420827348
0.002697173107720608   -0.2513686572582167   -0.009446908350573534
-0.00715072719378824   -0.27946827544576763   -0.009653174667897394
0.01855493414943452   -0.2503489779201077   -0.009994619801841955
0.0032781076819198337   -0.25121058190273465   -0.008842771080384382
-0.00715072719378824   -0.27946827544576763   -0.009653174667897394
0.0036711580656723273   -0.278508310702236   -0.010439771023005421
0.01855493414943452   -0.2503489779201077   -0.009994619801841955
0.005790205784181559   -0.2780302796933753   -0.009160322098416888
0.0032781076819198337   -0.25121058190273465   -0.008842771080384382
0.020021959404857924   -0.25004513971302145   -0.009070254513440172
0.005790205784181559   -0.2780302796933753   -0.009160322098416888
0.01855493414943452   -0.2503489779201077   -0.009994619801841955
0.0032781076819198337   -0.25121058190273465   -0.008842771080384382
0.005790205784181559   -0.2780302796933753   -0.009160322098416888
-0.006237326496130435   -0.2792491950980267   -0.008871433748041816
-0.00715072719378824   -0.27946827544576763   -0.009653174667897394
0.0032781076819198337   -0.25121058190273465   -0.008842771080384382
0.005790205784181559   -0.2780302796933753   -0.009160322098416888
-0.00715072719378824   -0.27946827544576763   -0.009653174667897394
0.01855493414943452   -0.2503489779201077   -0.009994619801841955
0.0032781076819198337   -0.25121058190273465   -0.008842771080384382
-0.006237326496130435   -0.2792491950980267   -0.008871433748041816
0.020021959404857924   -0.25004513971302145   -0.009070254513440172
0.0038897759028495246   -0.25119622468683234   -0.00829466420827348
-0.006237326496130435   -0.2792491950980267   -0.008871433748041816
0.005790205784181559   -0.2780302796933753   -0.009160322098416888
0.020021959404857924   -0.25004513971302145   -0.009070254513440172
0.00745605366554165   -0.2779328371832686   -0.007959818209784218
0.0038897759028495246   -0.25119622468683234   -0.00829466420827348
0.0211464424973836   -0.24999254514188451   -0.008215354136425327
0.00745605366554165   -0.2779328371832686   -0.007959818209784218
0.020021959404857924   -0.25004513971302145   -0.009070254513440172
0.0038897759028495246   -0.25119622468683234   -0.00829466420827348
0.00745605366554165   -0.2779328371832686   -0.007959818209784218
-0.0053047477914925836   -0.2792097828316725   -0.008129754790946487
-0.006237326496130435   -0.2792491950980267   -0.008871433748041816
0.0038897759028495246   -0.25119622468683234   -0.00829466420827348
0.00745605366554165   -0.2779328371832686   -0.007959818209784218
-0.006237326496130435   -0.2792491950980267   -0.008871433748041816
0.020021959404857924   -0.25004513971302145   -0.009070254513440172
0.0038897759028495246   -0.25119622468683234   -0.00829466420827348
-0.0053047477914925836   -0.2792097828316725   -0.008129754790946487
0.0211464424973836   -0.24999254514188451   -0.008215354136425327
0.004337142721033253   -0.2513191253447463   -0.00778515827142564
-0.0053047477914925836   -0.2792097828316725   -0.008129754790946487
0.00745605366554165   -0.2779328371832686   -0.007959818209784218
0.0211464424973836   -0.24999254514188451   -0.008215354136425327
0.009184750226608997   -0.2780116202999088   -0.006864413249943776
0.004337142721033253   -0.2513191253447463   -0.00778515827142564
0.022309566364243586   -0.25008195629128116   -0.007436937334632096
0.009184750226608997   -0.2780116202999088   -0.006864413249943776
0.0211464424973836   -0.24999254514188451   -0.008215354136425327
0.004337142721033253   -0.2513191253447463   -0.00778515827142564
0.009184750226608997   -0.2780116202999088   -0.006864413249943776
-0.0046132463732396255   -0.279389327907556   -0.007456799532741256
-0.0053047477914925836   -0.2792097828316725   -0.008129754790946487
0.004337142721033253   -0.2513191253447463   -0.00778515827142564
0.009184750226608997   -0.2780116202999088   -0.006864413249943776
-0.0053047477914925836   -0.2792097828316725   -0.008129754790946487
0.0211464424973836   -0.24999254514188451   -0.008215354136425327
-0.048528384677208526   -0.2772069909287006   -0.008316550414189362
-0.03549922636815817   -0.29289498422628696   -0.007315736040526776
-0.03646200878004324   -0.27838303221667415   -0.008669818581122023
-0.04720762453062118   -0.2771733322349613   -0.009093404600920509
-0.03549922636815817   -0.29289498422628696   -0.007315736040526776
-0.0299059807864706   -0.29438427858498795   -0.008213432351402197
-0.03646200878004324   -0.27838303221667415   -0.008669818581122023
-0.02912916653819292   -0.2940880166812958   -0.008519241164195753
-0.04720762453062118   -0.2771733322349613   -0.009093404600920509
-0.03584763748506737   -0.27832160735428446   -0.008957884022293368
-0.02912916653819292   -0.2940880166812958   -0.008519241164195753
-0.03646200878004324   -0.27838303221667415   -0.008669818581122023
-0.04720762453062118   -0.2771733322349613   -0.009093404600920509
-0.02912916653819292   -0.2940880166812958   -0.008519241164195753
-0.03385086484707621   -0.2925614798763891   -0.008248237540917169
-0.03549922636815817   -0.29289498422628696   -0.007315736040526776
-0.04720762453062118   -0.2771733322349613   -0.009093404600920509
-0.02912916653819292   -0.2940880166812958   -0.008519241164195753
-0.03549922636815817   -0.29289498422628696   -0.007315736040526776
-0.03646200878004324   -0.27838303221667415   -0.008669818581122023
-0.04720762453062118   -0.2771733322349613   -0.009093404600920509
-0.03385086484707621   -0.2925614798763891   -0.008248237540917169
-0.03584763748506737   -0.27832160735428446   -0.008957884022293368
-0.0459895695628166   -0.2773808759553943   -0.009931812007045423
-0.03385086484707621   -0.2925614798763891   -0.008248237540917169
-0.02912916653819292   -0.2940880166812958   -0.008519241164195753
-0.03584763748506737   -0.27832160735428446   -0.008957884022293368
-0.0282697897046061   -0.2941000234264626   -0.00882810350654429
-0.0459895695628166   -0.2773808759553943   -0.009931812007045423
-0.03512561806805991   -0.27848938771301207   -0.009289685591889432
-0.0282697897046061   -0.2941000234264626   -0.00882810350654429
-0.03584763748506737   -0.27832160735428446   -0.008957884022293368
-0.0459895695628166   -0.2773808759553943   -0.009931812007045423
-0.0282697897046061   -0.2941000234264626   -0.00882810350654429
-0.03242841537247639   -0.29258705157049736   -0.009176915465957248
-0.03385086484707621   -0.2925614798763891   -0.008248237540917169
-0.0459895695628166   -0.2773808759553943   -0.009931812007045423
-0.0282697897046061   -0.2941000234264626   -0.00882810350654429
-0.03385086484707621   -0.2925614798763891   -0.008248237540917169
-0.03584763748506737   -0.27832160735428446   -0.008957884022293368
-0.0459895695628166   -0.2773808759553943   -0.009931812007045423
-0.03242841537247639   -0.29258705157049736   -0.009176915465957248
-0.03512561806805991   -0.27848938771301207   -0.009289685591889432
-0.0445043605354141   -0.27793706076790514   -0.010828080077622492
-0.03242841537247639   -0.29258705157049736   -0.009176915465957248
-0.0282697897046061   -0.2941000234264626   -0.00882810350654429
-0.03512561806805991   -0.27848938771301207   -0.009289685591889432
-0.02747090550496177   -0.29442160720961874   -0.009141318772604864
-0.0445043605354141   -0.27793706076790514   -0.010828080077622492
-0.03447057295004398   -0.27889010846141   -0.009662413902291061
-0.02747090550496177   -0.29442160720961874   -0.009141318772604864
-0.03512561806805991   -0.27848938771301207   -0.009289685591889432
-0.0445043605354141   -0.27793706076790514   -0.010828080077622492
-0.02747090550496177   -0.29442160720961874   -0.009141318772604864
-0.030741975194786317   -0.2929920343960951   -0.010125670574029074
-0.03242841537247639   -0.29258705157049736   -0.009176915465957248
-0.0445043605354141   -0.27793706076790514   -0.010828080077622492
-0.02747090550496177   -0.29442160720961874   -0.009141318772604864
-0.03242841537247639   -0.29258705157049736   -0.009176915465957248
-0.03512561806805991   -0.27848938771301207   -0.009289685591889432
-0.03646200878004324   -0.27838303221667415   -0.008669818581122023
-0.0299059807864706   -0.29438427858498795   -0.008213432351402197
-0.026616180408938317   -0.27914931701283285   -0.008946147247973189
-0.03584763748506737   -0.27832160735428446   -0.008957884022293368
-0.0299059807864706   -0.29438427858498795   -0.008213432351402197
-0.02582004856035366   -0.29588845730997376   -0.009007481555281477
-0.026616180408938317   -0.27914931701283285   -0.008946147247973189
-0.024999522702451187   -0.29558498705398994   -0.008790476131426217
-0.03584763748506737   -0.27832160735428446   -0.008957884022293368
-0.025985197457421963   -0.2790517867726568   -0.008857930348130457
-0.024999522702451187   -0.29558498705398994   -0.008790476131426217
-0.026616180408938317   -0.27914931701283285   -0.008946147247973189
-0.03584763748506737   -0.27832160735428446   -0.008957884022293368
-0.024999522702451187   -0.29558498705398994   -0.008790476131426217
-0.02912916653819292   -0.2940880166812958   -0.008519241164195753
-0.0299059807864706   -0.29438427858498795   -0.008213432351402197
-0.03584763748506737   -0.27832160735428446   -0.008957884022293368
-0.024999522702451187   -0.29558498705398994   -0.008790476131426217
-0.0299059807864706   -0.29438427858498795   -0.008213432351402197
-0.026616180408938317   -0.27914931701283285   -0.008946147247973189
-0.03584763748506737   -0.27832160735428446   -0.008957884022293368
-0.02912916653819292   -0.2940880166812958   -0.008519241164195753
-0.025985197457421963   -0.2790517867726568   -0.008857930348130457
-0.03512561806805991   -0.27848938771301207   -0.009289685591889432
-0.02912916653819292   -0.2940880166812958   -0.008519241164195753
-0.024999522702451187   -0.29558498705398994   -0.008790476131426217
-0.025985197457421963   -0.2790517867726568   -0.008857930348130457
-0.02420662806419215   -0.29557758437276976   -0.008570706381037926
-0.03512561806805991   -0.27848938771301207   -0.009289685591889432
-0.025363423739954406   -0.2791519212622284   -0.008812153397995124
-0.02420662806419215   -0.29557758437276976   -0.008570706381037926
-0.025985197457421963   -0.2790517867726568   -0.008857930348130457
-0.03512561806805991   -0.27848938771301207   -0.009289685591889432
-0.02420662806419215   -0.29557758437276976   -0.008570706381037926
-0.0282697897046061   -0.2941000234264626   -0.00882810350654429
-0.02912916653819292   -0.2940880166812958   -0.008519241164195753
-0.03512561806805991   -0.27848938771301207   -0.009289685591889432
-0.02420662806419215   -0.29557758437276976   -0.008570706381037926
-0.02912916653819292   -0.2940880166812958   -0.008519241164195753
-0.025985197457421963   -0.2790517867726568   -0.008857930348130457
-0.03512561806805991   -0.27848938771301207   -0.009289685591889432
-0.0282697897046061   -0.2941000234264626   -0.00882810350654429
-0.025363423739954406   -0.2791519212622284   -0.008812153397995124
-0.03447057295004398   -0.27889010846141   -0.009662413902291061
-0.0282697897046061   -0.2941000234264626   -0.00882810350654429
-0.02420662806419215   -0.29557758437276976   -0.008570706381037926
-0.025363423739954406   -0.2791519212622284   -0.008812153397995124
-0.02337966834117818   -0.29585994742846133   -0.00835945508598161
-0.03447057295004398   -0.27889010846141   -0.009662413902291061
-0.02479167495829587   -0.27945643031930434   -0.00881776605363465
-0.02337966834117818   -0.29585994742846133   -0.00835945508598161
-0.025363423739954406   -0.2791519212622284   -0.008812153397995124
-0.03447057295004398   -0.27889010846141   -0.009662413902291061
-0.02337966834117818   -0.29585994742846133   -0.00835945508598161
-0.02747090550496177   -0.29442160720961874   -0.009141318772604864
-0.0282697897046061   -0.2941000234264626   -0.00882810350654429
-0.03447057295004398   -0.27889010846141   -0.009662413902291061
-0.02337966834117818   -0.29585994742846133   -0.00835945508598161
-0.0282697897046061   -0.2941000234264626   -0.00882810350654429
-0.025363423739954406   -0.2791519212622284   -0.008812153397995124
-0.026616180408938317   -0.27914931701283285   -0.008946147247973189
-0.02582004856035366   -0.29588845730997376   -0.009007481555281477
-0.01718727269162147   -0.27955816380301435   -0.009271314393555675
-0.025985197457421963   -0.2790517867726568   -0.008857930348130457
-0.02582004856035366   -0.29588845730997376   -0.009007481555281477
-0.022092241680914695   -0.2977137227899035   -0.009880540684616435
-0.01718727269162147   -0.27955816380301435   -0.009271314393555675
-0.021085757613983052   -0.2974514073381768   -0.009111190935157065
-0.025985197457421963   -0.2790517867726568   -0.008857930348130457
-0.016475839571066984   -0.2794182741544346   -0.008828481672265447
-0.021085757613983052   -0.2974514073381768   -0.009111190935157065
-0.01718727269162147   -0.27955816380301435   -0.009271314393555675
-0.025985197457421963   -0.2790517867726568   -0.008857930348130457
-0.021085757613983052   -0.2974514073381768   -0.009111190935157065
-0.024999522702451187   -0.29558498705398994   -0.008790476131426217
-0.02582004856035366   -0.29588845730997376   -0.009007481555281477
-0.025985197457421963   -0.2790517867726568   -0.008857930348130457
-0.021085757613983052   -0.2974514073381768   -0.009111190935157065
-0.02582004856035366   -0.29588845730997376   -0.009007481555281477
-0.01718727269162147   -0.27955816380301435   -0.009271314393555675
-0.025985197457421963   -0.2790517867726568   -0.008857930348130457
-0.024999522702451187   -0.29558498705398994   -0.008790476131426217
-0.016475839571066984   -0.2794182741544346   -0.008828481672265447
-0.025363423739954406   -0.2791519212622284   -0.008812153397995124
-0.024999522702451187   -0.29558498705398994   -0.008790476131426217
-0.021085757613983052   -0.2974514073381768   -0.009111190935157065
-0.016475839571066984   -0.2794182741544346   -0.008828481672265447
-0.020153838901519408   -0.2974362244647223   -0.008344846271911099
-0.025363423739954406   -0.2791519212622284   -0.008812153397995124
-0.015797945315294267   -0.27945185225401165   -0.008423015543192726
-0.020153838901519408   -0.2974362244647223   -0.008344846271911099
-0.016475839571066984   -0.2794182741544346   -0.008828481672265447
-0.025363423739954406   -0.2791519212622284   -0.008812153397995124
-0.020153838901519408   -0.2974362244647223   -0.008344846271911099
-0.02420662806419215   -0.29557758437276976   -0.008570706381037926
-0.024999522702451187   -0.29558498705398994   -0.008790476131426217
-0.025363423739954406   -0.2791519212622284   -0.008812153397995124
-0.020153838901519408   -0.2974362244647223   -0.008344846271911099
-0.024999522702451187   -0.29558498705398994   -0.008790476131426217
-0.016475839571066984   -0.2794182741544346   -0.008828481672265447
-0.025363423739954406   -0.2791519212622284   -0.008812153397995124
-0.02420662806419215   -0.29557758437276976   -0.008570706381037926
-0.015797945315294267   -0.27945185225401165   -0.008423015543192726
-0.02479167495829587   -0.27945643031930434   -0.00881776605363465
-0.02420662806419215   -0.29557758437276976   -0.008570706381037926
-0.020153838901519408   -0.2974362244647223   -0.008344846271911099
-0.015797945315294267   -0.27945185225401165   -0.008423015543192726
-0.019152447912145217   -0.29765452798750913   -0.007576105746916694
-0.02479167495829587   -0.27945643031930434   -0.00881776605363465
-0.01523469725236829   -0.2796933330283585   -0.008078604007856557
-0.019152447912145217   -0.29765452798750913   -0.007576105746916694
-0.015797945315294267   -0.27945185225401165   -0.008423015543192726
-0.02479167495829587   -0.27945643031930434   -0.00881776605363465
-0.019152447912145217   -0.29765452798750913   -0.007576105746916694
-0.02337966834117818   -0.29585994742846133   -0.00835945508598161
-0.02420662806419215   -0.29557758437276976   -0.008570706381037926
-0.02479167495829587   -0.27945643031930434   -0.00881776605363465
-0.019152447912145217   -0.29765452798750913   -0.007576105746916694
-0.02420662806419215   -0.29557758437276976   -0.008570706381037926
-0.015797945315294267   -0.27945185225401165   -0.008423015543192726
-0.01718727269162147   -0.27955816380301435   -0.009271314393555675
-0.022092241680914695   -0.2977137227899035   -0.009880540684616435
-0.00715072719378824   -0.27946827544576763   -0.009653174667897394
-0.016475839571066984   -0.2794182741544346   -0.008828481672265447
-0.022092241680914695   -0.2977137227899035   -0.009880540684616435
-0.01842344958466528   -0.30000000000000004   -0.010545968909892942
-0.00715072719378824   -0.27946827544576763   -0.009653174667897394
-0.017159053550352268   -0.30000000000000004   -0.009381637116318871
-0.016475839571066984   -0.2794182741544346   -0.008828481672265447
-0.006237326496130435   -0.2792491950980267   -0.008871433748041816
-0.017159053550352268   -0.30000000000000004   -0.009381637116318871
-0.00715072719378824   -0.27946827544576763   -0.009653174667897394
-0.016475839571066984   -0.2794182741544346   -0.008828481672265447
-0.017159053550352268   -0.30000000000000004   -0.009381637116318871
-0.021085757613983052   -0.2974514073381768   -0.009111190935157065
-0.022092241680914695   -0.2977137227899035   -0.009880540684616435
-0.016475839571066984   -0.2794182741544346   -0.008828481672265447
-0.017159053550352268   -0.30000000000000004   -0.009381637116318871
-0.022092241680914695   -0.2977137227899035   -0.009880540684616435
-0.00715072719378824   -0.27946827544576763   -0.009653174667897394
-0.016475839571066984   -0.2794182741544346   -0.008828481672265447
-0.021085757613983052   -0.2974514073381768   -0.009111190935157065
-0.006237326496130435   -0.2792491950980267   -0.008871433748041816
-0.015797945315294267   -0.27945185225401165   -0.008423015543192726
-0.021085757613983052   -0.2974514073381768   -0.009111190935157065
-0.017159053550352268   -0.30000000000000004   -0.009381637116318871
-0.006237326496130435   -0.2792491950980267   -0.008871433748041816
-0.01588986108651455   -0.30000000000000004   -0.008203456060340819
-0.015797945315294267   -0.27945185225401165   -0.008423015543192726
-0.0053047477914925836   -0.2792097828316725   -0.008129754790946487
-0.01588986108651455   -0.30000000000000004   -0.008203456060340819
-0.006237326496130435   -0.2792491950980267   -0.008871433748041816
-0.015797945315294267   -0.27945185225401165   -0.008423015543192726
-0.01588986108651455   -0.30000000000000004   -0.008203456060340819
-0.020153838901519408   -0.2974362244647223   -0.008344846271911099
-0.021085757613983052   -0.2974514073381768   -0.009111190935157065
-0.015797945315294267   -0.27945185225401165   -0.008423015543192726
-0.01588986108651455   -0.30000000000000004   -0.008203456060340819
-0.021085757613983052   -0.2974514073381768   -0.009111190935157065
-0.006237326496130435   -0.2792491950980267   -0.008871433748041816
-0.015797945315294267   -0.27945185225401165   -0.008423015543192726
-0.020153838901519408   -0.2974362244647223   -0.008344846271911099
-0.0053047477914925836   -0.2792097828316725   -0.008129754790946487
-0.01523469725236829   -0.2796933330283585   -0.008078604007856557
-0.020153838901519408   -0.2974362244647223   -0.008344846271911099
-0.01588986108651455   -0.30000000000000004   -0.008203456060340819
-0.0053047477914925836   -0.2792097828316725   -0.008129754790946487
-0.014647673540309474   -0.30000000000000004   -0.007040746627406932
-0.01523469725236829   -0.2796933330283585   -0.008078604007856557
-0.0046132463732396255   -0.279389327907556   -0.007456799532741256
-0.014647673540309474   -0.30000000000000004   -0.007040746627406932
-0.0053047477914925836   -0.2792097828316725   -0.008129754790946487
-0.01523469725236829   -0.2796933330283585   -0.008078604007856557
-0.014647673540309474   -0.30000000000000004   -0.007040746627406932
-0.019152447912145217   -0.29765452798750913   -0.007576105746916694
-0.020153838901519408   -0.2974362244647223   -0.008344846271911099
-0.01523469725236829   -0.2796933330283585   -0.008078604007856557
-0.014647673540309474   -0.30000000000000004   -0.007040746627406932
-0.020153838901519408   -0.2974362244647223   -0.008344846271911099
-0.0053047477914925836   -0.2792097828316725   -0.008129754790946487
-0.00715072719378824   -0.27946827544576763   -0.009653174667897394
-0.01842344958466528   -0.30000000000000004   -0.010545968909892942
0.0036711580656723273   -0.278508310702236   -0.010439771023005421
-0.006237326496130435   -0.2792491950980267   -0.008871433748041816
-0.01842344958466528   -0.30000000000000004   -0.010545968909892942
-0.015775432144140854   -0.30000000000000004   -0.011351906930043483
0.0036711580656723273   -0.278508310702236   -0.010439771023005421
-0.013141577265725363   -0.30000000000000004   -0.009669674210018178
-0.006237326496130435   -0.2792491950980267   -0.008871433748041816
0.005790205784181559   -0.2780302796933753   -0.009160322098416888
-0.013141577265725363   -0.30000000000000004   -0.009669674210018178
0.0036711580656723273   -0.278508310702236   -0.010439771023005421
-0.006237326496130435   -0.2792491950980267   -0.008871433748041816
-0.013141577265725363   -0.30000000000000004   -0.009669674210018178
-0.017159053550352268   -0.30000000000000004   -0.009381637116318871
-0.01842344958466528   -0.30000000000000004   -0.010545968909892942
-0.006237326496130435   -0.2792491950980267   -0.008871433748041816
-0.013141577265725363   -0.30000000000000004   -0.009669674210018178
-0.01842344958466528   -0.30000000000000004   -0.010545968909892942
0.0036711580656723273   -0.278508310702236   -0.010439771023005421
-0.006237326496130435   -0.2792491950980267   -0.008871433748041816
-0.017159053550352268   -0.30000000000000004   -0.009381637116318871
0.005790205784181559   -0.2780302796933753   -0.009160322098416888
-0.0053047477914925836   -0.2792097828316725   -0.008129754790946487
-0.017159053550352268   -0.30000000000000004   -0.009381637116318871
-0.013141577265725363   -0.30000000000000004   -0.009669674210018178
0.005790205784181559   -0.2780302796933753   -0.009160322098416888
-0.011041017442597438   -0.30000000000000004   -0.008060283719272074
-0.0053047477914925836   -0.2792097828316725   -0.008129754790946487
0.00745605366554165   -0.2779328371832686   -0.007959818209784218
-0.011041017442597438   -0.30000000000000004   -0.008060283719272074
0.005790205784181559   -0.2780302796933753   -0.009160322098416888
-0.0053047477914925836   -0.2792097828316725   -0.008129754790946487
-0.011041017442597438   -0.30000000000000004   -0.008060283719272074
-0.01588986108651455   -0.30000000000000004   -0.008203456060340819
-0.017159053550352268   -0.30000000000000004   -0.009381637116318871
-0.0053047477914925836   -0.2792097828316725   -0.008129754790946487
-0.011041017442597438   -0.30000000000000004   -0.008060283719272074
-0.017159053550352268   -0.30000000000000004   -0.009381637116318871
0.005790205784181559   -0.2780302796933753   -0.009160322098416888
-0.0053047477914925836   -0.2792097828316725   -0.008129754790946487
-0.01588986108651455   -0.30000000000000004   -0.008203456060340819
0.00745605366554165   -0.2779328371832686   -0.007959818209784218
-0.0046132463732396255   -0.279389327907556   -0.007456799532741256
-0.01588986108651455   -0.30000000000000004   -0.008203456060340819
-0.011041017442597438   -0.30000000000000004   -0.008060283719272074
0.00745605366554165   -0.2779328371832686   -0.007959818209784218
-0.008445787751723952   -0.30000000000000004   -0.0063896641024320305
-0.0046132463732396255   -0.279389327907556   -0.007456799532741256
0.009184750226608997   -0.2780116202999088   -0.006864413249943776
-0.008445787751723952   -0.30000000000000004   -0.0063896641024320305
0.00745605366554165   -0.2779328371832686   -0.007959818209784218
-0.0046132463732396255   -0.279389327907556   -0.007456799532741256
-0.008445787751723952   -0.30000000000000004   -0.0063896641024320305
-0.014647673540309474   -0.30000000000000004   -0.007040746627406932
-0.01588986108651455   -0.30000000000000004   -0.008203456060340819
-0.0046132463732396255   -0.279389327907556   -0.007456799532741256
-0.008445787751723952   -0.30000000000000004   -0.0063896641024320305
-0.01588986108651455   -0.30000000000000004   -0.008203456060340819
0.00745605366554165   -0.2779328371832686   -0.007959818209784218
-0.03549922636815817   -0.29289498422628696   -0.007315736040526776
-0.021083990136049727   -0.293599709937785   -0.006259755951344091
-0.0299059807864706   -0.29438427858498795   -0.008213432351402197
-0.03385086484707621   -0.2925614798763891   -0.008248237540917169
-0.021083990136049727   -0.293599709937785   -0.006259755951344091
-0.022418606189254307   -0.29474351392628684   -0.007415344340673202
-0.0299059807864706   -0.29438427858498795   -0.008213432351402197
-0.021831840712472243   -0.29433937754722256   -0.007833928951609458
-0.03385086484707621   -0.2925614798763891   -0.008248237540917169
-0.02912916653819292   -0.2940880166812958   -0.008519241164195753
-0.021831840712472243   -0.29433937754722256   -0.007833928951609458
-0.0299059807864706   -0.29438427858498795   -0.008213432351402197
-0.03385086484707621   -0.2925614798763891   -0.008248237540917169
-0.021831840712472243   -0.29433937754722256   -0.007833928951609458
-0.019592138336379183   -0.2930810938035137   -0.007239226707484959
-0.021083990136049727   -0.293599709937785   -0.006259755951344091
-0.03385086484707621   -0.2925614798763891   -0.008248237540917169
-0.021831840712472243   -0.29433937754722256   -0.007833928951609458
-0.021083990136049727   -0.293599709937785   -0.006259755951344091
-0.0299059807864706   -0.29438427858498795   -0.008213432351402197
-0.03385086484707621   -0.2925614798763891   -0.008248237540917169
-0.019592138336379183   -0.2930810938035137   -0.007239226707484959
-0.02912916653819292   -0.2940880166812958   -0.008519241164195753
-0.03242841537247639   -0.29258705157049736   -0.009176915465957248
-0.019592138336379183   -0.2930810938035137   -0.007239226707484959
-0.021831840712472243   -0.29433937754722256   -0.007833928951609458
-0.02912916653819292   -0.2940880166812958   -0.008519241164195753
-0.021144229144014665   -0.2941875157323244   -0.008219682464325303
-0.03242841537247639   -0.29258705157049736   -0.009176915465957248
-0.0282697897046061   -0.2941000234264626   -0.00882810350654429
-0.021144229144014665   -0.2941875157323244   -0.008219682464325303
-0.02912916653819292   -0.2940880166812958   -0.008519241164195753
-0.03242841537247639   -0.29258705157049736   -0.009176915465957248
-0.021144229144014665   -0.2941875157323244   -0.008219682464325303
-0.018350091738107283   -0.29291841173736816   -0.008177931903149948
-0.019592138336379183   -0.2930810938035137   -0.007239226707484959
-0.03242841537247639   -0.29258705157049736   -0.009176915465957248
-0.021144229144014665   -0.2941875157323244   -0.008219682464325303
-0.019592138336379183   -0.2930810938035137   -0.007239226707484959
-0.02912916653819292   -0.2940880166812958   -0.008519241164195753
-0.03242841537247639   -0.29258705157049736   -0.009176915465957248
-0.018350091738107283   -0.29291841173736816   -0.008177931903149948
-0.0282697897046061   -0.2941000234264626   -0.00882810350654429
-0.030741975194786317   -0.2929920343960951   -0.010125670574029074
-0.018350091738107283   -0.29291841173736816   -0.008177931903149948
-0.021144229144014665   -0.2941875157323244   -0.008219682464325303
-0.0282697897046061   -0.2941000234264626   -0.00882810350654429
-0.020554818153745612   -0.29429000207994466   -0.008570541205012473
-0.030741975194786317   -0.2929920343960951   -0.010125670574029074
-0.02747090550496177   -0.29442160720961874   -0.009141318772604864
-0.020554818153745612   -0.29429000207994466   -0.008570541205012473
-0.0282697897046061   -0.2941000234264626   -0.00882810350654429
-0.030741975194786317   -0.2929920343960951   -0.010125670574029074
-0.020554818153745612   -0.29429000207994466   -0.008570541205012473
-0.016946255425571325   -0.29304640568753765   -0.009071605864720625
-0.018350091738107283   -0.29291841173736816   -0.008177931903149948
-0.030741975194786317   -0.2929920343960951   -0.010125670574029074
-0.020554818153745612   -0.29429000207994466   -0.008570541205012473
-0.018350091738107283   -0.29291841173736816   -0.008177931903149948
-0.0282697897046061   -0.2941000234264626   -0.00882810350654429
-0.0299059807864706   -0.29438427858498795   -0.008213432351402197
-0.022418606189254307   -0.29474351392628684   -0.007415344340673202
-0.02582004856035366   -0.29588845730997376   -0.009007481555281477
-0.02912916653819292   -0.2940880166812958   -0.008519241164195753
-0.022418606189254307   -0.29474351392628684   -0.007415344340673202
-0.024201872584757127   -0.2954551261468221   -0.008339969842617024
-0.02582004856035366   -0.29588845730997376   -0.009007481555281477
-0.02368216219873342   -0.29509444689485365   -0.008351564028857164
-0.02912916653819292   -0.2940880166812958   -0.008519241164195753
-0.024999522702451187   -0.29558498705398994   -0.008790476131426217
-0.02368216219873342   -0.29509444689485365   -0.008351564028857164
-0.02582004856035366   -0.29588845730997376   -0.009007481555281477
-0.02912916653819292   -0.2940880166812958   -0.008519241164195753
-0.02368216219873342   -0.29509444689485365   -0.008351564028857164
-0.021831840712472243   -0.29433937754722256   -0.007833928951609458
-0.022418606189254307   -0.29474351392628684   -0.007415344340673202
-0.02912916653819292   -0.2940880166812958   -0.008519241164195753
-0.02368216219873342   -0.29509444689485365   -0.008351564028857164
-0.022418606189254307   -0.29474351392628684   -0.007415344340673202
-0.02582004856035366   -0.29588845730997376   -0.009007481555281477
-0.02912916653819292   -0.2940880166812958   -0.008519241164195753
-0.021831840712472243   -0.29433937754722256   -0.007833928951609458
-0.024999522702451187   -0.29558498705398994   -0.008790476131426217
-0.0282697897046061   -0.2941000234264626   -0.00882810350654429
-0.021831840712472243   -0.29433937754722256   -0.007833928951609458
-0.02368216219873342   -0.29509444689485365   -0.008351564028857164
-0.024999522702451187   -0.29558498705398994   -0.008790476131426217
-0.023103525871572245   -0.294962288395246   -0.008320587611141827
-0.0282697897046061   -0.2941000234264626   -0.00882810350654429
-0.02420662806419215   -0.29557758437276976   -0.008570706381037926
-0.023103525871572245   -0.294962288395246   -0.008320587611141827
-0.024999522702451187   -0.29558498705398994   -0.008790476131426217
-0.0282697897046061   -0.2941000234264626   -0.00882810350654429
-0.023103525871572245   -0.294962288395246   -0.008320587611141827
-0.021144229144014665   -0.2941875157323244   -0.008219682464325303
-0.021831840712472243   -0.29433937754722256   -0.007833928951609458
-0.0282697897046061   -0.2941000234264626   -0.00882810350654429
-0.023103525871572245   -0.294962288395246   -0.008320587611141827
-0.021831840712472243   -0.29433937754722256   -0.007833928951609458
-0.024999522702451187   -0.29558498705398994   -0.008790476131426217
-0.0282697897046061   -0.2941000234264626   -0.00882810350654429
-0.021144229144014665   -0.2941875157323244   -0.008219682464325303
-0.02420662806419215   -0.29557758437276976   -0.008570706381037926
-0.02747090550496177   -0.29442160720961874   -0.009141318772604864
-0.021144229144014665   -0.2941875157323244   -0.008219682464325303
-0.023103525871572245   -0.294962288395246   -0.008320587611141827
-0.02420662806419215   -0.29557758437276976   -0.008570706381037926
-0.022515013559881905   -0.29504798005496474   -0.008256216726166358
-0.02747090550496177   -0.29442160720961874   -0.009141318772604864
-0.02337966834117818   -0.29585994742846133   -0.00835945508598161
-0.022515013559881905   -0.29504798005496474   -0.008256216726166358
-0.02420662806419215   -0.29557758437276976   -0.008570706381037926
-0.02747090550496177   -0.29442160720961874   -0.009141318772604864
-0.022515013559881905   -0.29504798005496474   -0.008256216726166358
-0.020554818153745612   -0.29429000207994466   -0.008570541205012473
-0.021144229144014665   -0.2941875157323244   -0.008219682464325303
-0.02747090550496177   -0.29442160720961874   -0.009141318772604864
-0.022515013559881905   -0.29504798005496474   -0.008256216726166358
-0.021144229144014665   -0.2941875157323244   -0.008219682464325303
-0.02420662806419215   -0.29557758437276976   -0.008570706381037926
-0.02582004856035366   -0.29588845730997376   -0.009007481555281477
-0.024201872584757127   -0.2954551261468221   -0.008339969842617024
-0.022092241680914695   -0.2977137227899035   -0.009880540684616435
-0.024999522702451187   -0.29558498705398994   -0.008790476131426217
-0.024201872584757127   -0.2954551261468221   -0.008339969842617024
-0.026110501036032293   -0.29576110962120233   -0.009249296568347118
-0.022092241680914695   -0.2977137227899035   -0.009880540684616435
-0.02557216314250659   -0.29541776316811685   -0.00886960442085096
-0.024999522702451187   -0.29558498705398994   -0.008790476131426217
-0.021085757613983052   -0.2974514073381768   -0.009111190935157065
-0.02557216314250659   -0.29541776316811685   -0.00886960442085096
-0.022092241680914695   -0.2977137227899035   -0.009880540684616435
-0.024999522702451187   -0.29558498705398994   -0.008790476131426217
-0.02557216314250659   -0.29541776316811685   -0.00886960442085096
-0.02368216219873342   -0.29509444689485365   -0.008351564028857164
-0.024201872584757127   -0.2954551261468221   -0.008339969842617024
-0.024999522702451187   -0.29558498705398994   -0.008790476131426217
-0.02557216314250659   -0.29541776316811685   -0.00886960442085096
-0.024201872584757127   -0.2954551261468221   -0.008339969842617024
-0.022092241680914695   -0.2977137227899035   -0.009880540684616435
-0.024999522702451187   -0.29558498705398994   -0.008790476131426217
-0.02368216219873342   -0.29509444689485365   -0.008351564028857164
-0.021085757613983052   -0.2974514073381768   -0.009111190935157065
-0.02420662806419215   -0.29557758437276976   -0.008570706381037926
-0.02368216219873342   -0.29509444689485365   -0.008351564028857164
-0.02557216314250659   -0.29541776316811685   -0.00886960442085096
-0.021085757613983052   -0.2974514073381768   -0.009111190935157065
-0.024925953844246777   -0.2953067317319499   -0.008438081746263692
-0.02420662806419215   -0.29557758437276976   -0.008570706381037926
-0.020153838901519408   -0.2974362244647223   -0.008344846271911099
-0.024925953844246777   -0.2953067317319499   -0.008438081746263692
-0.021085757613983052   -0.2974514073381768   -0.009111190935157065
-0.02420662806419215   -0.29557758437276976   -0.008570706381037926
-0.024925953844246777   -0.2953067317319499   -0.008438081746263692
-0.023103525871572245   -0.294962288395246   -0.008320587611141827
-0.02368216219873342   -0.29509444689485365   -0.008351564028857164
-0.02420662806419215   -0.29557758437276976   -0.008570706381037926
-0.024925953844246777   -0.2953067317319499   -0.008438081746263692
-0.02368216219873342   -0.29509444689485365   -0.008351564028857164
-0.021085757613983052   -0.2974514073381768   -0.009111190935157065
-0.02420662806419215   -0.29557758437276976   -0.008570706381037926
-0.023103525871572245   -0.294962288395246   -0.008320587611141827
-0.020153838901519408   -0.2974362244647223   -0.008344846271911099
-0.02337966834117818   -0.29585994742846133   -0.00835945508598161
-0.023103525871572245   -0.294962288395246   -0.008320587611141827
-0.024925953844246777   -0.2953067317319499   -0.008438081746263692
-0.020153838901519408   -0.2974362244647223   -0.008344846271911099
-0.02426110166757232   -0.2953909367257724   -0.007978164248135697
-0.02337966834117818   -0.29585994742846133   -0.00835945508598161
-0.019152447912145217   -0.29765452798750913   -0.007576105746916694
-0.02426110166757232   -0.2953909367257724   -0.007978164248135697
-0.020153838901519408   -0.2974362244647223   -0.008344846271911099
-0.02337966834117818   -0.29585994742846133   -0.00835945508598161
-0.02426110166757232   -0.2953909367257724   -0.007978164248135697
-0.022515013559881905   -0.29504798005496474   -0.008256216726166358
-0.023103525871572245   -0.294962288395246   -0.008320587611141827
-0.02337966834117818   -0.29585994742846133   -0.00835945508598161
-0.02426110166757232   -0.2953909367257724   -0.007978164248135697
-0.023103525871572245   -0.294962288395246   -0.008320587611141827
-0.020153838901519408   -0.2974362244647223   -0.008344846271911099
-0.022092241680914695   -0.2977137227899035   -0.009880540684616435
-0.026110501036032293   -0.29576110962120233   -0.009249296568347118
-0.01842344958466528   -0.30000000000000004   -0.010545968909892942
-0.021085757613983052   -0.2974514073381768   -0.009111190935157065
-0.026110501036032293   -0.29576110962120233   -0.009249296568347118
-0.028872706998797595   -0.29545134844812226   -0.010111363990570525
-0.01842344958466528   -0.30000000000000004   -0.010545968909892942
-0.028169297092217306   -0.2951282484758357   -0.009359568609872118
-0.021085757613983052   -0.2974514073381768   -0.009111190935157065
-0.017159053550352268   -0.30000000000000004   -0.009381637116318871
-0.028169297092217306   -0.2951282484758357   -0.009359568609872118
-0.01842344958466528   -0.30000000000000004   -0.010545968909892942
-0.021085757613983052   -0.2974514073381768   -0.009111190935157065
-0.028169297092217306   -0.2951282484758357   -0.009359568609872118
-0.02557216314250659   -0.29541776316811685   -0.00886960442085096
-0.026110501036032293   -0.29576110962120233   -0.009249296568347118
-0.021085757613983052   -0.2974514073381768   -0.009111190935157065
-0.028169297092217306   -0.2951282484758357   -0.009359568609872118
-0.026110501036032293   -0.29576110962120233   -0.009249296568347118
-0.01842344958466528   -0.30000000000000004   -0.010545968909892942
-0.021085757613983052   -0.2974514073381768   -0.009111190935157065
-0.02557216314250659   -0.29541776316811685   -0.00886960442085096
-0.017159053550352268   -0.30000000000000004   -0.009381637116318871
-0.020153838901519408   -0.2974362244647223   -0.008344846271911099
-0.02557216314250659   -0.29541776316811685   -0.00886960442085096
-0.028169297092217306   -0.2951282484758357   -0.009359568609872118
-0.017159053550352268   -0.30000000000000004   -0.009381637116318871
-0.027242345922886924   -0.2950533225046805   -0.008550236367871274
-0.020153838901519408   -0.2974362244647223   -0.008344846271911099
-0.01588986108651455   -0.30000000000000004   -0.008203456060340819
-0.027242345922886924   -0.2950533225046805   -0.008550236367871274
-0.017159053550352268   -0.30000000000000004   -0.009381637116318871
-0.020153838901519408   -0.2974362244647223   -0.008344846271911099
-0.027242345922886924   -0.2950533225046805   -0.008550236367871274
-0.024925953844246777   -0.2953067317319499   -0.008438081746263692
-0.02557216314250659   -0.29541776316811685   -0.00886960442085096
-0.020153838901519408   -0.2974362244647223   -0.008344846271911099
-0.027242345922886924   -0.2950533225046805   -0.008550236367871274
-0.02557216314250659   -0.29541776316811685   -0.00886960442085096
-0.017159053550352268   -0.30000000000000004   -0.009381637116318871
-0.020153838901519408   -0.2974362244647223   -0.008344846271911099
-0.024925953844246777   -0.2953067317319499   -0.008438081746263692
-0.01588986108651455   -0.30000000000000004   -0.008203456060340819
-0.019152447912145217   -0.29765452798750913   -0.007576105746916694
-0.024925953844246777   -0.2953067317319499   -0.008438081746263692
-0.027242345922886924   -0.2950533225046805   -0.008550236367871274
-0.01588986108651455   -0.30000000000000004   -0.008203456060340819
-0.02636854542630514   -0.29517824896525857   -0.0077092557981910635
-0.019152447912145217   -0.29765452798750913   -0.007576105746916694
-0.014647673540309474   -0.30000000000000004   -0.007040746627406932
-0.02636854542630514   -0.29517824896525857   -0.0077092557981910635
-0.01588986108651455   -0.30000000000000004   -0.008203456060340819
-0.019152447912145217   -0.29765452798750913   -0.007576105746916694
-0.02636854542630514   -0.29517824896525857   -0.0077092557981910635
-0.02426110166757232   -0.2953909367257724   -0.007978164248135697
-0.024925953844246777   -0.2953067317319499   -0.008438081746263692
-0.019152447912145217   -0.29765452798750913   -0.007576105746916694
-0.02636854542630514   -0.29517824896525857   -0.0077092557981910635
-0.024925953844246777   -0.2953067317319499   -0.008438081746263692
-0.01588986108651455   -0.30000000000000004   -0.008203456060340819
-0.01842344958466528   -0.30000000000000004   -0.010545968909892942
-0.028872706998797595   -0.29545134844812226   -0.010111363990570525
-0.015775432144140854   -0.30000000000000004   -0.011351906930043483
-0.017159053550352268   -0.30000000000000004   -0.009381637116318871
-0.028872706998797595   -0.29545134844812226   -0.010111363990570525
-0.03421634074712628   -0.29400314987032033   -0.011021858400449542
-0.015775432144140854   -0.30000000000000004   -0.011351906930043483
-0.03235912507666552   -0.2937326348171508   -0.009788179342080976
-0.017159053550352268   -0.30000000000000004   -0.009381637116318871
-0.013141577265725363   -0.30000000000000004   -0.009669674210018178
-0.03235912507666552   -0.2937326348171508   -0.009788179342080976
-0.015775432144140854   -0.30000000000000004   -0.011351906930043483
-0.017159053550352268   -0.30000000000000004   -0.009381637116318871
-0.03235912507666552   -0.2937326348171508   -0.009788179342080976
-0.028169297092217306   -0.2951282484758357   -0.009359568609872118
-0.028872706998797595   -0.29545134844812226   -0.010111363990570525
-0.017159053550352268   -0.30000000000000004   -0.009381637116318871
-0.03235912507666552   -0.2937326348171508   -0.009788179342080976
-0.028872706998797595   -0.29545134844812226   -0.010111363990570525
-0.015775432144140854   -0.30000000000000004   -0.011351906930043483
-0.017159053550352268   -0.30000000000000004   -0.009381637116318871
-0.028169297092217306   -0.2951282484758357   -0.009359568609872118
-0.013141577265725363   -0.30000000000000004   -0.009669674210018178
-0.01588986108651455   -0.30000000000000004   -0.008203456060340819
-0.028169297092217306   -0.2951282484758357   -0.009359568609872118
-0.03235912507666552   -0.2937326348171508   -0.009788179342080976
-0.013141577265725363   -0.30000000000000004   -0.009669674210018178
-0.030650071972696615   -0.29369429003346104   -0.00847016266841161
-0.01588986108651455   -0.30000000000000004   -0.008203456060340819
-0.011041017442597438   -0.30000000000000004   -0.008060283719272074
-0.030650071972696615   -0.29369429003346104   -0.00847016266841161
-0.013141577265725363   -0.30000000000000004   -0.009669674210018178
-0.01588986108651455   -0.30000000000000004   -0.008203456060340819
-0.030650071972696615   -0.29369429003346104   -0.00847016266841161
-0.027242345922886924   -0.2950533225046805   -0.008550236367871274
-0.028169297092217306   -0.2951282484758357   -0.009359568609872118
-0.01588986108651455   -0.30000000000000004   -0.008203456060340819
-0.030650071972696615   -0.29369429003346104   -0.00847016266841161
-0.028169297092217306   -0.2951282484758357   -0.009359568609872118
-0.013141577265725363   -0.30000000000000004   -0.009669674210018178
-0.01588986108651455   -0.30000000000000004   -0.008203456060340819
-0.027242345922886924   -0.2950533225046805   -0.008550236367871274
-0.011041017442597438   -0.30000000000000004   -0.008060283719272074
-0.014647673540309474   -0.30000000000000004   -0.007040746627406932
-0.027242345922886924   -0.2950533225046805   -0.008550236367871274
-0.030650071972696615   -0.29369429003346104   -0.00847016266841161
-0.011041017442597438   -0.30000000000000004   -0.008060283719272074
-0.02849221235435858   -0.2940498038257043   -0.007090682620635212
-0.014647673540309474   -0.30000000000000004   -0.007040746627406932
-0.008445787751723952   -0.30000000000000004   -0.0063896641024320305
-0.02849221235435858   -0.2940498038257043   -0.007090682620635212
-0.011041017442597438   -0.30000000000000004   -0.008060283719272074
-0.014647673540309474   -0.30000000000000004   -0.007040746627406932
-0.02849221235435858   -0.2940498038257043   -0.007090682620635212
-0.02636854542630514   -0.29517824896525857   -0.0077092557981910635
-0.027242345922886924   -0.2950533225046805   -0.008550236367871274
-0.014647673540309474   -0.30000000000000004   -0.007040746627406932
-0.02849221235435858   -0.2940498038257043   -0.007090682620635212
-0.027242345922886924   -0.2950533225046805   -0.008550236367871274
-0.011041017442597438   -0.30000000000000004   -0.008060283719272074
-0.021083990136049727   -0.293599709937785   -0.006259755951344091
-0.008432754456220846   -0.28236919739144456   -0.005413868418685844
-0.022418606189254307   -0.29474351392628684   -0.007415344340673202
-0.019592138336379183   -0.2930810938035137   -0.007239226707484959
-0.008432754456220846   -0.28236919739144456   -0.005413868418685844
-0.016014347011429394   -0.28322872487708006   -0.006640435767419945
-0.022418606189254307   -0.29474351392628684   -0.007415344340673202
-0.015598207663619574   -0.2827399271992933   -0.007012870042139437
-0.019592138336379183   -0.2930810938035137   -0.007239226707484959
-0.021831840712472243   -0.29433937754722256   -0.007833928951609458
-0.015598207663619574   -0.2827399271992933   -0.007012870042139437
-0.022418606189254307   -0.29474351392628684   -0.007415344340673202
-0.019592138336379183   -0.2930810938035137   -0.007239226707484959
-0.015598207663619574   -0.2827399271992933   -0.007012870042139437
-0.0072462404698917715   -0.2817649137311977   -0.006258280939661145
-0.008432754456220846   -0.28236919739144456   -0.005413868418685844
-0.019592138336379183   -0.2930810938035137   -0.007239226707484959
-0.015598207663619574   -0.2827399271992933   -0.007012870042139437
-0.008432754456220846   -0.28236919739144456   -0.005413868418685844
-0.022418606189254307   -0.29474351392628684   -0.007415344340673202
-0.019592138336379183   -0.2930810938035137   -0.007239226707484959
-0.0072462404698917715   -0.2817649137311977   -0.006258280939661145
-0.021831840712472243   -0.29433937754722256   -0.007833928951609458
-0.018350091738107283   -0.29291841173736816   -0.008177931903149948
-0.0072462404698917715   -0.2817649137311977   -0.006258280939661145
-0.015598207663619574   -0.2827399271992933   -0.007012870042139437
-0.021831840712472243   -0.29433937754722256   -0.007833928951609458
-0.015130489810227823   -0.28246627122456747   -0.007351310465411276
-0.018350091738107283   -0.29291841173736816   -0.008177931903149948
-0.021144229144014665   -0.2941875157323244   -0.008219682464325303
-0.015130489810227823   -0.28246627122456747   -0.007351310465411276
-0.021831840712472243   -0.29433937754722256   -0.007833928951609458
-0.018350091738107283   -0.29291841173736816   -0.008177931903149948
-0.015130489810227823   -0.28246627122456747   -0.007351310465411276
-0.006312671043043233   -0.28147388890521163   -0.007052280435957122
-0.0072462404698917715   -0.2817649137311977   -0.006258280939661145
-0.018350091738107283   -0.29291841173736816   -0.008177931903149948
-0.015130489810227823   -0.28246627122456747   -0.007351310465411276
-0.0072462404698917715   -0.2817649137311977   -0.006258280939661145
-0.021831840712472243   -0.29433937754722256   -0.007833928951609458
-0.018350091738107283   -0.29291841173736816   -0.008177931903149948
-0.006312671043043233   -0.28147388890521163   -0.007052280435957122
-0.021144229144014665   -0.2941875157323244   -0.008219682464325303
-0.016946255425571325   -0.29304640568753765   -0.009071605864720625
-0.006312671043043233   -0.28147388890521163   -0.007052280435957122
-0.015130489810227823   -0.28246627122456747   -0.007351310465411276
-0.021144229144014665   -0.2941875157323244   -0.008219682464325303
-0.014771663688034817   -0.2824001479359149   -0.00765681673001129
-0.016946255425571325   -0.29304640568753765   -0.009071605864720625
-0.020554818153745612   -0.29429000207994466   -0.008570541205012473
-0.014771663688034817   -0.2824001479359149   -0.00765681673001129
-0.021144229144014665   -0.2941875157323244   -0.008219682464325303
-0.016946255425571325   -0.29304640568753765   -0.009071605864720625
-0.014771663688034817   -0.2824001479359149   -0.00765681673001129
-0.005294880247961651   -0.2814131406703804   -0.007793702403626161
-0.006312671043043233   -0.28147388890521163   -0.007052280435957122
-0.016946255425571325   -0.29304640568753765   -0.009071605864720625
-0.014771663688034817   -0.2824001479359149   -0.00765681673001129
-0.006312671043043233   -0.28147388890521163   -0.007052280435957122
-0.021144229144014665   -0.2941875157323244   -0.008219682464325303
-0.022418606189254307   -0.29474351392628684   -0.007415344340673202
-0.016014347011429394   -0.28322872487708006   -0.006640435767419945
-0.024201872584757127   -0.2954551261468221   -0.008339969842617024
-0.021831840712472243   -0.29433937754722256   -0.007833928951609458
-0.016014347011429394   -0.28322872487708006   -0.006640435767419945
-0.023485738640972004   -0.28353309509447   -0.007642143427454243
-0.024201872584757127   -0.2954551261468221   -0.008339969842617024
-0.023135361475946085   -0.28310655266250556   -0.00766334857905991
-0.021831840712472243   -0.29433937754722256   -0.007833928951609458
-0.02368216219873342   -0.29509444689485365   -0.008351564028857164
-0.023135361475946085   -0.28310655266250556   -0.00766334857905991
-0.024201872584757127   -0.2954551261468221   -0.008339969842617024
-0.021831840712472243   -0.29433937754722256   -0.007833928951609458
-0.023135361475946085   -0.28310655266250556   -0.00766334857905991
-0.015598207663619574   -0.2827399271992933   -0.007012870042139437
-0.016014347011429394   -0.28322872487708006   -0.006640435767419945
-0.021831840712472243   -0.29433937754722256   -0.007833928951609458
-0.023135361475946085   -0.28310655266250556   -0.00766334857905991
-0.016014347011429394   -0.28322872487708006   -0.006640435767419945
-0.024201872584757127   -0.2954551261468221   -0.008339969842617024
-0.021831840712472243   -0.29433937754722256   -0.007833928951609458
-0.015598207663619574   -0.2827399271992933   -0.007012870042139437
-0.02368216219873342   -0.29509444689485365   -0.008351564028857164
-0.021144229144014665   -0.2941875157323244   -0.008219682464325303
-0.015598207663619574   -0.2827399271992933   -0.007012870042139437
-0.023135361475946085   -0.28310655266250556   -0.00766334857905991
-0.02368216219873342   -0.29509444689485365   -0.008351564028857164
-0.022773061087437676   -0.2828739896829481   -0.007653082877095304
-0.021144229144014665   -0.2941875157323244   -0.008219682464325303
-0.023103525871572245   -0.294962288395246   -0.008320587611141827
-0.022773061087437676   -0.2828739896829481   -0.007653082877095304
-0.02368216219873342   -0.29509444689485365   -0.008351564028857164
-0.021144229144014665   -0.2941875157323244   -0.008219682464325303
-0.022773061087437676   -0.2828739896829481   -0.007653082877095304
-0.015130489810227823   -0.28246627122456747   -0.007351310465411276
-0.015598207663619574   -0.2827399271992933   -0.007012870042139437
-0.021144229144014665   -0.2941875157323244   -0.008219682464325303
-0.022773061087437676   -0.2828739896829481   -0.007653082877095304
-0.015598207663619574   -0.2827399271992933   -0.007012870042139437
-0.02368216219873342   -0.29509444689485365   -0.008351564028857164
-0.021144229144014665   -0.2941875157323244   -0.008219682464325303
-0.015130489810227823   -0.28246627122456747   -0.007351310465411276
-0.023103525871572245   -0.294962288395246   -0.008320587611141827
-0.020554818153745612   -0.29429000207994466   -0.008570541205012473
-0.015130489810227823   -0.28246627122456747   -0.007351310465411276
-0.022773061087437676   -0.2828739896829481   -0.007653082877095304
-0.023103525871572245   -0.294962288395246   -0.008320587611141827
-0.022423552323533748   -0.2828258639291308   -0.007610999061854611
-0.020554818153745612   -0.29429000207994466   -0.008570541205012473
-0.022515013559881905   -0.29504798005496474   -0.008256216726166358
-0.022423552323533748   -0.2828258639291308   -0.007610999061854611
-0.023103525871572245   -0.294962288395246   -0.008320587611141827
-0.020554818153745612   -0.29429000207994466   -0.008570541205012473
-0.022423552323533748   -0.2828258639291308   -0.007610999061854611
-0.014771663688034817   -0.2824001479359149   -0.00765681673001129
-0.015130489810227823   -0.28246627122456747   -0.007351310465411276
-0.020554818153745612   -0.29429000207994466   -0.008570541205012473
-0.022423552323533748   -0.2828258639291308   -0.007610999061854611
-0.015130489810227823   -0.28246627122456747   -0.007351310465411276
-0.023103525871572245   -0.294962288395246   -0.008320587611141827
-0.024201872584757127   -0.2954551261468221   -0.008339969842617024
-0.023485738640972004   -0.28353309509447   -0.007642143427454243
-0.026110501036032293   -0.29576110962120233   -0.009249296568347118
-0.02368216219873342   -0.29509444689485365   -0.008351564028857164
-0.023485738640972004   -0.28353309509447   -0.007642143427454243
-0.03090356603394233   -0.28326495105386806   -0.008579330704115184
-0.026110501036032293   -0.29576110962120233   -0.009249296568347118
-0.030555951980158008   -0.2828864066313573   -0.008263870026362627
-0.02368216219873342   -0.29509444689485365   -0.008351564028857164
-0.02557216314250659   -0.29541776316811685   -0.00886960442085096
-0.030555951980158008   -0.2828864066313573   -0.008263870026362627
-0.026110501036032293   -0.29576110962120233   -0.009249296568347118
-0.02368216219873342   -0.29509444689485365   -0.008351564028857164
-0.030555951980158008   -0.2828864066313573   -0.008263870026362627
-0.023135361475946085   -0.28310655266250556   -0.00766334857905991
-0.023485738640972004   -0.28353309509447   -0.007642143427454243
-0.02368216219873342   -0.29509444689485365   -0.008351564028857164
-0.030555951980158008   -0.2828864066313573   -0.008263870026362627
-0.023485738640972004   -0.28353309509447   -0.007642143427454243
-0.026110501036032293   -0.29576110962120233   -0.009249296568347118
-0.02368216219873342   -0.29509444689485365   -0.008351564028857164
-0.023135361475946085   -0.28310655266250556   -0.00766334857905991
-0.02557216314250659   -0.29541776316811685   -0.00886960442085096
-0.023103525871572245   -0.294962288395246   -0.008320587611141827
-0.023135361475946085   -0.28310655266250556   -0.00766334857905991
-0.030555951980158008   -0.2828864066313573   -0.008263870026362627
-0.02557216314250659   -0.29541776316811685   -0.00886960442085096
-0.030165832915314637   -0.28269852714750665   -0.007917380819240923
-0.023103525871572245   -0.294962288395246   -0.008320587611141827
-0.024925953844246777   -0.2953067317319499   -0.008438081746263692
-0.030165832915314637   -0.28269852714750665   -0.007917380819240923
-0.02557216314250659   -0.29541776316811685   -0.00886960442085096
-0.023103525871572245   -0.294962288395246   -0.008320587611141827
-0.030165832915314637   -0.28269852714750665   -0.007917380819240923
-0.022773061087437676   -0.2828739896829481   -0.007653082877095304
-0.023135361475946085   -0.28310655266250556   -0.00766334857905991
-0.023103525871572245   -0.294962288395246   -0.008320587611141827
-0.030165832915314637   -0.28269852714750665   -0.007917380819240923
-0.023135361475946085   -0.28310655266250556   -0.00766334857905991
-0.02557216314250659   -0.29541776316811685   -0.00886960442085096
-0.023103525871572245   -0.294962288395246   -0.008320587611141827
-0.022773061087437676   -0.2828739896829481   -0.007653082877095304
-0.024925953844246777   -0.2953067317319499   -0.008438081746263692
-0.022515013559881905   -0.29504798005496474   -0.008256216726166358
-0.022773061087437676   -0.2828739896829481   -0.007653082877095304
-0.030165832915314637   -0.28269852714750665   -0.007917380819240923
-0.024925953844246777   -0.2953067317319499   -0.008438081746263692
-0.029773836455169223   -0.2826826732774923   -0.0075360783723178795
-0.022515013559881905   -0.29504798005496474   -0.008256216726166358
-0.02426110166757232   -0.2953909367257724   -0.007978164248135697
-0.029773836455169223   -0.2826826732774923   -0.0075360783723178795
-0.024925953844246777   -0.2953067317319499   -0.008438081746263692
-0.022515013559881905   -0.29504798005496474   -0.008256216726166358
-0.029773836455169223   -0.2826826732774923   -0.0075360783723178795
-0.022423552323533748   -0.2828258639291308   -0.007610999061854611
-0.022773061087437676   -0.2828739896829481   -0.007653082877095304
-0.022515013559881905   -0.29504798005496474   -0.008256216726166358
-0.029773836455169223   -0.2826826732774923   -0.0075360783723178795
-0.022773061087437676   -0.2828739896829481   -0.007653082877095304
-0.024925953844246777   -0.2953067317319499   -0.008438081746263692
-0.026110501036032293   -0.29576110962120233   -0.009249296568347118
-0.03090356603394233   -0.28326495105386806   -0.008579330704115184
-0.028872706998797595   -0.29545134844812226   -0.010111363990570525
-0.02557216314250659   -0.29541776316811685   -0.00886960442085096
-0.03090356603394233   -0.28326495105386806   -0.008579330704115184
-0.03905840996422698   -0.2823883429893699   -0.009439146370133898
-0.028872706998797595   -0.29545134844812226   -0.010111363990570525
-0.03863361521025895   -0.2820581113290412   -0.008794797902441776
-0.02557216314250659   -0.29541776316811685   -0.00886960442085096
-0.028169297092217306   -0.2951282484758357   -0.009359568609872118
-0.03863361521025895   -0.2820581113290412   -0.008794797902441776
-0.028872706998797595   -0.29545134844812226   -0.010111363990570525
-0.02557216314250659   -0.29541776316811685   -0.00886960442085096
-0.03863361521025895   -0.2820581113290412   -0.008794797902441776
-0.030555951980158008   -0.2828864066313573   -0.008263870026362627
-0.03090356603394233   -0.28326495105386806   -0.008579330704115184
-0.02557216314250659   -0.29541776316811685   -0.00886960442085096
-0.03863361521025895   -0.2820581113290412   -0.008794797902441776
-0.03090356603394233   -0.28326495105386806   -0.008579330704115184
-0.028872706998797595   -0.29545134844812226   -0.010111363990570525
-0.02557216314250659   -0.29541776316811685   -0.00886960442085096
-0.030555951980158008   -0.2828864066313573   -0.008263870026362627
-0.028169297092217306   -0.2951282484758357   -0.009359568609872118
-0.024925953844246777   -0.2953067317319499   -0.008438081746263692
-0.030555951980158008   -0.2828864066313573   -0.008263870026362627
-0.03863361521025895   -0.2820581113290412   -0.008794797902441776
-0.028169297092217306   -0.2951282484758357   -0.009359568609872118
-0.038047820240822164   -0.28191473545476997   -0.008121624590766085
-0.024925953844246777   -0.2953067317319499   -0.008438081746263692
-0.027242345922886924   -0.2950533225046805   -0.008550236367871274
-0.038047820240822164   -0.28191473545476997   -0.008121624590766085
-0.028169297092217306   -0.2951282484758357   -0.009359568609872118
-0.024925953844246777   -0.2953067317319499   -0.008438081746263692
-0.038047820240822164   -0.28191473545476997   -0.008121624590766085
-0.030165832915314637   -0.28269852714750665   -0.007917380819240923
-0.030555951980158008   -0.2828864066313573   -0.008263870026362627
-0.024925953844246777   -0.2953067317319499   -0.008438081746263692
-0.038047820240822164   -0.28191473545476997   -0.008121624590766085
-0.030555951980158008   -0.2828864066313573   -0.008263870026362627
-0.028169297092217306   -0.2951282484758357   -0.009359568609872118
-0.024925953844246777   -0.2953067317319499   -0.008438081746263692
-0.030165832915314637   -0.28269852714750665   -0.007917380819240923
-0.027242345922886924   -0.2950533225046805   -0.008550236367871274
-0.02426110166757232   -0.2953909367257724   -0.007978164248135697
-0.030165832915314637   -0.28269852714750665   -0.007917380819240923
-0.038047820240822164   -0.28191473545476997   -0.008121624590766085
-0.027242345922886924   -0.2950533225046805   -0.008550236367871274
-0.0375353153215304   -0.2819585046189643   -0.007400674330882392
-0.02426110166757232   -0.2953909367257724   -0.007978164248135697
-0.02636854542630514   -0.29517824896525857   -0.0077092557981910635
-0.0375353153215304   -0.2819585046189643   -0.007400674330882392
-0.027242345922886924   -0.2950533225046805   -0.008550236367871274
-0.02426110166757232   -0.2953909367257724   -0.007978164248135697
-0.0375353153215304   -0.2819585046189643   -0.007400674330882392
-0.029773836455169223   -0.2826826732774923   -0.0075360783723178795
-0.030165832915314637   -0.28269852714750665   -0.007917380819240923
-0.02426110166757232   -0.2953909367257724   -0.007978164248135697
-0.0375353153215304   -0.2819585046189643   -0.007400674330882392
-0.030165832915314637   -0.28269852714750665   -0.007917380819240923
-0.027242345922886924   -0.2950533225046805   -0.008550236367871274
-0.028872706998797595   -0.29545134844812226   -0.010111363990570525
-0.03905840996422698   -0.2823883429893699   -0.009439146370133898
-0.03421634074712628   -0.29400314987032033   -0.011021858400449542
-0.028169297092217306   -0.2951282484758357   -0.009359568609872118
-0.03905840996422698   -0.2823883429893699   -0.009439146370133898
-0.04956097407418344   -0.28096270244159344   -0.010261242176810561
-0.03421634074712628   -0.29400314987032033   -0.011021858400449542
-0.048203422096889714   -0.2806060238329382   -0.009244263955525227
-0.028169297092217306   -0.2951282484758357   -0.009359568609872118
-0.03235912507666552   -0.2937326348171508   -0.009788179342080976
-0.048203422096889714   -0.2806060238329382   -0.009244263955525227
-0.03421634074712628   -0.29400314987032033   -0.011021858400449542
-0.028169297092217306   -0.2951282484758357   -0.009359568609872118
-0.048203422096889714   -0.2806060238329382   -0.009244263955525227
-0.03863361521025895   -0.2820581113290412   -0.008794797902441776
-0.03905840996422698   -0.2823883429893699   -0.009439146370133898
-0.028169297092217306   -0.2951282484758357   -0.009359568609872118
-0.048203422096889714   -0.2806060238329382   -0.009244263955525227
-0.03905840996422698   -0.2823883429893699   -0.009439146370133898
-0.03421634074712628   -0.29400314987032033   -0.011021858400449542
-0.028169297092217306   -0.2951282484758357   -0.009359568609872118
-0.03863361521025895   -0.2820581113290412   -0.008794797902441776
-0.03235912507666552   -0.2937326348171508   -0.009788179342080976
-0.027242345922886924   -0.2950533225046805   -0.008550236367871274
-0.03863361521025895   -0.2820581113290412   -0.008794797902441776
-0.048203422096889714   -0.2806060238329382   -0.009244263955525227
-0.03235912507666552   -0.2937326348171508   -0.009788179342080976
-0.04698439834151769   -0.2804734050468714   -0.00816700095456441
-0.027242345922886924   -0.2950533225046805   -0.008550236367871274
-0.030650071972696615   -0.29369429003346104   -0.00847016266841161
-0.04698439834151769   -0.2804734050468714   -0.00816700095456441
-0.03235912507666552   -0.2937326348171508   -0.009788179342080976
-0.027242345922886924   -0.2950533225046805   -0.008550236367871274
-0.04698439834151769   -0.2804734050468714   -0.00816700095456441
-0.038047820240822164   -0.28191473545476997   -0.008121624590766085
-0.03863361521025895   -0.2820581113290412   -0.008794797902441776
-0.027242345922886924   -0.2950533225046805   -0.008550236367871274
-0.04698439834151769   -0.2804734050468714   -0.00816700095456441
-0.03863361521025895   -0.2820581113290412   -0.008794797902441776
-0.03235912507666552   -0.2937326348171508   -0.009788179342080976
-0.027242345922886924   -0.2950533225046805   -0.008550236367871274
-0.038047820240822164   -0.28191473545476997   -0.008121624590766085
-0.030650071972696615   -0.29369429003346104   -0.00847016266841161
-0.02636854542630514   -0.29517824896525857   -0.0077092557981910635
-0.038047820240822164   -0.28191473545476997   -0.008121624590766085
-0.04698439834151769   -0.2804734050468714   -0.00816700095456441
-0.030650071972696615   -0.29369429003346104   -0.00847016266841161
-0.04540420362095511   -0.28063256236919215   -0.007039775063637186
-0.02636854542630514   -0.29517824896525857   -0.0077092557981910635
-0.02849221235435858   -0.2940498038257043   -0.007090682620635212
-0.04540420362095511   -0.28063256236919215   -0.007039775063637186
-0.030650071972696615   -0.29369429003346104   -0.00847016266841161
-0.02636854542630514   -0.29517824896525857   -0.0077092557981910635
-0.04540420362095511   -0.28063256236919215   -0.007039775063637186
-0.0375353153215304   -0.2819585046189643   -0.007400674330882392
-0.038047820240822164   -0.28191473545476997   -0.008121624590766085
-0.02636854542630514   -0.29517824896525857   -0.0077092557981910635
-0.04540420362095511   -0.28063256236919215   -0.007039775063637186
-0.038047820240822164   -0.28191473545476997   -0.008121624590766085
-0.030650071972696615   -0.29369429003346104   -0.00847016266841161
-0.008432754456220846   -0.28236919739144456   -0.005413868418685844
0.0017971389386958509   -0.26181417369286386   -0.004482691509537812
-0.016014347011429394   -0.28322872487708006   -0.006640435767419945
-0.0072462404698917715   -0.2817649137311977   -0.006258280939661145
0.0017971389386958509   -0.26181417369286386   -0.004482691509537812
-0.01094486925407119   -0.26244192223538143   -0.005686081940025723
-0.016014347011429394   -0.28322872487708006   -0.006640435767419945
-0.0107251889175189   -0.26192984787894064   -0.005980596043006056
-0.0072462404698917715   -0.2817649137311977   -0.006258280939661145
-0.015598207663619574   -0.2827399271992933   -0.007012870042139437
-0.0107251889175189   -0.26192984787894064   -0.005980596043006056
-0.016014347011429394   -0.28322872487708006   -0.006640435767419945
-0.0072462404698917715   -0.2817649137311977   -0.006258280939661145
-0.0107251889175189   -0.26192984787894064   -0.005980596043006056
0.002622116568537345   -0.2612007279268051   -0.0051527303045792215
0.0017971389386958509   -0.26181417369286386   -0.004482691509537812
-0.0072462404698917715   -0.2817649137311977   -0.006258280939661145
-0.0107251889175189   -0.26192984787894064   -0.005980596043006056
0.0017971389386958509   -0.26181417369286386   -0.004482691509537812
-0.016014347011429394   -0.28322872487708006   -0.006640435767419945
-0.0072462404698917715   -0.2817649137311977   -0.006258280939661145
0.002622116568537345   -0.2612007279268051   -0.0051527303045792215
-0.015598207663619574   -0.2827399271992933   -0.007012870042139437
-0.006312671043043233   -0.28147388890521163   -0.007052280435957122
0.002622116568537345   -0.2612007279268051   -0.0051527303045792215
-0.0107251889175189   -0.26192984787894064   -0.005980596043006056
-0.015598207663619574   -0.2827399271992933   -0.007012870042139437
-0.010475636086678654   -0.261592619524105   -0.006240364717990502
-0.006312671043043233   -0.28147388890521163   -0.007052280435957122
-0.015130489810227823   -0.28246627122456747   -0.007351310465411276
-0.010475636086678654   -0.261592619524105   -0.006240364717990502
-0.015598207663619574   -0.2827399271992933   -0.007012870042139437
-0.006312671043043233   -0.28147388890521163   -0.007052280435957122
-0.010475636086678654   -0.261592619524105   -0.006240364717990502
0.0032285923813271645   -0.26084299512195563   -0.005774140350598992
0.002622116568537345   -0.2612007279268051   -0.0051527303045792215
-0.006312671043043233   -0.28147388890521163   -0.007052280435957122
-0.010475636086678654   -0.261592619524105   -0.006240364717990502
0.002622116568537345   -0.2612007279268051   -0.0051527303045792215
-0.015598207663619574   -0.2827399271992933   -0.007012870042139437
-0.006312671043043233   -0.28147388890521163   -0.007052280435957122
0.0032285923813271645   -0.26084299512195563   -0.005774140350598992
-0.015130489810227823   -0.28246627122456747   -0.007351310465411276
-0.005294880247961651   -0.2814131406703804   -0.007793702403626161
0.0032285923813271645   -0.26084299512195563   -0.005774140350598992
-0.010475636086678654   -0.261592619524105   -0.006240364717990502
-0.015130489810227823   -0.28246627122456747   -0.007351310465411276
-0.0103265118393502   -0.26142035529853197   -0.006468814350727289
-0.005294880247961651   -0.2814131406703804   -0.007793702403626161
-0.014771663688034817   -0.2824001479359149   -0.00765681673001129
-0.0103265118393502   -0.26142035529853197   -0.006468814350727289
-0.015130489810227823   -0.28246627122456747   -0.007351310465411276
-0.005294880247961651   -0.2814131406703804   -0.007793702403626161
-0.0103265118393502   -0.26142035529853197   -0.006468814350727289
0.0038761948801671587   -0.26066173241661067   -0.006346656661706933
0.0032285923813271645   -0.26084299512195563   -0.005774140350598992
-0.005294880247961651   -0.2814131406703804   -0.007793702403626161
-0.0103265118393502   -0.26142035529853197   -0.006468814350727289
0.0032285923813271645   -0.26084299512195563   -0.005774140350598992
-0.015130489810227823   -0.28246627122456747   -0.007351310465411276
-0.016014347011429394   -0.28322872487708006   -0.006640435767419945
-0.01094486925407119   -0.26244192223538143   -0.005686081940025723
-0.023485738640972004   -0.28353309509447   -0.007642143427454243
-0.015598207663619574   -0.2827399271992933   -0.007012870042139437
-0.01094486925407119   -0.26244192223538143   -0.005686081940025723
-0.02325985567993457   -0.26256171063211464   -0.00667945450596355
-0.023485738640972004   -0.28353309509447   -0.007642143427454243
-0.023097927222727164   -0.26212169583071016   -0.006687542876886222
-0.015598207663619574   -0.2827399271992933   -0.007012870042139437
-0.023135361475946085   -0.28310655266250556   -0.00766334857905991
-0.023097927222727164   -0.26212169583071016   -0.006687542876886222
-0.023485738640972004   -0.28353309509447   -0.007642143427454243
-0.015598207663619574   -0.2827399271992933   -0.007012870042139437
-0.023097927222727164   -0.26212169583071016   -0.006687542876886222
-0.0107251889175189   -0.26192984787894064   -0.005980596043006056
-0.01094486925407119   -0.26244192223538143   -0.005686081940025723
-0.015598207663619574   -0.2827399271992933   -0.007012870042139437
-0.023097927222727164   -0.26212169583071016   -0.006687542876886222
-0.01094486925407119   -0.26244192223538143   -0.005686081940025723
-0.023485738640972004   -0.28353309509447   -0.007642143427454243
-0.015598207663619574   -0.2827399271992933   -0.007012870042139437
-0.0107251889175189   -0.26192984787894064   -0.005980596043006056
-0.023135361475946085   -0.28310655266250556   -0.00766334857905991
-0.015130489810227823   -0.28246627122456747   -0.007351310465411276
-0.0107251889175189   -0.26192984787894064   -0.005980596043006056
-0.023097927222727164   -0.26212169583071016   -0.006687542876886222
-0.023135361475946085   -0.28310655266250556   -0.00766334857905991
-0.022931496437563075   -0.26183822151730474   -0.006662367333431665
-0.015130489810227823   -0.28246627122456747   -0.007351310465411276
-0.022773061087437676   -0.2828739896829481   -0.007653082877095304
-0.022931496437563075   -0.26183822151730474   -0.006662367333431665
-0.023135361475946085   -0.28310655266250556   -0.00766334857905991
-0.015130489810227823   -0.28246627122456747   -0.007351310465411276
-0.022931496437563075   -0.26183822151730474   -0.006662367333431665
-0.010475636086678654   -0.261592619524105   -0.006240364717990502
-0.0107251889175189   -0.26192984787894064   -0.005980596043006056
-0.015130489810227823   -0.28246627122456747   -0.007351310465411276
-0.022931496437563075   -0.26183822151730474   -0.006662367333431665
-0.0107251889175189   -0.26192984787894064   -0.005980596043006056
-0.023135361475946085   -0.28310655266250556   -0.00766334857905991
-0.015130489810227823   -0.28246627122456747   -0.007351310465411276
-0.010475636086678654   -0.261592619524105   -0.006240364717990502
-0.022773061087437676   -0.2828739896829481   -0.007653082877095304
-0.014771663688034817   -0.2824001479359149   -0.00765681673001129
-0.010475636086678654   -0.261592619524105   -0.006240364717990502
-0.022931496437563075   -0.26183822151730474   -0.006662367333431665
-0.022773061087437676   -0.2828739896829481   -0.007653082877095304
-0.022785897526981257   -0.2617086315603761   -0.00660610293984267
-0.014771663688034817   -0.2824001479359149   -0.00765681673001129
-0.022423552323533748   -0.2828258639291308   -0.007610999061854611
-0.022785897526981257   -0.2617086315603761   -0.00660610293984267
-0.022773061087437676   -0.2828739896829481   -0.007653082877095304
-0.014771663688034817   -0.2824001479359149   -0.00765681673001129
-0.022785897526981257   -0.2617086315603761   -0.00660610293984267
-0.0103265118393502   -0.26142035529853197   -0.006468814350727289
-0.010475636086678654   -0.261592619524105   -0.006240364717990502
-0.014771663688034817   -0.2824001479359149   -0.00765681673001129
-0.022785897526981257   -0.2617086315603761   -0.00660610293984267
-0.010475636086678654   -0.261592619524105   -0.006240364717990502
-0.022773061087437676   -0.2828739896829481   -0.007653082877095304
-0.023485738640972004   -0.28353309509447   -0.007642143427454243
-0.02325985567993457   -0.26256171063211464   -0.00667945450596355
-0.03090356603394233   -0.28326495105386806   -0.008579330704115184
-0.023135361475946085   -0.28310655266250556   -0.00766334857905991
-0.02325985567993457   -0.26256171063211464   -0.00667945450596355
-0.03537879166075481   -0.2621706843293494   -0.007576324881546427
-0.03090356603394233   -0.28326495105386806   -0.008579330704115184
-0.035227991621346155   -0.261790891166493   -0.007304926668509632
-0.023135361475946085   -0.28310655266250556   -0.00766334857905991
-0.030555951980158008   -0.2828864066313573   -0.008263870026362627
-0.035227991621346155   -0.261790891166493   -0.007304926668509632
-0.03090356603394233   -0.28326495105386806   -0.008579330704115184
-0.023135361475946085   -0.28310655266250556   -0.00766334857905991
-0.035227991621346155   -0.261790891166493   -0.007304926668509632
-0.023097927222727164   -0.26212169583071016   -0.006687542876886222
-0.02325985567993457   -0.26256171063211464   -0.00667945450596355
-0.023135361475946085   -0.28310655266250556   -0.00766334857905991
-0.035227991621346155   -0.261790891166493   -0.007304926668509632
-0.02325985567993457   -0.26256171063211464   -0.00667945450596355
-0.03090356603394233   -0.28326495105386806   -0.008579330704115184
-0.023135361475946085   -0.28310655266250556   -0.00766334857905991
-0.023097927222727164   -0.26212169583071016   -0.006687542876886222
-0.030555951980158008   -0.2828864066313573   -0.008263870026362627
-0.022773061087437676   -0.2828739896829481   -0.007653082877095304
-0.023097927222727164   -0.26212169583071016   -0.006687542876886222
-0.035227991621346155   -0.261790891166493   -0.007304926668509632
-0.030555951980158008   -0.2828864066313573   -0.008263870026362627
-0.03504581702635141   -0.26156590373386995   -0.007000964143943716
-0.022773061087437676   -0.2828739896829481   -0.007653082877095304
-0.030165832915314637   -0.28269852714750665   -0.007917380819240923
-0.03504581702635141   -0.26156590373386995   -0.007000964143943716
-0.030555951980158008   -0.2828864066313573   -0.008263870026362627
-0.022773061087437676   -0.2828739896829481   -0.007653082877095304
-0.03504581702635141   -0.26156590373386995   -0.007000964143943716
-0.022931496437563075   -0.26183822151730474   -0.006662367333431665
-0.023097927222727164   -0.26212169583071016   -0.006687542876886222
-0.022773061087437676   -0.2828739896829481   -0.007653082877095304
-0.03504581702635141   -0.26156590373386995   -0.007000964143943716
-0.023097927222727164   -0.26212169583071016   -0.006687542876886222
-0.030555951980158008   -0.2828864066313573   -0.008263870026362627
-0.022773061087437676   -0.2828739896829481   -0.007653082877095304
-0.022931496437563075   -0.26183822151730474   -0.006662367333431665
-0.030165832915314637   -0.28269852714750665   -0.007917380819240923
-0.022423552323533748   -0.2828258639291308   -0.007610999061854611
-0.022931496437563075   -0.26183822151730474   -0.006662367333431665
-0.03504581702635141   -0.26156590373386995   -0.007000964143943716
-0.030165832915314637   -0.28269852714750665   -0.007917380819240923
-0.03486846677271535   -0.2614883903717801   -0.006665445508746109
-0.022423552323533748   -0.2828258639291308   -0.007610999061854611
-0.029773836455169223   -0.2826826732774923   -0.0075360783723178795
-0.03486846677271535   -0.2614883903717801   -0.006665445508746109
-0.030165832915314637   -0.28269852714750665   -0.007917380819240923
-0.022423552323533748   -0.2828258639291308   -0.007610999061854611
-0.03486846677271535   -0.2614883903717801   -0.006665445508746109
-0.022785897526981257   -0.2617086315603761   -0.00660610293984267
-0.022931496437563075   -0.26183822151730474   -0.006662367333431665
-0.022423552323533748   -0.2828258639291308   -0.007610999061854611
-0.03486846677271535   -0.2614883903717801   -0.006665445508746109
-0.022931496437563075   -0.26183822151730474   -0.006662367333431665
-0.030165832915314637   -0.28269852714750665   -0.007917380819240923
-0.03090356603394233   -0.28326495105386806   -0.008579330704115184
-0.03537879166075481   -0.2621706843293494   -0.007576324881546427
-0.03905840996422698   -0.2823883429893699   -0.009439146370133898
-0.030555951980158008   -0.2828864066313573   -0.008263870026362627
-0.03537879166075481   -0.2621706843293494   -0.007576324881546427
-0.04808226818253443   -0.26128304320356693   -0.008372803552355363
-0.03905840996422698   -0.2823883429893699   -0.009439146370133898
-0.04788601756330633   -0.26096098900440634   -0.00782168635565482
-0.030555951980158008   -0.2828864066313573   -0.008263870026362627
-0.03863361521025895   -0.2820581113290412   -0.008794797902441776
-0.04788601756330633   -0.26096098900440634   -0.00782168635565482
-0.03905840996422698   -0.2823883429893699   -0.009439146370133898
-0.030555951980158008   -0.2828864066313573   -0.008263870026362627
-0.04788601756330633   -0.26096098900440634   -0.00782168635565482
-0.035227991621346155   -0.261790891166493   -0.007304926668509632
-0.03537879166075481   -0.2621706843293494   -0.007576324881546427
-0.030555951980158008   -0.2828864066313573   -0.008263870026362627
-0.04788601756330633   -0.26096098900440634   -0.00782168635565482
-0.03537879166075481   -0.2621706843293494   -0.007576324881546427
-0.03905840996422698   -0.2823883429893699   -0.009439146370133898
-0.030555951980158008   -0.2828864066313573   -0.008263870026362627
-0.035227991621346155   -0.261790891166493   -0.007304926668509632
-0.03863361521025895   -0.2820581113290412   -0.008794797902441776
-0.030165832915314637   -0.28269852714750665   -0.007917380819240923
-0.035227991621346155   -0.261790891166493   -0.007304926668509632
-0.04788601756330633   -0.26096098900440634   -0.00782168635565482
-0.03863361521025895   -0.2820581113290412   -0.008794797902441776
-0.04755373453006476   -0.26078903095369915   -0.007242973994430586
-0.030165832915314637   -0.28269852714750665   -0.007917380819240923
-0.038047820240822164   -0.28191473545476997   -0.008121624590766085
-0.04755373453006476   -0.26078903095369915   -0.007242973994430586
-0.03863361521025895   -0.2820581113290412   -0.008794797902441776
-0.030165832915314637   -0.28269852714750665   -0.007917380819240923
-0.04755373453006476   -0.26078903095369915   -0.007242973994430586
-0.03504581702635141   -0.26156590373386995   -0.007000964143943716
-0.035227991621346155   -0.261790891166493   -0.007304926668509632
-0.030165832915314637   -0.28269852714750665   -0.007917380819240923
-0.04755373453006476   -0.26078903095369915   -0.007242973994430586
-0.035227991621346155   -0.261790891166493   -0.007304926668509632
-0.03863361521025895   -0.2820581113290412   -0.008794797902441776
-0.030165832915314637   -0.28269852714750665   -0.007917380819240923
-0.03504581702635141   -0.26156590373386995   -0.007000964143943716
-0.038047820240822164   -0.28191473545476997   -0.008121624590766085
-0.029773836455169223   -0.2826826732774923   -0.0075360783723178795
-0.03504581702635141   -0.26156590373386995   -0.007000964143943716
-0.04755373453006476   -0.26078903095369915   -0.007242973994430586
-0.038047820240822164   -0.28191473545476997   -0.008121624590766085
-0.04728296466562058   -0.26077609779974115   -0.006628135493712676
-0.029773836455169223   -0.2826826732774923   -0.0075360783723178795
-0.0375353153215304   -0.2819585046189643   -0.007400674330882392
-0.04728296466562058   -0.26077609779974115   -0.006628135493712676
-0.038047820240822164   -0.28191473545476997   -0.008121624590766085
-0.029773836455169223   -0.2826826732774923   -0.0075360783723178795
-0.04728296466562058   -0.26077609779974115   -0.006628135493712676
-0.03486846677271535   -0.2614883903717801   -0.006665445508746109
-0.03504581702635141   -0.26156590373386995   -0.007000964143943716
-0.029773836455169223   -0.2826826732774923   -0.0075360783723178795
-0.04728296466562058   -0.26077609779974115   -0.006628135493712676
-0.03504581702635141   -0.26156590373386995   -0.007000964143943716
-0.038047820240822164   -0.28191473545476997   -0.008121624590766085
-0.03905840996422698   -0.2823883429893699   -0.009439146370133898
-0.04808226818253443   -0.26128304320356693   -0.008372803552355363
-0.04956097407418344   -0.28096270244159344   -0.010261242176810561
-0.03863361521025895   -0.2820581113290412   -0.008794797902441776
-0.04808226818253443   -0.26128304320356693   -0.008372803552355363
-0.06289913816135338   -0.26000734237799683   -0.00911318733633941
-0.04956097407418344   -0.28096270244159344   -0.010261242176810561
-0.06190139901984468   -0.25967249671569753   -0.008251072280268215
-0.03863361521025895   -0.2820581113290412   -0.008794797902441776
-0.048203422096889714   -0.2806060238329382   -0.009244263955525227
-0.06190139901984468   -0.25967249671569753   -0.008251072280268215
-0.04956097407418344   -0.28096270244159344   -0.010261242176810561
-0.03863361521025895   -0.2820581113290412   -0.008794797902441776
-0.06190139901984468   -0.25967249671569753   -0.008251072280268215
-0.04788601756330633   -0.26096098900440634   -0.00782168635565482
-0.04808226818253443   -0.26128304320356693   -0.008372803552355363
-0.03863361521025895   -0.2820581113290412   -0.008794797902441776
-0.06190139901984468   -0.25967249671569753   -0.008251072280268215
-0.04808226818253443   -0.26128304320356693   -0.008372803552355363
-0.04956097407418344   -0.28096270244159344   -0.010261242176810561
-0.03863361521025895   -0.2820581113290412   -0.008794797902441776
-0.04788601756330633   -0.26096098900440634   -0.00782168635565482
-0.048203422096889714   -0.2806060238329382   -0.009244263955525227
-0.038047820240822164   -0.28191473545476997   -0.008121624590766085
-0.04788601756330633   -0.26096098900440634   -0.00782168635565482
-0.06190139901984468   -0.25967249671569753   -0.008251072280268215
-0.048203422096889714   -0.2806060238329382   -0.009244263955525227
-0.06103403060797508   -0.25951492736632886   -0.007343561534994192
-0.038047820240822164   -0.28191473545476997   -0.008121624590766085
-0.04698439834151769   -0.2804734050468714   -0.00816700095456441
-0.06103403060797508   -0.25951492736632886   -0.007343561534994192
-0.048203422096889714   -0.2806060238329382   -0.009244263955525227
-0.038047820240822164   -0.28191473545476997   -0.008121624590766085
-0.06103403060797508   -0.25951492736632886   -0.007343561534994192
-0.04755373453006476   -0.26078903095369915   -0.007242973994430586
-0.04788601756330633   -0.26096098900440634   -0.00782168635565482
-0.038047820240822164   -0.28191473545476997   -0.008121624590766085
-0.06103403060797508   -0.25951492736632886   -0.007343561534994192
-0.04788601756330633   -0.26096098900440634   -0.00782168635565482
-0.048203422096889714   -0.2806060238329382   -0.009244263955525227
-0.038047820240822164   -0.28191473545476997   -0.008121624590766085
-0.04755373453006476   -0.26078903095369915   -0.007242973994430586
-0.04698439834151769   -0.2804734050468714   -0.00816700095456441
-0.0375353153215304   -0.2819585046189643   -0.007400674330882392
-0.04755373453006476   -0.26078903095369915   -0.007242973994430586
-0.06103403060797508   -0.25951492736632886   -0.007343561534994192
-0.04698439834151769   -0.2804734050468714   -0.00816700095456441
-0.05986484562830376   -0.2596007645485176   -0.006396457547877124
-0.0375353153215304   -0.2819585046189643   -0.007400674330882392
-0.04540420362095511   -0.28063256236919215   -0.007039775063637186
-0.05986484562830376   -0.2596007645485176   -0.006396457547877124
-0.04698439834151769   -0.2804734050468714   -0.00816700095456441
-0.0375353153215304   -0.2819585046189643   -0.007400674330882392
-0.05986484562830376   -0.2596007645485176   -0.006396457547877124
-0.04728296466562058   -0.26077609779974115   -0.006628135493712676
-0.04755373453006476   -0.26078903095369915   -0.007242973994430586
-0.0375353153215304   -0.2819585046189643   -0.007400674330882392
-0.05986484562830376   -0.2596007645485176   -0.006396457547877124
-0.04755373453006476   -0.26078903095369915   -0.007242973994430586
-0.04698439834151769   -0.2804734050468714   -0.00816700095456441
0.0017971389386958509   -0.26181417369286386   -0.004482691509537812
0.00953350884638843   -0.23398696562483703   -0.003417532217624805
-0.01094486925407119   -0.26244192223538143   -0.005686081940025723
0.002622116568537345   -0.2612007279268051   -0.0051527303045792215
0.00953350884638843   -0.23398696562483703   -0.003417532217624805
-0.007300121614934221   -0.23439963972661826   -0.00456580192979482
-0.01094486925407119   -0.26244192223538143   -0.005686081940025723
-0.007255653511739193   -0.23389034601587677   -0.004768958920853514
0.002622116568537345   -0.2612007279268051   -0.0051527303045792215
-0.0107251889175189   -0.26192984787894064   -0.005980596043006056
-0.007255653511739193   -0.23389034601587677   -0.004768958920853514
-0.01094486925407119   -0.26244192223538143   -0.005686081940025723
0.002622116568537345   -0.2612007279268051   -0.0051527303045792215
-0.007255653511739193   -0.23389034601587677   -0.004768958920853514
0.010019695787676332   -0.2333886650638267   -0.003910882325854577
0.00953350884638843   -0.23398696562483703   -0.003417532217624805
0.002622116568537345   -0.2612007279268051   -0.0051527303045792215
-0.007255653511739193   -0.23389034601587677   -0.004768958920853514
0.00953350884638843   -0.23398696562483703   -0.003417532217624805
-0.01094486925407119   -0.26244192223538143   -0.005686081940025723
0.002622116568537345   -0.2612007279268051   -0.0051527303045792215
0.010019695787676332   -0.2333886650638267   -0.003910882325854577
-0.0107251889175189   -0.26192984787894064   -0.005980596043006056
0.0032285923813271645   -0.26084299512195563   -0.005774140350598992
0.010019695787676332   -0.2333886650638267   -0.003910882325854577
-0.007255653511739193   -0.23389034601587677   -0.004768958920853514
-0.0107251889175189   -0.26192984787894064   -0.005980596043006056
-0.007199287383490226   -0.23351847685300006   -0.004940472780068345
0.0032285923813271645   -0.26084299512195563   -0.005774140350598992
-0.010475636086678654   -0.261592619524105   -0.006240364717990502
-0.007199287383490226   -0.23351847685300006   -0.004940472780068345
-0.0107251889175189   -0.26192984787894064   -0.005980596043006056
0.0032285923813271645   -0.26084299512195563   -0.005774140350598992
-0.007199287383490226   -0.23351847685300006   -0.004940472780068345
0.010329517498832328   -0.23299289736559972   -0.004359541123155168
0.010019695787676332   -0.2333886650638267   -0.003910882325854577
0.0032285923813271645   -0.26084299512195563   -0.005774140350598992
-0.007199287383490226   -0.23351847685300006   -0.004940472780068345
0.010019695787676332   -0.2333886650638267   -0.003910882325854577
-0.0107251889175189   -0.26192984787894064   -0.005980596043006056
0.0032285923813271645   -0.26084299512195563   -0.005774140350598992
0.010329517498832328   -0.23299289736559972   -0.004359541123155168
-0.010475636086678654   -0.261592619524105   -0.006240364717990502
0.0038761948801671587   -0.26066173241661067   -0.006346656661706933
0.010329517498832328   -0.23299289736559972   -0.004359541123155168
-0.007199287383490226   -0.23351847685300006   -0.004940472780068345
-0.010475636086678654   -0.261592619524105   -0.006240364717990502
-0.0072284295007105205   -0.23327228165668173   -0.00508265591442041
0.0038761948801671587   -0.26066173241661067   -0.006346656661706933
-0.0103265118393502   -0.26142035529853197   -0.006468814350727289
-0.0072284295007105205   -0.23327228165668173   -0.00508265591442041
-0.010475636086678654   -0.261592619524105   -0.006240364717990502
0.0038761948801671587   -0.26066173241661067   -0.006346656661706933
-0.0072284295007105205   -0.23327228165668173   -0.00508265591442041
0.010646049937446512   -0.2327238088255145   -0.004764422331072729
0.010329517498832328   -0.23299289736559972   -0.004359541123155168
0.0038761948801671587   -0.26066173241661067   -0.006346656661706933
-0.0072284295007105205   -0.23327228165668173   -0.00508265591442041
0.010329517498832328   -0.23299289736559972   -0.004359541123155168
-0.010475636086678654   -0.261592619524105   -0.006240364717990502
-0.01094486925407119   -0.26244192223538143   -0.005686081940025723
-0.007300121614934221   -0.23439963972661826   -0.00456580192979482
-0.02325985567993457   -0.26256171063211464   -0.00667945450596355
-0.0107251889175189   -0.26192984787894064   -0.005980596043006056
-0.007300121614934221   -0.23439963972661826   -0.00456580192979482
-0.023489413837190064   -0.23440059949957262   -0.005515145915884454
-0.02325985567993457   -0.26256171063211464   -0.00667945450596355
-0.023492094707984208   -0.23396893815592015   -0.005496035984099785
-0.0107251889175189   -0.26192984787894064   -0.005980596043006056
-0.023097927222727164   -0.26212169583071016   -0.006687542876886222
-0.023492094707984208   -0.23396893815592015   -0.005496035984099785
-0.02325985567993457   -0.26256171063211464   -0.00667945450596355
-0.0107251889175189   -0.26192984787894064   -0.005980596043006056
-0.023492094707984208   -0.23396893815592015   -0.005496035984099785
-0.007255653511739193   -0.23389034601587677   -0.004768958920853514
-0.007300121614934221   -0.23439963972661826   -0.00456580192979482
-0.0107251889175189   -0.26192984787894064   -0.005980596043006056
-0.023492094707984208   -0.23396893815592015   -0.005496035984099785
-0.007300121614934221   -0.23439963972661826   -0.00456580192979482
-0.02325985567993457   -0.26256171063211464   -0.00667945450596355
-0.0107251889175189   -0.26192984787894064   -0.005980596043006056
-0.007255653511739193   -0.23389034601587677   -0.004768958920853514
-0.023097927222727164   -0.26212169583071016   -0.006687542876886222
-0.010475636086678654   -0.261592619524105   -0.006240364717990502
-0.007255653511739193   -0.23389034601587677   -0.004768958920853514
-0.023492094707984208   -0.23396893815592015   -0.005496035984099785
-0.023097927222727164   -0.26212169583071016   -0.006687542876886222
-0.02349372862106234   -0.23365846703977597   -0.005445434306200955
-0.010475636086678654   -0.261592619524105   -0.006240364717990502
-0.022931496437563075   -0.26183822151730474   -0.006662367333431665
-0.02349372862106234   -0.23365846703977597   -0.005445434306200955
-0.023097927222727164   -0.26212169583071016   -0.006687542876886222
-0.010475636086678654   -0.261592619524105   -0.006240364717990502
-0.02349372862106234   -0.23365846703977597   -0.005445434306200955
-0.007199287383490226   -0.23351847685300006   -0.004940472780068345
-0.007255653511739193   -0.23389034601587677   -0.004768958920853514
-0.010475636086678654   -0.261592619524105   -0.006240364717990502
-0.02349372862106234   -0.23365846703977597   -0.005445434306200955
-0.007255653511739193   -0.23389034601587677   -0.004768958920853514
-0.023097927222727164   -0.26212169583071016   -0.006687542876886222
-0.010475636086678654   -0.261592619524105   -0.006240364717990502
-0.007199287383490226   -0.23351847685300006   -0.004940472780068345
-0.022931496437563075   -0.26183822151730474   -0.006662367333431665
-0.0103265118393502   -0.26142035529853197   -0.006468814350727289
-0.007199287383490226   -0.23351847685300006   -0.004940472780068345
-0.02349372862106234   -0.23365846703977597   -0.005445434306200955
-0.022931496437563075   -0.26183822151730474   -0.006662367333431665
-0.023517077480134076   -0.23346938846757911   -0.005364937809907562
-0.0103265118393502   -0.26142035529853197   -0.006468814350727289
-0.022785897526981257   -0.2617086315603761   -0.00660610293984267
-0.023517077480134076   -0.23346938846757911   -0.005364937809907562
-0.022931496437563075   -0.26183822151730474   -0.006662367333431665
-0.0103265118393502   -0.26142035529853197   -0.006468814350727289
-0.023517077480134076   -0.23346938846757911   -0.005364937809907562
-0.0072284295007105205   -0.23327228165668173   -0.00508265591442041
-0.007199287383490226   -0.23351847685300006   -0.004940472780068345
-0.0103265118393502   -0.26142035529853197   -0.006468814350727289
-0.023517077480134076   -0.23346938846757911   -0.005364937809907562
-0.007199287383490226   -0.23351847685300006   -0.004940472780068345
-0.022931496437563075   -0.26183822151730474   -0.006662367333431665
-0.02325985567993457   -0.26256171063211464   -0.00667945450596355
-0.023489413837190064   -0.23440059949957262   -0.005515145915884454
-0.03537879166075481   -0.2621706843293494   -0.007576324881546427
-0.023097927222727164   -0.26212169583071016   -0.006687542876886222
-0.023489413837190064   -0.23440059949957262   -0.005515145915884454
-0.03940141764313126   -0.2339985742612014   -0.0063474780633347525
-0.03537879166075481   -0.2621706843293494   -0.007576324881546427
-0.039415997877940194   -0.2336353563299452   -0.006108751998145117
-0.023097927222727164   -0.26212169583071016   -0.006687542876886222
-0.035227991621346155   -0.261790891166493   -0.007304926668509632
-0.039415997877940194   -0.2336353563299452   -0.006108751998145117
-0.03537879166075481   -0.2621706843293494   -0.007576324881546427
-0.023097927222727164   -0.26212169583071016   -0.006687542876886222
-0.039415997877940194   -0.2336353563299452   -0.006108751998145117
-0.023492094707984208   -0.23396893815592015   -0.005496035984099785
-0.023489413837190064   -0.23440059949957262   -0.005515145915884454
-0.023097927222727164   -0.26212169583071016   -0.006687542876886222
-0.039415997877940194   -0.2336353563299452   -0.006108751998145117
-0.023489413837190064   -0.23440059949957262   -0.005515145915884454
-0.03537879166075481   -0.2621706843293494   -0.007576324881546427
-0.023097927222727164   -0.26212169583071016   -0.006687542876886222
-0.023492094707984208   -0.23396893815592015   -0.005496035984099785
-0.035227991621346155   -0.261790891166493   -0.007304926668509632
-0.022931496437563075   -0.26183822151730474   -0.006662367333431665
-0.023492094707984208   -0.23396893815592015   -0.005496035984099785
-0.039415997877940194   -0.2336353563299452   -0.006108751998145117
-0.035227991621346155   -0.261790891166493   -0.007304926668509632
-0.039403396055643566   -0.2333922530494294   -0.005839125982105859
-0.022931496437563075   -0.26183822151730474   -0.006662367333431665
-0.03504581702635141   -0.26156590373386995   -0.007000964143943716
-0.039403396055643566   -0.2333922530494294   -0.005839125982105859
-0.035227991621346155   -0.261790891166493   -0.007304926668509632
-0.022931496437563075   -0.26183822151730474   -0.006662367333431665
-0.039403396055643566   -0.2333922530494294   -0.005839125982105859
-0.02349372862106234   -0.23365846703977597   -0.005445434306200955
-0.023492094707984208   -0.23396893815592015   -0.005496035984099785
-0.022931496437563075   -0.26183822151730474   -0.006662367333431665
-0.039403396055643566   -0.2333922530494294   -0.005839125982105859
-0.023492094707984208   -0.23396893815592015   -0.005496035984099785
-0.035227991621346155   -0.261790891166493   -0.007304926668509632
-0.022931496437563075   -0.26183822151730474   -0.006662367333431665
-0.02349372862106234   -0.23365846703977597   -0.005445434306200955
-0.03504581702635141   -0.26156590373386995   -0.007000964143943716
-0.022785897526981257   -0.2617086315603761   -0.00660610293984267
-0.02349372862106234   -0.23365846703977597   -0.005445434306200955
-0.039403396055643566   -0.2333922530494294   -0.005839125982105859
-0.03504581702635141   -0.26156590373386995   -0.007000964143943716
-0.03939560835420546   -0.23326711862976798   -0.005539510538646213
-0.022785897526981257   -0.2617086315603761   -0.00660610293984267
-0.03486846677271535   -0.2614883903717801   -0.006665445508746109
-0.03939560835420546   -0.23326711862976798   -0.005539510538646213
-0.03504581702635141   -0.26156590373386995   -0.007000964143943716
-0.022785897526981257   -0.2617086315603761   -0.00660610293984267
-0.03939560835420546   -0.23326711862976798   -0.005539510538646213
-0.023517077480134076   -0.23346938846757911   -0.005364937809907562
-0.02349372862106234   -0.23365846703977597   -0.005445434306200955
-0.022785897526981257   -0.2617086315603761   -0.00660610293984267
-0.03939560835420546   -0.23326711862976798   -0.005539510538646213
-0.02349372862106234   -0.23365846703977597   -0.005445434306200955
-0.03504581702635141   -0.26156590373386995   -0.007000964143943716
-0.03537879166075481   -0.2621706843293494   -0.007576324881546427
-0.03940141764313126   -0.2339985742612014   -0.0063474780633347525
-0.04808226818253443   -0.26128304320356693   -0.008372803552355363
-0.035227991621346155   -0.261790891166493   -0.007304926668509632
-0.03940141764313126   -0.2339985742612014   -0.0063474780633347525
-0.05581091941263729   -0.23320907044083936   -0.007064014803067374
-0.04808226818253443   -0.26128304320356693   -0.008372803552355363
-0.05579252376937251   -0.23291159998983832   -0.006603127500994904
-0.035227991621346155   -0.261790891166493   -0.007304926668509632
-0.04788601756330633   -0.26096098900440634   -0.00782168635565482
-0.05579252376937251   -0.23291159998983832   -0.006603127500994904
-0.04808226818253443   -0.26128304320356693   -0.008372803552355363
-0.035227991621346155   -0.261790891166493   -0.007304926668509632
-0.05579252376937251   -0.23291159998983832   -0.006603127500994904
-0.039415997877940194   -0.2336353563299452   -0.006108751998145117
-0.03940141764313126   -0.2339985742612014   -0.0063474780633347525
-0.035227991621346155   -0.261790891166493   -0.007304926668509632
-0.05579252376937251   -0.23291159998983832   -0.006603127500994904
-0.03940141764313126   -0.2339985742612014   -0.0063474780633347525
-0.04808226818253443   -0.26128304320356693   -0.008372803552355363
-0.035227991621346155   -0.261790891166493   -0.007304926668509632
-0.039415997877940194   -0.2336353563299452   -0.006108751998145117
-0.04788601756330633   -0.26096098900440634   -0.00782168635565482
-0.03504581702635141   -0.26156590373386995   -0.007000964143943716
-0.039415997877940194   -0.2336353563299452   -0.006108751998145117
-0.05579252376937251   -0.23291159998983832   -0.006603127500994904
-0.04788601756330633   -0.26096098900440634   -0.00782168635565482
-0.055656189237365976   -0.2327295700983381   -0.00611598519450619
-0.03504581702635141   -0.26156590373386995   -0.007000964143943716
-0.04755373453006476   -0.26078903095369915   -0.007242973994430586
-0.055656189237365976   -0.2327295700983381   -0.00611598519450619
-0.04788601756330633   -0.26096098900440634   -0.00782168635565482
-0.03504581702635141   -0.26156590373386995   -0.007000964143943716
-0.055656189237365976   -0.2327295700983381   -0.00611598519450619
-0.039403396055643566   -0.2333922530494294   -0.005839125982105859
-0.039415997877940194   -0.2336353563299452   -0.006108751998145117
-0.03504581702635141   -0.26156590373386995   -0.007000964143943716
-0.055656189237365976   -0.2327295700983381   -0.00611598519450619
-0.039415997877940194   -0.2336353563299452   -0.006108751998145117
-0.04788601756330633   -0.26096098900440634   -0.00782168635565482
-0.03504581702635141   -0.26156590373386995   -0.007000964143943716
-0.039403396055643566   -0.2333922530494294   -0.005839125982105859
-0.04755373453006476   -0.26078903095369915   -0.007242973994430586
-0.03486846677271535   -0.2614883903717801   -0.006665445508746109
-0.039403396055643566   -0.2333922530494294   -0.005839125982105859
-0.055656189237365976   -0.2327295700983381   -0.00611598519450619
-0.04755373453006476   -0.26078903095369915   -0.007242973994430586
-0.05556477309847586   -0.23267538430468773   -0.005596464437211686
-0.03486846677271535   -0.2614883903717801   -0.006665445508746109
-0.04728296466562058   -0.26077609779974115   -0.006628135493712676
-0.05556477309847586   -0.23267538430468773   -0.005596464437211686
-0.04755373453006476   -0.26078903095369915   -0.007242973994430586
-0.03486846677271535   -0.2614883903717801   -0.006665445508746109
-0.05556477309847586   -0.23267538430468773   -0.005596464437211686
-0.03939560835420546   -0.23326711862976798   -0.005539510538646213
-0.039403396055643566   -0.2333922530494294   -0.005839125982105859
-0.03486846677271535   -0.2614883903717801   -0.006665445508746109
-0.05556477309847586   -0.23267538430468773   -0.005596464437211686
-0.039403396055643566   -0.2333922530494294   -0.005839125982105859
-0.04755373453006476   -0.26078903095369915   -0.007242973994430586
-0.04808226818253443   -0.26128304320356693   -0.008372803552355363
-0.05581091941263729   -0.23320907044083936   -0.007064014803067374
-0.06289913816135338   -0.26000734237799683   -0.00911318733633941
-0.04788601756330633   -0.26096098900440634   -0.00782168635565482
-0.05581091941263729   -0.23320907044083936   -0.007064014803067374
-0.07413949914996436   -0.23212347150584073   -0.0077088745422603045
-0.06289913816135338   -0.26000734237799683   -0.00911318733633941
-0.07346102376744745   -0.23183215552529693   -0.007004568598226742
-0.04788601756330633   -0.26096098900440634   -0.00782168635565482
-0.06190139901984468   -0.25967249671569753   -0.008251072280268215
-0.07346102376744745   -0.23183215552529693   -0.007004568598226742
-0.06289913816135338   -0.26000734237799683   -0.00911318733633941
-0.04788601756330633   -0.26096098900440634   -0.00782168635565482
-0.07346102376744745   -0.23183215552529693   -0.007004568598226742
-0.05579252376937251   -0.23291159998983832   -0.006603127500994904
-0.05581091941263729   -0.23320907044083936   -0.007064014803067374
-0.04788601756330633   -0.26096098900440634   -0.00782168635565482
-0.07346102376744745   -0.23183215552529693   -0.007004568598226742
-0.05581091941263729   -0.23320907044083936   -0.007064014803067374
-0.06289913816135338   -0.26000734237799683   -0.00911318733633941
-0.04788601756330633   -0.26096098900440634   -0.00782168635565482
-0.05579252376937251   -0.23291159998983832   -0.006603127500994904
-0.06190139901984468   -0.25967249671569753   -0.008251072280268215
-0.04755373453006476   -0.26078903095369915   -0.007242973994430586
-0.05579252376937251   -0.23291159998983832   -0.006603127500994904
-0.07346102376744745   -0.23183215552529693   -0.007004568598226742
-0.06190139901984468   -0.25967249671569753   -0.008251072280268215
-0.07287985700262554   -0.2316723641500605   -0.006256219277020085
-0.04755373453006476   -0.26078903095369915   -0.007242973994430586
-0.06103403060797508   -0.25951492736632886   -0.007343561534994192
-0.07287985700262554   -0.2316723641500605   -0.006256219277020085
-0.06190139901984468   -0.25967249671569753   -0.008251072280268215
-0.04755373453006476   -0.26078903095369915   -0.007242973994430586
-0.07287985700262554   -0.2316723641500605   -0.006256219277020085
-0.055656189237365976   -0.2327295700983381   -0.00611598519450619
-0.05579252376937251   -0.23291159998983832   -0.006603127500994904
-0.04755373453006476   -0.26078903095369915   -0.007242973994430586
-0.07287985700262554   -0.2316723641500605   -0.006256219277020085
-0.05579252376937251   -0.23291159998983832   -0.006603127500994904
-0.06190139901984468   -0.25967249671569753   -0.008251072280268215
-0.04755373453006476   -0.26078903095369915   -0.007242973994430586
-0.055656189237365976   -0.2327295700983381   -0.00611598519450619
-0.06103403060797508   -0.25951492736632886   -0.007343561534994192
-0.04728296466562058   -0.26077609779974115   -0.006628135493712676
-0.055656189237365976   -0.2327295700983381   -0.00611598519450619
-0.07287985700262554   -0.2316723641500605   -0.006256219277020085
-0.06103403060797508   -0.25951492736632886   -0.007343561534994192
-0.07203986559122763   -0.23171569633326553   -0.005469822966141462
-0.04728296466562058   -0.26077609779974115   -0.006628135493712676
-0.05986484562830376   -0.2596007645485176   -0.006396457547877124
-0.07203986559122763   -0.23171569633326553   -0.005469822966141462
-0.06103403060797508   -0.25951492736632886   -0.007343561534994192
-0.04728296466562058   -0.26077609779974115   -0.006628135493712676
-0.07203986559122763   -0.23171569633326553   -0.005469822966141462
-0.05556477309847586   -0.23267538430468773   -0.005596464437211686
-0.055656189237365976   -0.2327295700983381   -0.00611598519450619
-0.04728296466562058   -0.26077609779974115   -0.006628135493712676
-0.07203986559122763   -0.23171569633326553   -0.005469822966141462
-0.055656189237365976   -0.2327295700983381   -0.00611598519450619
-0.06103403060797508   -0.25951492736632886   -0.007343561534994192
0.00953350884638843   -0.23398696562483703   -0.003417532217624805
0.014835494251532954   -0.20058495992837425   -0.0022751439730778335
-0.007300121614934221   -0.23439963972661826   -0.00456580192979482
0.010019695787676332   -0.2333886650638267   -0.003910882325854577
0.014835494251532954   -0.20058495992837425   -0.0022751439730778335
-0.005101888011000828   -0.20078539442147905   -0.0033556891996755845
-0.007300121614934221   -0.23439963972661826   -0.00456580192979482
-0.005197980584190979   -0.2002883429357102   -0.0034640429308866387
0.010019695787676332   -0.2333886650638267   -0.003910882325854577
-0.007255653511739193   -0.23389034601587677   -0.004768958920853514
-0.005197980584190979   -0.2002883429357102   -0.0034640429308866387
-0.007300121614934221   -0.23439963972661826   -0.00456580192979482
0.010019695787676332   -0.2333886650638267   -0.003910882325854577
-0.005197980584190979   -0.2002883429357102   -0.0034640429308866387
0.015022947556181358   -0.200008568868421   -0.0025961608587723984
0.014835494251532954   -0.20058495992837425   -0.0022751439730778335
0.010019695787676332   -0.2333886650638267   -0.003910882325854577
-0.005197980584190979   -0.2002883429357102   -0.0034640429308866387
0.014835494251532954   -0.20058495992837425   -0.0022751439730778335
-0.007300121614934221   -0.23439963972661826   -0.00456580192979482
0.010019695787676332   -0.2333886650638267   -0.003910882325854577
0.015022947556181358   -0.200008568868421   -0.0025961608587723984
-0.007255653511739193   -0.23389034601587677   -0.004768958920853514
0.010329517498832328   -0.23299289736559972   -0.004359541123155168
0.015022947556181358   -0.200008568868421   -0.0025961608587723984
-0.005197980584190979   -0.2002883429357102   -0.0034640429308866387
-0.007255653511739193   -0.23389034601587677   -0.004768958920853514
-0.0052992513130366336   -0.19989267823827317   -0.0035442626944037865
0.010329517498832328   -0.23299289736559972   -0.004359541123155168
-0.007199287383490226   -0.23351847685300006   -0.004940472780068345
-0.0052992513130366336   -0.19989267823827317   -0.0035442626944037865
-0.007255653511739193   -0.23389034601587677   -0.004768958920853514
0.010329517498832328   -0.23299289736559972   -0.004359541123155168
-0.0052992513130366336   -0.19989267823827317   -0.0035442626944037865
0.015076566122373255   -0.19958544313934665   -0.002875699727318274
0.015022947556181358   -0.200008568868421   -0.0025961608587723984
0.010329517498832328   -0.23299289736559972   -0.004359541123155168
-0.0052992513130366336   -0.19989267823827317   -0.0035442626944037865
0.015022947556181358   -0.200008568868421   -0.0025961608587723984
-0.007255653511739193   -0.23389034601587677   -0.004768958920853514
0.010329517498832328   -0.23299289736559972   -0.004359541123155168
0.015076566122373255   -0.19958544313934665   -0.002875699727318274
-0.007199287383490226   -0.23351847685300006   -0.004940472780068345
0.010646049937446512   -0.2327238088255145   -0.004764422331072729
0.015076566122373255   -0.19958544313934665   -0.002875699727318274
-0.0052992513130366336   -0.19989267823827317   -0.0035442626944037865
-0.007199287383490226   -0.23351847685300006   -0.004940472780068345
-0.005469599893899278   -0.19958615554837925   -0.0035973061458684234
0.010646049937446512   -0.2327238088255145   -0.004764422331072729
-0.0072284295007105205   -0.23327228165668173   -0.00508265591442041
-0.005469599893899278   -0.19958615554837925   -0.0035973061458684234
-0.007199287383490226   -0.23351847685300006   -0.004940472780068345
0.010646049937446512   -0.2327238088255145   -0.004764422331072729
-0.005469599893899278   -0.19958615554837925   -0.0035973061458684234
0.015102916815828475   -0.1992421420211816   -0.003115709102414428
0.015076566122373255   -0.19958544313934665   -0.002875699727318274
0.010646049937446512   -0.2327238088255145   -0.004764422331072729
-0.005469599893899278   -0.19958615554837925   -0.0035973061458684234
0.015076566122373255   -0.19958544313934665   -0.002875699727318274
-0.007199287383490226   -0.23351847685300006   -0.004940472780068345
-0.007300121614934221   -0.23439963972661826   -0.00456580192979482
-0.005101888011000828   -0.20078539442147905   -0.0033556891996755845
-0.023489413837190064   -0.23440059949957262   -0.005515145915884454
-0.007255653511739193   -0.23389034601587677   -0.004768958920853514
-0.005101888011000828   -0.20078539442147905   -0.0033556891996755845
-0.02420586831901028   -0.20067901252743786   -0.004248268619924154
-0.023489413837190064   -0.23440059949957262   -0.005515145915884454
-0.024337602938837275   -0.20026254421823364   -0.00419666696809409
-0.007255653511739193   -0.23389034601587677   -0.004768958920853514
-0.023492094707984208   -0.23396893815592015   -0.005496035984099785
-0.024337602938837275   -0.20026254421823364   -0.00419666696809409
-0.023489413837190064   -0.23440059949957262   -0.005515145915884454
-0.007255653511739193   -0.23389034601587677   -0.004768958920853514
-0.024337602938837275   -0.20026254421823364   -0.00419666696809409
-0.005197980584190979   -0.2002883429357102   -0.0034640429308866387
-0.005101888011000828   -0.20078539442147905   -0.0033556891996755845
-0.007255653511739193   -0.23389034601587677   -0.004768958920853514
-0.024337602938837275   -0.20026254421823364   -0.00419666696809409
-0.005101888011000828   -0.20078539442147905   -0.0033556891996755845
-0.023489413837190064   -0.23440059949957262   -0.005515145915884454
-0.007255653511739193   -0.23389034601587677   -0.004768958920853514
-0.005197980584190979   -0.2002883429357102   -0.0034640429308866387
-0.023492094707984208   -0.23396893815592015   -0.005496035984099785
-0.007199287383490226   -0.23351847685300006   -0.004940472780068345
-0.005197980584190979   -0.2002883429357102   -0.0034640429308866387
-0.024337602938837275   -0.20026254421823364   -0.00419666696809409
-0.023492094707984208   -0.23396893815592015   -0.005496035984099785
-0.02447113222061424   -0.19993301393179821   -0.004116129267296257
-0.007199287383490226   -0.23351847685300006   -0.004940472780068345
-0.02349372862106234   -0.23365846703977597   -0.005445434306200955
-0.02447113222061424   -0.19993301393179821   -0.004116129267296257
-0.023492094707984208   -0.23396893815592015   -0.005496035984099785
-0.007199287383490226   -0.23351847685300006   -0.004940472780068345
-0.02447113222061424   -0.19993301393179821   -0.004116129267296257
-0.0052992513130366336   -0.19989267823827317   -0.0035442626944037865
-0.005197980584190979   -0.2002883429357102   -0.0034640429308866387
-0.007199287383490226   -0.23351847685300006   -0.004940472780068345
-0.02447113222061424   -0.19993301393179821   -0.004116129267296257
-0.005197980584190979   -0.2002883429357102   -0.0034640429308866387
-0.023492094707984208   -0.23396893815592015   -0.005496035984099785
-0.007199287383490226   -0.23351847685300006   -0.004940472780068345
-0.0052992513130366336   -0.19989267823827317   -0.0035442626944037865
-0.02349372862106234   -0.23365846703977597   -0.005445434306200955
-0.0072284295007105205   -0.23327228165668173   -0.00508265591442041
-0.0052992513130366336   -0.19989267823827317   -0.0035442626944037865
-0.02447113222061424   -0.19993301393179821   -0.004116129267296257
-0.02349372862106234   -0.23365846703977597   -0.005445434306200955
-0.024625228228231384   -0.19969191215236368   -0.004008016207458752
-0.0072284295007105205   -0.23327228165668173   -0.00508265591442041
-0.023517077480134076   -0.23346938846757911   -0.005364937809907562
-0.024625228228231384   -0.19969191215236368   -0.004008016207458752
-0.02349372862106234   -0.23365846703977597   -0.005445434306200955
-0.0072284295007105205   -0.23327228165668173   -0.00508265591442041
-0.024625228228231384   -0.19969191215236368   -0.004008016207458752
-0.005469599893899278   -0.19958615554837925   -0.0035973061458684234
-0.0052992513130366336   -0.19989267823827317   -0.0035442626944037865
-0.0072284295007105205   -0.23327228165668173   -0.00508265591442041
-0.024625228228231384   -0.19969191215236368   -0.004008016207458752
-0.0052992513130366336   -0.19989267823827317   -0.0035442626944037865
-0.02349372862106234   -0.23365846703977597   -0.005445434306200955
-0.023489413837190064   -0.23440059949957262   -0.005515145915884454
-0.02420586831901028   -0.20067901252743786   -0.004248268619924154
-0.03940141764313126   -0.2339985742612014   -0.0063474780633347525
-0.023492094707984208   -0.23396893815592015   -0.005496035984099785
-0.02420586831901028   -0.20067901252743786   -0.004248268619924154
-0.04298536739164109   -0.20028405240068314   -0.005013295092659709
-0.03940141764313126   -0.2339985742612014   -0.0063474780633347525
-0.04312715456655735   -0.1999410278632834   -0.004802442711099584
-0.023492094707984208   -0.23396893815592015   -0.005496035984099785
-0.039415997877940194   -0.2336353563299452   -0.006108751998145117
-0.04312715456655735   -0.1999410278632834   -0.004802442711099584
-0.03940141764313126   -0.2339985742612014   -0.0063474780633347525
-0.023492094707984208   -0.23396893815592015   -0.005496035984099785
-0.04312715456655735   -0.1999410278632834   -0.004802442711099584
-0.024337602938837275   -0.20026254421823364   -0.00419666696809409
-0.02420586831901028   -0.20067901252743786   -0.004248268619924154
-0.023492094707984208   -0.23396893815592015   -0.005496035984099785
-0.04312715456655735   -0.1999410278632834   -0.004802442711099584
-0.02420586831901028   -0.20067901252743786   -0.004248268619924154
-0.03940141764313126   -0.2339985742612014   -0.0063474780633347525
-0.023492094707984208   -0.23396893815592015   -0.005496035984099785
-0.024337602938837275   -0.20026254421823364   -0.00419666696809409
-0.039415997877940194   -0.2336353563299452   -0.006108751998145117
-0.02349372862106234   -0.23365846703977597   -0.005445434306200955
-0.024337602938837275   -0.20026254421823364   -0.00419666696809409
-0.04312715456655735   -0.1999410278632834   -0.004802442711099584
-0.039415997877940194   -0.2336353563299452   -0.006108751998145117
-0.04324486611130766   -0.19968410578160847   -0.004563149609462405
-0.02349372862106234   -0.23365846703977597   -0.005445434306200955
-0.039403396055643566   -0.2333922530494294   -0.005839125982105859
-0.04324486611130766   -0.19968410578160847   -0.004563149609462405
-0.039415997877940194   -0.2336353563299452   -0.006108751998145117
-0.02349372862106234   -0.23365846703977597   -0.005445434306200955
-0.04324486611130766   -0.19968410578160847   -0.004563149609462405
-0.02447113222061424   -0.19993301393179821   -0.004116129267296257
-0.024337602938837275   -0.20026254421823364   -0.00419666696809409
-0.02349372862106234   -0.23365846703977597   -0.005445434306200955
-0.04324486611130766   -0.19968410578160847   -0.004563149609462405
-0.024337602938837275   -0.20026254421823364   -0.00419666696809409
-0.039415997877940194   -0.2336353563299452   -0.006108751998145117
-0.02349372862106234   -0.23365846703977597   -0.005445434306200955
-0.02447113222061424   -0.19993301393179821   -0.004116129267296257
-0.039403396055643566   -0.2333922530494294   -0.005839125982105859
-0.023517077480134076   -0.23346938846757911   -0.005364937809907562
-0.02447113222061424   -0.19993301393179821   -0.004116129267296257
-0.04324486611130766   -0.19968410578160847   -0.004563149609462405
-0.039403396055643566   -0.2333922530494294   -0.005839125982105859
-0.043365921670973195   -0.19951293769768483   -0.004296264061566893
-0.023517077480134076   -0.23346938846757911   -0.005364937809907562
-0.03939560835420546   -0.23326711862976798   -0.005539510538646213
-0.043365921670973195   -0.19951293769768483   -0.004296264061566893
-0.039403396055643566   -0.2333922530494294   -0.005839125982105859
-0.023517077480134076   -0.23346938846757911   -0.005364937809907562
-0.043365921670973195   -0.19951293769768483   -0.004296264061566893
-0.024625228228231384   -0.19969191215236368   -0.004008016207458752
-0.02447113222061424   -0.19993301393179821   -0.004116129267296257
-0.023517077480134076   -0.23346938846757911   -0.005364937809907562
-0.043365921670973195   -0.19951293769768483   -0.004296264061566893
-0.02447113222061424   -0.19993301393179821   -0.004116129267296257
-0.039403396055643566   -0.2333922530494294   -0.005839125982105859
-0.03940141764313126   -0.2339985742612014   -0.0063474780633347525
-0.04298536739164109   -0.20028405240068314   -0.005013295092659709
-0.05581091941263729   -0.23320907044083936   -0.007064014803067374
-0.039415997877940194   -0.2336353563299452   -0.006108751998145117
-0.04298536739164109   -0.20028405240068314   -0.005013295092659709
-0.06221172583345977   -0.19960852076790492   -0.005653393139408474
-0.05581091941263729   -0.23320907044083936   -0.007064014803067374
-0.062329643899874033   -0.1993373971851186   -0.005281155230942242
-0.039415997877940194   -0.2336353563299452   -0.006108751998145117
-0.05579252376937251   -0.23291159998983832   -0.006603127500994904
-0.062329643899874033   -0.1993373971851186   -0.005281155230942242
-0.05581091941263729   -0.23320907044083936   -0.007064014803067374
-0.039415997877940194   -0.2336353563299452   -0.006108751998145117
-0.062329643899874033   -0.1993373971851186   -0.005281155230942242
-0.04312715456655735   -0.1999410278632834   -0.004802442711099584
-0.04298536739164109   -0.20028405240068314   -0.005013295092659709
-0.039415997877940194   -0.2336353563299452   -0.006108751998145117
-0.062329643899874033   -0.1993373971851186   -0.005281155230942242
-0.04298536739164109   -0.20028405240068314   -0.005013295092659709
-0.05581091941263729   -0.23320907044083936   -0.007064014803067374
-0.039415997877940194   -0.2336353563299452   -0.006108751998145117
-0.04312715456655735   -0.1999410278632834   -0.004802442711099584
-0.05579252376937251   -0.23291159998983832   -0.006603127500994904
-0.039403396055643566   -0.2333922530494294   -0.005839125982105859
-0.04312715456655735   -0.1999410278632834   -0.004802442711099584
-0.062329643899874033   -0.1993373971851186   -0.005281155230942242
-0.05579252376937251   -0.23291159998983832   -0.006603127500994904
-0.062346848655562385   -0.19914683995636354   -0.004884417741195907
-0.039403396055643566   -0.2333922530494294   -0.005839125982105859
-0.055656189237365976   -0.2327295700983381   -0.00611598519450619
-0.062346848655562385   -0.19914683995636354   -0.004884417741195907
-0.05579252376937251   -0.23291159998983832   -0.006603127500994904
-0.039403396055643566   -0.2333922530494294   -0.005839125982105859
-0.062346848655562385   -0.19914683995636354   -0.004884417741195907
-0.04324486611130766   -0.19968410578160847   -0.004563149609462405
-0.04312715456655735   -0.1999410278632834   -0.004802442711099584
-0.039403396055643566   -0.2333922530494294   -0.005839125982105859
-0.062346848655562385   -0.19914683995636354   -0.004884417741195907
-0.04312715456655735   -0.1999410278632834   -0.004802442711099584
-0.05579252376937251   -0.23291159998983832   -0.006603127500994904
-0.039403396055643566   -0.2333922530494294   -0.005839125982105859
-0.04324486611130766   -0.19968410578160847   -0.004563149609462405
-0.055656189237365976   -0.2327295700983381   -0.00611598519450619
-0.03939560835420546   -0.23326711862976798   -0.005539510538646213
-0.04324486611130766   -0.19968410578160847   -0.004563149609462405
-0.062346848655562385   -0.19914683995636354   -0.004884417741195907
-0.055656189237365976   -0.2327295700983381   -0.00611598519450619
-0.06239214724121718   -0.1990496965453219   -0.00445800963778233
-0.03939560835420546   -0.23326711862976798   -0.005539510538646213
-0.05556477309847586   -0.23267538430468773   -0.005596464437211686
-0.06239214724121718   -0.1990496965453219   -0.00445800963778233
-0.055656189237365976   -0.2327295700983381   -0.00611598519450619
-0.03939560835420546   -0.23326711862976798   -0.005539510538646213
-0.06239214724121718   -0.1990496965453219   -0.00445800963778233
-0.043365921670973195   -0.19951293769768483   -0.004296264061566893
-0.04324486611130766   -0.19968410578160847   -0.004563149609462405
-0.03939560835420546   -0.23326711862976798   -0.005539510538646213
-0.06239214724121718   -0.1990496965453219   -0.00445800963778233
-0.04324486611130766   -0.19968410578160847   -0.004563149609462405
-0.055656189237365976   -0.2327295700983381   -0.00611598519450619
-0.05581091941263729   -0.23320907044083936   -0.007064014803067374
-0.06221172583345977   -0.19960852076790492   -0.005653393139408474
-0.07413949914996436   -0.23212347150584073   -0.0077088745422603045
-0.05579252376937251   -0.23291159998983832   -0.006603127500994904
-0.06221172583345977   -0.19960852076790492   -0.005653393139408474
-0.08317418698153872   -0.19872484260752313   -0.006200054717938637
-0.07413949914996436   -0.23212347150584073   -0.0077088745422603045
-0.0827801918417861   -0.19847720972869445   -0.0056579325336482255
-0.05579252376937251   -0.23291159998983832   -0.006603127500994904
-0.07346102376744745   -0.23183215552529693   -0.007004568598226742
-0.0827801918417861   -0.19847720972869445   -0.0056579325336482255
-0.07413949914996436   -0.23212347150584073   -0.0077088745422603045
-0.05579252376937251   -0.23291159998983832   -0.006603127500994904
-0.0827801918417861   -0.19847720972869445   -0.0056579325336482255
-0.062329643899874033   -0.1993373971851186   -0.005281155230942242
-0.06221172583345977   -0.19960852076790492   -0.005653393139408474
-0.05579252376937251   -0.23291159998983832   -0.006603127500994904
-0.0827801918417861   -0.19847720972869445   -0.0056579325336482255
-0.06221172583345977   -0.19960852076790492   -0.005653393139408474
-0.07413949914996436   -0.23212347150584073   -0.0077088745422603045
-0.05579252376937251   -0.23291159998983832   -0.006603127500994904
-0.062329643899874033   -0.1993373971851186   -0.005281155230942242
-0.07346102376744745   -0.23183215552529693   -0.007004568598226742
-0.055656189237365976   -0.2327295700983381   -0.00611598519450619
-0.062329643899874033   -0.1993373971851186   -0.005281155230942242
-0.0827801918417861   -0.19847720972869445   -0.0056579325336482255
-0.07346102376744745   -0.23183215552529693   -0.007004568598226742
-0.08244758383966512   -0.19831474991208695   -0.005073086271097552
-0.055656189237365976   -0.2327295700983381   -0.00611598519450619
-0.07287985700262554   -0.2316723641500605   -0.006256219277020085
-0.08244758383966512   -0.19831474991208695   -0.005073086271097552
-0.07346102376744745   -0.23183215552529693   -0.007004568598226742
-0.055656189237365976   -0.2327295700983381   -0.00611598519450619
-0.08244758383966512   -0.19831474991208695   -0.005073086271097552
-0.062346848655562385   -0.19914683995636354   -0.004884417741195907
-0.062329643899874033   -0.1993373971851186   -0.005281155230942242
-0.055656189237365976   -0.2327295700983381   -0.00611598519450619
-0.08244758383966512   -0.19831474991208695   -0.005073086271097552
-0.062329643899874033   -0.1993373971851186   -0.005281155230942242
-0.07346102376744745   -0.23183215552529693   -0.007004568598226742
-0.055656189237365976   -0.2327295700983381   -0.00611598519450619
-0.062346848655562385   -0.19914683995636354   -0.004884417741195907
-0.07287985700262554   -0.2316723641500605   -0.006256219277020085
-0.05556477309847586   -0.23267538430468773   -0.005596464437211686
-0.062346848655562385   -0.19914683995636354   -0.004884417741195907
-0.08244758383966512   -0.19831474991208695   -0.005073086271097552
-0.07287985700262554   -0.2316723641500605   -0.006256219277020085
-0.08189622951364306   -0.19831141430936083   -0.0044508264614918904
-0.05556477309847586   -0.23267538430468773   -0.005596464437211686
-0.07203986559122763   -0.23171569633326553   -0.005469822966141462
-0.08189622951364306   -0.19831141430936083   -0.0044508264614918904
-0.07287985700262554   -0.2316723641500605   -0.006256219277020085
-0.05556477309847586   -0.23267538430468773   -0.005596464437211686
-0.08189622951364306   -0.19831141430936083   -0.0044508264614918904
-0.06239214724121718   -0.1990496965453219   -0.00445800963778233
-0.062346848655562385   -0.19914683995636354   -0.004884417741195907
-0.05556477309847586   -0.23267538430468773   -0.005596464437211686
-0.08189622951364306   -0.19831141430936083   -0.0044508264614918904
-0.062346848655562385   -0.19914683995636354   -0.004884417741195907
-0.07287985700262554   -0.2316723641500605   -0.006256219277020085
0.014835494251532954   -0.20058495992837425   -0.0022751439730778335
0.017749166799236906   -0.16316714132143642   -0.001154530058558717
-0.005101888011000828   -0.20078539442147905   -0.0033556891996755845
0.015022947556181358   -0.200008568868421   -0.0025961608587723984
0.017749166799236906   -0.16316714132143642   -0.001154530058558717
-0.004351963783189161   -0.16315834139491017   -0.0021574635594959857
-0.005101888011000828   -0.20078539442147905   -0.0033556891996755845
-0.0045526997860068676   -0.16267716390548095   -0.0021702104552854605
0.015022947556181358   -0.200008568868421   -0.0025961608587723984
-0.005197980584190979   -0.2002883429357102   -0.0034640429308866387
-0.0045526997860068676   -0.16267716390548095   -0.0021702104552854605
-0.005101888011000828   -0.20078539442147905   -0.0033556891996755845
0.015022947556181358   -0.200008568868421   -0.0025961608587723984
-0.0045526997860068676   -0.16267716390548095   -0.0021702104552854605
0.01767831545621897   -0.16261504823459574   -0.001305846833262918
0.017749166799236906   -0.16316714132143642   -0.001154530058558717
0.015022947556181358   -0.200008568868421   -0.0025961608587723984
-0.0045526997860068676   -0.16267716390548095   -0.0021702104552854605
0.017749166799236906   -0.16316714132143642   -0.001154530058558717
-0.005101888011000828   -0.20078539442147905   -0.0033556891996755845
0.015022947556181358   -0.200008568868421   -0.0025961608587723984
0.01767831545621897   -0.16261504823459574   -0.001305846833262918
-0.005197980584190979   -0.2002883429357102   -0.0034640429308866387
0.015076566122373255   -0.19958544313934665   -0.002875699727318274
0.01767831545621897   -0.16261504823459574   -0.001305846833262918
-0.0045526997860068676   -0.16267716390548095   -0.0021702104552854605
-0.005197980584190979   -0.2002883429357102   -0.0034640429308866387
-0.004775696797416858   -0.16226086467582942   -0.002158124091820357
0.015076566122373255   -0.19958544313934665   -0.002875699727318274
-0.0052992513130366336   -0.19989267823827317   -0.0035442626944037865
-0.004775696797416858   -0.16226086467582942   -0.002158124091820357
-0.005197980584190979   -0.2002883429357102   -0.0034640429308866387
0.015076566122373255   -0.19958544313934665   -0.002875699727318274
-0.004775696797416858   -0.16226086467582942   -0.002158124091820357
0.017513492641714788   -0.16216796076240936   -0.0014173610981149981
0.01767831545621897   -0.16261504823459574   -0.001305846833262918
0.015076566122373255   -0.19958544313934665   -0.002875699727318274
-0.004775696797416858   -0.16226086467582942   -0.002158124091820357
0.01767831545621897   -0.16261504823459574   -0.001305846833262918
-0.005197980584190979   -0.2002883429357102   -0.0034640429308866387
0.015076566122373255   -0.19958544313934665   -0.002875699727318274
0.017513492641714788   -0.16216796076240936   -0.0014173610981149981
-0.0052992513130366336   -0.19989267823827317   -0.0035442626944037865
0.015102916815828475   -0.1992421420211816   -0.003115709102414428
0.017513492641714788   -0.16216796076240936   -0.0014173610981149981
-0.004775696797416858   -0.16226086467582942   -0.002158124091820357
-0.0052992513130366336   -0.19989267823827317   -0.0035442626944037865
-0.005051392359132081   -0.16189883328729654   -0.0021202254771148735
0.015102916815828475   -0.1992421420211816   -0.003115709102414428
-0.005469599893899278   -0.19958615554837925   -0.0035973061458684234
-0.005051392359132081   -0.16189883328729654   -0.0021202254771148735
-0.0052992513130366336   -0.19989267823827317   -0.0035442626944037865
0.015102916815828475   -0.1992421420211816   -0.003115709102414428
-0.005051392359132081   -0.16189883328729654   -0.0021202254771148735
0.017284424997277587   -0.16175424317131704   -0.001491851318692866
0.017513492641714788   -0.16216796076240936   -0.0014173610981149981
0.015102916815828475   -0.1992421420211816   -0.003115709102414428
-0.005051392359132081   -0.16189883328729654   -0.0021202254771148735
0.017513492641714788   -0.16216796076240936   -0.0014173610981149981
-0.0052992513130366336   -0.19989267823827317   -0.0035442626944037865
-0.005101888011000828   -0.20078539442147905   -0.0033556891996755845
-0.004351963783189161   -0.16315834139491017   -0.0021574635594959857
-0.02420586831901028   -0.20067901252743786   -0.004248268619924154
-0.005197980584190979   -0.2002883429357102   -0.0034640429308866387
-0.004351963783189161   -0.16315834139491017   -0.0021574635594959857
-0.025429228105962834   -0.16295765314767643   -0.002988375271360198
-0.02420586831901028   -0.20067901252743786   -0.004248268619924154
-0.025652764378122007   -0.16255689322913774   -0.0029017276439991598
-0.005197980584190979   -0.2002883429357102   -0.0034640429308866387
-0.024337602938837275   -0.20026254421823364   -0.00419666696809409
-0.025652764378122007   -0.16255689322913774   -0.0029017276439991598
-0.02420586831901028   -0.20067901252743786   -0.004248268619924154
-0.005197980584190979   -0.2002883429357102   -0.0034640429308866387
-0.025652764378122007   -0.16255689322913774   -0.0029017276439991598
-0.0045526997860068676   -0.16267716390548095   -0.0021702104552854605
-0.004351963783189161   -0.16315834139491017   -0.0021574635594959857
-0.005197980584190979   -0.2002883429357102   -0.0034640429308866387
-0.025652764378122007   -0.16255689322913774   -0.0029017276439991598
-0.004351963783189161   -0.16315834139491017   -0.0021574635594959857
-0.02420586831901028   -0.20067901252743786   -0.004248268619924154
-0.005197980584190979   -0.2002883429357102   -0.0034640429308866387
-0.0045526997860068676   -0.16267716390548095   -0.0021702104552854605
-0.024337602938837275   -0.20026254421823364   -0.00419666696809409
-0.0052992513130366336   -0.19989267823827317   -0.0035442626944037865
-0.0045526997860068676   -0.16267716390548095   -0.0021702104552854605
-0.025652764378122007   -0.16255689322913774   -0.0029017276439991598
-0.024337602938837275   -0.20026254421823364   -0.00419666696809409
-0.025880723501410116   -0.16220895663280327   -0.0027892415208793605
-0.0052992513130366336   -0.19989267823827317   -0.0035442626944037865
-0.02447113222061424   -0.19993301393179821   -0.004116129267296257
-0.025880723501410116   -0.16220895663280327   -0.0027892415208793605
-0.024337602938837275   -0.20026254421823364   -0.00419666696809409
-0.0052992513130366336   -0.19989267823827317   -0.0035442626944037865
-0.025880723501410116   -0.16220895663280327   -0.0027892415208793605
-0.004775696797416858   -0.16226086467582942   -0.002158124091820357
-0.0045526997860068676   -0.16267716390548095   -0.0021702104552854605
-0.0052992513130366336   -0.19989267823827317   -0.0035442626944037865
-0.025880723501410116   -0.16220895663280327   -0.0027892415208793605
-0.0045526997860068676   -0.16267716390548095   -0.0021702104552854605
-0.024337602938837275   -0.20026254421823364   -0.00419666696809409
-0.0052992513130366336   -0.19989267823827317   -0.0035442626944037865
-0.004775696797416858   -0.16226086467582942   -0.002158124091820357
-0.02447113222061424   -0.19993301393179821   -0.004116129267296257
-0.005469599893899278   -0.19958615554837925   -0.0035973061458684234
-0.004775696797416858   -0.16226086467582942   -0.002158124091820357
-0.025880723501410116   -0.16220895663280327   -0.0027892415208793605
-0.02447113222061424   -0.19993301393179821   -0.004116129267296257
-0.026127780539193107   -0.16191704209490737   -0.0026520949248408114
-0.005469599893899278   -0.19958615554837925   -0.0035973061458684234
-0.024625228228231384   -0.19969191215236368   -0.004008016207458752
-0.026127780539193107   -0.16191704209490737   -0.0026520949248408114
-0.02447113222061424   -0.19993301393179821   -0.004116129267296257
-0.005469599893899278   -0.19958615554837925   -0.0035973061458684234
-0.026127780539193107   -0.16191704209490737   -0.0026520949248408114
-0.005051392359132081   -0.16189883328729654   -0.0021202254771148735
-0.004775696797416858   -0.16226086467582942   -0.002158124091820357
-0.005469599893899278   -0.19958615554837925   -0.0035973061458684234
-0.026127780539193107   -0.16191704209490737   -0.0026520949248408114
-0.004775696797416858   -0.16226086467582942   -0.002158124091820357
-0.02447113222061424   -0.19993301393179821   -0.004116129267296257
-0.02420586831901028   -0.20067901252743786   -0.004248268619924154
-0.025429228105962834   -0.16295765314767643   -0.002988375271360198
-0.04298536739164109   -0.20028405240068314   -0.005013295092659709
-0.024337602938837275   -0.20026254421823364   -0.00419666696809409
-0.025429228105962834   -0.16295765314767643   -0.002988375271360198
-0.046149941830698364   -0.16258600005763132   -0.0036911386000442028
-0.04298536739164109   -0.20028405240068314   -0.005013295092659709
-0.046379699764842575   -0.16225959286350022   -0.0035051757969699554
-0.024337602938837275   -0.20026254421823364   -0.00419666696809409
-0.04312715456655735   -0.1999410278632834   -0.004802442711099584
-0.046379699764842575   -0.16225959286350022   -0.0035051757969699554
-0.04298536739164109   -0.20028405240068314   -0.005013295092659709
-0.024337602938837275   -0.20026254421823364   -0.00419666696809409
-0.046379699764842575   -0.16225959286350022   -0.0035051757969699554
-0.025652764378122007   -0.16255689322913774   -0.0029017276439991598
-0.025429228105962834   -0.16295765314767643   -0.002988375271360198
-0.024337602938837275   -0.20026254421823364   -0.00419666696809409
-0.046379699764842575   -0.16225959286350022   -0.0035051757969699554
-0.025429228105962834   -0.16295765314767643   -0.002988375271360198
-0.04298536739164109   -0.20028405240068314   -0.005013295092659709
-0.024337602938837275   -0.20026254421823364   -0.00419666696809409
-0.025652764378122007   -0.16255689322913774   -0.0029017276439991598
-0.04312715456655735   -0.1999410278632834   -0.004802442711099584
-0.02447113222061424   -0.19993301393179821   -0.004116129267296257
-0.025652764378122007   -0.16255689322913774   -0.0029017276439991598
-0.046379699764842575   -0.16225959286350022   -0.0035051757969699554
-0.04312715456655735   -0.1999410278632834   -0.004802442711099584
-0.046588309698033306   -0.16198563457075396   -0.0032939659657886767
-0.02447113222061424   -0.19993301393179821   -0.004116129267296257
-0.04324486611130766   -0.19968410578160847   -0.004563149609462405
-0.046588309698033306   -0.16198563457075396   -0.0032939659657886767
-0.04312715456655735   -0.1999410278632834   -0.004802442711099584
-0.02447113222061424   -0.19993301393179821   -0.004116129267296257
-0.046588309698033306   -0.16198563457075396   -0.0032939659657886767
-0.025880723501410116   -0.16220895663280327   -0.0027892415208793605
-0.025652764378122007   -0.16255689322913774   -0.0029017276439991598
-0.02447113222061424   -0.19993301393179821   -0.004116129267296257
-0.046588309698033306   -0.16198563457075396   -0.0032939659657886767
-0.025652764378122007   -0.16255689322913774   -0.0029017276439991598
-0.04312715456655735   -0.1999410278632834   -0.004802442711099584
-0.02447113222061424   -0.19993301393179821   -0.004116129267296257
-0.025880723501410116   -0.16220895663280327   -0.0027892415208793605
-0.04324486611130766   -0.19968410578160847   -0.004563149609462405
-0.024625228228231384   -0.19969191215236368   -0.004008016207458752
-0.025880723501410116   -0.16220895663280327   -0.0027892415208793605
-0.046588309698033306   -0.16198563457075396   -0.0032939659657886767
-0.04324486611130766   -0.19968410578160847   -0.004563149609462405
-0.04679887349355892   -0.16176461235440795   -0.0030584845642337966
-0.024625228228231384   -0.19969191215236368   -0.004008016207458752
-0.043365921670973195   -0.19951293769768483   -0.004296264061566893
-0.04679887349355892   -0.16176461235440795   -0.0030584845642337966
-0.04324486611130766   -0.19968410578160847   -0.004563149609462405
-0.024625228228231384   -0.19969191215236368   -0.004008016207458752
-0.04679887349355892   -0.16176461235440795   -0.0030584845642337966
-0.026127780539193107   -0.16191704209490737   -0.0026520949248408114
-0.025880723501410116   -0.16220895663280327   -0.0027892415208793605
-0.024625228228231384   -0.19969191215236368   -0.004008016207458752
-0.04679887349355892   -0.16176461235440795   -0.0030584845642337966
-0.025880723501410116   -0.16220895663280327   -0.0027892415208793605
-0.04324486611130766   -0.19968410578160847   -0.004563149609462405
-0.04298536739164109   -0.20028405240068314   -0.005013295092659709
-0.046149941830698364   -0.16258600005763132   -0.0036911386000442028
-0.06221172583345977   -0.19960852076790492   -0.005653393139408474
-0.04312715456655735   -0.1999410278632834   -0.004802442711099584
-0.046149941830698364   -0.16258600005763132   -0.0036911386000442028
-0.06728026030099797   -0.1620354190742823   -0.004267124031849012
-0.06221172583345977   -0.19960852076790492   -0.005653393139408474
-0.06749394018955311   -0.161784094463926   -0.003981104897235455
-0.04312715456655735   -0.1999410278632834   -0.004802442711099584
-0.062329643899874033   -0.1993373971851186   -0.005281155230942242
-0.06749394018955311   -0.161784094463926   -0.003981104897235455
-0.06221172583345977   -0.19960852076790492   -0.005653393139408474
-0.04312715456655735   -0.1999410278632834   -0.004802442711099584
-0.06749394018955311   -0.161784094463926   -0.003981104897235455
-0.046379699764842575   -0.16225959286350022   -0.0035051757969699554
-0.046149941830698364   -0.16258600005763132   -0.0036911386000442028
-0.04312715456655735   -0.1999410278632834   -0.004802442711099584
-0.06749394018955311   -0.161784094463926   -0.003981104897235455
-0.046149941830698364   -0.16258600005763132   -0.0036911386000442028
-0.06221172583345977   -0.19960852076790492   -0.005653393139408474
-0.04312715456655735   -0.1999410278632834   -0.004802442711099584
-0.046379699764842575   -0.16225959286350022   -0.0035051757969699554
-0.062329643899874033   -0.1993373971851186   -0.005281155230942242
-0.04324486611130766   -0.19968410578160847   -0.004563149609462405
-0.046379699764842575   -0.16225959286350022   -0.0035051757969699554
-0.06749394018955311   -0.161784094463926   -0.003981104897235455
-0.062329643899874033   -0.1993373971851186   -0.005281155230942242
-0.06762470337488379   -0.16157825514416585   -0.0036732741650782634
-0.04324486611130766   -0.19968410578160847   -0.004563149609462405
-0.062346848655562385   -0.19914683995636354   -0.004884417741195907
-0.06762470337488379   -0.16157825514416585   -0.0036732741650782634
-0.062329643899874033   -0.1993373971851186   -0.005281155230942242
-0.04324486611130766   -0.19968410578160847   -0.004563149609462405
-0.06762470337488379   -0.16157825514416585   -0.0036732741650782634
-0.046588309698033306   -0.16198563457075396   -0.0032939659657886767
-0.046379699764842575   -0.16225959286350022   -0.0035051757969699554
-0.04324486611130766   -0.19968410578160847   -0.004563149609462405
-0.06762470337488379   -0.16157825514416585   -0.0036732741650782634
-0.046379699764842575   -0.16225959286350022   -0.0035051757969699554
-0.062329643899874033   -0.1993373971851186   -0.005281155230942242
-0.04324486611130766   -0.19968410578160847   -0.004563149609462405
-0.046588309698033306   -0.16198563457075396   -0.0032939659657886767
-0.062346848655562385   -0.19914683995636354   -0.004884417741195907
-0.043365921670973195   -0.19951293769768483   -0.004296264061566893
-0.046588309698033306   -0.16198563457075396   -0.0032939659657886767
-0.06762470337488379   -0.16157825514416585   -0.0036732741650782634
-0.062346848655562385   -0.19914683995636354   -0.004884417741195907
-0.06776763776073172   -0.16142987715830706   -0.0033391082571796135
-0.043365921670973195   -0.19951293769768483   -0.004296264061566893
-0.06239214724121718   -0.1990496965453219   -0.00445800963778233
-0.06776763776073172   -0.16142987715830706   -0.0033391082571796135
-0.062346848655562385   -0.19914683995636354   -0.004884417741195907
-0.043365921670973195   -0.19951293769768483   -0.004296264061566893
-0.06776763776073172   -0.16142987715830706   -0.0033391082571796135
-0.04679887349355892   -0.16176461235440795   -0.0030584845642337966
-0.046588309698033306   -0.16198563457075396   -0.0032939659657886767
-0.043365921670973195   -0.19951293769768483   -0.004296264061566893
-0.06776763776073172   -0.16142987715830706   -0.0033391082571796135
-0.046588309698033306   -0.16198563457075396   -0.0032939659657886767
-0.062346848655562385   -0.19914683995636354   -0.004884417741195907
-0.06221172583345977   -0.19960852076790492   -0.005653393139408474
-0.06728026030099797   -0.1620354190742823   -0.004267124031849012
-0.08317418698153872   -0.19872484260752313   -0.006200054717938637
-0.062329643899874033   -0.1993373971851186   -0.005281155230942242
-0.06728026030099797   -0.1620354190742823   -0.004267124031849012
-0.08995212371411744   -0.1613603966699756   -0.004726270962901875
-0.08317418698153872   -0.19872484260752313   -0.006200054717938637
-0.08980328839192464   -0.16114780038882456   -0.004346648001445321
-0.062329643899874033   -0.1993373971851186   -0.005281155230942242
-0.0827801918417861   -0.19847720972869445   -0.0056579325336482255
-0.08980328839192464   -0.16114780038882456   -0.004346648001445321
-0.08317418698153872   -0.19872484260752313   -0.006200054717938637
-0.062329643899874033   -0.1993373971851186   -0.005281155230942242
-0.08980328839192464   -0.16114780038882456   -0.004346648001445321
-0.06749394018955311   -0.161784094463926   -0.003981104897235455
-0.06728026030099797   -0.1620354190742823   -0.004267124031849012
-0.062329643899874033   -0.1993373971851186   -0.005281155230942242
-0.08980328839192464   -0.16114780038882456   -0.004346648001445321
-0.06728026030099797   -0.1620354190742823   -0.004267124031849012
-0.08317418698153872   -0.19872484260752313   -0.006200054717938637
-0.062329643899874033   -0.1993373971851186   -0.005281155230942242
-0.06749394018955311   -0.161784094463926   -0.003981104897235455
-0.0827801918417861   -0.19847720972869445   -0.0056579325336482255
-0.062346848655562385   -0.19914683995636354   -0.004884417741195907
-0.06749394018955311   -0.161784094463926   -0.003981104897235455
-0.08980328839192464   -0.16114780038882456   -0.004346648001445321
-0.0827801918417861   -0.19847720972869445   -0.0056579325336482255
-0.08968209845493981   -0.1609740240409174   -0.003927006890276822
-0.062346848655562385   -0.19914683995636354   -0.004884417741195907
-0.08244758383966512   -0.19831474991208695   -0.005073086271097552
-0.08968209845493981   -0.1609740240409174   -0.003927006890276822
-0.0827801918417861   -0.19847720972869445   -0.0056579325336482255
-0.062346848655562385   -0.19914683995636354   -0.004884417741195907
-0.08968209845493981   -0.1609740240409174   -0.003927006890276822
-0.06762470337488379   -0.16157825514416585   -0.0036732741650782634
-0.06749394018955311   -0.161784094463926   -0.003981104897235455
-0.062346848655562385   -0.19914683995636354   -0.004884417741195907
-0.08968209845493981   -0.1609740240409174   -0.003927006890276822
-0.06749394018955311   -0.161784094463926   -0.003981104897235455
-0.0827801918417861   -0.19847720972869445   -0.0056579325336482255
-0.062346848655562385   -0.19914683995636354   -0.004884417741195907
-0.06762470337488379   -0.16157825514416585   -0.0036732741650782634
-0.08244758383966512   -0.19831474991208695   -0.005073086271097552
-0.06239214724121718   -0.1990496965453219   -0.00445800963778233
-0.06762470337488379   -0.16157825514416585   -0.0036732741650782634
-0.08968209845493981   -0.1609740240409174   -0.003927006890276822
-0.08244758383966512   -0.19831474991208695   -0.005073086271097552
-0.08938415405753607   -0.1609123730872559   -0.003471921028054285
-0.06239214724121718   -0.1990496965453219   -0.00445800963778233
-0.08189622951364306   -0.19831141430936083   -0.0044508264614918904
-0.08938415405753607   -0.1609123730872559   -0.003471921028054285
-0.08244758383966512   -0.19831474991208695   -0.005073086271097552
-0.06239214724121718   -0.1990496965453219   -0.00445800963778233
-0.08938415405753607   -0.1609123730872559   -0.003471921028054285
-0.06776763776073172   -0.16142987715830706   -0.0033391082571796135
-0.06762470337488379   -0.16157825514416585   -0.0036732741650782634
-0.06239214724121718   -0.1990496965453219   -0.00445800963778233
-0.08938415405753607   -0.1609123730872559   -0.003471921028054285
-0.06762470337488379   -0.16157825514416585   -0.0036732741650782634
-0.08244758383966512   -0.19831474991208695   -0.005073086271097552
0.017749166799236906   -0.16316714132143642   -0.001154530058558717
0.018285151709014028   -0.12322276174200981   -0.00017221764120344622
-0.004351963783189161   -0.16315834139491017   -0.0021574635594959857
0.01767831545621897   -0.16261504823459574   -0.001305846833262918
0.018285151709014028   -0.12322276174200981   -0.00017221764120344622
-0.005039781737789434   -0.12301379443781145   -0.0010757918505104808
-0.004351963783189161   -0.16315834139491017   -0.0021574635594959857
-0.005313896148554589   -0.1225526481991288   -0.00099338305864565
0.01767831545621897   -0.16261504823459574   -0.001305846833262918
-0.0045526997860068676   -0.16267716390548095   -0.0021702104552854605
-0.005313896148554589   -0.1225526481991288   -0.00099338305864565
-0.004351963783189161   -0.16315834139491017   -0.0021574635594959857
0.01767831545621897   -0.16261504823459574   -0.001305846833262918
-0.005313896148554589   -0.1225526481991288   -0.00099338305864565
0.017990379255449163   -0.12269549027001943   -0.00015151002283988611
0.018285151709014028   -0.12322276174200981   -0.00017221764120344622
0.01767831545621897   -0.16261504823459574   -0.001305846833262918
-0.005313896148554589   -0.1225526481991288   -0.00099338305864565
0.018285151709014028   -0.12322276174200981   -0.00017221764120344622
-0.004351963783189161   -0.16315834139491017   -0.0021574635594959857
0.01767831545621897   -0.16261504823459574   -0.001305846833262918
0.017990379255449163   -0.12269549027001943   -0.00015151002283988611
-0.0045526997860068676   -0.16267716390548095   -0.0021702104552854605
0.017513492641714788   -0.16216796076240936   -0.0014173610981149981
0.017990379255449163   -0.12269549027001943   -0.00015151002283988611
-0.005313896148554589   -0.1225526481991288   -0.00099338305864565
-0.0045526997860068676   -0.16267716390548095   -0.0021702104552854605
-0.005627415921962866   -0.12211586517292876   -0.0008885584081838266
0.017513492641714788   -0.16216796076240936   -0.0014173610981149981
-0.004775696797416858   -0.16226086467582942   -0.002158124091820357
-0.005627415921962866   -0.12211586517292876   -0.0008885584081838266
-0.0045526997860068676   -0.16267716390548095   -0.0021702104552854605
0.017513492641714788   -0.16216796076240936   -0.0014173610981149981
-0.005627415921962866   -0.12211586517292876   -0.0008885584081838266
0.017631571684177554   -0.1222220051061094   -8.493149096233673e-05
0.017990379255449163   -0.12269549027001943   -0.00015151002283988611
0.017513492641714788   -0.16216796076240936   -0.0014173610981149981
-0.005627415921962866   -0.12211586517292876   -0.0008885584081838266
0.017990379255449163   -0.12269549027001943   -0.00015151002283988611
-0.0045526997860068676   -0.16267716390548095   -0.0021702104552854605
0.017513492641714788   -0.16216796076240936   -0.0014173610981149981
0.017631571684177554   -0.1222220051061094   -8.493149096233673e-05
-0.004775696797416858   -0.16226086467582942   -0.002158124091820357
0.017284424997277587   -0.16175424317131704   -0.001491851318692866
0.017631571684177554   -0.1222220051061094   -8.493149096233673e-05
-0.005627415921962866   -0.12211586517292876   -0.0008885584081838266
-0.004775696797416858   -0.16226086467582942   -0.002158124091820357
-0.005978558668481549   -0.12169754662897618   -0.000755685286863123
0.017284424997277587   -0.16175424317131704   -0.001491851318692866
-0.005051392359132081   -0.16189883328729654   -0.0021202254771148735
-0.005978558668481549   -0.12169754662897618   -0.000755685286863123
-0.004775696797416858   -0.16226086467582942   -0.002158124091820357
0.017284424997277587   -0.16175424317131704   -0.001491851318692866
-0.005978558668481549   -0.12169754662897618   -0.000755685286863123
0.01715939109187319   -0.12172554989402237   2.5420795333283797e-05
0.017631571684177554   -0.1222220051061094   -8.493149096233673e-05
0.017284424997277587   -0.16175424317131704   -0.001491851318692866
-0.005978558668481549   -0.12169754662897618   -0.000755685286863123
0.017631571684177554   -0.1222220051061094   -8.493149096233673e-05
-0.004775696797416858   -0.16226086467582942   -0.002158124091820357
-0.004351963783189161   -0.16315834139491017   -0.0021574635594959857
-0.005039781737789434   -0.12301379443781145   -0.0010757918505104808
-0.025429228105962834   -0.16295765314767643   -0.002988375271360198
-0.0045526997860068676   -0.16267716390548095   -0.0021702104552854605
-0.005039781737789434   -0.12301379443781145   -0.0010757918505104808
-0.02714238284001703   -0.12277419058579576   -0.0018437440299125388
-0.025429228105962834   -0.16295765314767643   -0.002988375271360198
-0.02742099938641387   -0.1223870525744468   -0.0017200358336521612
-0.0045526997860068676   -0.16267716390548095   -0.0021702104552854605
-0.025652764378122007   -0.16255689322913774   -0.0029017276439991598
-0.02742099938641387   -0.1223870525744468   -0.0017200358336521612
-0.025429228105962834   -0.16295765314767643   -0.002988375271360198
-0.0045526997860068676   -0.16267716390548095   -0.0021702104552854605
-0.02742099938641387   -0.1223870525744468   -0.0017200358336521612
-0.005313896148554589   -0.1225526481991288   -0.00099338305864565
-0.005039781737789434   -0.12301379443781145   -0.0010757918505104808
-0.0045526997860068676   -0.16267716390548095   -0.0021702104552854605
-0.02742099938641387   -0.1223870525744468   -0.0017200358336521612
-0.005039781737789434   -0.12301379443781145   -0.0010757918505104808
-0.025429228105962834   -0.16295765314767643   -0.002988375271360198
-0.0045526997860068676   -0.16267716390548095   -0.0021702104552854605
-0.005313896148554589   -0.1225526481991288   -0.00099338305864565
-0.025652764378122007   -0.16255689322913774   -0.0029017276439991598
-0.004775696797416858   -0.16226086467582942   -0.002158124091820357
-0.005313896148554589   -0.1225526481991288   -0.00099338305864565
-0.02742099938641387   -0.1223870525744468   -0.0017200358336521612
-0.025652764378122007   -0.16255689322913774   -0.0029017276439991598
-0.027705733629029908   -0.12201886014169658   -0.0015750218024564169
-0.004775696797416858   -0.16226086467582942   -0.002158124091820357
-0.025880723501410116   -0.16220895663280327   -0.0027892415208793605
-0.027705733629029908   -0.12201886014169658   -0.0015750218024564169
-0.025652764378122007   -0.16255689322913774   -0.0029017276439991598
-0.004775696797416858   -0.16226086467582942   -0.002158124091820357
-0.027705733629029908   -0.12201886014169658   -0.0015750218024564169
-0.005627415921962866   -0.12211586517292876   -0.0008885584081838266
-0.005313896148554589   -0.1225526481991288   -0.00099338305864565
-0.004775696797416858   -0.16226086467582942   -0.002158124091820357
-0.027705733629029908   -0.12201886014169658   -0.0015750218024564169
-0.005313896148554589   -0.1225526481991288   -0.00099338305864565
-0.025652764378122007   -0.16255689322913774   -0.0029017276439991598
-0.004775696797416858   -0.16226086467582942   -0.002158124091820357
-0.005627415921962866   -0.12211586517292876   -0.0008885584081838266
-0.025880723501410116   -0.16220895663280327   -0.0027892415208793605
-0.005051392359132081   -0.16189883328729654   -0.0021202254771148735
-0.005627415921962866   -0.12211586517292876   -0.0008885584081838266
-0.027705733629029908   -0.12201886014169658   -0.0015750218024564169
-0.025880723501410116   -0.16220895663280327   -0.0027892415208793605
-0.028008386144885666   -0.12167514261194881   -0.0014084282642933383
-0.005051392359132081   -0.16189883328729654   -0.0021202254771148735
-0.026127780539193107   -0.16191704209490737   -0.0026520949248408114
-0.028008386144885666   -0.12167514261194881   -0.0014084282642933383
-0.025880723501410116   -0.16220895663280327   -0.0027892415208793605
-0.005051392359132081   -0.16189883328729654   -0.0021202254771148735
-0.028008386144885666   -0.12167514261194881   -0.0014084282642933383
-0.005978558668481549   -0.12169754662897618   -0.000755685286863123
-0.005627415921962866   -0.12211586517292876   -0.0008885584081838266
-0.005051392359132081   -0.16189883328729654   -0.0021202254771148735
-0.028008386144885666   -0.12167514261194881   -0.0014084282642933383
-0.005627415921962866   -0.12211586517292876   -0.0008885584081838266
-0.025880723501410116   -0.16220895663280327   -0.0027892415208793605
-0.025429228105962834   -0.16295765314767643   -0.002988375271360198
-0.02714238284001703   -0.12277419058579576   -0.0018437440299125388
-0.046149941830698364   -0.16258600005763132   -0.0036911386000442028
-0.025652764378122007   -0.16255689322913774   -0.0029017276439991598
-0.02714238284001703   -0.12277419058579576   -0.0018437440299125388
-0.04888747167081186   -0.1224886701769573   -0.0024978625859254497
-0.046149941830698364   -0.16258600005763132   -0.0036911386000442028
-0.04916367596590878   -0.1221703326980594   -0.0023327279896257105
-0.025652764378122007   -0.16255689322913774   -0.0029017276439991598
-0.046379699764842575   -0.16225959286350022   -0.0035051757969699554
-0.04916367596590878   -0.1221703326980594   -0.0023327279896257105
-0.046149941830698364   -0.16258600005763132   -0.0036911386000442028
-0.025652764378122007   -0.16255689322913774   -0.0029017276439991598
-0.04916367596590878   -0.1221703326980594   -0.0023327279896257105
-0.02742099938641387   -0.1223870525744468   -0.0017200358336521612
-0.02714238284001703   -0.12277419058579576   -0.0018437440299125388
-0.025652764378122007   -0.16255689322913774   -0.0029017276439991598
-0.04916367596590878   -0.1221703326980594   -0.0023327279896257105
-0.02714238284001703   -0.12277419058579576   -0.0018437440299125388
-0.046149941830698364   -0.16258600005763132   -0.0036911386000442028
-0.025652764378122007   -0.16255689322913774   -0.0029017276439991598
-0.02742099938641387   -0.1223870525744468   -0.0017200358336521612
-0.046379699764842575   -0.16225959286350022   -0.0035051757969699554
-0.025880723501410116   -0.16220895663280327   -0.0027892415208793605
-0.02742099938641387   -0.1223870525744468   -0.0017200358336521612
-0.04916367596590878   -0.1221703326980594   -0.0023327279896257105
-0.046379699764842575   -0.16225959286350022   -0.0035051757969699554
-0.04942212241037657   -0.12187208818041148   -0.0021470186841885245
-0.025880723501410116   -0.16220895663280327   -0.0027892415208793605
-0.046588309698033306   -0.16198563457075396   -0.0032939659657886767
-0.04942212241037657   -0.12187208818041148   -0.0021470186841885245
-0.046379699764842575   -0.16225959286350022   -0.0035051757969699554
-0.025880723501410116   -0.16220895663280327   -0.0027892415208793605
-0.04942212241037657   -0.12187208818041148   -0.0021470186841885245
-0.027705733629029908   -0.12201886014169658   -0.0015750218024564169
-0.02742099938641387   -0.1223870525744468   -0.0017200358336521612
-0.025880723501410116   -0.16220895663280327   -0.0027892415208793605
-0.04942212241037657   -0.12187208818041148   -0.0021470186841885245
-0.02742099938641387   -0.1223870525744468   -0.0017200358336521612
-0.046379699764842575   -0.16225959286350022   -0.0035051757969699554
-0.025880723501410116   -0.16220895663280327   -0.0027892415208793605
-0.027705733629029908   -0.12201886014169658   -0.0015750218024564169
-0.046588309698033306   -0.16198563457075396   -0.0032939659657886767
-0.026127780539193107   -0.16191704209490737   -0.0026520949248408114
-0.027705733629029908   -0.12201886014169658   -0.0015750218024564169
-0.04942212241037657   -0.12187208818041148   -0.0021470186841885245
-0.046588309698033306   -0.16198563457075396   -0.0032939659657886767
-0.04968148960358526   -0.12159478963803651   -0.0019417666887923892
-0.026127780539193107   -0.16191704209490737   -0.0026520949248408114
-0.04679887349355892   -0.16176461235440795   -0.0030584845642337966
-0.04968148960358526   -0.12159478963803651   -0.0019417666887923892
-0.046588309698033306   -0.16198563457075396   -0.0032939659657886767
-0.026127780539193107   -0.16191704209490737   -0.0026520949248408114
-0.04968148960358526   -0.12159478963803651   -0.0019417666887923892
-0.028008386144885666   -0.12167514261194881   -0.0014084282642933383
-0.027705733629029908   -0.12201886014169658   -0.0015750218024564169
-0.026127780539193107   -0.16191704209490737   -0.0026520949248408114
-0.04968148960358526   -0.12159478963803651   -0.0019417666887923892
-0.027705733629029908   -0.12201886014169658   -0.0015750218024564169
-0.046588309698033306   -0.16198563457075396   -0.0032939659657886767
-0.046149941830698364   -0.16258600005763132   -0.0036911386000442028
-0.04888747167081186   -0.1224886701769573   -0.0024978625859254497
-0.06728026030099797   -0.1620354190742823   -0.004267124031849012
-0.046379699764842575   -0.16225959286350022   -0.0035051757969699554
-0.04888747167081186   -0.1224886701769573   -0.0024978625859254497
-0.0710240950517872   -0.1221038492435921   -0.0030325874132083484
-0.06728026030099797   -0.1620354190742823   -0.004267124031849012
-0.07128875086022483   -0.1218579221712344   -0.002826510377228261
-0.046379699764842575   -0.16225959286350022   -0.0035051757969699554
-0.06749394018955311   -0.161784094463926   -0.003981104897235455
-0.07128875086022483   -0.1218579221712344   -0.002826510377228261
-0.06728026030099797   -0.1620354190742823   -0.004267124031849012
-0.046379699764842575   -0.16225959286350022   -0.0035051757969699554
-0.07128875086022483   -0.1218579221712344   -0.002826510377228261
-0.04916367596590878   -0.1221703326980594   -0.0023327279896257105
-0.04888747167081186   -0.1224886701769573   -0.0024978625859254497
-0.046379699764842575   -0.16225959286350022   -0.0035051757969699554
-0.07128875086022483   -0.1218579221712344   -0.002826510377228261
-0.04888747167081186   -0.1224886701769573   -0.0024978625859254497
-0.06728026030099797   -0.1620354190742823   -0.004267124031849012
-0.046379699764842575   -0.16225959286350022   -0.0035051757969699554
-0.04916367596590878   -0.1221703326980594   -0.0023327279896257105
-0.06749394018955311   -0.161784094463926   -0.003981104897235455
-0.046588309698033306   -0.16198563457075396   -0.0032939659657886767
-0.04916367596590878   -0.1221703326980594   -0.0023327279896257105
-0.07128875086022483   -0.1218579221712344   -0.002826510377228261
-0.06749394018955311   -0.161784094463926   -0.003981104897235455
-0.07149030830595829   -0.12162398530815154   -0.002603314955532103
-0.046588309698033306   -0.16198563457075396   -0.0032939659657886767
-0.06762470337488379   -0.16157825514416585   -0.0036732741650782634
-0.07149030830595829   -0.12162398530815154   -0.002603314955532103
-0.06749394018955311   -0.161784094463926   -0.003981104897235455
-0.046588309698033306   -0.16198563457075396   -0.0032939659657886767
-0.07149030830595829   -0.12162398530815154   -0.002603314955532103
-0.04942212241037657   -0.12187208818041148   -0.0021470186841885245
-0.04916367596590878   -0.1221703326980594   -0.0023327279896257105
-0.046588309698033306   -0.16198563457075396   -0.0032939659657886767
-0.07149030830595829   -0.12162398530815154   -0.002603314955532103
-0.04916367596590878   -0.1221703326980594   -0.0023327279896257105
-0.06749394018955311   -0.161784094463926   -0.003981104897235455
-0.046588309698033306   -0.16198563457075396   -0.0032939659657886767
-0.04942212241037657   -0.12187208818041148   -0.0021470186841885245
-0.06762470337488379   -0.16157825514416585   -0.0036732741650782634
-0.04679887349355892   -0.16176461235440795   -0.0030584845642337966
-0.04942212241037657   -0.12187208818041148   -0.0021470186841885245
-0.07149030830595829   -0.12162398530815154   -0.002603314955532103
-0.06762470337488379   -0.16157825514416585   -0.0036732741650782634
-0.07169007737345653   -0.12141207859727615   -0.002358481566064463
-0.04679887349355892   -0.16176461235440795   -0.0030584845642337966
-0.06776763776073172   -0.16142987715830706   -0.0033391082571796135
-0.07169007737345653   -0.12141207859727615   -0.002358481566064463
-0.06762470337488379   -0.16157825514416585   -0.0036732741650782634
-0.04679887349355892   -0.16176461235440795   -0.0030584845642337966
-0.07169007737345653   -0.12141207859727615   -0.002358481566064463
-0.04968148960358526   -0.12159478963803651   -0.0019417666887923892
-0.04942212241037657   -0.12187208818041148   -0.0021470186841885245
-0.04679887349355892   -0.16176461235440795   -0.0030584845642337966
-0.07169007737345653   -0.12141207859727615   -0.002358481566064463
-0.04942212241037657   -0.12187208818041148   -0.0021470186841885245
-0.06762470337488379   -0.16157825514416585   -0.0036732741650782634
-0.06728026030099797   -0.1620354190742823   -0.004267124031849012
-0.0710240950517872   -0.1221038492435921   -0.0030325874132083484
-0.08995212371411744   -0.1613603966699756   -0.004726270962901875
-0.06749394018955311   -0.161784094463926   -0.003981104897235455
-0.0710240950517872   -0.1221038492435921   -0.0030325874132083484
-0.09447686155192965   -0.12165123389866185   -0.003431978654598086
-0.08995212371411744   -0.1613603966699756   -0.004726270962901875
-0.09452262543597047   -0.12145352149889345   -0.00320598764809789
-0.06749394018955311   -0.161784094463926   -0.003981104897235455
-0.08980328839192464   -0.16114780038882456   -0.004346648001445321
-0.09452262543597047   -0.12145352149889345   -0.00320598764809789
-0.08995212371411744   -0.1613603966699756   -0.004726270962901875
-0.06749394018955311   -0.161784094463926   -0.003981104897235455
-0.09452262543597047   -0.12145352149889345   -0.00320598764809789
-0.07128875086022483   -0.1218579221712344   -0.002826510377228261
-0.0710240950517872   -0.1221038492435921   -0.0030325874132083484
-0.06749394018955311   -0.161784094463926   -0.003981104897235455
-0.09452262543597047   -0.12145352149889345   -0.00320598764809789
-0.0710240950517872   -0.1221038492435921   -0.0030325874132083484
-0.08995212371411744   -0.1613603966699756   -0.004726270962901875
-0.06749394018955311   -0.161784094463926   -0.003981104897235455
-0.07128875086022483   -0.1218579221712344   -0.002826510377228261
-0.08980328839192464   -0.16114780038882456   -0.004346648001445321
-0.06762470337488379   -0.16157825514416585   -0.0036732741650782634
-0.07128875086022483   -0.1218579221712344   -0.002826510377228261
-0.09452262543597047   -0.12145352149889345   -0.00320598764809789
-0.08980328839192464   -0.16114780038882456   -0.004346648001445321
-0.09456877019347645   -0.12125259103477404   -0.0029454609621457077
-0.06762470337488379   -0.16157825514416585   -0.0036732741650782634
-0.08968209845493981   -0.1609740240409174   -0.003927006890276822
-0.09456877019347645   -0.12125259103477404   -0.0029454609621457077
-0.08980328839192464   -0.16114780038882456   -0.004346648001445321
-0.06762470337488379   -0.16157825514416585   -0.0036732741650782634
-0.09456877019347645   -0.12125259103477404   -0.0029454609621457077
-0.07149030830595829   -0.12162398530815154   -0.002603314955532103
-0.07128875086022483   -0.1218579221712344   -0.002826510377228261
-0.06762470337488379   -0.16157825514416585   -0.0036732741650782634
-0.09456877019347645   -0.12125259103477404   -0.0029454609621457077
-0.07128875086022483   -0.1218579221712344   -0.002826510377228261
-0.08980328839192464   -0.16114780038882456   -0.004346648001445321
-0.06762470337488379   -0.16157825514416585   -0.0036732741650782634
-0.07149030830595829   -0.12162398530815154   -0.002603314955532103
-0.08968209845493981   -0.1609740240409174   -0.003927006890276822
-0.06776763776073172   -0.16142987715830706   -0.0033391082571796135
-0.07149030830595829   -0.12162398530815154   -0.002603314955532103
-0.09456877019347645   -0.12125259103477404   -0.0029454609621457077
-0.08968209845493981   -0.1609740240409174   -0.003927006890276822
-0.09448448003343067   -0.12111595352185238   -0.0026545351864412934
-0.06776763776073172   -0.16142987715830706   -0.0033391082571796135
-0.08938415405753607   -0.1609123730872559   -0.003471921028054285
-0.09448448003343067   -0.12111595352185238   -0.0026545351864412934
-0.08968209845493981   -0.1609740240409174   -0.003927006890276822
-0.06776763776073172   -0.16142987715830706   -0.0033391082571796135
-0.09448448003343067   -0.12111595352185238   -0.0026545351864412934
-0.07169007737345653   -0.12141207859727615   -0.002358481566064463
-0.07149030830595829   -0.12162398530815154   -0.002603314955532103
-0.06776763776073172   -0.16142987715830706   -0.0033391082571796135
-0.09448448003343067   -0.12111595352185238   -0.0026545351864412934
-0.07149030830595829   -0.12162398530815154   -0.002603314955532103
-0.08968209845493981   -0.1609740240409174   -0.003927006890276822
0.018285151709014028   -0.12322276174200981   -0.00017221764120344622
0.01634886866989572   -0.08214575253656603   0.0005052079510724087
-0.005039781737789434   -0.12301379443781145   -0.0010757918505104808
0.017990379255449163   -0.12269549027001943   -0.00015151002283988611
0.01634886866989572   -0.08214575253656603   0.0005052079510724087
-0.007120638676633304   -0.08175506158430322   -0.0002166789871279638
-0.005039781737789434   -0.12301379443781145   -0.0010757918505104808
-0.007446426254469846   -0.08133659453175497   -4.719025843656498e-05
0.017990379255449163   -0.12269549027001943   -0.00015151002283988611
-0.005313896148554589   -0.1225526481991288   -0.00099338305864565
-0.007446426254469846   -0.08133659453175497   -4.719025843656498e-05
-0.005039781737789434   -0.12301379443781145   -0.0010757918505104808
0.017990379255449163   -0.12269549027001943   -0.00015151002283988611
-0.007446426254469846   -0.08133659453175497   -4.719025843656498e-05
0.015833009138465443   -0.08164262658253549   0.0007184887785549482
0.01634886866989572   -0.08214575253656603   0.0005052079510724087
0.017990379255449163   -0.12269549027001943   -0.00015151002283988611
-0.007446426254469846   -0.08133659453175497   -4.719025843656498e-05
0.01634886866989572   -0.08214575253656603   0.0005052079510724087
-0.005039781737789434   -0.12301379443781145   -0.0010757918505104808
0.017990379255449163   -0.12269549027001943   -0.00015151002283988611
0.015833009138465443   -0.08164262658253549   0.0007184887785549482
-0.005313896148554589   -0.1225526481991288   -0.00099338305864565
0.017631571684177554   -0.1222220051061094   -8.493149096233673e-05
0.015833009138465443   -0.08164262658253549   0.0007184887785549482
-0.007446426254469846   -0.08133659453175497   -4.719025843656498e-05
-0.005313896148554589   -0.1225526481991288   -0.00099338305864565
-0.007827083481321372   -0.08089434837357633   0.00015209008872356126
0.017631571684177554   -0.1222220051061094   -8.493149096233673e-05
-0.005627415921962866   -0.12211586517292876   -0.0008885584081838266
-0.007827083481321372   -0.08089434837357633   0.00015209008872356126
-0.005313896148554589   -0.1225526481991288   -0.00099338305864565
0.017631571684177554   -0.1222220051061094   -8.493149096233673e-05
-0.007827083481321372   -0.08089434837357633   0.00015209008872356126
0.01525959938712082   -0.08114154102817576   0.0010227232468562782
0.015833009138465443   -0.08164262658253549   0.0007184887785549482
0.017631571684177554   -0.1222220051061094   -8.493149096233673e-05
-0.007827083481321372   -0.08089434837357633   0.00015209008872356126
0.015833009138465443   -0.08164262658253549   0.0007184887785549482
-0.005313896148554589   -0.1225526481991288   -0.00099338305864565
0.017631571684177554   -0.1222220051061094   -8.493149096233673e-05
0.01525959938712082   -0.08114154102817576   0.0010227232468562782
-0.005627415921962866   -0.12211586517292876   -0.0008885584081838266
0.01715939109187319   -0.12172554989402237   2.5420795333283797e-05
0.01525959938712082   -0.08114154102817576   0.0010227232468562782
-0.007827083481321372   -0.08089434837357633   0.00015209008872356126
-0.005627415921962866   -0.12211586517292876   -0.0008885584081838266
-0.00822028834043706   -0.0804242436371306   0.0003806913299942511
0.01715939109187319   -0.12172554989402237   2.5420795333283797e-05
-0.005978558668481549   -0.12169754662897618   -0.000755685286863123
-0.00822028834043706   -0.0804242436371306   0.0003806913299942511
-0.005627415921962866   -0.12211586517292876   -0.0008885584081838266
0.01715939109187319   -0.12172554989402237   2.5420795333283797e-05
-0.00822028834043706   -0.0804242436371306   0.0003806913299942511
0.014559195497671758   -0.08052654123820273   0.0013571269468436984
0.01525959938712082   -0.08114154102817576   0.0010227232468562782
0.01715939109187319   -0.12172554989402237   2.5420795333283797e-05
-0.00822028834043706   -0.0804242436371306   0.0003806913299942511
0.01525959938712082   -0.08114154102817576   0.0010227232468562782
-0.005627415921962866   -0.12211586517292876   -0.0008885584081838266
-0.005039781737789434   -0.12301379443781145   -0.0010757918505104808
-0.007120638676633304   -0.08175506158430322   -0.0002166789871279638
-0.02714238284001703   -0.12277419058579576   -0.0018437440299125388
-0.005313896148554589   -0.1225526481991288   -0.00099338305864565
-0.007120638676633304   -0.08175506158430322   -0.0002166789871279638
-0.029229199008882958   -0.08165413884071746   -0.0009141741918216655
-0.02714238284001703   -0.12277419058579576   -0.0018437440299125388
-0.029522798332356655   -0.08128762075324276   -0.0007576093552789873
-0.005313896148554589   -0.1225526481991288   -0.00099338305864565
-0.02742099938641387   -0.1223870525744468   -0.0017200358336521612
-0.029522798332356655   -0.08128762075324276   -0.0007576093552789873
-0.02714238284001703   -0.12277419058579576   -0.0018437440299125388
-0.005313896148554589   -0.1225526481991288   -0.00099338305864565
-0.029522798332356655   -0.08128762075324276   -0.0007576093552789873
-0.007446426254469846   -0.08133659453175497   -4.719025843656498e-05
-0.007120638676633304   -0.08175506158430322   -0.0002166789871279638
-0.005313896148554589   -0.1225526481991288   -0.00099338305864565
-0.029522798332356655   -0.08128762075324276   -0.0007576093552789873
-0.007120638676633304   -0.08175506158430322   -0.0002166789871279638
-0.02714238284001703   -0.12277419058579576   -0.0018437440299125388
-0.005313896148554589   -0.1225526481991288   -0.00099338305864565
-0.007446426254469846   -0.08133659453175497   -4.719025843656498e-05
-0.02742099938641387   -0.1223870525744468   -0.0017200358336521612
-0.005627415921962866   -0.12211586517292876   -0.0008885584081838266
-0.007446426254469846   -0.08133659453175497   -4.719025843656498e-05
-0.029522798332356655   -0.08128762075324276   -0.0007576093552789873
-0.02742099938641387   -0.1223870525744468   -0.0017200358336521612
-0.029826289937627645   -0.08090614327486959   -0.0005857287226436388
-0.005627415921962866   -0.12211586517292876   -0.0008885584081838266
-0.027705733629029908   -0.12201886014169658   -0.0015750218024564169
-0.029826289937627645   -0.08090614327486959   -0.0005857287226436388
-0.02742099938641387   -0.1223870525744468   -0.0017200358336521612
-0.005627415921962866   -0.12211586517292876   -0.0008885584081838266
-0.029826289937627645   -0.08090614327486959   -0.0005857287226436388
-0.007827083481321372   -0.08089434837357633   0.00015209008872356126
-0.007446426254469846   -0.08133659453175497   -4.719025843656498e-05
-0.005627415921962866   -0.12211586517292876   -0.0008885584081838266
-0.029826289937627645   -0.08090614327486959   -0.0005857287226436388
-0.007446426254469846   -0.08133659453175497   -4.719025843656498e-05
-0.02742099938641387   -0.1223870525744468   -0.0017200358336521612
-0.005627415921962866   -0.12211586517292876   -0.0008885584081838266
-0.007827083481321372   -0.08089434837357633   0.00015209008872356126
-0.027705733629029908   -0.12201886014169658   -0.0015750218024564169
-0.005978558668481549   -0.12169754662897618   -0.000755685286863123
-0.007827083481321372   -0.08089434837357633   0.00015209008872356126
-0.029826289937627645   -0.08090614327486959   -0.0005857287226436388
-0.027705733629029908   -0.12201886014169658   -0.0015750218024564169
-0.030142025849124798   -0.08051621988251215   -0.0003954216589787737
-0.005978558668481549   -0.12169754662897618   -0.000755685286863123
-0.028008386144885666   -0.12167514261194881   -0.0014084282642933383
-0.030142025849124798   -0.08051621988251215   -0.0003954216589787737
-0.027705733629029908   -0.12201886014169658   -0.0015750218024564169
-0.005978558668481549   -0.12169754662897618   -0.000755685286863123
-0.030142025849124798   -0.08051621988251215   -0.0003954216589787737
-0.00822028834043706   -0.0804242436371306   0.0003806913299942511
-0.007827083481321372   -0.08089434837357633   0.00015209008872356126
-0.005978558668481549   -0.12169754662897618   -0.000755685286863123
-0.030142025849124798   -0.08051621988251215   -0.0003954216589787737
-0.007827083481321372   -0.08089434837357633   0.00015209008872356126
-0.027705733629029908   -0.12201886014169658   -0.0015750218024564169
-0.02714238284001703   -0.12277419058579576   -0.0018437440299125388
-0.029229199008882958   -0.08165413884071746   -0.0009141741918216655
-0.04888747167081186   -0.1224886701769573   -0.0024978625859254497
-0.02742099938641387   -0.1223870525744468   -0.0017200358336521612
-0.029229199008882958   -0.08165413884071746   -0.0009141741918216655
-0.05111671272405556   -0.08162634994202081   -0.0015456838789087996
-0.04888747167081186   -0.1224886701769573   -0.0024978625859254497
-0.0513969572105449   -0.08130404170880438   -0.0013972925538070103
-0.02742099938641387   -0.1223870525744468   -0.0017200358336521612
-0.04916367596590878   -0.1221703326980594   -0.0023327279896257105
-0.0513969572105449   -0.08130404170880438   -0.0013972925538070103
-0.04888747167081186   -0.1224886701769573   -0.0024978625859254497
-0.02742099938641387   -0.1223870525744468   -0.0017200358336521612
-0.0513969572105449   -0.08130404170880438   -0.0013972925538070103
-0.029522798332356655   -0.08128762075324276   -0.0007576093552789873
-0.029229199008882958   -0.08165413884071746   -0.0009141741918216655
-0.02742099938641387   -0.1223870525744468   -0.0017200358336521612
-0.0513969572105449   -0.08130404170880438   -0.0013972925538070103
-0.029229199008882958   -0.08165413884071746   -0.0009141741918216655
-0.04888747167081186   -0.1224886701769573   -0.0024978625859254497
-0.02742099938641387   -0.1223870525744468   -0.0017200358336521612
-0.029522798332356655   -0.08128762075324276   -0.0007576093552789873
-0.04916367596590878   -0.1221703326980594   -0.0023327279896257105
-0.027705733629029908   -0.12201886014169658   -0.0015750218024564169
-0.029522798332356655   -0.08128762075324276   -0.0007576093552789873
-0.0513969572105449   -0.08130404170880438   -0.0013972925538070103
-0.04916367596590878   -0.1221703326980594   -0.0023327279896257105
-0.05166389411735164   -0.0809755289439753   -0.0012355454563414217
-0.027705733629029908   -0.12201886014169658   -0.0015750218024564169
-0.04942212241037657   -0.12187208818041148   -0.0021470186841885245
-0.05166389411735164   -0.0809755289439753   -0.0012355454563414217
-0.04916367596590878   -0.1221703326980594   -0.0023327279896257105
-0.027705733629029908   -0.12201886014169658   -0.0015750218024564169
-0.05166389411735164   -0.0809755289439753   -0.0012355454563414217
-0.029826289937627645   -0.08090614327486959   -0.0005857287226436388
-0.029522798332356655   -0.08128762075324276   -0.0007576093552789873
-0.027705733629029908   -0.12201886014169658   -0.0015750218024564169
-0.05166389411735164   -0.0809755289439753   -0.0012355454563414217
-0.029522798332356655   -0.08128762075324276   -0.0007576093552789873
-0.04916367596590878   -0.1221703326980594   -0.0023327279896257105
-0.027705733629029908   -0.12201886014169658   -0.0015750218024564169
-0.029826289937627645   -0.08090614327486959   -0.0005857287226436388
-0.04942212241037657   -0.12187208818041148   -0.0021470186841885245
-0.028008386144885666   -0.12167514261194881   -0.0014084282642933383
-0.029826289937627645   -0.08090614327486959   -0.0005857287226436388
-0.05166389411735164   -0.0809755289439753   -0.0012355454563414217
-0.04942212241037657   -0.12187208818041148   -0.0021470186841885245
-0.05192812139759911   -0.08063899625811494   -0.0010612341426034547
-0.028008386144885666   -0.12167514261194881   -0.0014084282642933383
-0.04968148960358526   -0.12159478963803651   -0.0019417666887923892
-0.05192812139759911   -0.08063899625811494   -0.0010612341426034547
-0.04942212241037657   -0.12187208818041148   -0.0021470186841885245
-0.028008386144885666   -0.12167514261194881   -0.0014084282642933383
-0.05192812139759911   -0.08063899625811494   -0.0010612341426034547
-0.030142025849124798   -0.08051621988251215   -0.0003954216589787737
-0.029826289937627645   -0.08090614327486959   -0.0005857287226436388
-0.028008386144885666   -0.12167514261194881   -0.0014084282642933383
-0.05192812139759911   -0.08063899625811494   -0.0010612341426034547
-0.029826289937627645   -0.08090614327486959   -0.0005857287226436388
-0.04942212241037657   -0.12187208818041148   -0.0021470186841885245
-0.04888747167081186   -0.1224886701769573   -0.0024978625859254497
-0.05111671272405556   -0.08162634994202081   -0.0015456838789087996
-0.0710240950517872   -0.1221038492435921   -0.0030325874132083484
-0.04916367596590878   -0.1221703326980594   -0.0023327279896257105
-0.05111671272405556   -0.08162634994202081   -0.0015456838789087996
-0.07346704969689424   -0.08150054590717795   -0.0020782140773666145
-0.0710240950517872   -0.1221038492435921   -0.0030325874132083484
-0.07373422851187714   -0.08123637096348733   -0.0019386224540274737
-0.04916367596590878   -0.1221703326980594   -0.0023327279896257105
-0.07128875086022483   -0.1218579221712344   -0.002826510377228261
-0.07373422851187714   -0.08123637096348733   -0.0019386224540274737
-0.0710240950517872   -0.1221038492435921   -0.0030325874132083484
-0.04916367596590878   -0.1221703326980594   -0.0023327279896257105
-0.07373422851187714   -0.08123637096348733   -0.0019386224540274737
-0.0513969572105449   -0.08130404170880438   -0.0013972925538070103
-0.05111671272405556   -0.08162634994202081   -0.0015456838789087996
-0.04916367596590878   -0.1221703326980594   -0.0023327279896257105
-0.07373422851187714   -0.08123637096348733   -0.0019386224540274737
-0.05111671272405556   -0.08162634994202081   -0.0015456838789087996
-0.0710240950517872   -0.1221038492435921   -0.0030325874132083484
-0.04916367596590878   -0.1221703326980594   -0.0023327279896257105
-0.0513969572105449   -0.08130404170880438   -0.0013972925538070103
-0.07128875086022483   -0.1218579221712344   -0.002826510377228261
-0.04942212241037657   -0.12187208818041148   -0.0021470186841885245
-0.0513969572105449   -0.08130404170880438   -0.0013972925538070103
-0.07373422851187714   -0.08123637096348733   -0.0019386224540274737
-0.07128875086022483   -0.1218579221712344   -0.002826510377228261
-0.07396109520147674   -0.08095757306470594   -0.0017896543763464313
-0.04942212241037657   -0.12187208818041148   -0.0021470186841885245
-0.07149030830595829   -0.12162398530815154   -0.002603314955532103
-0.07396109520147674   -0.08095757306470594   -0.0017896543763464313
-0.07128875086022483   -0.1218579221712344   -0.002826510377228261
-0.04942212241037657   -0.12187208818041148   -0.0021470186841885245
-0.07396109520147674   -0.08095757306470594   -0.0017896543763464313
-0.05166389411735164   -0.0809755289439753   -0.0012355454563414217
-0.0513969572105449   -0.08130404170880438   -0.0013972925538070103
-0.04942212241037657   -0.12187208818041148   -0.0021470186841885245
-0.07396109520147674   -0.08095757306470594   -0.0017896543763464313
-0.0513969572105449   -0.08130404170880438   -0.0013972925538070103
-0.07128875086022483   -0.1218579221712344   -0.002826510377228261
-0.04942212241037657   -0.12187208818041148   -0.0021470186841885245
-0.05166389411735164   -0.0809755289439753   -0.0012355454563414217
-0.07149030830595829   -0.12162398530815154   -0.002603314955532103
-0.04968148960358526   -0.12159478963803651   -0.0019417666887923892
-0.05166389411735164   -0.0809755289439753   -0.0012355454563414217
-0.07396109520147674   -0.08095757306470594   -0.0017896543763464313
-0.07149030830595829   -0.12162398530815154   -0.002603314955532103
-0.07417554535283266   -0.08067111449885642   -0.0016271231934097085
-0.04968148960358526   -0.12159478963803651   -0.0019417666887923892
-0.07169007737345653   -0.12141207859727615   -0.002358481566064463
-0.07417554535283266   -0.08067111449885642   -0.0016271231934097085
-0.07149030830595829   -0.12162398530815154   -0.002603314955532103
-0.04968148960358526   -0.12159478963803651   -0.0019417666887923892
-0.07417554535283266   -0.08067111449885642   -0.0016271231934097085
-0.05192812139759911   -0.08063899625811494   -0.0010612341426034547
-0.05166389411735164   -0.0809755289439753   -0.0012355454563414217
-0.04968148960358526   -0.12159478963803651   -0.0019417666887923892
-0.07417554535283266   -0.08067111449885642   -0.0016271231934097085
-0.05166389411735164   -0.0809755289439753   -0.0012355454563414217
-0.07149030830595829   -0.12162398530815154   -0.002603314955532103
-0.0710240950517872   -0.1221038492435921   -0.0030325874132083484
-0.07346704969689424   -0.08150054590717795   -0.0020782140773666145
-0.09447686155192965   -0.12165123389866185   -0.003431978654598086
-0.07128875086022483   -0.1218579221712344   -0.002826510377228261
-0.07346704969689424   -0.08150054590717795   -0.0020782140773666145
-0.09686860559333432   -0.08129468618983621   -0.002475572068485854
-0.09447686155192965   -0.12165123389866185   -0.003431978654598086
-0.09703725420651144   -0.08107146361173317   -0.0023724273516247366
-0.07128875086022483   -0.1218579221712344   -0.002826510377228261
-0.09452262543597047   -0.12145352149889345   -0.00320598764809789
-0.09703725420651144   -0.08107146361173317   -0.0023724273516247366
-0.09447686155192965   -0.12165123389866185   -0.003431978654598086
-0.07128875086022483   -0.1218579221712344   -0.002826510377228261
-0.09703725420651144   -0.08107146361173317   -0.0023724273516247366
-0.07373422851187714   -0.08123637096348733   -0.0019386224540274737
-0.07346704969689424   -0.08150054590717795   -0.0020782140773666145
-0.07128875086022483   -0.1218579221712344   -0.002826510377228261
-0.09703725420651144   -0.08107146361173317   -0.0023724273516247366
-0.07346704969689424   -0.08150054590717795   -0.0020782140773666145
-0.09447686155192965   -0.12165123389866185   -0.003431978654598086
-0.07128875086022483   -0.1218579221712344   -0.002826510377228261
-0.07373422851187714   -0.08123637096348733   -0.0019386224540274737
-0.09452262543597047   -0.12145352149889345   -0.00320598764809789
-0.07149030830595829   -0.12162398530815154   -0.002603314955532103
-0.07373422851187714   -0.08123637096348733   -0.0019386224540274737
-0.09703725420651144   -0.08107146361173317   -0.0023724273516247366
-0.09452262543597047   -0.12145352149889345   -0.00320598764809789
-0.09719146220137452   -0.0808194909058411   -0.0022460606244380306
-0.07149030830595829   -0.12162398530815154   -0.002603314955532103
-0.09456877019347645   -0.12125259103477404   -0.0029454609621457077
-0.09719146220137452   -0.0808194909058411   -0.0022460606244380306
-0.09452262543597047   -0.12145352149889345   -0.00320598764809789
-0.07149030830595829   -0.12162398530815154   -0.002603314955532103
-0.09719146220137452   -0.0808194909058411   -0.0022460606244380306
-0.07396109520147674   -0.08095757306470594   -0.0017896543763464313
-0.07373422851187714   -0.08123637096348733   -0.0019386224540274737
-0.07149030830595829   -0.12162398530815154   -0.002603314955532103
-0.09719146220137452   -0.0808194909058411   -0.0022460606244380306
-0.07373422851187714   -0.08123637096348733   -0.0019386224540274737
-0.09452262543597047   -0.12145352149889345   -0.00320598764809789
-0.07149030830595829   -0.12162398530815154   -0.002603314955532103
-0.07396109520147674   -0.08095757306470594   -0.0017896543763464313
-0.09456877019347645   -0.12125259103477404   -0.0029454609621457077
-0.07169007737345653   -0.12141207859727615   -0.002358481566064463
-0.07396109520147674   -0.08095757306470594   -0.0017896543763464313
-0.09719146220137452   -0.0808194909058411   -0.0022460606244380306
-0.09456877019347645   -0.12125259103477404   -0.0029454609621457077
-0.09726911061071325   -0.08058643552838773   -0.002102399672777837
-0.07169007737345653   -0.12141207859727615   -0.002358481566064463
-0.09448448003343067   -0.12111595352185238   -0.0026545351864412934
-0.09726911061071325   -0.08058643552838773   -0.002102399672777837
-0.09456877019347645   -0.12125259103477404   -0.0029454609621457077
-0.07169007737345653   -0.12141207859727615   -0.002358481566064463
-0.09726911061071325   -0.08058643552838773   -0.002102399672777837
-0.07417554535283266   -0.08067111449885642   -0.0016271231934097085
-0.07396109520147674   -0.08095757306470594   -0.0017896543763464313
-0.07169007737345653   -0.12141207859727615   -0.002358481566064463
-0.09726911061071325   -0.08058643552838773   -0.002102399672777837
-0.07396109520147674   -0.08095757306470594   -0.0017896543763464313
-0.09456877019347645   -0.12125259103477404   -0.0029454609621457077
0.01634886866989572   -0.08214575253656603   0.0005052079510724087
0.011428024782966641   -0.041201421589794895   0.0005396609193789444
-0.007120638676633304   -0.08175506158430322   -0.0002166789871279638
0.015833009138465443   -0.08164262658253549   0.0007184887785549482
0.011428024782966641   -0.041201421589794895   0.0005396609193789444
-0.010425116901372142   -0.04065913760621251   0.00026121527608352515
-0.007120638676633304   -0.08175506158430322   -0.0002166789871279638
-0.010748090618116395   -0.04044381008408581   0.0004950144840540755
0.015833009138465443   -0.08164262658253549   0.0007184887785549482
-0.007446426254469846   -0.08133659453175497   -4.719025843656498e-05
-0.010748090618116395   -0.04044381008408581   0.0004950144840540755
-0.007120638676633304   -0.08175506158430322   -0.0002166789871279638
0.015833009138465443   -0.08164262658253549   0.0007184887785549482
-0.010748090618116395   -0.04044381008408581   0.0004950144840540755
0.010422594122335226   -0.040668830390523554   0.0011200506467753625
0.011428024782966641   -0.041201421589794895   0.0005396609193789444
0.015833009138465443   -0.08164262658253549   0.0007184887785549482
-0.010748090618116395   -0.04044381008408581   0.0004950144840540755
0.011428024782966641   -0.041201421589794895   0.0005396609193789444
-0.007120638676633304   -0.08175506158430322   -0.0002166789871279638
0.015833009138465443   -0.08164262658253549   0.0007184887785549482
0.010422594122335226   -0.040668830390523554   0.0011200506467753625
-0.007446426254469846   -0.08133659453175497   -4.719025843656498e-05
0.01525959938712082   -0.08114154102817576   0.0010227232468562782
0.010422594122335226   -0.040668830390523554   0.0011200506467753625
-0.010748090618116395   -0.04044381008408581   0.0004950144840540755
-0.007446426254469846   -0.08133659453175497   -4.719025843656498e-05
-0.011170653254083599   -0.040066778927906846   0.0007783644738255816
0.01525959938712082   -0.08114154102817576   0.0010227232468562782
-0.007827083481321372   -0.08089434837357633   0.00015209008872356126
-0.011170653254083599   -0.040066778927906846   0.0007783644738255816
-0.007446426254469846   -0.08133659453175497   -4.719025843656498e-05
0.01525959938712082   -0.08114154102817576   0.0010227232468562782
-0.011170653254083599   -0.040066778927906846   0.0007783644738255816
0.009832983967159255   -0.040230143634033357   0.0015542365173106577
0.010422594122335226   -0.040668830390523554   0.0011200506467753625
0.01525959938712082   -0.08114154102817576   0.0010227232468562782
-0.011170653254083599   -0.040066778927906846   0.0007783644738255816
0.010422594122335226   -0.040668830390523554   0.0011200506467753625
-0.007446426254469846   -0.08133659453175497   -4.719025843656498e-05
0.01525959938712082   -0.08114154102817576   0.0010227232468562782
0.009832983967159255   -0.040230143634033357   0.0015542365173106577
-0.007827083481321372   -0.08089434837357633   0.00015209008872356126
0.014559195497671758   -0.08052654123820273   0.0013571269468436984
0.009832983967159255   -0.040230143634033357   0.0015542365173106577
-0.011170653254083599   -0.040066778927906846   0.0007783644738255816
-0.007827083481321372   -0.08089434837357633   0.00015209008872356126
-0.011525079108102586   -0.03966022740696897   0.0010279093418797344
0.014559195497671758   -0.08052654123820273   0.0013571269468436984
-0.00822028834043706   -0.0804242436371306   0.0003806913299942511
-0.011525079108102586   -0.03966022740696897   0.0010279093418797344
-0.007827083481321372   -0.08089434837357633   0.00015209008872356126
0.014559195497671758   -0.08052654123820273   0.0013571269468436984
-0.011525079108102586   -0.03966022740696897   0.0010279093418797344
0.00907875051627716   -0.03956251369941042   0.0020508976728105064
0.009832983967159255   -0.040230143634033357   0.0015542365173106577
0.014559195497671758   -0.08052654123820273   0.0013571269468436984
-0.011525079108102586   -0.03966022740696897   0.0010279093418797344
0.009832983967159255   -0.040230143634033357   0.0015542365173106577
-0.007827083481321372   -0.08089434837357633   0.00015209008872356126
-0.007120638676633304   -0.08175506158430322   -0.0002166789871279638
-0.010425116901372142   -0.04065913760621251   0.00026121527608352515
-0.029229199008882958   -0.08165413884071746   -0.0009141741918216655
-0.007446426254469846   -0.08133659453175497   -4.719025843656498e-05
-0.010425116901372142   -0.04065913760621251   0.00026121527608352515
-0.031248307582068733   -0.041254329541324006   -0.0002980542186598868
-0.029229199008882958   -0.08165413884071746   -0.0009141741918216655
-0.03154400508530147   -0.04092959226169024   -0.00013313351376071167
-0.007446426254469846   -0.08133659453175497   -4.719025843656498e-05
-0.029522798332356655   -0.08128762075324276   -0.0007576093552789873
-0.03154400508530147   -0.04092959226169024   -0.00013313351376071167
-0.029229199008882958   -0.08165413884071746   -0.0009141741918216655
-0.007446426254469846   -0.08133659453175497   -4.719025843656498e-05
-0.03154400508530147   -0.04092959226169024   -0.00013313351376071167
-0.010748090618116395   -0.04044381008408581   0.0004950144840540755
-0.010425116901372142   -0.04065913760621251   0.00026121527608352515
-0.007446426254469846   -0.08133659453175497   -4.719025843656498e-05
-0.03154400508530147   -0.04092959226169024   -0.00013313351376071167
-0.010425116901372142   -0.04065913760621251   0.00026121527608352515
-0.029229199008882958   -0.08165413884071746   -0.0009141741918216655
-0.007446426254469846   -0.08133659453175497   -4.719025843656498e-05
-0.010748090618116395   -0.04044381008408581   0.0004950144840540755
-0.029522798332356655   -0.08128762075324276   -0.0007576093552789873
-0.007827083481321372   -0.08089434837357633   0.00015209008872356126
-0.010748090618116395   -0.04044381008408581   0.0004950144840540755
-0.03154400508530147   -0.04092959226169024   -0.00013313351376071167
-0.029522798332356655   -0.08128762075324276   -0.0007576093552789873
-0.03185260204197464   -0.04056410594244501   4.094314218209547e-05
-0.007827083481321372   -0.08089434837357633   0.00015209008872356126
-0.029826289937627645   -0.08090614327486959   -0.0005857287226436388
-0.03185260204197464   -0.04056410594244501   4.094314218209547e-05
-0.029522798332356655   -0.08128762075324276   -0.0007576093552789873
-0.007827083481321372   -0.08089434837357633   0.00015209008872356126
-0.03185260204197464   -0.04056410594244501   4.094314218209547e-05
-0.011170653254083599   -0.040066778927906846   0.0007783644738255816
-0.010748090618116395   -0.04044381008408581   0.0004950144840540755
-0.007827083481321372   -0.08089434837357633   0.00015209008872356126
-0.03185260204197464   -0.04056410594244501   4.094314218209547e-05
-0.010748090618116395   -0.04044381008408581   0.0004950144840540755
-0.029522798332356655   -0.08128762075324276   -0.0007576093552789873
-0.007827083481321372   -0.08089434837357633   0.00015209008872356126
-0.011170653254083599   -0.040066778927906846   0.0007783644738255816
-0.029826289937627645   -0.08090614327486959   -0.0005857287226436388
-0.00822028834043706   -0.0804242436371306   0.0003806913299942511
-0.011170653254083599   -0.040066778927906846   0.0007783644738255816
-0.03185260204197464   -0.04056410594244501   4.094314218209547e-05
-0.029826289937627645   -0.08090614327486959   -0.0005857287226436388
-0.032145158834370365   -0.04016354698796645   0.00023264793237807316
-0.00822028834043706   -0.0804242436371306   0.0003806913299942511
-0.030142025849124798   -0.08051621988251215   -0.0003954216589787737
-0.032145158834370365   -0.04016354698796645   0.00023264793237807316
-0.029826289937627645   -0.08090614327486959   -0.0005857287226436388
-0.00822028834043706   -0.0804242436371306   0.0003806913299942511
-0.032145158834370365   -0.04016354698796645   0.00023264793237807316
-0.011525079108102586   -0.03966022740696897   0.0010279093418797344
-0.011170653254083599   -0.040066778927906846   0.0007783644738255816
-0.00822028834043706   -0.0804242436371306   0.0003806913299942511
-0.032145158834370365   -0.04016354698796645   0.00023264793237807316
-0.011170653254083599   -0.040066778927906846   0.0007783644738255816
-0.029826289937627645   -0.08090614327486959   -0.0005857287226436388
-0.029229199008882958   -0.08165413884071746   -0.0009141741918216655
-0.031248307582068733   -0.041254329541324006   -0.0002980542186598868
-0.05111671272405556   -0.08162634994202081   -0.0015456838789087996
-0.029522798332356655   -0.08128762075324276   -0.0007576093552789873
-0.031248307582068733   -0.041254329541324006   -0.0002980542186598868
-0.05259263052939831   -0.04171911766826627   -0.0009149569440219358
-0.05111671272405556   -0.08162634994202081   -0.0015456838789087996
-0.05285746663070801   -0.041386061135527986   -0.0007877363724602256
-0.029522798332356655   -0.08128762075324276   -0.0007576093552789873
-0.0513969572105449   -0.08130404170880438   -0.0013972925538070103
-0.05285746663070801   -0.041386061135527986   -0.0007877363724602256
-0.05111671272405556   -0.08162634994202081   -0.0015456838789087996
-0.029522798332356655   -0.08128762075324276   -0.0007576093552789873
-0.05285746663070801   -0.041386061135527986   -0.0007877363724602256
-0.03154400508530147   -0.04092959226169024   -0.00013313351376071167
-0.031248307582068733   -0.041254329541324006   -0.0002980542186598868
-0.029522798332356655   -0.08128762075324276   -0.0007576093552789873
-0.05285746663070801   -0.041386061135527986   -0.0007877363724602256
-0.031248307582068733   -0.041254329541324006   -0.0002980542186598868
-0.05111671272405556   -0.08162634994202081   -0.0015456838789087996
-0.029522798332356655   -0.08128762075324276   -0.0007576093552789873
-0.03154400508530147   -0.04092959226169024   -0.00013313351376071167
-0.0513969572105449   -0.08130404170880438   -0.0013972925538070103
-0.029826289937627645   -0.08090614327486959   -0.0005857287226436388
-0.03154400508530147   -0.04092959226169024   -0.00013313351376071167
-0.05285746663070801   -0.041386061135527986   -0.0007877363724602256
-0.0513969572105449   -0.08130404170880438   -0.0013972925538070103
-0.05311043792413937   -0.04103481741051141   -0.0006612626235648514
-0.029826289937627645   -0.08090614327486959   -0.0005857287226436388
-0.05166389411735164   -0.0809755289439753   -0.0012355454563414217
-0.05311043792413937   -0.04103481741051141   -0.0006612626235648514
-0.0513969572105449   -0.08130404170880438   -0.0013972925538070103
-0.029826289937627645   -0.08090614327486959   -0.0005857287226436388
-0.05311043792413937   -0.04103481741051141   -0.0006612626235648514
-0.03185260204197464   -0.04056410594244501   4.094314218209547e-05
-0.03154400508530147   -0.04092959226169024   -0.00013313351376071167
-0.029826289937627645   -0.08090614327486959   -0.0005857287226436388
-0.05311043792413937   -0.04103481741051141   -0.0006612626235648514
-0.03154400508530147   -0.04092959226169024   -0.00013313351376071167
-0.0513969572105449   -0.08130404170880438   -0.0013972925538070103
-0.029826289937627645   -0.08090614327486959   -0.0005857287226436388
-0.03185260204197464   -0.04056410594244501   4.094314218209547e-05
-0.05166389411735164   -0.0809755289439753   -0.0012355454563414217
-0.030142025849124798   -0.08051621988251215   -0.0003954216589787737
-0.03185260204197464   -0.04056410594244501   4.094314218209547e-05
-0.05311043792413937   -0.04103481741051141   -0.0006612626235648514
-0.05166389411735164   -0.0809755289439753   -0.0012355454563414217
-0.05334318330212999   -0.04065493317481928   -0.0005239240314954449
-0.030142025849124798   -0.08051621988251215   -0.0003954216589787737
-0.05192812139759911   -0.08063899625811494   -0.0010612341426034547
-0.05334318330212999   -0.04065493317481928   -0.0005239240314954449
-0.05166389411735164   -0.0809755289439753   -0.0012355454563414217
-0.030142025849124798   -0.08051621988251215   -0.0003954216589787737
-0.05334318330212999   -0.04065493317481928   -0.0005239240314954449
-0.032145158834370365   -0.04016354698796645   0.00023264793237807316
-0.03185260204197464   -0.04056410594244501   4.094314218209547e-05
-0.030142025849124798   -0.08051621988251215   -0.0003954216589787737
-0.05334318330212999   -0.04065493317481928   -0.0005239240314954449
-0.03185260204197464   -0.04056410594244501   4.094314218209547e-05
-0.05166389411735164   -0.0809755289439753   -0.0012355454563414217
-0.05111671272405556   -0.08162634994202081   -0.0015456838789087996
-0.05259263052939831   -0.04171911766826627   -0.0009149569440219358
-0.07346704969689424   -0.08150054590717795   -0.0020782140773666145
-0.0513969572105449   -0.08130404170880438   -0.0013972925538070103
-0.05259263052939831   -0.04171911766826627   -0.0009149569440219358
-0.07468638029275622   -0.041909258893649666   -0.0014851747132288637
-0.07346704969689424   -0.08150054590717795   -0.0020782140773666145
-0.07492481203186085   -0.04160917972941407   -0.0013929199152024829
-0.0513969572105449   -0.08130404170880438   -0.0013972925538070103
-0.07373422851187714   -0.08123637096348733   -0.0019386224540274737
-0.07492481203186085   -0.04160917972941407   -0.0013929199152024829
-0.07346704969689424   -0.08150054590717795   -0.0020782140773666145
-0.0513969572105449   -0.08130404170880438   -0.0013972925538070103
-0.07492481203186085   -0.04160917972941407   -0.0013929199152024829
-0.05285746663070801   -0.041386061135527986   -0.0007877363724602256
-0.05259263052939831   -0.04171911766826627   -0.0009149569440219358
-0.0513969572105449   -0.08130404170880438   -0.0013972925538070103
-0.07492481203186085   -0.04160917972941407   -0.0013929199152024829
-0.05259263052939831   -0.04171911766826627   -0.0009149569440219358
-0.07346704969689424   -0.08150054590717795   -0.0020782140773666145
-0.0513969572105449   -0.08130404170880438   -0.0013972925538070103
-0.05285746663070801   -0.041386061135527986   -0.0007877363724602256
-0.07373422851187714   -0.08123637096348733   -0.0019386224540274737
-0.05166389411735164   -0.0809755289439753   -0.0012355454563414217
-0.05285746663070801   -0.041386061135527986   -0.0007877363724602256
-0.07492481203186085   -0.04160917972941407   -0.0013929199152024829
-0.07373422851187714   -0.08123637096348733   -0.0019386224540274737
-0.07513724737383719   -0.04128306243017227   -0.0013036037672722234
-0.05166389411735164   -0.0809755289439753   -0.0012355454563414217
-0.07396109520147674   -0.08095757306470594   -0.0017896543763464313
-0.07513724737383719   -0.04128306243017227   -0.0013036037672722234
-0.07373422851187714   -0.08123637096348733   -0.0019386224540274737
-0.05166389411735164   -0.0809755289439753   -0.0012355454563414217
-0.07513724737383719   -0.04128306243017227   -0.0013036037672722234
-0.05311043792413937   -0.04103481741051141   -0.0006612626235648514
-0.05285746663070801   -0.041386061135527986   -0.0007877363724602256
-0.05166389411735164   -0.0809755289439753   -0.0012355454563414217
-0.07513724737383719   -0.04128306243017227   -0.0013036037672722234
-0.05285746663070801   -0.041386061135527986   -0.0007877363724602256
-0.07373422851187714   -0.08123637096348733   -0.0019386224540274737
-0.05166389411735164   -0.0809755289439753   -0.0012355454563414217
-0.05311043792413937   -0.04103481741051141   -0.0006612626235648514
-0.07396109520147674   -0.08095757306470594   -0.0017896543763464313
-0.05192812139759911   -0.08063899625811494   -0.0010612341426034547
-0.05311043792413937   -0.04103481741051141   -0.0006612626235648514
-0.07513724737383719   -0.04128306243017227   -0.0013036037672722234
-0.07396109520147674   -0.08095757306470594   -0.0017896543763464313
-0.07532948272749727   -0.04093626740443497   -0.0012119962798415426
-0.05192812139759911   -0.08063899625811494   -0.0010612341426034547
-0.07417554535283266   -0.08067111449885642   -0.0016271231934097085
-0.07532948272749727   -0.04093626740443497   -0.0012119962798415426
-0.07396109520147674   -0.08095757306470594   -0.0017896543763464313
-0.05192812139759911   -0.08063899625811494   -0.0010612341426034547
-0.07532948272749727   -0.04093626740443497   -0.0012119962798415426
-0.05334318330212999   -0.04065493317481928   -0.0005239240314954449
-0.05311043792413937   -0.04103481741051141   -0.0006612626235648514
-0.05192812139759911   -0.08063899625811494   -0.0010612341426034547
-0.07532948272749727   -0.04093626740443497   -0.0012119962798415426
-0.05311043792413937   -0.04103481741051141   -0.0006612626235648514
-0.07396109520147674   -0.08095757306470594   -0.0017896543763464313
-0.07346704969689424   -0.08150054590717795   -0.0020782140773666145
-0.07468638029275622   -0.041909258893649666   -0.0014851747132288637
-0.09686860559333432   -0.08129468618983621   -0.002475572068485854
-0.07373422851187714   -0.08123637096348733   -0.0019386224540274737
-0.07468638029275622   -0.041909258893649666   -0.0014851747132288637
-0.09755644450942662   -0.041931475109697657   -0.0019609551532210716
-0.09686860559333432   -0.08129468618983621   -0.002475572068485854
-0.09776215401901223   -0.04163976145363499   -0.0019222919466655582
-0.07373422851187714   -0.08123637096348733   -0.0019386224540274737
-0.09703725420651144   -0.08107146361173317   -0.0023724273516247366
-0.09776215401901223   -0.04163976145363499   -0.0019222919466655582
-0.09686860559333432   -0.08129468618983621   -0.002475572068485854
-0.07373422851187714   -0.08123637096348733   -0.0019386224540274737
-0.09776215401901223   -0.04163976145363499   -0.0019222919466655582
-0.07492481203186085   -0.04160917972941407   -0.0013929199152024829
-0.07468638029275622   -0.041909258893649666   -0.0014851747132288637
-0.07373422851187714   -0.08123637096348733   -0.0019386224540274737
-0.09776215401901223   -0.04163976145363499   -0.0019222919466655582
-0.07468638029275622   -0.041909258893649666   -0.0014851747132288637
-0.09686860559333432   -0.08129468618983621   -0.002475572068485854
-0.07373422851187714   -0.08123637096348733   -0.0019386224540274737
-0.07492481203186085   -0.04160917972941407   -0.0013929199152024829
-0.09703725420651144   -0.08107146361173317   -0.0023724273516247366
-0.07396109520147674   -0.08095757306470594   -0.0017896543763464313
-0.07492481203186085   -0.04160917972941407   -0.0013929199152024829
-0.09776215401901223   -0.04163976145363499   -0.0019222919466655582
-0.09703725420651144   -0.08107146361173317   -0.0023724273516247366
-0.09794645065759934   -0.041325099463424414   -0.001877248183829506
-0.07396109520147674   -0.08095757306470594   -0.0017896543763464313
-0.09719146220137452   -0.0808194909058411   -0.0022460606244380306
-0.09794645065759934   -0.041325099463424414   -0.001877248183829506
-0.09703725420651144   -0.08107146361173317   -0.0023724273516247366
-0.07396109520147674   -0.08095757306470594   -0.0017896543763464313
-0.09794645065759934   -0.041325099463424414   -0.001877248183829506
-0.07513724737383719   -0.04128306243017227   -0.0013036037672722234
-0.07492481203186085   -0.04160917972941407   -0.0013929199152024829
-0.07396109520147674   -0.08095757306470594   -0.0017896543763464313
-0.09794645065759934   -0.041325099463424414   -0.001877248183829506
-0.07492481203186085   -0.04160917972941407   -0.0013929199152024829
-0.09703725420651144   -0.08107146361173317   -0.0023724273516247366
-0.07396109520147674   -0.08095757306470594   -0.0017896543763464313
-0.07513724737383719   -0.04128306243017227   -0.0013036037672722234
-0.09719146220137452   -0.0808194909058411   -0.0022460606244380306
-0.07417554535283266   -0.08067111449885642   -0.0016271231934097085
-0.07513724737383719   -0.04128306243017227   -0.0013036037672722234
-0.09794645065759934   -0.041325099463424414   -0.001877248183829506
-0.09719146220137452   -0.0808194909058411   -0.0022460606244380306
-0.09810252326023161   -0.040991762187210345   -0.0018359563801811228
-0.07417554535283266   -0.08067111449885642   -0.0016271231934097085
-0.09726911061071325   -0.08058643552838773   -0.002102399672777837
-0.09810252326023161   -0.040991762187210345   -0.0018359563801811228
-0.09719146220137452   -0.0808194909058411   -0.0022460606244380306
-0.07417554535283266   -0.08067111449885642   -0.0016271231934097085
-0.09810252326023161   -0.040991762187210345   -0.0018359563801811228
-0.07532948272749727   -0.04093626740443497   -0.0012119962798415426
-0.07513724737383719   -0.04128306243017227   -0.0013036037672722234
-0.07417554535283266   -0.08067111449885642   -0.0016271231934097085
-0.09810252326023161   -0.040991762187210345   -0.0018359563801811228
-0.07513724737383719   -0.04128306243017227   -0.0013036037672722234
-0.09719146220137452   -0.0808194909058411   -0.0022460606244380306
0.011428024782966641   -0.041201421589794895   0.0005396609193789444
0.0   0.0   0.0
-0.010425116901372142   -0.04065913760621251   0.00026121527608352515
0.010422594122335226   -0.040668830390523554   0.0011200506467753625
0.0   0.0   0.0
-0.01312528236065455   -0.003264006723430915   -0.00012571720002298306
-0.010425116901372142   -0.04065913760621251   0.00026121527608352515
-0.013908118853060657   -0.0025238673910383414   0.00031991824010240154
0.010422594122335226   -0.040668830390523554   0.0011200506467753625
-0.010748090618116395   -0.04044381008408581   0.0004950144840540755
-0.013908118853060657   -0.0025238673910383414   0.00031991824010240154
-0.010425116901372142   -0.04065913760621251   0.00026121527608352515
0.010422594122335226   -0.040668830390523554   0.0011200506467753625
-0.013908118853060657   -0.0025238673910383414   0.00031991824010240154
0.0   0.0   0.0
0.0   0.0   0.0
0.010422594122335226   -0.040668830390523554   0.0011200506467753625
-0.013908118853060657   -0.0025238673910383414   0.00031991824010240154
0.0   0.0   0.0
-0.010425116901372142   -0.04065913760621251   0.00026121527608352515
0.010422594122335226   -0.040668830390523554   0.0011200506467753625
0.0   0.0   0.0
-0.010748090618116395   -0.04044381008408581   0.0004950144840540755
0.009832983967159255   -0.040230143634033357   0.0015542365173106577
0.0   0.0   0.0
-0.013908118853060657   -0.0025238673910383414   0.00031991824010240154
-0.010748090618116395   -0.04044381008408581   0.0004950144840540755
-0.014397499124009243   -0.0021654825151826117   0.0005750278950367891
0.009832983967159255   -0.040230143634033357   0.0015542365173106577
-0.011170653254083599   -0.040066778927906846   0.0007783644738255816
-0.014397499124009243   -0.0021654825151826117   0.0005750278950367891
-0.010748090618116395   -0.04044381008408581   0.0004950144840540755
0.009832983967159255   -0.040230143634033357   0.0015542365173106577
-0.014397499124009243   -0.0021654825151826117   0.0005750278950367891
0.0   0.0   0.0
0.0   0.0   0.0
0.009832983967159255   -0.040230143634033357   0.0015542365173106577
-0.014397499124009243   -0.0021654825151826117   0.0005750278950367891
0.0   0.0   0.0
-0.010748090618116395   -0.04044381008408581   0.0004950144840540755
0.009832983967159255   -0.040230143634033357   0.0015542365173106577
0.0   0.0   0.0
-0.011170653254083599   -0.040066778927906846   0.0007783644738255816
0.00907875051627716   -0.03956251369941042   0.0020508976728105064
0.0   0.0   0.0
-0.014397499124009243   -0.0021654825151826117   0.0005750278950367891
-0.011170653254083599   -0.040066778927906846   0.0007783644738255816
-0.01505026786601807   -0.0016906687372475206   0.0008674420850962524
0.00907875051627716   -0.03956251369941042   0.0020508976728105064
-0.011525079108102586   -0.03966022740696897   0.0010279093418797344
-0.01505026786601807   -0.0016906687372475206   0.0008674420850962524
-0.011170653254083599   -0.040066778927906846   0.0007783644738255816
0.00907875051627716   -0.03956251369941042   0.0020508976728105064
-0.01505026786601807   -0.0016906687372475206   0.0008674420850962524
0.0   0.0   0.0
0.0   0.0   0.0
0.00907875051627716   -0.03956251369941042   0.0020508976728105064
-0.01505026786601807   -0.0016906687372475206   0.0008674420850962524
0.0   0.0   0.0
-0.011170653254083599   -0.040066778927906846   0.0007783644738255816
-0.010425116901372142   -0.04065913760621251   0.00026121527608352515
-0.01312528236065455   -0.003264006723430915   -0.00012571720002298306
-0.031248307582068733   -0.041254329541324006   -0.0002980542186598868
-0.010748090618116395   -0.04044381008408581   0.0004950144840540755
-0.01312528236065455   -0.003264006723430915   -0.00012571720002298306
-0.032192853302458295   -0.004251920822959955   -0.00014072313623259187
-0.031248307582068733   -0.041254329541324006   -0.0002980542186598868
-0.032593705888780765   -0.003843668338943354   -2.947778414133264e-05
-0.010748090618116395   -0.04044381008408581   0.0004950144840540755
-0.03154400508530147   -0.04092959226169024   -0.00013313351376071167
-0.032593705888780765   -0.003843668338943354   -2.947778414133264e-05
-0.031248307582068733   -0.041254329541324006   -0.0002980542186598868
-0.010748090618116395   -0.04044381008408581   0.0004950144840540755
-0.032593705888780765   -0.003843668338943354   -2.947778414133264e-05
-0.013908118853060657   -0.0025238673910383414   0.00031991824010240154
-0.01312528236065455   -0.003264006723430915   -0.00012571720002298306
-0.010748090618116395   -0.04044381008408581   0.0004950144840540755
-0.032593705888780765   -0.003843668338943354   -2.947778414133264e-05
-0.01312528236065455   -0.003264006723430915   -0.00012571720002298306
-0.031248307582068733   -0.041254329541324006   -0.0002980542186598868
-0.010748090618116395   -0.04044381008408581   0.0004950144840540755
-0.013908118853060657   -0.0025238673910383414   0.00031991824010240154
-0.03154400508530147   -0.04092959226169024   -0.00013313351376071167
-0.011170653254083599   -0.040066778927906846   0.0007783644738255816
-0.013908118853060657   -0.0025238673910383414   0.00031991824010240154
-0.032593705888780765   -0.003843668338943354   -2.947778414133264e-05
-0.03154400508530147   -0.04092959226169024   -0.00013313351376071167
-0.03299197577499625   -0.0033669946645698964   0.00017205967616174025
-0.011170653254083599   -0.040066778927906846   0.0007783644738255816
-0.03185260204197464   -0.04056410594244501   4.094314218209547e-05
-0.03299197577499625   -0.0033669946645698964   0.00017205967616174025
-0.03154400508530147   -0.04092959226169024   -0.00013313351376071167
-0.011170653254083599   -0.040066778927906846   0.0007783644738255816
-0.03299197577499625   -0.0033669946645698964   0.00017205967616174025
-0.014397499124009243   -0.0021654825151826117   0.0005750278950367891
-0.013908118853060657   -0.0025238673910383414   0.00031991824010240154
-0.011170653254083599   -0.040066778927906846   0.0007783644738255816
-0.03299197577499625   -0.0033669946645698964   0.00017205967616174025
-0.013908118853060657   -0.0025238673910383414   0.00031991824010240154
-0.03154400508530147   -0.04092959226169024   -0.00013313351376071167
-0.011170653254083599   -0.040066778927906846   0.0007783644738255816
-0.014397499124009243   -0.0021654825151826117   0.0005750278950367891
-0.03185260204197464   -0.04056410594244501   4.094314218209547e-05
-0.011525079108102586   -0.03966022740696897   0.0010279093418797344
-0.014397499124009243   -0.0021654825151826117   0.0005750278950367891
-0.03299197577499625   -0.0033669946645698964   0.00017205967616174025
-0.03185260204197464   -0.04056410594244501   4.094314218209547e-05
-0.03342948862613125   -0.0028181604200174584   0.0003636144800297262
-0.011525079108102586   -0.03966022740696897   0.0010279093418797344
-0.032145158834370365   -0.04016354698796645   0.00023264793237807316
-0.03342948862613125   -0.0028181604200174584   0.0003636144800297262
-0.03185260204197464   -0.04056410594244501   4.094314218209547e-05
-0.011525079108102586   -0.03966022740696897   0.0010279093418797344
-0.03342948862613125   -0.0028181604200174584   0.0003636144800297262
-0.01505026786601807   -0.0016906687372475206   0.0008674420850962524
-0.014397499124009243   -0.0021654825151826117   0.0005750278950367891
-0.011525079108102586   -0.03966022740696897   0.0010279093418797344
-0.03342948862613125   -0.0028181604200174584   0.0003636144800297262
-0.014397499124009243   -0.0021654825151826117   0.0005750278950367891
-0.03185260204197464   -0.04056410594244501   4.094314218209547e-05
-0.031248307582068733   -0.041254329541324006   -0.0002980542186598868
-0.032192853302458295   -0.004251920822959955   -0.00014072313623259187
-0.05259263052939831   -0.04171911766826627   -0.0009149569440219358
-0.03154400508530147   -0.04092959226169024   -0.00013313351376071167
-0.032192853302458295   -0.004251920822959955   -0.00014072313623259187
-0.05311716221454891   -0.004514398467743439   -0.0005395016641457812
-0.05259263052939831   -0.04171911766826627   -0.0009149569440219358
-0.053358822365165225   -0.004191683337968882   -0.000510192466279074
-0.03154400508530147   -0.04092959226169024   -0.00013313351376071167
-0.05285746663070801   -0.041386061135527986   -0.0007877363724602256
-0.053358822365165225   -0.004191683337968882   -0.000510192466279074
-0.05259263052939831   -0.04171911766826627   -0.0009149569440219358
-0.03154400508530147   -0.04092959226169024   -0.00013313351376071167
-0.053358822365165225   -0.004191683337968882   -0.000510192466279074
-0.032593705888780765   -0.003843668338943354   -2.947778414133264e-05
-0.032192853302458295   -0.004251920822959955   -0.00014072313623259187
-0.03154400508530147   -0.04092959226169024   -0.00013313351376071167
-0.053358822365165225   -0.004191683337968882   -0.000510192466279074
-0.032192853302458295   -0.004251920822959955   -0.00014072313623259187
-0.05259263052939831   -0.04171911766826627   -0.0009149569440219358
-0.03154400508530147   -0.04092959226169024   -0.00013313351376071167
-0.032593705888780765   -0.003843668338943354   -2.947778414133264e-05
-0.05285746663070801   -0.041386061135527986   -0.0007877363724602256
-0.03185260204197464   -0.04056410594244501   4.094314218209547e-05
-0.032593705888780765   -0.003843668338943354   -2.947778414133264e-05
-0.053358822365165225   -0.004191683337968882   -0.000510192466279074
-0.05285746663070801   -0.041386061135527986   -0.0007877363724602256
-0.05360982397724032   -0.003819298055703882   -0.00045789251134929456
-0.03185260204197464   -0.04056410594244501   4.094314218209547e-05
-0.05311043792413937   -0.04103481741051141   -0.0006612626235648514
-0.05360982397724032   -0.003819298055703882   -0.00045789251134929456
-0.05285746663070801   -0.041386061135527986   -0.0007877363724602256
-0.03185260204197464   -0.04056410594244501   4.094314218209547e-05
-0.05360982397724032   -0.003819298055703882   -0.00045789251134929456
-0.03299197577499625   -0.0033669946645698964   0.00017205967616174025
-0.032593705888780765   -0.003843668338943354   -2.947778414133264e-05
-0.03185260204197464   -0.04056410594244501   4.094314218209547e-05
-0.05360982397724032   -0.003819298055703882   -0.00045789251134929456
-0.032593705888780765   -0.003843668338943354   -2.947778414133264e-05
-0.05285746663070801   -0.041386061135527986   -0.0007877363724602256
-0.03185260204197464   -0.04056410594244501   4.094314218209547e-05
-0.03299197577499625   -0.0033669946645698964   0.00017205967616174025
-0.05311043792413937   -0.04103481741051141   -0.0006612626235648514
-0.032145158834370365   -0.04016354698796645   0.00023264793237807316
-0.03299197577499625   -0.0033669946645698964   0.00017205967616174025
-0.05360982397724032   -0.003819298055703882   -0.00045789251134929456
-0.05311043792413937   -0.04103481741051141   -0.0006612626235648514
-0.05384507981742655   -0.003369830853616676   -0.0003887031088358367
-0.032145158834370365   -0.04016354698796645   0.00023264793237807316
-0.05334318330212999   -0.04065493317481928   -0.0005239240314954449
-0.05384507981742655   -0.003369830853616676   -0.0003887031088358367
-0.05311043792413937   -0.04103481741051141   -0.0006612626235648514
-0.032145158834370365   -0.04016354698796645   0.00023264793237807316
-0.05384507981742655   -0.003369830853616676   -0.0003887031088358367
-0.03342948862613125   -0.0028181604200174584   0.0003636144800297262
-0.03299197577499625   -0.0033669946645698964   0.00017205967616174025
-0.032145158834370365   -0.04016354698796645   0.00023264793237807316
-0.05384507981742655   -0.003369830853616676   -0.0003887031088358367
-0.03299197577499625   -0.0033669946645698964   0.00017205967616174025
-0.05311043792413937   -0.04103481741051141   -0.0006612626235648514
-0.05259263052939831   -0.04171911766826627   -0.0009149569440219358
-0.05311716221454891   -0.004514398467743439   -0.0005395016641457812
-0.07468638029275622   -0.041909258893649666   -0.0014851747132288637
-0.05285746663070801   -0.041386061135527986   -0.0007877363724602256
-0.05311716221454891   -0.004514398467743439   -0.0005395016641457812
-0.07507052979010116   -0.004453786031908062   -0.0011018488278624016
-0.07468638029275622   -0.041909258893649666   -0.0014851747132288637
-0.07523334827997313   -0.004160531574835157   -0.0010895279976345944
-0.05285746663070801   -0.041386061135527986   -0.0007877363724602256
-0.07492481203186085   -0.04160917972941407   -0.0013929199152024829
-0.07523334827997313   -0.004160531574835157   -0.0010895279976345944
-0.07468638029275622   -0.041909258893649666   -0.0014851747132288637
-0.05285746663070801   -0.041386061135527986   -0.0007877363724602256
-0.07523334827997313   -0.004160531574835157   -0.0010895279976345944
-0.053358822365165225   -0.004191683337968882   -0.000510192466279074
-0.05311716221454891   -0.004514398467743439   -0.0005395016641457812
-0.05285746663070801   -0.041386061135527986   -0.0007877363724602256
-0.07523334827997313   -0.004160531574835157   -0.0010895279976345944
-0.05311716221454891   -0.004514398467743439   -0.0005395016641457812
-0.07468638029275622   -0.041909258893649666   -0.0014851747132288637
-0.05285746663070801   -0.041386061135527986   -0.0007877363724602256
-0.053358822365165225   -0.004191683337968882   -0.000510192466279074
-0.07492481203186085   -0.04160917972941407   -0.0013929199152024829
-0.05311043792413937   -0.04103481741051141   -0.0006612626235648514
-0.053358822365165225   -0.004191683337968882   -0.000510192466279074
-0.07523334827997313   -0.004160531574835157   -0.0010895279976345944
-0.07492481203186085   -0.04160917972941407   -0.0013929199152024829
-0.07540331027242698   -0.0038362192422409097   -0.0010822276213604046
-0.05311043792413937   -0.04103481741051141   -0.0006612626235648514
-0.07513724737383719   -0.04128306243017227   -0.0013036037672722234
-0.07540331027242698   -0.0038362192422409097   -0.0010822276213604046
-0.07492481203186085   -0.04160917972941407   -0.0013929199152024829
-0.05311043792413937   -0.04103481741051141   -0.0006612626235648514
-0.07540331027242698   -0.0038362192422409097   -0.0010822276213604046
-0.05360982397724032   -0.003819298055703882   -0.00045789251134929456
-0.053358822365165225   -0.004191683337968882   -0.000510192466279074
-0.05311043792413937   -0.04103481741051141   -0.0006612626235648514
-0.07540331027242698   -0.0038362192422409097   -0.0010822276213604046
-0.053358822365165225   -0.004191683337968882   -0.000510192466279074
-0.07492481203186085   -0.04160917972941407   -0.0013929199152024829
-0.05311043792413937   -0.04103481741051141   -0.0006612626235648514
-0.05360982397724032   -0.003819298055703882   -0.00045789251134929456
-0.07513724737383719   -0.04128306243017227   -0.0013036037672722234
-0.05334318330212999   -0.04065493317481928   -0.0005239240314954449
-0.05360982397724032   -0.003819298055703882   -0.00045789251134929456
-0.07540331027242698   -0.0038362192422409097   -0.0010822276213604046
-0.07513724737383719   -0.04128306243017227   -0.0013036037672722234
-0.07553025486646796   -0.003487203454263378   -0.001080791321437066
-0.05334318330212999   -0.04065493317481928   -0.0005239240314954449
-0.07532948272749727   -0.04093626740443497   -0.0012119962798415426
-0.07553025486646796   -0.003487203454263378   -0.001080791321437066
-0.07513724737383719   -0.04128306243017227   -0.0013036037672722234
-0.05334318330212999   -0.04065493317481928   -0.0005239240314954449
-0.07553025486646796   -0.003487203454263378   -0.001080791321437066
-0.05384507981742655   -0.003369830853616676   -0.0003887031088358367
-0.05360982397724032   -0.003819298055703882   -0.00045789251134929456
-0.05334318330212999   -0.04065493317481928   -0.0005239240314954449
-0.07553025486646796   -0.003487203454263378   -0.001080791321437066
-0.05360982397724032   -0.003819298055703882   -0.00045789251134929456
-0.07513724737383719   -0.04128306243017227   -0.0013036037672722234
-0.07468638029275622   -0.041909258893649666   -0.0014851747132288637
-0.07507052979010116   -0.004453786031908062   -0.0011018488278624016
-0.09755644450942662   -0.041931475109697657   -0.0019609551532210716
-0.07492481203186085   -0.04160917972941407   -0.0013929199152024829
-0.07507052979010116   -0.004453786031908062   -0.0011018488278624016
-0.0976222272620558   -0.004419413946402453   -0.0016544115755888122
-0.09755644450942662   -0.041931475109697657   -0.0019609551532210716
-0.09775347743965239   -0.0041005258235982   -0.001654856199575992
-0.07492481203186085   -0.04160917972941407   -0.0013929199152024829
-0.09776215401901223   -0.04163976145363499   -0.0019222919466655582
-0.09775347743965239   -0.0041005258235982   -0.001654856199575992
-0.09755644450942662   -0.041931475109697657   -0.0019609551532210716
-0.07492481203186085   -0.04160917972941407   -0.0013929199152024829
-0.09775347743965239   -0.0041005258235982   -0.001654856199575992
-0.07523334827997313   -0.004160531574835157   -0.0010895279976345944
-0.07507052979010116   -0.004453786031908062   -0.0011018488278624016
-0.07492481203186085   -0.04160917972941407   -0.0013929199152024829
-0.09775347743965239   -0.0041005258235982   -0.001654856199575992
-0.07507052979010116   -0.004453786031908062   -0.0011018488278624016
-0.09755644450942662   -0.041931475109697657   -0.0019609551532210716
-0.07492481203186085   -0.04160917972941407   -0.0013929199152024829
-0.07523334827997313   -0.004160531574835157   -0.0010895279976345944
-0.09776215401901223   -0.04163976145363499   -0.0019222919466655582
-0.07513724737383719   -0.04128306243017227   -0.0013036037672722234
-0.07523334827997313   -0.004160531574835157   -0.0010895279976345944
-0.09775347743965239   -0.0041005258235982   -0.001654856199575992
-0.09776215401901223   -0.04163976145363499   -0.0019222919466655582
-0.09789774319065431   -0.0037833695453088944   -0.0016801086442682451
-0.07513724737383719   -0.04128306243017227   -0.0013036037672722234
-0.09794645065759934   -0.041325099463424414   -0.001877248183829506
-0.09789774319065431   -0.0037833695453088944   -0.0016801086442682451
-0.09776215401901223   -0.04163976145363499   -0.0019222919466655582
-0.07513724737383719   -0.04128306243017227   -0.0013036037672722234
-0.09789774319065431   -0.0037833695453088944   -0.0016801086442682451
-0.07540331027242698   -0.0038362192422409097   -0.0010822276213604046
-0.07523334827997313   -0.004160531574835157   -0.0010895279976345944
-0.07513724737383719   -0.04128306243017227   -0.0013036037672722234
-0.09789774319065431   -0.0037833695453088944   -0.0016801086442682451
-0.07523334827997313   -0.004160531574835157   -0.0010895279976345944
-0.09776215401901223   -0.04163976145363499   -0.0019222919466655582
-0.07513724737383719   -0.04128306243017227   -0.0013036037672722234
-0.07540331027242698   -0.0038362192422409097   -0.0010822276213604046
-0.09794645065759934   -0.041325099463424414   -0.001877248183829506
-0.07532948272749727   -0.04093626740443497   -0.0012119962798415426
-0.07540331027242698   -0.0038362192422409097   -0.0010822276213604046
-0.09789774319065431   -0.0037833695453088944   -0.0016801086442682451
-0.09794645065759934   -0.041325099463424414   -0.001877248183829506
-0.0980033249748636   -0.0034390668560398247   -0.0017072917356113694
-0.07532948272749727   -0.04093626740443497   -0.0012119962798415426
-0.09810252326023161   -0.040991762187210345   -0.0018359563801811228
-0.0980033249748636   -0.0034390668560398247   -0.0017072917356113694
-0.09794645065759934   -0.041325099463424414   -0.001877248183829506
-0.07532948272749727   -0.04093626740443497   -0.0012119962798415426
-0.0980033249748636   -0.0034390668560398247   -0.0017072917356113694
-0.07553025486646796   -0.003487203454263378   -0.001080791321437066
-0.07540331027242698   -0.0038362192422409097   -0.0010822276213604046
-0.07532948272749727   -0.04093626740443497   -0.0012119962798415426
-0.0980033249748636   -0.0034390668560398247   -0.0017072917356113694
-0.07540331027242698   -0.0038362192422409097   -0.0010822276213604046
-0.09794645065759934   -0.041325099463424414   -0.001877248183829506
              </DataArray>   
          </PointData>  
       </Piece>  
   </UnstructuredGrid> 
</VTKFile> 
