<?xml version="1.0"?> 
<VTKFile type="UnstructuredGrid"> 
   <UnstructuredGrid> 
      <Piece NumberOfPoints="6000"  NumberOfCells="1500">  
          <Points>  
             <DataArray type="Float64" NumberOfComponents="3" format="ascii">   
-500.0   0.0   0.0
-450.0   0.0   0.0
-500.0   30.0   0.0
-500.0   0.0   16.666666666666668
-450.0   0.0   0.0
-450.0   30.0   0.0
-500.0   30.0   0.0
-450.0   30.0   16.666666666666668
-500.0   0.0   16.666666666666668
-500.0   30.0   16.666666666666668
-450.0   30.0   16.666666666666668
-500.0   30.0   0.0
-500.0   0.0   16.666666666666668
-450.0   30.0   16.666666666666668
-450.0   0.0   16.666666666666668
-450.0   0.0   0.0
-500.0   0.0   16.666666666666668
-450.0   30.0   16.666666666666668
-450.0   0.0   0.0
-500.0   30.0   0.0
-500.0   0.0   16.666666666666668
-450.0   0.0   16.666666666666668
-500.0   30.0   16.666666666666668
-500.0   0.0   33.333333333333336
-450.0   0.0   16.666666666666668
-450.0   30.0   16.666666666666668
-500.0   30.0   16.666666666666668
-450.0   30.0   33.333333333333336
-500.0   0.0   33.333333333333336
-500.0   30.0   33.333333333333336
-450.0   30.0   33.333333333333336
-500.0   30.0   16.666666666666668
-500.0   0.0   33.333333333333336
-450.0   30.0   33.333333333333336
-450.0   0.0   33.333333333333336
-450.0   0.0   16.666666666666668
-500.0   0.0   33.333333333333336
-450.0   30.0   33.333333333333336
-450.0   0.0   16.666666666666668
-500.0   30.0   16.666666666666668
-500.0   0.0   33.333333333333336
-450.0   0.0   33.333333333333336
-500.0   30.0   33.333333333333336
-500.0   0.0   50.0
-450.0   0.0   33.333333333333336
-450.0   30.0   33.333333333333336
-500.0   30.0   33.333333333333336
-450.0   30.0   50.0
-500.0   0.0   50.0
-500.0   30.0   50.0
-450.0   30.0   50.0
-500.0   30.0   33.333333333333336
-500.0   0.0   50.0
-450.0   30.0   50.0
-450.0   0.0   50.0
-450.0   0.0   33.333333333333336
-500.0   0.0   50.0
-450.0   30.0   50.0
-450.0   0.0   33.333333333333336
-500.0   30.0   33.333333333333336
-500.0   30.0   0.0
-450.0   30.0   0.0
-500.0   60.0   0.0
-500.0   30.0   16.666666666666668
-450.0   30.0   0.0
-450.0   60.0   0.0
-500.0   60.0   0.0
-450.0   60.0   16.666666666666668
-500.0   30.0   16.666666666666668
-500.0   60.0   16.666666666666668
-450.0   60.0   16.666666666666668
-500.0   60.0   0.0
-500.0   30.0   16.666666666666668
-450.0   60.0   16.666666666666668
-450.0   30.0   16.666666666666668
-450.0   30.0   0.0
-500.0   30.0   16.666666666666668
-450.0   60.0   16.666666666666668
-450.0   30.0   0.0
-500.0   60.0   0.0
-500.0   30.0   16.666666666666668
-450.0   30.0   16.666666666666668
-500.0   60.0   16.666666666666668
-500.0   30.0   33.333333333333336
-450.0   30.0   16.666666666666668
-450.0   60.0   16.666666666666668
-500.0   60.0   16.666666666666668
-450.0   60.0   33.333333333333336
-500.0   30.0   33.333333333333336
-500.0   60.0   33.333333333333336
-450.0   60.0   33.333333333333336
-500.0   60.0   16.666666666666668
-500.0   30.0   33.333333333333336
-450.0   60.0   33.333333333333336
-450.0   30.0   33.333333333333336
-450.0   30.0   16.666666666666668
-500.0   30.0   33.333333333333336
-450.0   60.0   33.333333333333336
-450.0   30.0   16.666666666666668
-500.0   60.0   16.666666666666668
-500.0   30.0   33.333333333333336
-450.0   30.0   33.333333333333336
-500.0   60.0   33.333333333333336
-500.0   30.0   50.0
-450.0   30.0   33.333333333333336
-450.0   60.0   33.333333333333336
-500.0   60.0   33.333333333333336
-450.0   60.0   50.0
-500.0   30.0   50.0
-500.0   60.0   50.0
-450.0   60.0   50.0
-500.0   60.0   33.333333333333336
-500.0   30.0   50.0
-450.0   60.0   50.0
-450.0   30.0   50.0
-450.0   30.0   33.333333333333336
-500.0   30.0   50.0
-450.0   60.0   50.0
-450.0   30.0   33.333333333333336
-500.0   60.0   33.333333333333336
-500.0   60.0   0.0
-450.0   60.0   0.0
-500.0   90.0   0.0
-500.0   60.0   16.666666666666668
-450.0   60.0   0.0
-450.0   90.0   0.0
-500.0   90.0   0.0
-450.0   90.0   16.666666666666668
-500.0   60.0   16.666666666666668
-500.0   90.0   16.666666666666668
-450.0   90.0   16.666666666666668
-500.0   90.0   0.0
-500.0   60.0   16.666666666666668
-450.0   90.0   16.666666666666668
-450.0   60.0   16.666666666666668
-450.0   60.0   0.0
-500.0   60.0   16.666666666666668
-450.0   90.0   16.666666666666668
-450.0   60.0   0.0
-500.0   90.0   0.0
-500.0   60.0   16.666666666666668
-450.0   60.0   16.666666666666668
-500.0   90.0   16.666666666666668
-500.0   60.0   33.333333333333336
-450.0   60.0   16.666666666666668
-450.0   90.0   16.666666666666668
-500.0   90.0   16.666666666666668
-450.0   90.0   33.333333333333336
-500.0   60.0   33.333333333333336
-500.0   90.0   33.333333333333336
-450.0   90.0   33.333333333333336
-500.0   90.0   16.666666666666668
-500.0   60.0   33.333333333333336
-450.0   90.0   33.333333333333336
-450.0   60.0   33.333333333333336
-450.0   60.0   16.666666666666668
-500.0   60.0   33.333333333333336
-450.0   90.0   33.333333333333336
-450.0   60.0   16.666666666666668
-500.0   90.0   16.666666666666668
-500.0   60.0   33.333333333333336
-450.0   60.0   33.333333333333336
-500.0   90.0   33.333333333333336
-500.0   60.0   50.0
-450.0   60.0   33.333333333333336
-450.0   90.0   33.333333333333336
-500.0   90.0   33.333333333333336
-450.0   90.0   50.0
-500.0   60.0   50.0
-500.0   90.0   50.0
-450.0   90.0   50.0
-500.0   90.0   33.333333333333336
-500.0   60.0   50.0
-450.0   90.0   50.0
-450.0   60.0   50.0
-450.0   60.0   33.333333333333336
-500.0   60.0   50.0
-450.0   90.0   50.0
-450.0   60.0   33.333333333333336
-500.0   90.0   33.333333333333336
-500.0   90.0   0.0
-450.0   90.0   0.0
-500.0   120.0   0.0
-500.0   90.0   16.666666666666668
-450.0   90.0   0.0
-450.0   120.0   0.0
-500.0   120.0   0.0
-450.0   120.0   16.666666666666668
-500.0   90.0   16.666666666666668
-500.0   120.0   16.666666666666668
-450.0   120.0   16.666666666666668
-500.0   120.0   0.0
-500.0   90.0   16.666666666666668
-450.0   120.0   16.666666666666668
-450.0   90.0   16.666666666666668
-450.0   90.0   0.0
-500.0   90.0   16.666666666666668
-450.0   120.0   16.666666666666668
-450.0   90.0   0.0
-500.0   120.0   0.0
-500.0   90.0   16.666666666666668
-450.0   90.0   16.666666666666668
-500.0   120.0   16.666666666666668
-500.0   90.0   33.333333333333336
-450.0   90.0   16.666666666666668
-450.0   120.0   16.666666666666668
-500.0   120.0   16.666666666666668
-450.0   120.0   33.333333333333336
-500.0   90.0   33.333333333333336
-500.0   120.0   33.333333333333336
-450.0   120.0   33.333333333333336
-500.0   120.0   16.666666666666668
-500.0   90.0   33.333333333333336
-450.0   120.0   33.333333333333336
-450.0   90.0   33.333333333333336
-450.0   90.0   16.666666666666668
-500.0   90.0   33.333333333333336
-450.0   120.0   33.333333333333336
-450.0   90.0   16.666666666666668
-500.0   120.0   16.666666666666668
-500.0   90.0   33.333333333333336
-450.0   90.0   33.333333333333336
-500.0   120.0   33.333333333333336
-500.0   90.0   50.0
-450.0   90.0   33.333333333333336
-450.0   120.0   33.333333333333336
-500.0   120.0   33.333333333333336
-450.0   120.0   50.0
-500.0   90.0   50.0
-500.0   120.0   50.0
-450.0   120.0   50.0
-500.0   120.0   33.333333333333336
-500.0   90.0   50.0
-450.0   120.0   50.0
-450.0   90.0   50.0
-450.0   90.0   33.333333333333336
-500.0   90.0   50.0
-450.0   120.0   50.0
-450.0   90.0   33.333333333333336
-500.0   120.0   33.333333333333336
-500.0   120.0   0.0
-450.0   120.0   0.0
-500.0   150.0   0.0
-500.0   120.0   16.666666666666668
-450.0   120.0   0.0
-450.0   150.0   0.0
-500.0   150.0   0.0
-450.0   150.0   16.666666666666668
-500.0   120.0   16.666666666666668
-500.0   150.0   16.666666666666668
-450.0   150.0   16.666666666666668
-500.0   150.0   0.0
-500.0   120.0   16.666666666666668
-450.0   150.0   16.666666666666668
-450.0   120.0   16.666666666666668
-450.0   120.0   0.0
-500.0   120.0   16.666666666666668
-450.0   150.0   16.666666666666668
-450.0   120.0   0.0
-500.0   150.0   0.0
-500.0   120.0   16.666666666666668
-450.0   120.0   16.666666666666668
-500.0   150.0   16.666666666666668
-500.0   120.0   33.333333333333336
-450.0   120.0   16.666666666666668
-450.0   150.0   16.666666666666668
-500.0   150.0   16.666666666666668
-450.0   150.0   33.333333333333336
-500.0   120.0   33.333333333333336
-500.0   150.0   33.333333333333336
-450.0   150.0   33.333333333333336
-500.0   150.0   16.666666666666668
-500.0   120.0   33.333333333333336
-450.0   150.0   33.333333333333336
-450.0   120.0   33.333333333333336
-450.0   120.0   16.666666666666668
-500.0   120.0   33.333333333333336
-450.0   150.0   33.333333333333336
-450.0   120.0   16.666666666666668
-500.0   150.0   16.666666666666668
-500.0   120.0   33.333333333333336
-450.0   120.0   33.333333333333336
-500.0   150.0   33.333333333333336
-500.0   120.0   50.0
-450.0   120.0   33.333333333333336
-450.0   150.0   33.333333333333336
-500.0   150.0   33.333333333333336
-450.0   150.0   50.0
-500.0   120.0   50.0
-500.0   150.0   50.0
-450.0   150.0   50.0
-500.0   150.0   33.333333333333336
-500.0   120.0   50.0
-450.0   150.0   50.0
-450.0   120.0   50.0
-450.0   120.0   33.333333333333336
-500.0   120.0   50.0
-450.0   150.0   50.0
-450.0   120.0   33.333333333333336
-500.0   150.0   33.333333333333336
-450.0   0.0   0.0
-400.0   0.0   0.0
-450.0   30.0   0.0
-450.0   0.0   16.666666666666668
-400.0   0.0   0.0
-400.0   30.0   0.0
-450.0   30.0   0.0
-400.0   30.0   16.666666666666668
-450.0   0.0   16.666666666666668
-450.0   30.0   16.666666666666668
-400.0   30.0   16.666666666666668
-450.0   30.0   0.0
-450.0   0.0   16.666666666666668
-400.0   30.0   16.666666666666668
-400.0   0.0   16.666666666666668
-400.0   0.0   0.0
-450.0   0.0   16.666666666666668
-400.0   30.0   16.666666666666668
-400.0   0.0   0.0
-450.0   30.0   0.0
-450.0   0.0   16.666666666666668
-400.0   0.0   16.666666666666668
-450.0   30.0   16.666666666666668
-450.0   0.0   33.333333333333336
-400.0   0.0   16.666666666666668
-400.0   30.0   16.666666666666668
-450.0   30.0   16.666666666666668
-400.0   30.0   33.333333333333336
-450.0   0.0   33.333333333333336
-450.0   30.0   33.333333333333336
-400.0   30.0   33.333333333333336
-450.0   30.0   16.666666666666668
-450.0   0.0   33.333333333333336
-400.0   30.0   33.333333333333336
-400.0   0.0   33.333333333333336
-400.0   0.0   16.666666666666668
-450.0   0.0   33.333333333333336
-400.0   30.0   33.333333333333336
-400.0   0.0   16.666666666666668
-450.0   30.0   16.666666666666668
-450.0   0.0   33.333333333333336
-400.0   0.0   33.333333333333336
-450.0   30.0   33.333333333333336
-450.0   0.0   50.0
-400.0   0.0   33.333333333333336
-400.0   30.0   33.333333333333336
-450.0   30.0   33.333333333333336
-400.0   30.0   50.0
-450.0   0.0   50.0
-450.0   30.0   50.0
-400.0   30.0   50.0
-450.0   30.0   33.333333333333336
-450.0   0.0   50.0
-400.0   30.0   50.0
-400.0   0.0   50.0
-400.0   0.0   33.333333333333336
-450.0   0.0   50.0
-400.0   30.0   50.0
-400.0   0.0   33.333333333333336
-450.0   30.0   33.333333333333336
-450.0   30.0   0.0
-400.0   30.0   0.0
-450.0   60.0   0.0
-450.0   30.0   16.666666666666668
-400.0   30.0   0.0
-400.0   60.0   0.0
-450.0   60.0   0.0
-400.0   60.0   16.666666666666668
-450.0   30.0   16.666666666666668
-450.0   60.0   16.666666666666668
-400.0   60.0   16.666666666666668
-450.0   60.0   0.0
-450.0   30.0   16.666666666666668
-400.0   60.0   16.666666666666668
-400.0   30.0   16.666666666666668
-400.0   30.0   0.0
-450.0   30.0   16.666666666666668
-400.0   60.0   16.666666666666668
-400.0   30.0   0.0
-450.0   60.0   0.0
-450.0   30.0   16.666666666666668
-400.0   30.0   16.666666666666668
-450.0   60.0   16.666666666666668
-450.0   30.0   33.333333333333336
-400.0   30.0   16.666666666666668
-400.0   60.0   16.666666666666668
-450.0   60.0   16.666666666666668
-400.0   60.0   33.333333333333336
-450.0   30.0   33.333333333333336
-450.0   60.0   33.333333333333336
-400.0   60.0   33.333333333333336
-450.0   60.0   16.666666666666668
-450.0   30.0   33.333333333333336
-400.0   60.0   33.333333333333336
-400.0   30.0   33.333333333333336
-400.0   30.0   16.666666666666668
-450.0   30.0   33.333333333333336
-400.0   60.0   33.333333333333336
-400.0   30.0   16.666666666666668
-450.0   60.0   16.666666666666668
-450.0   30.0   33.333333333333336
-400.0   30.0   33.333333333333336
-450.0   60.0   33.333333333333336
-450.0   30.0   50.0
-400.0   30.0   33.333333333333336
-400.0   60.0   33.333333333333336
-450.0   60.0   33.333333333333336
-400.0   60.0   50.0
-450.0   30.0   50.0
-450.0   60.0   50.0
-400.0   60.0   50.0
-450.0   60.0   33.333333333333336
-450.0   30.0   50.0
-400.0   60.0   50.0
-400.0   30.0   50.0
-400.0   30.0   33.333333333333336
-450.0   30.0   50.0
-400.0   60.0   50.0
-400.0   30.0   33.333333333333336
-450.0   60.0   33.333333333333336
-450.0   60.0   0.0
-400.0   60.0   0.0
-450.0   90.0   0.0
-450.0   60.0   16.666666666666668
-400.0   60.0   0.0
-400.0   90.0   0.0
-450.0   90.0   0.0
-400.0   90.0   16.666666666666668
-450.0   60.0   16.666666666666668
-450.0   90.0   16.666666666666668
-400.0   90.0   16.666666666666668
-450.0   90.0   0.0
-450.0   60.0   16.666666666666668
-400.0   90.0   16.666666666666668
-400.0   60.0   16.666666666666668
-400.0   60.0   0.0
-450.0   60.0   16.666666666666668
-400.0   90.0   16.666666666666668
-400.0   60.0   0.0
-450.0   90.0   0.0
-450.0   60.0   16.666666666666668
-400.0   60.0   16.666666666666668
-450.0   90.0   16.666666666666668
-450.0   60.0   33.333333333333336
-400.0   60.0   16.666666666666668
-400.0   90.0   16.666666666666668
-450.0   90.0   16.666666666666668
-400.0   90.0   33.333333333333336
-450.0   60.0   33.333333333333336
-450.0   90.0   33.333333333333336
-400.0   90.0   33.333333333333336
-450.0   90.0   16.666666666666668
-450.0   60.0   33.333333333333336
-400.0   90.0   33.333333333333336
-400.0   60.0   33.333333333333336
-400.0   60.0   16.666666666666668
-450.0   60.0   33.333333333333336
-400.0   90.0   33.333333333333336
-400.0   60.0   16.666666666666668
-450.0   90.0   16.666666666666668
-450.0   60.0   33.333333333333336
-400.0   60.0   33.333333333333336
-450.0   90.0   33.333333333333336
-450.0   60.0   50.0
-400.0   60.0   33.333333333333336
-400.0   90.0   33.333333333333336
-450.0   90.0   33.333333333333336
-400.0   90.0   50.0
-450.0   60.0   50.0
-450.0   90.0   50.0
-400.0   90.0   50.0
-450.0   90.0   33.333333333333336
-450.0   60.0   50.0
-400.0   90.0   50.0
-400.0   60.0   50.0
-400.0   60.0   33.333333333333336
-450.0   60.0   50.0
-400.0   90.0   50.0
-400.0   60.0   33.333333333333336
-450.0   90.0   33.333333333333336
-450.0   90.0   0.0
-400.0   90.0   0.0
-450.0   120.0   0.0
-450.0   90.0   16.666666666666668
-400.0   90.0   0.0
-400.0   120.0   0.0
-450.0   120.0   0.0
-400.0   120.0   16.666666666666668
-450.0   90.0   16.666666666666668
-450.0   120.0   16.666666666666668
-400.0   120.0   16.666666666666668
-450.0   120.0   0.0
-450.0   90.0   16.666666666666668
-400.0   120.0   16.666666666666668
-400.0   90.0   16.666666666666668
-400.0   90.0   0.0
-450.0   90.0   16.666666666666668
-400.0   120.0   16.666666666666668
-400.0   90.0   0.0
-450.0   120.0   0.0
-450.0   90.0   16.666666666666668
-400.0   90.0   16.666666666666668
-450.0   120.0   16.666666666666668
-450.0   90.0   33.333333333333336
-400.0   90.0   16.666666666666668
-400.0   120.0   16.666666666666668
-450.0   120.0   16.666666666666668
-400.0   120.0   33.333333333333336
-450.0   90.0   33.333333333333336
-450.0   120.0   33.333333333333336
-400.0   120.0   33.333333333333336
-450.0   120.0   16.666666666666668
-450.0   90.0   33.333333333333336
-400.0   120.0   33.333333333333336
-400.0   90.0   33.333333333333336
-400.0   90.0   16.666666666666668
-450.0   90.0   33.333333333333336
-400.0   120.0   33.333333333333336
-400.0   90.0   16.666666666666668
-450.0   120.0   16.666666666666668
-450.0   90.0   33.333333333333336
-400.0   90.0   33.333333333333336
-450.0   120.0   33.333333333333336
-450.0   90.0   50.0
-400.0   90.0   33.333333333333336
-400.0   120.0   33.333333333333336
-450.0   120.0   33.333333333333336
-400.0   120.0   50.0
-450.0   90.0   50.0
-450.0   120.0   50.0
-400.0   120.0   50.0
-450.0   120.0   33.333333333333336
-450.0   90.0   50.0
-400.0   120.0   50.0
-400.0   90.0   50.0
-400.0   90.0   33.333333333333336
-450.0   90.0   50.0
-400.0   120.0   50.0
-400.0   90.0   33.333333333333336
-450.0   120.0   33.333333333333336
-450.0   120.0   0.0
-400.0   120.0   0.0
-450.0   150.0   0.0
-450.0   120.0   16.666666666666668
-400.0   120.0   0.0
-400.0   150.0   0.0
-450.0   150.0   0.0
-400.0   150.0   16.666666666666668
-450.0   120.0   16.666666666666668
-450.0   150.0   16.666666666666668
-400.0   150.0   16.666666666666668
-450.0   150.0   0.0
-450.0   120.0   16.666666666666668
-400.0   150.0   16.666666666666668
-400.0   120.0   16.666666666666668
-400.0   120.0   0.0
-450.0   120.0   16.666666666666668
-400.0   150.0   16.666666666666668
-400.0   120.0   0.0
-450.0   150.0   0.0
-450.0   120.0   16.666666666666668
-400.0   120.0   16.666666666666668
-450.0   150.0   16.666666666666668
-450.0   120.0   33.333333333333336
-400.0   120.0   16.666666666666668
-400.0   150.0   16.666666666666668
-450.0   150.0   16.666666666666668
-400.0   150.0   33.333333333333336
-450.0   120.0   33.333333333333336
-450.0   150.0   33.333333333333336
-400.0   150.0   33.333333333333336
-450.0   150.0   16.666666666666668
-450.0   120.0   33.333333333333336
-400.0   150.0   33.333333333333336
-400.0   120.0   33.333333333333336
-400.0   120.0   16.666666666666668
-450.0   120.0   33.333333333333336
-400.0   150.0   33.333333333333336
-400.0   120.0   16.666666666666668
-450.0   150.0   16.666666666666668
-450.0   120.0   33.333333333333336
-400.0   120.0   33.333333333333336
-450.0   150.0   33.333333333333336
-450.0   120.0   50.0
-400.0   120.0   33.333333333333336
-400.0   150.0   33.333333333333336
-450.0   150.0   33.333333333333336
-400.0   150.0   50.0
-450.0   120.0   50.0
-450.0   150.0   50.0
-400.0   150.0   50.0
-450.0   150.0   33.333333333333336
-450.0   120.0   50.0
-400.0   150.0   50.0
-400.0   120.0   50.0
-400.0   120.0   33.333333333333336
-450.0   120.0   50.0
-400.0   150.0   50.0
-400.0   120.0   33.333333333333336
-450.0   150.0   33.333333333333336
-400.0   0.0   0.0
-350.0   0.0   0.0
-400.0   30.0   0.0
-400.0   0.0   16.666666666666668
-350.0   0.0   0.0
-350.0   30.0   0.0
-400.0   30.0   0.0
-350.0   30.0   16.666666666666668
-400.0   0.0   16.666666666666668
-400.0   30.0   16.666666666666668
-350.0   30.0   16.666666666666668
-400.0   30.0   0.0
-400.0   0.0   16.666666666666668
-350.0   30.0   16.666666666666668
-350.0   0.0   16.666666666666668
-350.0   0.0   0.0
-400.0   0.0   16.666666666666668
-350.0   30.0   16.666666666666668
-350.0   0.0   0.0
-400.0   30.0   0.0
-400.0   0.0   16.666666666666668
-350.0   0.0   16.666666666666668
-400.0   30.0   16.666666666666668
-400.0   0.0   33.333333333333336
-350.0   0.0   16.666666666666668
-350.0   30.0   16.666666666666668
-400.0   30.0   16.666666666666668
-350.0   30.0   33.333333333333336
-400.0   0.0   33.333333333333336
-400.0   30.0   33.333333333333336
-350.0   30.0   33.333333333333336
-400.0   30.0   16.666666666666668
-400.0   0.0   33.333333333333336
-350.0   30.0   33.333333333333336
-350.0   0.0   33.333333333333336
-350.0   0.0   16.666666666666668
-400.0   0.0   33.333333333333336
-350.0   30.0   33.333333333333336
-350.0   0.0   16.666666666666668
-400.0   30.0   16.666666666666668
-400.0   0.0   33.333333333333336
-350.0   0.0   33.333333333333336
-400.0   30.0   33.333333333333336
-400.0   0.0   50.0
-350.0   0.0   33.333333333333336
-350.0   30.0   33.333333333333336
-400.0   30.0   33.333333333333336
-350.0   30.0   50.0
-400.0   0.0   50.0
-400.0   30.0   50.0
-350.0   30.0   50.0
-400.0   30.0   33.333333333333336
-400.0   0.0   50.0
-350.0   30.0   50.0
-350.0   0.0   50.0
-350.0   0.0   33.333333333333336
-400.0   0.0   50.0
-350.0   30.0   50.0
-350.0   0.0   33.333333333333336
-400.0   30.0   33.333333333333336
-400.0   30.0   0.0
-350.0   30.0   0.0
-400.0   60.0   0.0
-400.0   30.0   16.666666666666668
-350.0   30.0   0.0
-350.0   60.0   0.0
-400.0   60.0   0.0
-350.0   60.0   16.666666666666668
-400.0   30.0   16.666666666666668
-400.0   60.0   16.666666666666668
-350.0   60.0   16.666666666666668
-400.0   60.0   0.0
-400.0   30.0   16.666666666666668
-350.0   60.0   16.666666666666668
-350.0   30.0   16.666666666666668
-350.0   30.0   0.0
-400.0   30.0   16.666666666666668
-350.0   60.0   16.666666666666668
-350.0   30.0   0.0
-400.0   60.0   0.0
-400.0   30.0   16.666666666666668
-350.0   30.0   16.666666666666668
-400.0   60.0   16.666666666666668
-400.0   30.0   33.333333333333336
-350.0   30.0   16.666666666666668
-350.0   60.0   16.666666666666668
-400.0   60.0   16.666666666666668
-350.0   60.0   33.333333333333336
-400.0   30.0   33.333333333333336
-400.0   60.0   33.333333333333336
-350.0   60.0   33.333333333333336
-400.0   60.0   16.666666666666668
-400.0   30.0   33.333333333333336
-350.0   60.0   33.333333333333336
-350.0   30.0   33.333333333333336
-350.0   30.0   16.666666666666668
-400.0   30.0   33.333333333333336
-350.0   60.0   33.333333333333336
-350.0   30.0   16.666666666666668
-400.0   60.0   16.666666666666668
-400.0   30.0   33.333333333333336
-350.0   30.0   33.333333333333336
-400.0   60.0   33.333333333333336
-400.0   30.0   50.0
-350.0   30.0   33.333333333333336
-350.0   60.0   33.333333333333336
-400.0   60.0   33.333333333333336
-350.0   60.0   50.0
-400.0   30.0   50.0
-400.0   60.0   50.0
-350.0   60.0   50.0
-400.0   60.0   33.333333333333336
-400.0   30.0   50.0
-350.0   60.0   50.0
-350.0   30.0   50.0
-350.0   30.0   33.333333333333336
-400.0   30.0   50.0
-350.0   60.0   50.0
-350.0   30.0   33.333333333333336
-400.0   60.0   33.333333333333336
-400.0   60.0   0.0
-350.0   60.0   0.0
-400.0   90.0   0.0
-400.0   60.0   16.666666666666668
-350.0   60.0   0.0
-350.0   90.0   0.0
-400.0   90.0   0.0
-350.0   90.0   16.666666666666668
-400.0   60.0   16.666666666666668
-400.0   90.0   16.666666666666668
-350.0   90.0   16.666666666666668
-400.0   90.0   0.0
-400.0   60.0   16.666666666666668
-350.0   90.0   16.666666666666668
-350.0   60.0   16.666666666666668
-350.0   60.0   0.0
-400.0   60.0   16.666666666666668
-350.0   90.0   16.666666666666668
-350.0   60.0   0.0
-400.0   90.0   0.0
-400.0   60.0   16.666666666666668
-350.0   60.0   16.666666666666668
-400.0   90.0   16.666666666666668
-400.0   60.0   33.333333333333336
-350.0   60.0   16.666666666666668
-350.0   90.0   16.666666666666668
-400.0   90.0   16.666666666666668
-350.0   90.0   33.333333333333336
-400.0   60.0   33.333333333333336
-400.0   90.0   33.333333333333336
-350.0   90.0   33.333333333333336
-400.0   90.0   16.666666666666668
-400.0   60.0   33.333333333333336
-350.0   90.0   33.333333333333336
-350.0   60.0   33.333333333333336
-350.0   60.0   16.666666666666668
-400.0   60.0   33.333333333333336
-350.0   90.0   33.333333333333336
-350.0   60.0   16.666666666666668
-400.0   90.0   16.666666666666668
-400.0   60.0   33.333333333333336
-350.0   60.0   33.333333333333336
-400.0   90.0   33.333333333333336
-400.0   60.0   50.0
-350.0   60.0   33.333333333333336
-350.0   90.0   33.333333333333336
-400.0   90.0   33.333333333333336
-350.0   90.0   50.0
-400.0   60.0   50.0
-400.0   90.0   50.0
-350.0   90.0   50.0
-400.0   90.0   33.333333333333336
-400.0   60.0   50.0
-350.0   90.0   50.0
-350.0   60.0   50.0
-350.0   60.0   33.333333333333336
-400.0   60.0   50.0
-350.0   90.0   50.0
-350.0   60.0   33.333333333333336
-400.0   90.0   33.333333333333336
-400.0   90.0   0.0
-350.0   90.0   0.0
-400.0   120.0   0.0
-400.0   90.0   16.666666666666668
-350.0   90.0   0.0
-350.0   120.0   0.0
-400.0   120.0   0.0
-350.0   120.0   16.666666666666668
-400.0   90.0   16.666666666666668
-400.0   120.0   16.666666666666668
-350.0   120.0   16.666666666666668
-400.0   120.0   0.0
-400.0   90.0   16.666666666666668
-350.0   120.0   16.666666666666668
-350.0   90.0   16.666666666666668
-350.0   90.0   0.0
-400.0   90.0   16.666666666666668
-350.0   120.0   16.666666666666668
-350.0   90.0   0.0
-400.0   120.0   0.0
-400.0   90.0   16.666666666666668
-350.0   90.0   16.666666666666668
-400.0   120.0   16.666666666666668
-400.0   90.0   33.333333333333336
-350.0   90.0   16.666666666666668
-350.0   120.0   16.666666666666668
-400.0   120.0   16.666666666666668
-350.0   120.0   33.333333333333336
-400.0   90.0   33.333333333333336
-400.0   120.0   33.333333333333336
-350.0   120.0   33.333333333333336
-400.0   120.0   16.666666666666668
-400.0   90.0   33.333333333333336
-350.0   120.0   33.333333333333336
-350.0   90.0   33.333333333333336
-350.0   90.0   16.666666666666668
-400.0   90.0   33.333333333333336
-350.0   120.0   33.333333333333336
-350.0   90.0   16.666666666666668
-400.0   120.0   16.666666666666668
-400.0   90.0   33.333333333333336
-350.0   90.0   33.333333333333336
-400.0   120.0   33.333333333333336
-400.0   90.0   50.0
-350.0   90.0   33.333333333333336
-350.0   120.0   33.333333333333336
-400.0   120.0   33.333333333333336
-350.0   120.0   50.0
-400.0   90.0   50.0
-400.0   120.0   50.0
-350.0   120.0   50.0
-400.0   120.0   33.333333333333336
-400.0   90.0   50.0
-350.0   120.0   50.0
-350.0   90.0   50.0
-350.0   90.0   33.333333333333336
-400.0   90.0   50.0
-350.0   120.0   50.0
-350.0   90.0   33.333333333333336
-400.0   120.0   33.333333333333336
-400.0   120.0   0.0
-350.0   120.0   0.0
-400.0   150.0   0.0
-400.0   120.0   16.666666666666668
-350.0   120.0   0.0
-350.0   150.0   0.0
-400.0   150.0   0.0
-350.0   150.0   16.666666666666668
-400.0   120.0   16.666666666666668
-400.0   150.0   16.666666666666668
-350.0   150.0   16.666666666666668
-400.0   150.0   0.0
-400.0   120.0   16.666666666666668
-350.0   150.0   16.666666666666668
-350.0   120.0   16.666666666666668
-350.0   120.0   0.0
-400.0   120.0   16.666666666666668
-350.0   150.0   16.666666666666668
-350.0   120.0   0.0
-400.0   150.0   0.0
-400.0   120.0   16.666666666666668
-350.0   120.0   16.666666666666668
-400.0   150.0   16.666666666666668
-400.0   120.0   33.333333333333336
-350.0   120.0   16.666666666666668
-350.0   150.0   16.666666666666668
-400.0   150.0   16.666666666666668
-350.0   150.0   33.333333333333336
-400.0   120.0   33.333333333333336
-400.0   150.0   33.333333333333336
-350.0   150.0   33.333333333333336
-400.0   150.0   16.666666666666668
-400.0   120.0   33.333333333333336
-350.0   150.0   33.333333333333336
-350.0   120.0   33.333333333333336
-350.0   120.0   16.666666666666668
-400.0   120.0   33.333333333333336
-350.0   150.0   33.333333333333336
-350.0   120.0   16.666666666666668
-400.0   150.0   16.666666666666668
-400.0   120.0   33.333333333333336
-350.0   120.0   33.333333333333336
-400.0   150.0   33.333333333333336
-400.0   120.0   50.0
-350.0   120.0   33.333333333333336
-350.0   150.0   33.333333333333336
-400.0   150.0   33.333333333333336
-350.0   150.0   50.0
-400.0   120.0   50.0
-400.0   150.0   50.0
-350.0   150.0   50.0
-400.0   150.0   33.333333333333336
-400.0   120.0   50.0
-350.0   150.0   50.0
-350.0   120.0   50.0
-350.0   120.0   33.333333333333336
-400.0   120.0   50.0
-350.0   150.0   50.0
-350.0   120.0   33.333333333333336
-400.0   150.0   33.333333333333336
-350.0   0.0   0.0
-300.0   0.0   0.0
-350.0   30.0   0.0
-350.0   0.0   16.666666666666668
-300.0   0.0   0.0
-300.0   30.0   0.0
-350.0   30.0   0.0
-300.0   30.0   16.666666666666668
-350.0   0.0   16.666666666666668
-350.0   30.0   16.666666666666668
-300.0   30.0   16.666666666666668
-350.0   30.0   0.0
-350.0   0.0   16.666666666666668
-300.0   30.0   16.666666666666668
-300.0   0.0   16.666666666666668
-300.0   0.0   0.0
-350.0   0.0   16.666666666666668
-300.0   30.0   16.666666666666668
-300.0   0.0   0.0
-350.0   30.0   0.0
-350.0   0.0   16.666666666666668
-300.0   0.0   16.666666666666668
-350.0   30.0   16.666666666666668
-350.0   0.0   33.333333333333336
-300.0   0.0   16.666666666666668
-300.0   30.0   16.666666666666668
-350.0   30.0   16.666666666666668
-300.0   30.0   33.333333333333336
-350.0   0.0   33.333333333333336
-350.0   30.0   33.333333333333336
-300.0   30.0   33.333333333333336
-350.0   30.0   16.666666666666668
-350.0   0.0   33.333333333333336
-300.0   30.0   33.333333333333336
-300.0   0.0   33.333333333333336
-300.0   0.0   16.666666666666668
-350.0   0.0   33.333333333333336
-300.0   30.0   33.333333333333336
-300.0   0.0   16.666666666666668
-350.0   30.0   16.666666666666668
-350.0   0.0   33.333333333333336
-300.0   0.0   33.333333333333336
-350.0   30.0   33.333333333333336
-350.0   0.0   50.0
-300.0   0.0   33.333333333333336
-300.0   30.0   33.333333333333336
-350.0   30.0   33.333333333333336
-300.0   30.0   50.0
-350.0   0.0   50.0
-350.0   30.0   50.0
-300.0   30.0   50.0
-350.0   30.0   33.333333333333336
-350.0   0.0   50.0
-300.0   30.0   50.0
-300.0   0.0   50.0
-300.0   0.0   33.333333333333336
-350.0   0.0   50.0
-300.0   30.0   50.0
-300.0   0.0   33.333333333333336
-350.0   30.0   33.333333333333336
-350.0   30.0   0.0
-300.0   30.0   0.0
-350.0   60.0   0.0
-350.0   30.0   16.666666666666668
-300.0   30.0   0.0
-300.0   60.0   0.0
-350.0   60.0   0.0
-300.0   60.0   16.666666666666668
-350.0   30.0   16.666666666666668
-350.0   60.0   16.666666666666668
-300.0   60.0   16.666666666666668
-350.0   60.0   0.0
-350.0   30.0   16.666666666666668
-300.0   60.0   16.666666666666668
-300.0   30.0   16.666666666666668
-300.0   30.0   0.0
-350.0   30.0   16.666666666666668
-300.0   60.0   16.666666666666668
-300.0   30.0   0.0
-350.0   60.0   0.0
-350.0   30.0   16.666666666666668
-300.0   30.0   16.666666666666668
-350.0   60.0   16.666666666666668
-350.0   30.0   33.333333333333336
-300.0   30.0   16.666666666666668
-300.0   60.0   16.666666666666668
-350.0   60.0   16.666666666666668
-300.0   60.0   33.333333333333336
-350.0   30.0   33.333333333333336
-350.0   60.0   33.333333333333336
-300.0   60.0   33.333333333333336
-350.0   60.0   16.666666666666668
-350.0   30.0   33.333333333333336
-300.0   60.0   33.333333333333336
-300.0   30.0   33.333333333333336
-300.0   30.0   16.666666666666668
-350.0   30.0   33.333333333333336
-300.0   60.0   33.333333333333336
-300.0   30.0   16.666666666666668
-350.0   60.0   16.666666666666668
-350.0   30.0   33.333333333333336
-300.0   30.0   33.333333333333336
-350.0   60.0   33.333333333333336
-350.0   30.0   50.0
-300.0   30.0   33.333333333333336
-300.0   60.0   33.333333333333336
-350.0   60.0   33.333333333333336
-300.0   60.0   50.0
-350.0   30.0   50.0
-350.0   60.0   50.0
-300.0   60.0   50.0
-350.0   60.0   33.333333333333336
-350.0   30.0   50.0
-300.0   60.0   50.0
-300.0   30.0   50.0
-300.0   30.0   33.333333333333336
-350.0   30.0   50.0
-300.0   60.0   50.0
-300.0   30.0   33.333333333333336
-350.0   60.0   33.333333333333336
-350.0   60.0   0.0
-300.0   60.0   0.0
-350.0   90.0   0.0
-350.0   60.0   16.666666666666668
-300.0   60.0   0.0
-300.0   90.0   0.0
-350.0   90.0   0.0
-300.0   90.0   16.666666666666668
-350.0   60.0   16.666666666666668
-350.0   90.0   16.666666666666668
-300.0   90.0   16.666666666666668
-350.0   90.0   0.0
-350.0   60.0   16.666666666666668
-300.0   90.0   16.666666666666668
-300.0   60.0   16.666666666666668
-300.0   60.0   0.0
-350.0   60.0   16.666666666666668
-300.0   90.0   16.666666666666668
-300.0   60.0   0.0
-350.0   90.0   0.0
-350.0   60.0   16.666666666666668
-300.0   60.0   16.666666666666668
-350.0   90.0   16.666666666666668
-350.0   60.0   33.333333333333336
-300.0   60.0   16.666666666666668
-300.0   90.0   16.666666666666668
-350.0   90.0   16.666666666666668
-300.0   90.0   33.333333333333336
-350.0   60.0   33.333333333333336
-350.0   90.0   33.333333333333336
-300.0   90.0   33.333333333333336
-350.0   90.0   16.666666666666668
-350.0   60.0   33.333333333333336
-300.0   90.0   33.333333333333336
-300.0   60.0   33.333333333333336
-300.0   60.0   16.666666666666668
-350.0   60.0   33.333333333333336
-300.0   90.0   33.333333333333336
-300.0   60.0   16.666666666666668
-350.0   90.0   16.666666666666668
-350.0   60.0   33.333333333333336
-300.0   60.0   33.333333333333336
-350.0   90.0   33.333333333333336
-350.0   60.0   50.0
-300.0   60.0   33.333333333333336
-300.0   90.0   33.333333333333336
-350.0   90.0   33.333333333333336
-300.0   90.0   50.0
-350.0   60.0   50.0
-350.0   90.0   50.0
-300.0   90.0   50.0
-350.0   90.0   33.333333333333336
-350.0   60.0   50.0
-300.0   90.0   50.0
-300.0   60.0   50.0
-300.0   60.0   33.333333333333336
-350.0   60.0   50.0
-300.0   90.0   50.0
-300.0   60.0   33.333333333333336
-350.0   90.0   33.333333333333336
-350.0   90.0   0.0
-300.0   90.0   0.0
-350.0   120.0   0.0
-350.0   90.0   16.666666666666668
-300.0   90.0   0.0
-300.0   120.0   0.0
-350.0   120.0   0.0
-300.0   120.0   16.666666666666668
-350.0   90.0   16.666666666666668
-350.0   120.0   16.666666666666668
-300.0   120.0   16.666666666666668
-350.0   120.0   0.0
-350.0   90.0   16.666666666666668
-300.0   120.0   16.666666666666668
-300.0   90.0   16.666666666666668
-300.0   90.0   0.0
-350.0   90.0   16.666666666666668
-300.0   120.0   16.666666666666668
-300.0   90.0   0.0
-350.0   120.0   0.0
-350.0   90.0   16.666666666666668
-300.0   90.0   16.666666666666668
-350.0   120.0   16.666666666666668
-350.0   90.0   33.333333333333336
-300.0   90.0   16.666666666666668
-300.0   120.0   16.666666666666668
-350.0   120.0   16.666666666666668
-300.0   120.0   33.333333333333336
-350.0   90.0   33.333333333333336
-350.0   120.0   33.333333333333336
-300.0   120.0   33.333333333333336
-350.0   120.0   16.666666666666668
-350.0   90.0   33.333333333333336
-300.0   120.0   33.333333333333336
-300.0   90.0   33.333333333333336
-300.0   90.0   16.666666666666668
-350.0   90.0   33.333333333333336
-300.0   120.0   33.333333333333336
-300.0   90.0   16.666666666666668
-350.0   120.0   16.666666666666668
-350.0   90.0   33.333333333333336
-300.0   90.0   33.333333333333336
-350.0   120.0   33.333333333333336
-350.0   90.0   50.0
-300.0   90.0   33.333333333333336
-300.0   120.0   33.333333333333336
-350.0   120.0   33.333333333333336
-300.0   120.0   50.0
-350.0   90.0   50.0
-350.0   120.0   50.0
-300.0   120.0   50.0
-350.0   120.0   33.333333333333336
-350.0   90.0   50.0
-300.0   120.0   50.0
-300.0   90.0   50.0
-300.0   90.0   33.333333333333336
-350.0   90.0   50.0
-300.0   120.0   50.0
-300.0   90.0   33.333333333333336
-350.0   120.0   33.333333333333336
-350.0   120.0   0.0
-300.0   120.0   0.0
-350.0   150.0   0.0
-350.0   120.0   16.666666666666668
-300.0   120.0   0.0
-300.0   150.0   0.0
-350.0   150.0   0.0
-300.0   150.0   16.666666666666668
-350.0   120.0   16.666666666666668
-350.0   150.0   16.666666666666668
-300.0   150.0   16.666666666666668
-350.0   150.0   0.0
-350.0   120.0   16.666666666666668
-300.0   150.0   16.666666666666668
-300.0   120.0   16.666666666666668
-300.0   120.0   0.0
-350.0   120.0   16.666666666666668
-300.0   150.0   16.666666666666668
-300.0   120.0   0.0
-350.0   150.0   0.0
-350.0   120.0   16.666666666666668
-300.0   120.0   16.666666666666668
-350.0   150.0   16.666666666666668
-350.0   120.0   33.333333333333336
-300.0   120.0   16.666666666666668
-300.0   150.0   16.666666666666668
-350.0   150.0   16.666666666666668
-300.0   150.0   33.333333333333336
-350.0   120.0   33.333333333333336
-350.0   150.0   33.333333333333336
-300.0   150.0   33.333333333333336
-350.0   150.0   16.666666666666668
-350.0   120.0   33.333333333333336
-300.0   150.0   33.333333333333336
-300.0   120.0   33.333333333333336
-300.0   120.0   16.666666666666668
-350.0   120.0   33.333333333333336
-300.0   150.0   33.333333333333336
-300.0   120.0   16.666666666666668
-350.0   150.0   16.666666666666668
-350.0   120.0   33.333333333333336
-300.0   120.0   33.333333333333336
-350.0   150.0   33.333333333333336
-350.0   120.0   50.0
-300.0   120.0   33.333333333333336
-300.0   150.0   33.333333333333336
-350.0   150.0   33.333333333333336
-300.0   150.0   50.0
-350.0   120.0   50.0
-350.0   150.0   50.0
-300.0   150.0   50.0
-350.0   150.0   33.333333333333336
-350.0   120.0   50.0
-300.0   150.0   50.0
-300.0   120.0   50.0
-300.0   120.0   33.333333333333336
-350.0   120.0   50.0
-300.0   150.0   50.0
-300.0   120.0   33.333333333333336
-350.0   150.0   33.333333333333336
-300.0   0.0   0.0
-250.0   0.0   0.0
-300.0   30.0   0.0
-300.0   0.0   16.666666666666668
-250.0   0.0   0.0
-250.0   30.0   0.0
-300.0   30.0   0.0
-250.0   30.0   16.666666666666668
-300.0   0.0   16.666666666666668
-300.0   30.0   16.666666666666668
-250.0   30.0   16.666666666666668
-300.0   30.0   0.0
-300.0   0.0   16.666666666666668
-250.0   30.0   16.666666666666668
-250.0   0.0   16.666666666666668
-250.0   0.0   0.0
-300.0   0.0   16.666666666666668
-250.0   30.0   16.666666666666668
-250.0   0.0   0.0
-300.0   30.0   0.0
-300.0   0.0   16.666666666666668
-250.0   0.0   16.666666666666668
-300.0   30.0   16.666666666666668
-300.0   0.0   33.333333333333336
-250.0   0.0   16.666666666666668
-250.0   30.0   16.666666666666668
-300.0   30.0   16.666666666666668
-250.0   30.0   33.333333333333336
-300.0   0.0   33.333333333333336
-300.0   30.0   33.333333333333336
-250.0   30.0   33.333333333333336
-300.0   30.0   16.666666666666668
-300.0   0.0   33.333333333333336
-250.0   30.0   33.333333333333336
-250.0   0.0   33.333333333333336
-250.0   0.0   16.666666666666668
-300.0   0.0   33.333333333333336
-250.0   30.0   33.333333333333336
-250.0   0.0   16.666666666666668
-300.0   30.0   16.666666666666668
-300.0   0.0   33.333333333333336
-250.0   0.0   33.333333333333336
-300.0   30.0   33.333333333333336
-300.0   0.0   50.0
-250.0   0.0   33.333333333333336
-250.0   30.0   33.333333333333336
-300.0   30.0   33.333333333333336
-250.0   30.0   50.0
-300.0   0.0   50.0
-300.0   30.0   50.0
-250.0   30.0   50.0
-300.0   30.0   33.333333333333336
-300.0   0.0   50.0
-250.0   30.0   50.0
-250.0   0.0   50.0
-250.0   0.0   33.333333333333336
-300.0   0.0   50.0
-250.0   30.0   50.0
-250.0   0.0   33.333333333333336
-300.0   30.0   33.333333333333336
-300.0   30.0   0.0
-250.0   30.0   0.0
-300.0   60.0   0.0
-300.0   30.0   16.666666666666668
-250.0   30.0   0.0
-250.0   60.0   0.0
-300.0   60.0   0.0
-250.0   60.0   16.666666666666668
-300.0   30.0   16.666666666666668
-300.0   60.0   16.666666666666668
-250.0   60.0   16.666666666666668
-300.0   60.0   0.0
-300.0   30.0   16.666666666666668
-250.0   60.0   16.666666666666668
-250.0   30.0   16.666666666666668
-250.0   30.0   0.0
-300.0   30.0   16.666666666666668
-250.0   60.0   16.666666666666668
-250.0   30.0   0.0
-300.0   60.0   0.0
-300.0   30.0   16.666666666666668
-250.0   30.0   16.666666666666668
-300.0   60.0   16.666666666666668
-300.0   30.0   33.333333333333336
-250.0   30.0   16.666666666666668
-250.0   60.0   16.666666666666668
-300.0   60.0   16.666666666666668
-250.0   60.0   33.333333333333336
-300.0   30.0   33.333333333333336
-300.0   60.0   33.333333333333336
-250.0   60.0   33.333333333333336
-300.0   60.0   16.666666666666668
-300.0   30.0   33.333333333333336
-250.0   60.0   33.333333333333336
-250.0   30.0   33.333333333333336
-250.0   30.0   16.666666666666668
-300.0   30.0   33.333333333333336
-250.0   60.0   33.333333333333336
-250.0   30.0   16.666666666666668
-300.0   60.0   16.666666666666668
-300.0   30.0   33.333333333333336
-250.0   30.0   33.333333333333336
-300.0   60.0   33.333333333333336
-300.0   30.0   50.0
-250.0   30.0   33.333333333333336
-250.0   60.0   33.333333333333336
-300.0   60.0   33.333333333333336
-250.0   60.0   50.0
-300.0   30.0   50.0
-300.0   60.0   50.0
-250.0   60.0   50.0
-300.0   60.0   33.333333333333336
-300.0   30.0   50.0
-250.0   60.0   50.0
-250.0   30.0   50.0
-250.0   30.0   33.333333333333336
-300.0   30.0   50.0
-250.0   60.0   50.0
-250.0   30.0   33.333333333333336
-300.0   60.0   33.333333333333336
-300.0   60.0   0.0
-250.0   60.0   0.0
-300.0   90.0   0.0
-300.0   60.0   16.666666666666668
-250.0   60.0   0.0
-250.0   90.0   0.0
-300.0   90.0   0.0
-250.0   90.0   16.666666666666668
-300.0   60.0   16.666666666666668
-300.0   90.0   16.666666666666668
-250.0   90.0   16.666666666666668
-300.0   90.0   0.0
-300.0   60.0   16.666666666666668
-250.0   90.0   16.666666666666668
-250.0   60.0   16.666666666666668
-250.0   60.0   0.0
-300.0   60.0   16.666666666666668
-250.0   90.0   16.666666666666668
-250.0   60.0   0.0
-300.0   90.0   0.0
-300.0   60.0   16.666666666666668
-250.0   60.0   16.666666666666668
-300.0   90.0   16.666666666666668
-300.0   60.0   33.333333333333336
-250.0   60.0   16.666666666666668
-250.0   90.0   16.666666666666668
-300.0   90.0   16.666666666666668
-250.0   90.0   33.333333333333336
-300.0   60.0   33.333333333333336
-300.0   90.0   33.333333333333336
-250.0   90.0   33.333333333333336
-300.0   90.0   16.666666666666668
-300.0   60.0   33.333333333333336
-250.0   90.0   33.333333333333336
-250.0   60.0   33.333333333333336
-250.0   60.0   16.666666666666668
-300.0   60.0   33.333333333333336
-250.0   90.0   33.333333333333336
-250.0   60.0   16.666666666666668
-300.0   90.0   16.666666666666668
-300.0   60.0   33.333333333333336
-250.0   60.0   33.333333333333336
-300.0   90.0   33.333333333333336
-300.0   60.0   50.0
-250.0   60.0   33.333333333333336
-250.0   90.0   33.333333333333336
-300.0   90.0   33.333333333333336
-250.0   90.0   50.0
-300.0   60.0   50.0
-300.0   90.0   50.0
-250.0   90.0   50.0
-300.0   90.0   33.333333333333336
-300.0   60.0   50.0
-250.0   90.0   50.0
-250.0   60.0   50.0
-250.0   60.0   33.333333333333336
-300.0   60.0   50.0
-250.0   90.0   50.0
-250.0   60.0   33.333333333333336
-300.0   90.0   33.333333333333336
-300.0   90.0   0.0
-250.0   90.0   0.0
-300.0   120.0   0.0
-300.0   90.0   16.666666666666668
-250.0   90.0   0.0
-250.0   120.0   0.0
-300.0   120.0   0.0
-250.0   120.0   16.666666666666668
-300.0   90.0   16.666666666666668
-300.0   120.0   16.666666666666668
-250.0   120.0   16.666666666666668
-300.0   120.0   0.0
-300.0   90.0   16.666666666666668
-250.0   120.0   16.666666666666668
-250.0   90.0   16.666666666666668
-250.0   90.0   0.0
-300.0   90.0   16.666666666666668
-250.0   120.0   16.666666666666668
-250.0   90.0   0.0
-300.0   120.0   0.0
-300.0   90.0   16.666666666666668
-250.0   90.0   16.666666666666668
-300.0   120.0   16.666666666666668
-300.0   90.0   33.333333333333336
-250.0   90.0   16.666666666666668
-250.0   120.0   16.666666666666668
-300.0   120.0   16.666666666666668
-250.0   120.0   33.333333333333336
-300.0   90.0   33.333333333333336
-300.0   120.0   33.333333333333336
-250.0   120.0   33.333333333333336
-300.0   120.0   16.666666666666668
-300.0   90.0   33.333333333333336
-250.0   120.0   33.333333333333336
-250.0   90.0   33.333333333333336
-250.0   90.0   16.666666666666668
-300.0   90.0   33.333333333333336
-250.0   120.0   33.333333333333336
-250.0   90.0   16.666666666666668
-300.0   120.0   16.666666666666668
-300.0   90.0   33.333333333333336
-250.0   90.0   33.333333333333336
-300.0   120.0   33.333333333333336
-300.0   90.0   50.0
-250.0   90.0   33.333333333333336
-250.0   120.0   33.333333333333336
-300.0   120.0   33.333333333333336
-250.0   120.0   50.0
-300.0   90.0   50.0
-300.0   120.0   50.0
-250.0   120.0   50.0
-300.0   120.0   33.333333333333336
-300.0   90.0   50.0
-250.0   120.0   50.0
-250.0   90.0   50.0
-250.0   90.0   33.333333333333336
-300.0   90.0   50.0
-250.0   120.0   50.0
-250.0   90.0   33.333333333333336
-300.0   120.0   33.333333333333336
-300.0   120.0   0.0
-250.0   120.0   0.0
-300.0   150.0   0.0
-300.0   120.0   16.666666666666668
-250.0   120.0   0.0
-250.0   150.0   0.0
-300.0   150.0   0.0
-250.0   150.0   16.666666666666668
-300.0   120.0   16.666666666666668
-300.0   150.0   16.666666666666668
-250.0   150.0   16.666666666666668
-300.0   150.0   0.0
-300.0   120.0   16.666666666666668
-250.0   150.0   16.666666666666668
-250.0   120.0   16.666666666666668
-250.0   120.0   0.0
-300.0   120.0   16.666666666666668
-250.0   150.0   16.666666666666668
-250.0   120.0   0.0
-300.0   150.0   0.0
-300.0   120.0   16.666666666666668
-250.0   120.0   16.666666666666668
-300.0   150.0   16.666666666666668
-300.0   120.0   33.333333333333336
-250.0   120.0   16.666666666666668
-250.0   150.0   16.666666666666668
-300.0   150.0   16.666666666666668
-250.0   150.0   33.333333333333336
-300.0   120.0   33.333333333333336
-300.0   150.0   33.333333333333336
-250.0   150.0   33.333333333333336
-300.0   150.0   16.666666666666668
-300.0   120.0   33.333333333333336
-250.0   150.0   33.333333333333336
-250.0   120.0   33.333333333333336
-250.0   120.0   16.666666666666668
-300.0   120.0   33.333333333333336
-250.0   150.0   33.333333333333336
-250.0   120.0   16.666666666666668
-300.0   150.0   16.666666666666668
-300.0   120.0   33.333333333333336
-250.0   120.0   33.333333333333336
-300.0   150.0   33.333333333333336
-300.0   120.0   50.0
-250.0   120.0   33.333333333333336
-250.0   150.0   33.333333333333336
-300.0   150.0   33.333333333333336
-250.0   150.0   50.0
-300.0   120.0   50.0
-300.0   150.0   50.0
-250.0   150.0   50.0
-300.0   150.0   33.333333333333336
-300.0   120.0   50.0
-250.0   150.0   50.0
-250.0   120.0   50.0
-250.0   120.0   33.333333333333336
-300.0   120.0   50.0
-250.0   150.0   50.0
-250.0   120.0   33.333333333333336
-300.0   150.0   33.333333333333336
-250.0   0.0   0.0
-200.0   0.0   0.0
-250.0   30.0   0.0
-250.0   0.0   16.666666666666668
-200.0   0.0   0.0
-200.0   30.0   0.0
-250.0   30.0   0.0
-200.0   30.0   16.666666666666668
-250.0   0.0   16.666666666666668
-250.0   30.0   16.666666666666668
-200.0   30.0   16.666666666666668
-250.0   30.0   0.0
-250.0   0.0   16.666666666666668
-200.0   30.0   16.666666666666668
-200.0   0.0   16.666666666666668
-200.0   0.0   0.0
-250.0   0.0   16.666666666666668
-200.0   30.0   16.666666666666668
-200.0   0.0   0.0
-250.0   30.0   0.0
-250.0   0.0   16.666666666666668
-200.0   0.0   16.666666666666668
-250.0   30.0   16.666666666666668
-250.0   0.0   33.333333333333336
-200.0   0.0   16.666666666666668
-200.0   30.0   16.666666666666668
-250.0   30.0   16.666666666666668
-200.0   30.0   33.333333333333336
-250.0   0.0   33.333333333333336
-250.0   30.0   33.333333333333336
-200.0   30.0   33.333333333333336
-250.0   30.0   16.666666666666668
-250.0   0.0   33.333333333333336
-200.0   30.0   33.333333333333336
-200.0   0.0   33.333333333333336
-200.0   0.0   16.666666666666668
-250.0   0.0   33.333333333333336
-200.0   30.0   33.333333333333336
-200.0   0.0   16.666666666666668
-250.0   30.0   16.666666666666668
-250.0   0.0   33.333333333333336
-200.0   0.0   33.333333333333336
-250.0   30.0   33.333333333333336
-250.0   0.0   50.0
-200.0   0.0   33.333333333333336
-200.0   30.0   33.333333333333336
-250.0   30.0   33.333333333333336
-200.0   30.0   50.0
-250.0   0.0   50.0
-250.0   30.0   50.0
-200.0   30.0   50.0
-250.0   30.0   33.333333333333336
-250.0   0.0   50.0
-200.0   30.0   50.0
-200.0   0.0   50.0
-200.0   0.0   33.333333333333336
-250.0   0.0   50.0
-200.0   30.0   50.0
-200.0   0.0   33.333333333333336
-250.0   30.0   33.333333333333336
-250.0   30.0   0.0
-200.0   30.0   0.0
-250.0   60.0   0.0
-250.0   30.0   16.666666666666668
-200.0   30.0   0.0
-200.0   60.0   0.0
-250.0   60.0   0.0
-200.0   60.0   16.666666666666668
-250.0   30.0   16.666666666666668
-250.0   60.0   16.666666666666668
-200.0   60.0   16.666666666666668
-250.0   60.0   0.0
-250.0   30.0   16.666666666666668
-200.0   60.0   16.666666666666668
-200.0   30.0   16.666666666666668
-200.0   30.0   0.0
-250.0   30.0   16.666666666666668
-200.0   60.0   16.666666666666668
-200.0   30.0   0.0
-250.0   60.0   0.0
-250.0   30.0   16.666666666666668
-200.0   30.0   16.666666666666668
-250.0   60.0   16.666666666666668
-250.0   30.0   33.333333333333336
-200.0   30.0   16.666666666666668
-200.0   60.0   16.666666666666668
-250.0   60.0   16.666666666666668
-200.0   60.0   33.333333333333336
-250.0   30.0   33.333333333333336
-250.0   60.0   33.333333333333336
-200.0   60.0   33.333333333333336
-250.0   60.0   16.666666666666668
-250.0   30.0   33.333333333333336
-200.0   60.0   33.333333333333336
-200.0   30.0   33.333333333333336
-200.0   30.0   16.666666666666668
-250.0   30.0   33.333333333333336
-200.0   60.0   33.333333333333336
-200.0   30.0   16.666666666666668
-250.0   60.0   16.666666666666668
-250.0   30.0   33.333333333333336
-200.0   30.0   33.333333333333336
-250.0   60.0   33.333333333333336
-250.0   30.0   50.0
-200.0   30.0   33.333333333333336
-200.0   60.0   33.333333333333336
-250.0   60.0   33.333333333333336
-200.0   60.0   50.0
-250.0   30.0   50.0
-250.0   60.0   50.0
-200.0   60.0   50.0
-250.0   60.0   33.333333333333336
-250.0   30.0   50.0
-200.0   60.0   50.0
-200.0   30.0   50.0
-200.0   30.0   33.333333333333336
-250.0   30.0   50.0
-200.0   60.0   50.0
-200.0   30.0   33.333333333333336
-250.0   60.0   33.333333333333336
-250.0   60.0   0.0
-200.0   60.0   0.0
-250.0   90.0   0.0
-250.0   60.0   16.666666666666668
-200.0   60.0   0.0
-200.0   90.0   0.0
-250.0   90.0   0.0
-200.0   90.0   16.666666666666668
-250.0   60.0   16.666666666666668
-250.0   90.0   16.666666666666668
-200.0   90.0   16.666666666666668
-250.0   90.0   0.0
-250.0   60.0   16.666666666666668
-200.0   90.0   16.666666666666668
-200.0   60.0   16.666666666666668
-200.0   60.0   0.0
-250.0   60.0   16.666666666666668
-200.0   90.0   16.666666666666668
-200.0   60.0   0.0
-250.0   90.0   0.0
-250.0   60.0   16.666666666666668
-200.0   60.0   16.666666666666668
-250.0   90.0   16.666666666666668
-250.0   60.0   33.333333333333336
-200.0   60.0   16.666666666666668
-200.0   90.0   16.666666666666668
-250.0   90.0   16.666666666666668
-200.0   90.0   33.333333333333336
-250.0   60.0   33.333333333333336
-250.0   90.0   33.333333333333336
-200.0   90.0   33.333333333333336
-250.0   90.0   16.666666666666668
-250.0   60.0   33.333333333333336
-200.0   90.0   33.333333333333336
-200.0   60.0   33.333333333333336
-200.0   60.0   16.666666666666668
-250.0   60.0   33.333333333333336
-200.0   90.0   33.333333333333336
-200.0   60.0   16.666666666666668
-250.0   90.0   16.666666666666668
-250.0   60.0   33.333333333333336
-200.0   60.0   33.333333333333336
-250.0   90.0   33.333333333333336
-250.0   60.0   50.0
-200.0   60.0   33.333333333333336
-200.0   90.0   33.333333333333336
-250.0   90.0   33.333333333333336
-200.0   90.0   50.0
-250.0   60.0   50.0
-250.0   90.0   50.0
-200.0   90.0   50.0
-250.0   90.0   33.333333333333336
-250.0   60.0   50.0
-200.0   90.0   50.0
-200.0   60.0   50.0
-200.0   60.0   33.333333333333336
-250.0   60.0   50.0
-200.0   90.0   50.0
-200.0   60.0   33.333333333333336
-250.0   90.0   33.333333333333336
-250.0   90.0   0.0
-200.0   90.0   0.0
-250.0   120.0   0.0
-250.0   90.0   16.666666666666668
-200.0   90.0   0.0
-200.0   120.0   0.0
-250.0   120.0   0.0
-200.0   120.0   16.666666666666668
-250.0   90.0   16.666666666666668
-250.0   120.0   16.666666666666668
-200.0   120.0   16.666666666666668
-250.0   120.0   0.0
-250.0   90.0   16.666666666666668
-200.0   120.0   16.666666666666668
-200.0   90.0   16.666666666666668
-200.0   90.0   0.0
-250.0   90.0   16.666666666666668
-200.0   120.0   16.666666666666668
-200.0   90.0   0.0
-250.0   120.0   0.0
-250.0   90.0   16.666666666666668
-200.0   90.0   16.666666666666668
-250.0   120.0   16.666666666666668
-250.0   90.0   33.333333333333336
-200.0   90.0   16.666666666666668
-200.0   120.0   16.666666666666668
-250.0   120.0   16.666666666666668
-200.0   120.0   33.333333333333336
-250.0   90.0   33.333333333333336
-250.0   120.0   33.333333333333336
-200.0   120.0   33.333333333333336
-250.0   120.0   16.666666666666668
-250.0   90.0   33.333333333333336
-200.0   120.0   33.333333333333336
-200.0   90.0   33.333333333333336
-200.0   90.0   16.666666666666668
-250.0   90.0   33.333333333333336
-200.0   120.0   33.333333333333336
-200.0   90.0   16.666666666666668
-250.0   120.0   16.666666666666668
-250.0   90.0   33.333333333333336
-200.0   90.0   33.333333333333336
-250.0   120.0   33.333333333333336
-250.0   90.0   50.0
-200.0   90.0   33.333333333333336
-200.0   120.0   33.333333333333336
-250.0   120.0   33.333333333333336
-200.0   120.0   50.0
-250.0   90.0   50.0
-250.0   120.0   50.0
-200.0   120.0   50.0
-250.0   120.0   33.333333333333336
-250.0   90.0   50.0
-200.0   120.0   50.0
-200.0   90.0   50.0
-200.0   90.0   33.333333333333336
-250.0   90.0   50.0
-200.0   120.0   50.0
-200.0   90.0   33.333333333333336
-250.0   120.0   33.333333333333336
-250.0   120.0   0.0
-200.0   120.0   0.0
-250.0   150.0   0.0
-250.0   120.0   16.666666666666668
-200.0   120.0   0.0
-200.0   150.0   0.0
-250.0   150.0   0.0
-200.0   150.0   16.666666666666668
-250.0   120.0   16.666666666666668
-250.0   150.0   16.666666666666668
-200.0   150.0   16.666666666666668
-250.0   150.0   0.0
-250.0   120.0   16.666666666666668
-200.0   150.0   16.666666666666668
-200.0   120.0   16.666666666666668
-200.0   120.0   0.0
-250.0   120.0   16.666666666666668
-200.0   150.0   16.666666666666668
-200.0   120.0   0.0
-250.0   150.0   0.0
-250.0   120.0   16.666666666666668
-200.0   120.0   16.666666666666668
-250.0   150.0   16.666666666666668
-250.0   120.0   33.333333333333336
-200.0   120.0   16.666666666666668
-200.0   150.0   16.666666666666668
-250.0   150.0   16.666666666666668
-200.0   150.0   33.333333333333336
-250.0   120.0   33.333333333333336
-250.0   150.0   33.333333333333336
-200.0   150.0   33.333333333333336
-250.0   150.0   16.666666666666668
-250.0   120.0   33.333333333333336
-200.0   150.0   33.333333333333336
-200.0   120.0   33.333333333333336
-200.0   120.0   16.666666666666668
-250.0   120.0   33.333333333333336
-200.0   150.0   33.333333333333336
-200.0   120.0   16.666666666666668
-250.0   150.0   16.666666666666668
-250.0   120.0   33.333333333333336
-200.0   120.0   33.333333333333336
-250.0   150.0   33.333333333333336
-250.0   120.0   50.0
-200.0   120.0   33.333333333333336
-200.0   150.0   33.333333333333336
-250.0   150.0   33.333333333333336
-200.0   150.0   50.0
-250.0   120.0   50.0
-250.0   150.0   50.0
-200.0   150.0   50.0
-250.0   150.0   33.333333333333336
-250.0   120.0   50.0
-200.0   150.0   50.0
-200.0   120.0   50.0
-200.0   120.0   33.333333333333336
-250.0   120.0   50.0
-200.0   150.0   50.0
-200.0   120.0   33.333333333333336
-250.0   150.0   33.333333333333336
-200.0   0.0   0.0
-150.0   0.0   0.0
-200.0   30.0   0.0
-200.0   0.0   16.666666666666668
-150.0   0.0   0.0
-150.0   30.0   0.0
-200.0   30.0   0.0
-150.0   30.0   16.666666666666668
-200.0   0.0   16.666666666666668
-200.0   30.0   16.666666666666668
-150.0   30.0   16.666666666666668
-200.0   30.0   0.0
-200.0   0.0   16.666666666666668
-150.0   30.0   16.666666666666668
-150.0   0.0   16.666666666666668
-150.0   0.0   0.0
-200.0   0.0   16.666666666666668
-150.0   30.0   16.666666666666668
-150.0   0.0   0.0
-200.0   30.0   0.0
-200.0   0.0   16.666666666666668
-150.0   0.0   16.666666666666668
-200.0   30.0   16.666666666666668
-200.0   0.0   33.333333333333336
-150.0   0.0   16.666666666666668
-150.0   30.0   16.666666666666668
-200.0   30.0   16.666666666666668
-150.0   30.0   33.333333333333336
-200.0   0.0   33.333333333333336
-200.0   30.0   33.333333333333336
-150.0   30.0   33.333333333333336
-200.0   30.0   16.666666666666668
-200.0   0.0   33.333333333333336
-150.0   30.0   33.333333333333336
-150.0   0.0   33.333333333333336
-150.0   0.0   16.666666666666668
-200.0   0.0   33.333333333333336
-150.0   30.0   33.333333333333336
-150.0   0.0   16.666666666666668
-200.0   30.0   16.666666666666668
-200.0   0.0   33.333333333333336
-150.0   0.0   33.333333333333336
-200.0   30.0   33.333333333333336
-200.0   0.0   50.0
-150.0   0.0   33.333333333333336
-150.0   30.0   33.333333333333336
-200.0   30.0   33.333333333333336
-150.0   30.0   50.0
-200.0   0.0   50.0
-200.0   30.0   50.0
-150.0   30.0   50.0
-200.0   30.0   33.333333333333336
-200.0   0.0   50.0
-150.0   30.0   50.0
-150.0   0.0   50.0
-150.0   0.0   33.333333333333336
-200.0   0.0   50.0
-150.0   30.0   50.0
-150.0   0.0   33.333333333333336
-200.0   30.0   33.333333333333336
-200.0   30.0   0.0
-150.0   30.0   0.0
-200.0   60.0   0.0
-200.0   30.0   16.666666666666668
-150.0   30.0   0.0
-150.0   60.0   0.0
-200.0   60.0   0.0
-150.0   60.0   16.666666666666668
-200.0   30.0   16.666666666666668
-200.0   60.0   16.666666666666668
-150.0   60.0   16.666666666666668
-200.0   60.0   0.0
-200.0   30.0   16.666666666666668
-150.0   60.0   16.666666666666668
-150.0   30.0   16.666666666666668
-150.0   30.0   0.0
-200.0   30.0   16.666666666666668
-150.0   60.0   16.666666666666668
-150.0   30.0   0.0
-200.0   60.0   0.0
-200.0   30.0   16.666666666666668
-150.0   30.0   16.666666666666668
-200.0   60.0   16.666666666666668
-200.0   30.0   33.333333333333336
-150.0   30.0   16.666666666666668
-150.0   60.0   16.666666666666668
-200.0   60.0   16.666666666666668
-150.0   60.0   33.333333333333336
-200.0   30.0   33.333333333333336
-200.0   60.0   33.333333333333336
-150.0   60.0   33.333333333333336
-200.0   60.0   16.666666666666668
-200.0   30.0   33.333333333333336
-150.0   60.0   33.333333333333336
-150.0   30.0   33.333333333333336
-150.0   30.0   16.666666666666668
-200.0   30.0   33.333333333333336
-150.0   60.0   33.333333333333336
-150.0   30.0   16.666666666666668
-200.0   60.0   16.666666666666668
-200.0   30.0   33.333333333333336
-150.0   30.0   33.333333333333336
-200.0   60.0   33.333333333333336
-200.0   30.0   50.0
-150.0   30.0   33.333333333333336
-150.0   60.0   33.333333333333336
-200.0   60.0   33.333333333333336
-150.0   60.0   50.0
-200.0   30.0   50.0
-200.0   60.0   50.0
-150.0   60.0   50.0
-200.0   60.0   33.333333333333336
-200.0   30.0   50.0
-150.0   60.0   50.0
-150.0   30.0   50.0
-150.0   30.0   33.333333333333336
-200.0   30.0   50.0
-150.0   60.0   50.0
-150.0   30.0   33.333333333333336
-200.0   60.0   33.333333333333336
-200.0   60.0   0.0
-150.0   60.0   0.0
-200.0   90.0   0.0
-200.0   60.0   16.666666666666668
-150.0   60.0   0.0
-150.0   90.0   0.0
-200.0   90.0   0.0
-150.0   90.0   16.666666666666668
-200.0   60.0   16.666666666666668
-200.0   90.0   16.666666666666668
-150.0   90.0   16.666666666666668
-200.0   90.0   0.0
-200.0   60.0   16.666666666666668
-150.0   90.0   16.666666666666668
-150.0   60.0   16.666666666666668
-150.0   60.0   0.0
-200.0   60.0   16.666666666666668
-150.0   90.0   16.666666666666668
-150.0   60.0   0.0
-200.0   90.0   0.0
-200.0   60.0   16.666666666666668
-150.0   60.0   16.666666666666668
-200.0   90.0   16.666666666666668
-200.0   60.0   33.333333333333336
-150.0   60.0   16.666666666666668
-150.0   90.0   16.666666666666668
-200.0   90.0   16.666666666666668
-150.0   90.0   33.333333333333336
-200.0   60.0   33.333333333333336
-200.0   90.0   33.333333333333336
-150.0   90.0   33.333333333333336
-200.0   90.0   16.666666666666668
-200.0   60.0   33.333333333333336
-150.0   90.0   33.333333333333336
-150.0   60.0   33.333333333333336
-150.0   60.0   16.666666666666668
-200.0   60.0   33.333333333333336
-150.0   90.0   33.333333333333336
-150.0   60.0   16.666666666666668
-200.0   90.0   16.666666666666668
-200.0   60.0   33.333333333333336
-150.0   60.0   33.333333333333336
-200.0   90.0   33.333333333333336
-200.0   60.0   50.0
-150.0   60.0   33.333333333333336
-150.0   90.0   33.333333333333336
-200.0   90.0   33.333333333333336
-150.0   90.0   50.0
-200.0   60.0   50.0
-200.0   90.0   50.0
-150.0   90.0   50.0
-200.0   90.0   33.333333333333336
-200.0   60.0   50.0
-150.0   90.0   50.0
-150.0   60.0   50.0
-150.0   60.0   33.333333333333336
-200.0   60.0   50.0
-150.0   90.0   50.0
-150.0   60.0   33.333333333333336
-200.0   90.0   33.333333333333336
-200.0   90.0   0.0
-150.0   90.0   0.0
-200.0   120.0   0.0
-200.0   90.0   16.666666666666668
-150.0   90.0   0.0
-150.0   120.0   0.0
-200.0   120.0   0.0
-150.0   120.0   16.666666666666668
-200.0   90.0   16.666666666666668
-200.0   120.0   16.666666666666668
-150.0   120.0   16.666666666666668
-200.0   120.0   0.0
-200.0   90.0   16.666666666666668
-150.0   120.0   16.666666666666668
-150.0   90.0   16.666666666666668
-150.0   90.0   0.0
-200.0   90.0   16.666666666666668
-150.0   120.0   16.666666666666668
-150.0   90.0   0.0
-200.0   120.0   0.0
-200.0   90.0   16.666666666666668
-150.0   90.0   16.666666666666668
-200.0   120.0   16.666666666666668
-200.0   90.0   33.333333333333336
-150.0   90.0   16.666666666666668
-150.0   120.0   16.666666666666668
-200.0   120.0   16.666666666666668
-150.0   120.0   33.333333333333336
-200.0   90.0   33.333333333333336
-200.0   120.0   33.333333333333336
-150.0   120.0   33.333333333333336
-200.0   120.0   16.666666666666668
-200.0   90.0   33.333333333333336
-150.0   120.0   33.333333333333336
-150.0   90.0   33.333333333333336
-150.0   90.0   16.666666666666668
-200.0   90.0   33.333333333333336
-150.0   120.0   33.333333333333336
-150.0   90.0   16.666666666666668
-200.0   120.0   16.666666666666668
-200.0   90.0   33.333333333333336
-150.0   90.0   33.333333333333336
-200.0   120.0   33.333333333333336
-200.0   90.0   50.0
-150.0   90.0   33.333333333333336
-150.0   120.0   33.333333333333336
-200.0   120.0   33.333333333333336
-150.0   120.0   50.0
-200.0   90.0   50.0
-200.0   120.0   50.0
-150.0   120.0   50.0
-200.0   120.0   33.333333333333336
-200.0   90.0   50.0
-150.0   120.0   50.0
-150.0   90.0   50.0
-150.0   90.0   33.333333333333336
-200.0   90.0   50.0
-150.0   120.0   50.0
-150.0   90.0   33.333333333333336
-200.0   120.0   33.333333333333336
-200.0   120.0   0.0
-150.0   120.0   0.0
-200.0   150.0   0.0
-200.0   120.0   16.666666666666668
-150.0   120.0   0.0
-150.0   150.0   0.0
-200.0   150.0   0.0
-150.0   150.0   16.666666666666668
-200.0   120.0   16.666666666666668
-200.0   150.0   16.666666666666668
-150.0   150.0   16.666666666666668
-200.0   150.0   0.0
-200.0   120.0   16.666666666666668
-150.0   150.0   16.666666666666668
-150.0   120.0   16.666666666666668
-150.0   120.0   0.0
-200.0   120.0   16.666666666666668
-150.0   150.0   16.666666666666668
-150.0   120.0   0.0
-200.0   150.0   0.0
-200.0   120.0   16.666666666666668
-150.0   120.0   16.666666666666668
-200.0   150.0   16.666666666666668
-200.0   120.0   33.333333333333336
-150.0   120.0   16.666666666666668
-150.0   150.0   16.666666666666668
-200.0   150.0   16.666666666666668
-150.0   150.0   33.333333333333336
-200.0   120.0   33.333333333333336
-200.0   150.0   33.333333333333336
-150.0   150.0   33.333333333333336
-200.0   150.0   16.666666666666668
-200.0   120.0   33.333333333333336
-150.0   150.0   33.333333333333336
-150.0   120.0   33.333333333333336
-150.0   120.0   16.666666666666668
-200.0   120.0   33.333333333333336
-150.0   150.0   33.333333333333336
-150.0   120.0   16.666666666666668
-200.0   150.0   16.666666666666668
-200.0   120.0   33.333333333333336
-150.0   120.0   33.333333333333336
-200.0   150.0   33.333333333333336
-200.0   120.0   50.0
-150.0   120.0   33.333333333333336
-150.0   150.0   33.333333333333336
-200.0   150.0   33.333333333333336
-150.0   150.0   50.0
-200.0   120.0   50.0
-200.0   150.0   50.0
-150.0   150.0   50.0
-200.0   150.0   33.333333333333336
-200.0   120.0   50.0
-150.0   150.0   50.0
-150.0   120.0   50.0
-150.0   120.0   33.333333333333336
-200.0   120.0   50.0
-150.0   150.0   50.0
-150.0   120.0   33.333333333333336
-200.0   150.0   33.333333333333336
-150.0   0.0   0.0
-100.0   0.0   0.0
-150.0   30.0   0.0
-150.0   0.0   16.666666666666668
-100.0   0.0   0.0
-100.0   30.0   0.0
-150.0   30.0   0.0
-100.0   30.0   16.666666666666668
-150.0   0.0   16.666666666666668
-150.0   30.0   16.666666666666668
-100.0   30.0   16.666666666666668
-150.0   30.0   0.0
-150.0   0.0   16.666666666666668
-100.0   30.0   16.666666666666668
-100.0   0.0   16.666666666666668
-100.0   0.0   0.0
-150.0   0.0   16.666666666666668
-100.0   30.0   16.666666666666668
-100.0   0.0   0.0
-150.0   30.0   0.0
-150.0   0.0   16.666666666666668
-100.0   0.0   16.666666666666668
-150.0   30.0   16.666666666666668
-150.0   0.0   33.333333333333336
-100.0   0.0   16.666666666666668
-100.0   30.0   16.666666666666668
-150.0   30.0   16.666666666666668
-100.0   30.0   33.333333333333336
-150.0   0.0   33.333333333333336
-150.0   30.0   33.333333333333336
-100.0   30.0   33.333333333333336
-150.0   30.0   16.666666666666668
-150.0   0.0   33.333333333333336
-100.0   30.0   33.333333333333336
-100.0   0.0   33.333333333333336
-100.0   0.0   16.666666666666668
-150.0   0.0   33.333333333333336
-100.0   30.0   33.333333333333336
-100.0   0.0   16.666666666666668
-150.0   30.0   16.666666666666668
-150.0   0.0   33.333333333333336
-100.0   0.0   33.333333333333336
-150.0   30.0   33.333333333333336
-150.0   0.0   50.0
-100.0   0.0   33.333333333333336
-100.0   30.0   33.333333333333336
-150.0   30.0   33.333333333333336
-100.0   30.0   50.0
-150.0   0.0   50.0
-150.0   30.0   50.0
-100.0   30.0   50.0
-150.0   30.0   33.333333333333336
-150.0   0.0   50.0
-100.0   30.0   50.0
-100.0   0.0   50.0
-100.0   0.0   33.333333333333336
-150.0   0.0   50.0
-100.0   30.0   50.0
-100.0   0.0   33.333333333333336
-150.0   30.0   33.333333333333336
-150.0   30.0   0.0
-100.0   30.0   0.0
-150.0   60.0   0.0
-150.0   30.0   16.666666666666668
-100.0   30.0   0.0
-100.0   60.0   0.0
-150.0   60.0   0.0
-100.0   60.0   16.666666666666668
-150.0   30.0   16.666666666666668
-150.0   60.0   16.666666666666668
-100.0   60.0   16.666666666666668
-150.0   60.0   0.0
-150.0   30.0   16.666666666666668
-100.0   60.0   16.666666666666668
-100.0   30.0   16.666666666666668
-100.0   30.0   0.0
-150.0   30.0   16.666666666666668
-100.0   60.0   16.666666666666668
-100.0   30.0   0.0
-150.0   60.0   0.0
-150.0   30.0   16.666666666666668
-100.0   30.0   16.666666666666668
-150.0   60.0   16.666666666666668
-150.0   30.0   33.333333333333336
-100.0   30.0   16.666666666666668
-100.0   60.0   16.666666666666668
-150.0   60.0   16.666666666666668
-100.0   60.0   33.333333333333336
-150.0   30.0   33.333333333333336
-150.0   60.0   33.333333333333336
-100.0   60.0   33.333333333333336
-150.0   60.0   16.666666666666668
-150.0   30.0   33.333333333333336
-100.0   60.0   33.333333333333336
-100.0   30.0   33.333333333333336
-100.0   30.0   16.666666666666668
-150.0   30.0   33.333333333333336
-100.0   60.0   33.333333333333336
-100.0   30.0   16.666666666666668
-150.0   60.0   16.666666666666668
-150.0   30.0   33.333333333333336
-100.0   30.0   33.333333333333336
-150.0   60.0   33.333333333333336
-150.0   30.0   50.0
-100.0   30.0   33.333333333333336
-100.0   60.0   33.333333333333336
-150.0   60.0   33.333333333333336
-100.0   60.0   50.0
-150.0   30.0   50.0
-150.0   60.0   50.0
-100.0   60.0   50.0
-150.0   60.0   33.333333333333336
-150.0   30.0   50.0
-100.0   60.0   50.0
-100.0   30.0   50.0
-100.0   30.0   33.333333333333336
-150.0   30.0   50.0
-100.0   60.0   50.0
-100.0   30.0   33.333333333333336
-150.0   60.0   33.333333333333336
-150.0   60.0   0.0
-100.0   60.0   0.0
-150.0   90.0   0.0
-150.0   60.0   16.666666666666668
-100.0   60.0   0.0
-100.0   90.0   0.0
-150.0   90.0   0.0
-100.0   90.0   16.666666666666668
-150.0   60.0   16.666666666666668
-150.0   90.0   16.666666666666668
-100.0   90.0   16.666666666666668
-150.0   90.0   0.0
-150.0   60.0   16.666666666666668
-100.0   90.0   16.666666666666668
-100.0   60.0   16.666666666666668
-100.0   60.0   0.0
-150.0   60.0   16.666666666666668
-100.0   90.0   16.666666666666668
-100.0   60.0   0.0
-150.0   90.0   0.0
-150.0   60.0   16.666666666666668
-100.0   60.0   16.666666666666668
-150.0   90.0   16.666666666666668
-150.0   60.0   33.333333333333336
-100.0   60.0   16.666666666666668
-100.0   90.0   16.666666666666668
-150.0   90.0   16.666666666666668
-100.0   90.0   33.333333333333336
-150.0   60.0   33.333333333333336
-150.0   90.0   33.333333333333336
-100.0   90.0   33.333333333333336
-150.0   90.0   16.666666666666668
-150.0   60.0   33.333333333333336
-100.0   90.0   33.333333333333336
-100.0   60.0   33.333333333333336
-100.0   60.0   16.666666666666668
-150.0   60.0   33.333333333333336
-100.0   90.0   33.333333333333336
-100.0   60.0   16.666666666666668
-150.0   90.0   16.666666666666668
-150.0   60.0   33.333333333333336
-100.0   60.0   33.333333333333336
-150.0   90.0   33.333333333333336
-150.0   60.0   50.0
-100.0   60.0   33.333333333333336
-100.0   90.0   33.333333333333336
-150.0   90.0   33.333333333333336
-100.0   90.0   50.0
-150.0   60.0   50.0
-150.0   90.0   50.0
-100.0   90.0   50.0
-150.0   90.0   33.333333333333336
-150.0   60.0   50.0
-100.0   90.0   50.0
-100.0   60.0   50.0
-100.0   60.0   33.333333333333336
-150.0   60.0   50.0
-100.0   90.0   50.0
-100.0   60.0   33.333333333333336
-150.0   90.0   33.333333333333336
-150.0   90.0   0.0
-100.0   90.0   0.0
-150.0   120.0   0.0
-150.0   90.0   16.666666666666668
-100.0   90.0   0.0
-100.0   120.0   0.0
-150.0   120.0   0.0
-100.0   120.0   16.666666666666668
-150.0   90.0   16.666666666666668
-150.0   120.0   16.666666666666668
-100.0   120.0   16.666666666666668
-150.0   120.0   0.0
-150.0   90.0   16.666666666666668
-100.0   120.0   16.666666666666668
-100.0   90.0   16.666666666666668
-100.0   90.0   0.0
-150.0   90.0   16.666666666666668
-100.0   120.0   16.666666666666668
-100.0   90.0   0.0
-150.0   120.0   0.0
-150.0   90.0   16.666666666666668
-100.0   90.0   16.666666666666668
-150.0   120.0   16.666666666666668
-150.0   90.0   33.333333333333336
-100.0   90.0   16.666666666666668
-100.0   120.0   16.666666666666668
-150.0   120.0   16.666666666666668
-100.0   120.0   33.333333333333336
-150.0   90.0   33.333333333333336
-150.0   120.0   33.333333333333336
-100.0   120.0   33.333333333333336
-150.0   120.0   16.666666666666668
-150.0   90.0   33.333333333333336
-100.0   120.0   33.333333333333336
-100.0   90.0   33.333333333333336
-100.0   90.0   16.666666666666668
-150.0   90.0   33.333333333333336
-100.0   120.0   33.333333333333336
-100.0   90.0   16.666666666666668
-150.0   120.0   16.666666666666668
-150.0   90.0   33.333333333333336
-100.0   90.0   33.333333333333336
-150.0   120.0   33.333333333333336
-150.0   90.0   50.0
-100.0   90.0   33.333333333333336
-100.0   120.0   33.333333333333336
-150.0   120.0   33.333333333333336
-100.0   120.0   50.0
-150.0   90.0   50.0
-150.0   120.0   50.0
-100.0   120.0   50.0
-150.0   120.0   33.333333333333336
-150.0   90.0   50.0
-100.0   120.0   50.0
-100.0   90.0   50.0
-100.0   90.0   33.333333333333336
-150.0   90.0   50.0
-100.0   120.0   50.0
-100.0   90.0   33.333333333333336
-150.0   120.0   33.333333333333336
-150.0   120.0   0.0
-100.0   120.0   0.0
-150.0   150.0   0.0
-150.0   120.0   16.666666666666668
-100.0   120.0   0.0
-100.0   150.0   0.0
-150.0   150.0   0.0
-100.0   150.0   16.666666666666668
-150.0   120.0   16.666666666666668
-150.0   150.0   16.666666666666668
-100.0   150.0   16.666666666666668
-150.0   150.0   0.0
-150.0   120.0   16.666666666666668
-100.0   150.0   16.666666666666668
-100.0   120.0   16.666666666666668
-100.0   120.0   0.0
-150.0   120.0   16.666666666666668
-100.0   150.0   16.666666666666668
-100.0   120.0   0.0
-150.0   150.0   0.0
-150.0   120.0   16.666666666666668
-100.0   120.0   16.666666666666668
-150.0   150.0   16.666666666666668
-150.0   120.0   33.333333333333336
-100.0   120.0   16.666666666666668
-100.0   150.0   16.666666666666668
-150.0   150.0   16.666666666666668
-100.0   150.0   33.333333333333336
-150.0   120.0   33.333333333333336
-150.0   150.0   33.333333333333336
-100.0   150.0   33.333333333333336
-150.0   150.0   16.666666666666668
-150.0   120.0   33.333333333333336
-100.0   150.0   33.333333333333336
-100.0   120.0   33.333333333333336
-100.0   120.0   16.666666666666668
-150.0   120.0   33.333333333333336
-100.0   150.0   33.333333333333336
-100.0   120.0   16.666666666666668
-150.0   150.0   16.666666666666668
-150.0   120.0   33.333333333333336
-100.0   120.0   33.333333333333336
-150.0   150.0   33.333333333333336
-150.0   120.0   50.0
-100.0   120.0   33.333333333333336
-100.0   150.0   33.333333333333336
-150.0   150.0   33.333333333333336
-100.0   150.0   50.0
-150.0   120.0   50.0
-150.0   150.0   50.0
-100.0   150.0   50.0
-150.0   150.0   33.333333333333336
-150.0   120.0   50.0
-100.0   150.0   50.0
-100.0   120.0   50.0
-100.0   120.0   33.333333333333336
-150.0   120.0   50.0
-100.0   150.0   50.0
-100.0   120.0   33.333333333333336
-150.0   150.0   33.333333333333336
-100.0   0.0   0.0
-50.0   0.0   0.0
-100.0   30.0   0.0
-100.0   0.0   16.666666666666668
-50.0   0.0   0.0
-50.0   30.0   0.0
-100.0   30.0   0.0
-50.0   30.0   16.666666666666668
-100.0   0.0   16.666666666666668
-100.0   30.0   16.666666666666668
-50.0   30.0   16.666666666666668
-100.0   30.0   0.0
-100.0   0.0   16.666666666666668
-50.0   30.0   16.666666666666668
-50.0   0.0   16.666666666666668
-50.0   0.0   0.0
-100.0   0.0   16.666666666666668
-50.0   30.0   16.666666666666668
-50.0   0.0   0.0
-100.0   30.0   0.0
-100.0   0.0   16.666666666666668
-50.0   0.0   16.666666666666668
-100.0   30.0   16.666666666666668
-100.0   0.0   33.333333333333336
-50.0   0.0   16.666666666666668
-50.0   30.0   16.666666666666668
-100.0   30.0   16.666666666666668
-50.0   30.0   33.333333333333336
-100.0   0.0   33.333333333333336
-100.0   30.0   33.333333333333336
-50.0   30.0   33.333333333333336
-100.0   30.0   16.666666666666668
-100.0   0.0   33.333333333333336
-50.0   30.0   33.333333333333336
-50.0   0.0   33.333333333333336
-50.0   0.0   16.666666666666668
-100.0   0.0   33.333333333333336
-50.0   30.0   33.333333333333336
-50.0   0.0   16.666666666666668
-100.0   30.0   16.666666666666668
-100.0   0.0   33.333333333333336
-50.0   0.0   33.333333333333336
-100.0   30.0   33.333333333333336
-100.0   0.0   50.0
-50.0   0.0   33.333333333333336
-50.0   30.0   33.333333333333336
-100.0   30.0   33.333333333333336
-50.0   30.0   50.0
-100.0   0.0   50.0
-100.0   30.0   50.0
-50.0   30.0   50.0
-100.0   30.0   33.333333333333336
-100.0   0.0   50.0
-50.0   30.0   50.0
-50.0   0.0   50.0
-50.0   0.0   33.333333333333336
-100.0   0.0   50.0
-50.0   30.0   50.0
-50.0   0.0   33.333333333333336
-100.0   30.0   33.333333333333336
-100.0   30.0   0.0
-50.0   30.0   0.0
-100.0   60.0   0.0
-100.0   30.0   16.666666666666668
-50.0   30.0   0.0
-50.0   60.0   0.0
-100.0   60.0   0.0
-50.0   60.0   16.666666666666668
-100.0   30.0   16.666666666666668
-100.0   60.0   16.666666666666668
-50.0   60.0   16.666666666666668
-100.0   60.0   0.0
-100.0   30.0   16.666666666666668
-50.0   60.0   16.666666666666668
-50.0   30.0   16.666666666666668
-50.0   30.0   0.0
-100.0   30.0   16.666666666666668
-50.0   60.0   16.666666666666668
-50.0   30.0   0.0
-100.0   60.0   0.0
-100.0   30.0   16.666666666666668
-50.0   30.0   16.666666666666668
-100.0   60.0   16.666666666666668
-100.0   30.0   33.333333333333336
-50.0   30.0   16.666666666666668
-50.0   60.0   16.666666666666668
-100.0   60.0   16.666666666666668
-50.0   60.0   33.333333333333336
-100.0   30.0   33.333333333333336
-100.0   60.0   33.333333333333336
-50.0   60.0   33.333333333333336
-100.0   60.0   16.666666666666668
-100.0   30.0   33.333333333333336
-50.0   60.0   33.333333333333336
-50.0   30.0   33.333333333333336
-50.0   30.0   16.666666666666668
-100.0   30.0   33.333333333333336
-50.0   60.0   33.333333333333336
-50.0   30.0   16.666666666666668
-100.0   60.0   16.666666666666668
-100.0   30.0   33.333333333333336
-50.0   30.0   33.333333333333336
-100.0   60.0   33.333333333333336
-100.0   30.0   50.0
-50.0   30.0   33.333333333333336
-50.0   60.0   33.333333333333336
-100.0   60.0   33.333333333333336
-50.0   60.0   50.0
-100.0   30.0   50.0
-100.0   60.0   50.0
-50.0   60.0   50.0
-100.0   60.0   33.333333333333336
-100.0   30.0   50.0
-50.0   60.0   50.0
-50.0   30.0   50.0
-50.0   30.0   33.333333333333336
-100.0   30.0   50.0
-50.0   60.0   50.0
-50.0   30.0   33.333333333333336
-100.0   60.0   33.333333333333336
-100.0   60.0   0.0
-50.0   60.0   0.0
-100.0   90.0   0.0
-100.0   60.0   16.666666666666668
-50.0   60.0   0.0
-50.0   90.0   0.0
-100.0   90.0   0.0
-50.0   90.0   16.666666666666668
-100.0   60.0   16.666666666666668
-100.0   90.0   16.666666666666668
-50.0   90.0   16.666666666666668
-100.0   90.0   0.0
-100.0   60.0   16.666666666666668
-50.0   90.0   16.666666666666668
-50.0   60.0   16.666666666666668
-50.0   60.0   0.0
-100.0   60.0   16.666666666666668
-50.0   90.0   16.666666666666668
-50.0   60.0   0.0
-100.0   90.0   0.0
-100.0   60.0   16.666666666666668
-50.0   60.0   16.666666666666668
-100.0   90.0   16.666666666666668
-100.0   60.0   33.333333333333336
-50.0   60.0   16.666666666666668
-50.0   90.0   16.666666666666668
-100.0   90.0   16.666666666666668
-50.0   90.0   33.333333333333336
-100.0   60.0   33.333333333333336
-100.0   90.0   33.333333333333336
-50.0   90.0   33.333333333333336
-100.0   90.0   16.666666666666668
-100.0   60.0   33.333333333333336
-50.0   90.0   33.333333333333336
-50.0   60.0   33.333333333333336
-50.0   60.0   16.666666666666668
-100.0   60.0   33.333333333333336
-50.0   90.0   33.333333333333336
-50.0   60.0   16.666666666666668
-100.0   90.0   16.666666666666668
-100.0   60.0   33.333333333333336
-50.0   60.0   33.333333333333336
-100.0   90.0   33.333333333333336
-100.0   60.0   50.0
-50.0   60.0   33.333333333333336
-50.0   90.0   33.333333333333336
-100.0   90.0   33.333333333333336
-50.0   90.0   50.0
-100.0   60.0   50.0
-100.0   90.0   50.0
-50.0   90.0   50.0
-100.0   90.0   33.333333333333336
-100.0   60.0   50.0
-50.0   90.0   50.0
-50.0   60.0   50.0
-50.0   60.0   33.333333333333336
-100.0   60.0   50.0
-50.0   90.0   50.0
-50.0   60.0   33.333333333333336
-100.0   90.0   33.333333333333336
-100.0   90.0   0.0
-50.0   90.0   0.0
-100.0   120.0   0.0
-100.0   90.0   16.666666666666668
-50.0   90.0   0.0
-50.0   120.0   0.0
-100.0   120.0   0.0
-50.0   120.0   16.666666666666668
-100.0   90.0   16.666666666666668
-100.0   120.0   16.666666666666668
-50.0   120.0   16.666666666666668
-100.0   120.0   0.0
-100.0   90.0   16.666666666666668
-50.0   120.0   16.666666666666668
-50.0   90.0   16.666666666666668
-50.0   90.0   0.0
-100.0   90.0   16.666666666666668
-50.0   120.0   16.666666666666668
-50.0   90.0   0.0
-100.0   120.0   0.0
-100.0   90.0   16.666666666666668
-50.0   90.0   16.666666666666668
-100.0   120.0   16.666666666666668
-100.0   90.0   33.333333333333336
-50.0   90.0   16.666666666666668
-50.0   120.0   16.666666666666668
-100.0   120.0   16.666666666666668
-50.0   120.0   33.333333333333336
-100.0   90.0   33.333333333333336
-100.0   120.0   33.333333333333336
-50.0   120.0   33.333333333333336
-100.0   120.0   16.666666666666668
-100.0   90.0   33.333333333333336
-50.0   120.0   33.333333333333336
-50.0   90.0   33.333333333333336
-50.0   90.0   16.666666666666668
-100.0   90.0   33.333333333333336
-50.0   120.0   33.333333333333336
-50.0   90.0   16.666666666666668
-100.0   120.0   16.666666666666668
-100.0   90.0   33.333333333333336
-50.0   90.0   33.333333333333336
-100.0   120.0   33.333333333333336
-100.0   90.0   50.0
-50.0   90.0   33.333333333333336
-50.0   120.0   33.333333333333336
-100.0   120.0   33.333333333333336
-50.0   120.0   50.0
-100.0   90.0   50.0
-100.0   120.0   50.0
-50.0   120.0   50.0
-100.0   120.0   33.333333333333336
-100.0   90.0   50.0
-50.0   120.0   50.0
-50.0   90.0   50.0
-50.0   90.0   33.333333333333336
-100.0   90.0   50.0
-50.0   120.0   50.0
-50.0   90.0   33.333333333333336
-100.0   120.0   33.333333333333336
-100.0   120.0   0.0
-50.0   120.0   0.0
-100.0   150.0   0.0
-100.0   120.0   16.666666666666668
-50.0   120.0   0.0
-50.0   150.0   0.0
-100.0   150.0   0.0
-50.0   150.0   16.666666666666668
-100.0   120.0   16.666666666666668
-100.0   150.0   16.666666666666668
-50.0   150.0   16.666666666666668
-100.0   150.0   0.0
-100.0   120.0   16.666666666666668
-50.0   150.0   16.666666666666668
-50.0   120.0   16.666666666666668
-50.0   120.0   0.0
-100.0   120.0   16.666666666666668
-50.0   150.0   16.666666666666668
-50.0   120.0   0.0
-100.0   150.0   0.0
-100.0   120.0   16.666666666666668
-50.0   120.0   16.666666666666668
-100.0   150.0   16.666666666666668
-100.0   120.0   33.333333333333336
-50.0   120.0   16.666666666666668
-50.0   150.0   16.666666666666668
-100.0   150.0   16.666666666666668
-50.0   150.0   33.333333333333336
-100.0   120.0   33.333333333333336
-100.0   150.0   33.333333333333336
-50.0   150.0   33.333333333333336
-100.0   150.0   16.666666666666668
-100.0   120.0   33.333333333333336
-50.0   150.0   33.333333333333336
-50.0   120.0   33.333333333333336
-50.0   120.0   16.666666666666668
-100.0   120.0   33.333333333333336
-50.0   150.0   33.333333333333336
-50.0   120.0   16.666666666666668
-100.0   150.0   16.666666666666668
-100.0   120.0   33.333333333333336
-50.0   120.0   33.333333333333336
-100.0   150.0   33.333333333333336
-100.0   120.0   50.0
-50.0   120.0   33.333333333333336
-50.0   150.0   33.333333333333336
-100.0   150.0   33.333333333333336
-50.0   150.0   50.0
-100.0   120.0   50.0
-100.0   150.0   50.0
-50.0   150.0   50.0
-100.0   150.0   33.333333333333336
-100.0   120.0   50.0
-50.0   150.0   50.0
-50.0   120.0   50.0
-50.0   120.0   33.333333333333336
-100.0   120.0   50.0
-50.0   150.0   50.0
-50.0   120.0   33.333333333333336
-100.0   150.0   33.333333333333336
-50.0   0.0   0.0
0.0   0.0   0.0
-50.0   30.0   0.0
-50.0   0.0   16.666666666666668
0.0   0.0   0.0
0.0   30.0   0.0
-50.0   30.0   0.0
0.0   30.0   16.666666666666668
-50.0   0.0   16.666666666666668
-50.0   30.0   16.666666666666668
0.0   30.0   16.666666666666668
-50.0   30.0   0.0
-50.0   0.0   16.666666666666668
0.0   30.0   16.666666666666668
0.0   0.0   16.666666666666668
0.0   0.0   0.0
-50.0   0.0   16.666666666666668
0.0   30.0   16.666666666666668
0.0   0.0   0.0
-50.0   30.0   0.0
-50.0   0.0   16.666666666666668
0.0   0.0   16.666666666666668
-50.0   30.0   16.666666666666668
-50.0   0.0   33.333333333333336
0.0   0.0   16.666666666666668
0.0   30.0   16.666666666666668
-50.0   30.0   16.666666666666668
0.0   30.0   33.333333333333336
-50.0   0.0   33.333333333333336
-50.0   30.0   33.333333333333336
0.0   30.0   33.333333333333336
-50.0   30.0   16.666666666666668
-50.0   0.0   33.333333333333336
0.0   30.0   33.333333333333336
0.0   0.0   33.333333333333336
0.0   0.0   16.666666666666668
-50.0   0.0   33.333333333333336
0.0   30.0   33.333333333333336
0.0   0.0   16.666666666666668
-50.0   30.0   16.666666666666668
-50.0   0.0   33.333333333333336
0.0   0.0   33.333333333333336
-50.0   30.0   33.333333333333336
-50.0   0.0   50.0
0.0   0.0   33.333333333333336
0.0   30.0   33.333333333333336
-50.0   30.0   33.333333333333336
0.0   30.0   50.0
-50.0   0.0   50.0
-50.0   30.0   50.0
0.0   30.0   50.0
-50.0   30.0   33.333333333333336
-50.0   0.0   50.0
0.0   30.0   50.0
0.0   0.0   50.0
0.0   0.0   33.333333333333336
-50.0   0.0   50.0
0.0   30.0   50.0
0.0   0.0   33.333333333333336
-50.0   30.0   33.333333333333336
-50.0   30.0   0.0
0.0   30.0   0.0
-50.0   60.0   0.0
-50.0   30.0   16.666666666666668
0.0   30.0   0.0
0.0   60.0   0.0
-50.0   60.0   0.0
0.0   60.0   16.666666666666668
-50.0   30.0   16.666666666666668
-50.0   60.0   16.666666666666668
0.0   60.0   16.666666666666668
-50.0   60.0   0.0
-50.0   30.0   16.666666666666668
0.0   60.0   16.666666666666668
0.0   30.0   16.666666666666668
0.0   30.0   0.0
-50.0   30.0   16.666666666666668
0.0   60.0   16.666666666666668
0.0   30.0   0.0
-50.0   60.0   0.0
-50.0   30.0   16.666666666666668
0.0   30.0   16.666666666666668
-50.0   60.0   16.666666666666668
-50.0   30.0   33.333333333333336
0.0   30.0   16.666666666666668
0.0   60.0   16.666666666666668
-50.0   60.0   16.666666666666668
0.0   60.0   33.333333333333336
-50.0   30.0   33.333333333333336
-50.0   60.0   33.333333333333336
0.0   60.0   33.333333333333336
-50.0   60.0   16.666666666666668
-50.0   30.0   33.333333333333336
0.0   60.0   33.333333333333336
0.0   30.0   33.333333333333336
0.0   30.0   16.666666666666668
-50.0   30.0   33.333333333333336
0.0   60.0   33.333333333333336
0.0   30.0   16.666666666666668
-50.0   60.0   16.666666666666668
-50.0   30.0   33.333333333333336
0.0   30.0   33.333333333333336
-50.0   60.0   33.333333333333336
-50.0   30.0   50.0
0.0   30.0   33.333333333333336
0.0   60.0   33.333333333333336
-50.0   60.0   33.333333333333336
0.0   60.0   50.0
-50.0   30.0   50.0
-50.0   60.0   50.0
0.0   60.0   50.0
-50.0   60.0   33.333333333333336
-50.0   30.0   50.0
0.0   60.0   50.0
0.0   30.0   50.0
0.0   30.0   33.333333333333336
-50.0   30.0   50.0
0.0   60.0   50.0
0.0   30.0   33.333333333333336
-50.0   60.0   33.333333333333336
-50.0   60.0   0.0
0.0   60.0   0.0
-50.0   90.0   0.0
-50.0   60.0   16.666666666666668
0.0   60.0   0.0
0.0   90.0   0.0
-50.0   90.0   0.0
0.0   90.0   16.666666666666668
-50.0   60.0   16.666666666666668
-50.0   90.0   16.666666666666668
0.0   90.0   16.666666666666668
-50.0   90.0   0.0
-50.0   60.0   16.666666666666668
0.0   90.0   16.666666666666668
0.0   60.0   16.666666666666668
0.0   60.0   0.0
-50.0   60.0   16.666666666666668
0.0   90.0   16.666666666666668
0.0   60.0   0.0
-50.0   90.0   0.0
-50.0   60.0   16.666666666666668
0.0   60.0   16.666666666666668
-50.0   90.0   16.666666666666668
-50.0   60.0   33.333333333333336
0.0   60.0   16.666666666666668
0.0   90.0   16.666666666666668
-50.0   90.0   16.666666666666668
0.0   90.0   33.333333333333336
-50.0   60.0   33.333333333333336
-50.0   90.0   33.333333333333336
0.0   90.0   33.333333333333336
-50.0   90.0   16.666666666666668
-50.0   60.0   33.333333333333336
0.0   90.0   33.333333333333336
0.0   60.0   33.333333333333336
0.0   60.0   16.666666666666668
-50.0   60.0   33.333333333333336
0.0   90.0   33.333333333333336
0.0   60.0   16.666666666666668
-50.0   90.0   16.666666666666668
-50.0   60.0   33.333333333333336
0.0   60.0   33.333333333333336
-50.0   90.0   33.333333333333336
-50.0   60.0   50.0
0.0   60.0   33.333333333333336
0.0   90.0   33.333333333333336
-50.0   90.0   33.333333333333336
0.0   90.0   50.0
-50.0   60.0   50.0
-50.0   90.0   50.0
0.0   90.0   50.0
-50.0   90.0   33.333333333333336
-50.0   60.0   50.0
0.0   90.0   50.0
0.0   60.0   50.0
0.0   60.0   33.333333333333336
-50.0   60.0   50.0
0.0   90.0   50.0
0.0   60.0   33.333333333333336
-50.0   90.0   33.333333333333336
-50.0   90.0   0.0
0.0   90.0   0.0
-50.0   120.0   0.0
-50.0   90.0   16.666666666666668
0.0   90.0   0.0
0.0   120.0   0.0
-50.0   120.0   0.0
0.0   120.0   16.666666666666668
-50.0   90.0   16.666666666666668
-50.0   120.0   16.666666666666668
0.0   120.0   16.666666666666668
-50.0   120.0   0.0
-50.0   90.0   16.666666666666668
0.0   120.0   16.666666666666668
0.0   90.0   16.666666666666668
0.0   90.0   0.0
-50.0   90.0   16.666666666666668
0.0   120.0   16.666666666666668
0.0   90.0   0.0
-50.0   120.0   0.0
-50.0   90.0   16.666666666666668
0.0   90.0   16.666666666666668
-50.0   120.0   16.666666666666668
-50.0   90.0   33.333333333333336
0.0   90.0   16.666666666666668
0.0   120.0   16.666666666666668
-50.0   120.0   16.666666666666668
0.0   120.0   33.333333333333336
-50.0   90.0   33.333333333333336
-50.0   120.0   33.333333333333336
0.0   120.0   33.333333333333336
-50.0   120.0   16.666666666666668
-50.0   90.0   33.333333333333336
0.0   120.0   33.333333333333336
0.0   90.0   33.333333333333336
0.0   90.0   16.666666666666668
-50.0   90.0   33.333333333333336
0.0   120.0   33.333333333333336
0.0   90.0   16.666666666666668
-50.0   120.0   16.666666666666668
-50.0   90.0   33.333333333333336
0.0   90.0   33.333333333333336
-50.0   120.0   33.333333333333336
-50.0   90.0   50.0
0.0   90.0   33.333333333333336
0.0   120.0   33.333333333333336
-50.0   120.0   33.333333333333336
0.0   120.0   50.0
-50.0   90.0   50.0
-50.0   120.0   50.0
0.0   120.0   50.0
-50.0   120.0   33.333333333333336
-50.0   90.0   50.0
0.0   120.0   50.0
0.0   90.0   50.0
0.0   90.0   33.333333333333336
-50.0   90.0   50.0
0.0   120.0   50.0
0.0   90.0   33.333333333333336
-50.0   120.0   33.333333333333336
-50.0   120.0   0.0
0.0   120.0   0.0
-50.0   150.0   0.0
-50.0   120.0   16.666666666666668
0.0   120.0   0.0
0.0   150.0   0.0
-50.0   150.0   0.0
0.0   150.0   16.666666666666668
-50.0   120.0   16.666666666666668
-50.0   150.0   16.666666666666668
0.0   150.0   16.666666666666668
-50.0   150.0   0.0
-50.0   120.0   16.666666666666668
0.0   150.0   16.666666666666668
0.0   120.0   16.666666666666668
0.0   120.0   0.0
-50.0   120.0   16.666666666666668
0.0   150.0   16.666666666666668
0.0   120.0   0.0
-50.0   150.0   0.0
-50.0   120.0   16.666666666666668
0.0   120.0   16.666666666666668
-50.0   150.0   16.666666666666668
-50.0   120.0   33.333333333333336
0.0   120.0   16.666666666666668
0.0   150.0   16.666666666666668
-50.0   150.0   16.666666666666668
0.0   150.0   33.333333333333336
-50.0   120.0   33.333333333333336
-50.0   150.0   33.333333333333336
0.0   150.0   33.333333333333336
-50.0   150.0   16.666666666666668
-50.0   120.0   33.333333333333336
0.0   150.0   33.333333333333336
0.0   120.0   33.333333333333336
0.0   120.0   16.666666666666668
-50.0   120.0   33.333333333333336
0.0   150.0   33.333333333333336
0.0   120.0   16.666666666666668
-50.0   150.0   16.666666666666668
-50.0   120.0   33.333333333333336
0.0   120.0   33.333333333333336
-50.0   150.0   33.333333333333336
-50.0   120.0   50.0
0.0   120.0   33.333333333333336
0.0   150.0   33.333333333333336
-50.0   150.0   33.333333333333336
0.0   150.0   50.0
-50.0   120.0   50.0
-50.0   150.0   50.0
0.0   150.0   50.0
-50.0   150.0   33.333333333333336
-50.0   120.0   50.0
0.0   150.0   50.0
0.0   120.0   50.0
0.0   120.0   33.333333333333336
-50.0   120.0   50.0
0.0   150.0   50.0
0.0   120.0   33.333333333333336
-50.0   150.0   33.333333333333336
0.0   0.0   0.0
50.0   0.0   0.0
0.0   30.0   0.0
0.0   0.0   16.666666666666668
50.0   0.0   0.0
50.0   30.0   0.0
0.0   30.0   0.0
50.0   30.0   16.666666666666668
0.0   0.0   16.666666666666668
0.0   30.0   16.666666666666668
50.0   30.0   16.666666666666668
0.0   30.0   0.0
0.0   0.0   16.666666666666668
50.0   30.0   16.666666666666668
50.0   0.0   16.666666666666668
50.0   0.0   0.0
0.0   0.0   16.666666666666668
50.0   30.0   16.666666666666668
50.0   0.0   0.0
0.0   30.0   0.0
0.0   0.0   16.666666666666668
50.0   0.0   16.666666666666668
0.0   30.0   16.666666666666668
0.0   0.0   33.333333333333336
50.0   0.0   16.666666666666668
50.0   30.0   16.666666666666668
0.0   30.0   16.666666666666668
50.0   30.0   33.333333333333336
0.0   0.0   33.333333333333336
0.0   30.0   33.333333333333336
50.0   30.0   33.333333333333336
0.0   30.0   16.666666666666668
0.0   0.0   33.333333333333336
50.0   30.0   33.333333333333336
50.0   0.0   33.333333333333336
50.0   0.0   16.666666666666668
0.0   0.0   33.333333333333336
50.0   30.0   33.333333333333336
50.0   0.0   16.666666666666668
0.0   30.0   16.666666666666668
0.0   0.0   33.333333333333336
50.0   0.0   33.333333333333336
0.0   30.0   33.333333333333336
0.0   0.0   50.0
50.0   0.0   33.333333333333336
50.0   30.0   33.333333333333336
0.0   30.0   33.333333333333336
50.0   30.0   50.0
0.0   0.0   50.0
0.0   30.0   50.0
50.0   30.0   50.0
0.0   30.0   33.333333333333336
0.0   0.0   50.0
50.0   30.0   50.0
50.0   0.0   50.0
50.0   0.0   33.333333333333336
0.0   0.0   50.0
50.0   30.0   50.0
50.0   0.0   33.333333333333336
0.0   30.0   33.333333333333336
0.0   30.0   0.0
50.0   30.0   0.0
0.0   60.0   0.0
0.0   30.0   16.666666666666668
50.0   30.0   0.0
50.0   60.0   0.0
0.0   60.0   0.0
50.0   60.0   16.666666666666668
0.0   30.0   16.666666666666668
0.0   60.0   16.666666666666668
50.0   60.0   16.666666666666668
0.0   60.0   0.0
0.0   30.0   16.666666666666668
50.0   60.0   16.666666666666668
50.0   30.0   16.666666666666668
50.0   30.0   0.0
0.0   30.0   16.666666666666668
50.0   60.0   16.666666666666668
50.0   30.0   0.0
0.0   60.0   0.0
0.0   30.0   16.666666666666668
50.0   30.0   16.666666666666668
0.0   60.0   16.666666666666668
0.0   30.0   33.333333333333336
50.0   30.0   16.666666666666668
50.0   60.0   16.666666666666668
0.0   60.0   16.666666666666668
50.0   60.0   33.333333333333336
0.0   30.0   33.333333333333336
0.0   60.0   33.333333333333336
50.0   60.0   33.333333333333336
0.0   60.0   16.666666666666668
0.0   30.0   33.333333333333336
50.0   60.0   33.333333333333336
50.0   30.0   33.333333333333336
50.0   30.0   16.666666666666668
0.0   30.0   33.333333333333336
50.0   60.0   33.333333333333336
50.0   30.0   16.666666666666668
0.0   60.0   16.666666666666668
0.0   30.0   33.333333333333336
50.0   30.0   33.333333333333336
0.0   60.0   33.333333333333336
0.0   30.0   50.0
50.0   30.0   33.333333333333336
50.0   60.0   33.333333333333336
0.0   60.0   33.333333333333336
50.0   60.0   50.0
0.0   30.0   50.0
0.0   60.0   50.0
50.0   60.0   50.0
0.0   60.0   33.333333333333336
0.0   30.0   50.0
50.0   60.0   50.0
50.0   30.0   50.0
50.0   30.0   33.333333333333336
0.0   30.0   50.0
50.0   60.0   50.0
50.0   30.0   33.333333333333336
0.0   60.0   33.333333333333336
0.0   60.0   0.0
50.0   60.0   0.0
0.0   90.0   0.0
0.0   60.0   16.666666666666668
50.0   60.0   0.0
50.0   90.0   0.0
0.0   90.0   0.0
50.0   90.0   16.666666666666668
0.0   60.0   16.666666666666668
0.0   90.0   16.666666666666668
50.0   90.0   16.666666666666668
0.0   90.0   0.0
0.0   60.0   16.666666666666668
50.0   90.0   16.666666666666668
50.0   60.0   16.666666666666668
50.0   60.0   0.0
0.0   60.0   16.666666666666668
50.0   90.0   16.666666666666668
50.0   60.0   0.0
0.0   90.0   0.0
0.0   60.0   16.666666666666668
50.0   60.0   16.666666666666668
0.0   90.0   16.666666666666668
0.0   60.0   33.333333333333336
50.0   60.0   16.666666666666668
50.0   90.0   16.666666666666668
0.0   90.0   16.666666666666668
50.0   90.0   33.333333333333336
0.0   60.0   33.333333333333336
0.0   90.0   33.333333333333336
50.0   90.0   33.333333333333336
0.0   90.0   16.666666666666668
0.0   60.0   33.333333333333336
50.0   90.0   33.333333333333336
50.0   60.0   33.333333333333336
50.0   60.0   16.666666666666668
0.0   60.0   33.333333333333336
50.0   90.0   33.333333333333336
50.0   60.0   16.666666666666668
0.0   90.0   16.666666666666668
0.0   60.0   33.333333333333336
50.0   60.0   33.333333333333336
0.0   90.0   33.333333333333336
0.0   60.0   50.0
50.0   60.0   33.333333333333336
50.0   90.0   33.333333333333336
0.0   90.0   33.333333333333336
50.0   90.0   50.0
0.0   60.0   50.0
0.0   90.0   50.0
50.0   90.0   50.0
0.0   90.0   33.333333333333336
0.0   60.0   50.0
50.0   90.0   50.0
50.0   60.0   50.0
50.0   60.0   33.333333333333336
0.0   60.0   50.0
50.0   90.0   50.0
50.0   60.0   33.333333333333336
0.0   90.0   33.333333333333336
0.0   90.0   0.0
50.0   90.0   0.0
0.0   120.0   0.0
0.0   90.0   16.666666666666668
50.0   90.0   0.0
50.0   120.0   0.0
0.0   120.0   0.0
50.0   120.0   16.666666666666668
0.0   90.0   16.666666666666668
0.0   120.0   16.666666666666668
50.0   120.0   16.666666666666668
0.0   120.0   0.0
0.0   90.0   16.666666666666668
50.0   120.0   16.666666666666668
50.0   90.0   16.666666666666668
50.0   90.0   0.0
0.0   90.0   16.666666666666668
50.0   120.0   16.666666666666668
50.0   90.0   0.0
0.0   120.0   0.0
0.0   90.0   16.666666666666668
50.0   90.0   16.666666666666668
0.0   120.0   16.666666666666668
0.0   90.0   33.333333333333336
50.0   90.0   16.666666666666668
50.0   120.0   16.666666666666668
0.0   120.0   16.666666666666668
50.0   120.0   33.333333333333336
0.0   90.0   33.333333333333336
0.0   120.0   33.333333333333336
50.0   120.0   33.333333333333336
0.0   120.0   16.666666666666668
0.0   90.0   33.333333333333336
50.0   120.0   33.333333333333336
50.0   90.0   33.333333333333336
50.0   90.0   16.666666666666668
0.0   90.0   33.333333333333336
50.0   120.0   33.333333333333336
50.0   90.0   16.666666666666668
0.0   120.0   16.666666666666668
0.0   90.0   33.333333333333336
50.0   90.0   33.333333333333336
0.0   120.0   33.333333333333336
0.0   90.0   50.0
50.0   90.0   33.333333333333336
50.0   120.0   33.333333333333336
0.0   120.0   33.333333333333336
50.0   120.0   50.0
0.0   90.0   50.0
0.0   120.0   50.0
50.0   120.0   50.0
0.0   120.0   33.333333333333336
0.0   90.0   50.0
50.0   120.0   50.0
50.0   90.0   50.0
50.0   90.0   33.333333333333336
0.0   90.0   50.0
50.0   120.0   50.0
50.0   90.0   33.333333333333336
0.0   120.0   33.333333333333336
0.0   120.0   0.0
50.0   120.0   0.0
0.0   150.0   0.0
0.0   120.0   16.666666666666668
50.0   120.0   0.0
50.0   150.0   0.0
0.0   150.0   0.0
50.0   150.0   16.666666666666668
0.0   120.0   16.666666666666668
0.0   150.0   16.666666666666668
50.0   150.0   16.666666666666668
0.0   150.0   0.0
0.0   120.0   16.666666666666668
50.0   150.0   16.666666666666668
50.0   120.0   16.666666666666668
50.0   120.0   0.0
0.0   120.0   16.666666666666668
50.0   150.0   16.666666666666668
50.0   120.0   0.0
0.0   150.0   0.0
0.0   120.0   16.666666666666668
50.0   120.0   16.666666666666668
0.0   150.0   16.666666666666668
0.0   120.0   33.333333333333336
50.0   120.0   16.666666666666668
50.0   150.0   16.666666666666668
0.0   150.0   16.666666666666668
50.0   150.0   33.333333333333336
0.0   120.0   33.333333333333336
0.0   150.0   33.333333333333336
50.0   150.0   33.333333333333336
0.0   150.0   16.666666666666668
0.0   120.0   33.333333333333336
50.0   150.0   33.333333333333336
50.0   120.0   33.333333333333336
50.0   120.0   16.666666666666668
0.0   120.0   33.333333333333336
50.0   150.0   33.333333333333336
50.0   120.0   16.666666666666668
0.0   150.0   16.666666666666668
0.0   120.0   33.333333333333336
50.0   120.0   33.333333333333336
0.0   150.0   33.333333333333336
0.0   120.0   50.0
50.0   120.0   33.333333333333336
50.0   150.0   33.333333333333336
0.0   150.0   33.333333333333336
50.0   150.0   50.0
0.0   120.0   50.0
0.0   150.0   50.0
50.0   150.0   50.0
0.0   150.0   33.333333333333336
0.0   120.0   50.0
50.0   150.0   50.0
50.0   120.0   50.0
50.0   120.0   33.333333333333336
0.0   120.0   50.0
50.0   150.0   50.0
50.0   120.0   33.333333333333336
0.0   150.0   33.333333333333336
50.0   0.0   0.0
100.0   0.0   0.0
50.0   30.0   0.0
50.0   0.0   16.666666666666668
100.0   0.0   0.0
100.0   30.0   0.0
50.0   30.0   0.0
100.0   30.0   16.666666666666668
50.0   0.0   16.666666666666668
50.0   30.0   16.666666666666668
100.0   30.0   16.666666666666668
50.0   30.0   0.0
50.0   0.0   16.666666666666668
100.0   30.0   16.666666666666668
100.0   0.0   16.666666666666668
100.0   0.0   0.0
50.0   0.0   16.666666666666668
100.0   30.0   16.666666666666668
100.0   0.0   0.0
50.0   30.0   0.0
50.0   0.0   16.666666666666668
100.0   0.0   16.666666666666668
50.0   30.0   16.666666666666668
50.0   0.0   33.333333333333336
100.0   0.0   16.666666666666668
100.0   30.0   16.666666666666668
50.0   30.0   16.666666666666668
100.0   30.0   33.333333333333336
50.0   0.0   33.333333333333336
50.0   30.0   33.333333333333336
100.0   30.0   33.333333333333336
50.0   30.0   16.666666666666668
50.0   0.0   33.333333333333336
100.0   30.0   33.333333333333336
100.0   0.0   33.333333333333336
100.0   0.0   16.666666666666668
50.0   0.0   33.333333333333336
100.0   30.0   33.333333333333336
100.0   0.0   16.666666666666668
50.0   30.0   16.666666666666668
50.0   0.0   33.333333333333336
100.0   0.0   33.333333333333336
50.0   30.0   33.333333333333336
50.0   0.0   50.0
100.0   0.0   33.333333333333336
100.0   30.0   33.333333333333336
50.0   30.0   33.333333333333336
100.0   30.0   50.0
50.0   0.0   50.0
50.0   30.0   50.0
100.0   30.0   50.0
50.0   30.0   33.333333333333336
50.0   0.0   50.0
100.0   30.0   50.0
100.0   0.0   50.0
100.0   0.0   33.333333333333336
50.0   0.0   50.0
100.0   30.0   50.0
100.0   0.0   33.333333333333336
50.0   30.0   33.333333333333336
50.0   30.0   0.0
100.0   30.0   0.0
50.0   60.0   0.0
50.0   30.0   16.666666666666668
100.0   30.0   0.0
100.0   60.0   0.0
50.0   60.0   0.0
100.0   60.0   16.666666666666668
50.0   30.0   16.666666666666668
50.0   60.0   16.666666666666668
100.0   60.0   16.666666666666668
50.0   60.0   0.0
50.0   30.0   16.666666666666668
100.0   60.0   16.666666666666668
100.0   30.0   16.666666666666668
100.0   30.0   0.0
50.0   30.0   16.666666666666668
100.0   60.0   16.666666666666668
100.0   30.0   0.0
50.0   60.0   0.0
50.0   30.0   16.666666666666668
100.0   30.0   16.666666666666668
50.0   60.0   16.666666666666668
50.0   30.0   33.333333333333336
100.0   30.0   16.666666666666668
100.0   60.0   16.666666666666668
50.0   60.0   16.666666666666668
100.0   60.0   33.333333333333336
50.0   30.0   33.333333333333336
50.0   60.0   33.333333333333336
100.0   60.0   33.333333333333336
50.0   60.0   16.666666666666668
50.0   30.0   33.333333333333336
100.0   60.0   33.333333333333336
100.0   30.0   33.333333333333336
100.0   30.0   16.666666666666668
50.0   30.0   33.333333333333336
100.0   60.0   33.333333333333336
100.0   30.0   16.666666666666668
50.0   60.0   16.666666666666668
50.0   30.0   33.333333333333336
100.0   30.0   33.333333333333336
50.0   60.0   33.333333333333336
50.0   30.0   50.0
100.0   30.0   33.333333333333336
100.0   60.0   33.333333333333336
50.0   60.0   33.333333333333336
100.0   60.0   50.0
50.0   30.0   50.0
50.0   60.0   50.0
100.0   60.0   50.0
50.0   60.0   33.333333333333336
50.0   30.0   50.0
100.0   60.0   50.0
100.0   30.0   50.0
100.0   30.0   33.333333333333336
50.0   30.0   50.0
100.0   60.0   50.0
100.0   30.0   33.333333333333336
50.0   60.0   33.333333333333336
50.0   60.0   0.0
100.0   60.0   0.0
50.0   90.0   0.0
50.0   60.0   16.666666666666668
100.0   60.0   0.0
100.0   90.0   0.0
50.0   90.0   0.0
100.0   90.0   16.666666666666668
50.0   60.0   16.666666666666668
50.0   90.0   16.666666666666668
100.0   90.0   16.666666666666668
50.0   90.0   0.0
50.0   60.0   16.666666666666668
100.0   90.0   16.666666666666668
100.0   60.0   16.666666666666668
100.0   60.0   0.0
50.0   60.0   16.666666666666668
100.0   90.0   16.666666666666668
100.0   60.0   0.0
50.0   90.0   0.0
50.0   60.0   16.666666666666668
100.0   60.0   16.666666666666668
50.0   90.0   16.666666666666668
50.0   60.0   33.333333333333336
100.0   60.0   16.666666666666668
100.0   90.0   16.666666666666668
50.0   90.0   16.666666666666668
100.0   90.0   33.333333333333336
50.0   60.0   33.333333333333336
50.0   90.0   33.333333333333336
100.0   90.0   33.333333333333336
50.0   90.0   16.666666666666668
50.0   60.0   33.333333333333336
100.0   90.0   33.333333333333336
100.0   60.0   33.333333333333336
100.0   60.0   16.666666666666668
50.0   60.0   33.333333333333336
100.0   90.0   33.333333333333336
100.0   60.0   16.666666666666668
50.0   90.0   16.666666666666668
50.0   60.0   33.333333333333336
100.0   60.0   33.333333333333336
50.0   90.0   33.333333333333336
50.0   60.0   50.0
100.0   60.0   33.333333333333336
100.0   90.0   33.333333333333336
50.0   90.0   33.333333333333336
100.0   90.0   50.0
50.0   60.0   50.0
50.0   90.0   50.0
100.0   90.0   50.0
50.0   90.0   33.333333333333336
50.0   60.0   50.0
100.0   90.0   50.0
100.0   60.0   50.0
100.0   60.0   33.333333333333336
50.0   60.0   50.0
100.0   90.0   50.0
100.0   60.0   33.333333333333336
50.0   90.0   33.333333333333336
50.0   90.0   0.0
100.0   90.0   0.0
50.0   120.0   0.0
50.0   90.0   16.666666666666668
100.0   90.0   0.0
100.0   120.0   0.0
50.0   120.0   0.0
100.0   120.0   16.666666666666668
50.0   90.0   16.666666666666668
50.0   120.0   16.666666666666668
100.0   120.0   16.666666666666668
50.0   120.0   0.0
50.0   90.0   16.666666666666668
100.0   120.0   16.666666666666668
100.0   90.0   16.666666666666668
100.0   90.0   0.0
50.0   90.0   16.666666666666668
100.0   120.0   16.666666666666668
100.0   90.0   0.0
50.0   120.0   0.0
50.0   90.0   16.666666666666668
100.0   90.0   16.666666666666668
50.0   120.0   16.666666666666668
50.0   90.0   33.333333333333336
100.0   90.0   16.666666666666668
100.0   120.0   16.666666666666668
50.0   120.0   16.666666666666668
100.0   120.0   33.333333333333336
50.0   90.0   33.333333333333336
50.0   120.0   33.333333333333336
100.0   120.0   33.333333333333336
50.0   120.0   16.666666666666668
50.0   90.0   33.333333333333336
100.0   120.0   33.333333333333336
100.0   90.0   33.333333333333336
100.0   90.0   16.666666666666668
50.0   90.0   33.333333333333336
100.0   120.0   33.333333333333336
100.0   90.0   16.666666666666668
50.0   120.0   16.666666666666668
50.0   90.0   33.333333333333336
100.0   90.0   33.333333333333336
50.0   120.0   33.333333333333336
50.0   90.0   50.0
100.0   90.0   33.333333333333336
100.0   120.0   33.333333333333336
50.0   120.0   33.333333333333336
100.0   120.0   50.0
50.0   90.0   50.0
50.0   120.0   50.0
100.0   120.0   50.0
50.0   120.0   33.333333333333336
50.0   90.0   50.0
100.0   120.0   50.0
100.0   90.0   50.0
100.0   90.0   33.333333333333336
50.0   90.0   50.0
100.0   120.0   50.0
100.0   90.0   33.333333333333336
50.0   120.0   33.333333333333336
50.0   120.0   0.0
100.0   120.0   0.0
50.0   150.0   0.0
50.0   120.0   16.666666666666668
100.0   120.0   0.0
100.0   150.0   0.0
50.0   150.0   0.0
100.0   150.0   16.666666666666668
50.0   120.0   16.666666666666668
50.0   150.0   16.666666666666668
100.0   150.0   16.666666666666668
50.0   150.0   0.0
50.0   120.0   16.666666666666668
100.0   150.0   16.666666666666668
100.0   120.0   16.666666666666668
100.0   120.0   0.0
50.0   120.0   16.666666666666668
100.0   150.0   16.666666666666668
100.0   120.0   0.0
50.0   150.0   0.0
50.0   120.0   16.666666666666668
100.0   120.0   16.666666666666668
50.0   150.0   16.666666666666668
50.0   120.0   33.333333333333336
100.0   120.0   16.666666666666668
100.0   150.0   16.666666666666668
50.0   150.0   16.666666666666668
100.0   150.0   33.333333333333336
50.0   120.0   33.333333333333336
50.0   150.0   33.333333333333336
100.0   150.0   33.333333333333336
50.0   150.0   16.666666666666668
50.0   120.0   33.333333333333336
100.0   150.0   33.333333333333336
100.0   120.0   33.333333333333336
100.0   120.0   16.666666666666668
50.0   120.0   33.333333333333336
100.0   150.0   33.333333333333336
100.0   120.0   16.666666666666668
50.0   150.0   16.666666666666668
50.0   120.0   33.333333333333336
100.0   120.0   33.333333333333336
50.0   150.0   33.333333333333336
50.0   120.0   50.0
100.0   120.0   33.333333333333336
100.0   150.0   33.333333333333336
50.0   150.0   33.333333333333336
100.0   150.0   50.0
50.0   120.0   50.0
50.0   150.0   50.0
100.0   150.0   50.0
50.0   150.0   33.333333333333336
50.0   120.0   50.0
100.0   150.0   50.0
100.0   120.0   50.0
100.0   120.0   33.333333333333336
50.0   120.0   50.0
100.0   150.0   50.0
100.0   120.0   33.333333333333336
50.0   150.0   33.333333333333336
100.0   0.0   0.0
150.0   0.0   0.0
100.0   30.0   0.0
100.0   0.0   16.666666666666668
150.0   0.0   0.0
150.0   30.0   0.0
100.0   30.0   0.0
150.0   30.0   16.666666666666668
100.0   0.0   16.666666666666668
100.0   30.0   16.666666666666668
150.0   30.0   16.666666666666668
100.0   30.0   0.0
100.0   0.0   16.666666666666668
150.0   30.0   16.666666666666668
150.0   0.0   16.666666666666668
150.0   0.0   0.0
100.0   0.0   16.666666666666668
150.0   30.0   16.666666666666668
150.0   0.0   0.0
100.0   30.0   0.0
100.0   0.0   16.666666666666668
150.0   0.0   16.666666666666668
100.0   30.0   16.666666666666668
100.0   0.0   33.333333333333336
150.0   0.0   16.666666666666668
150.0   30.0   16.666666666666668
100.0   30.0   16.666666666666668
150.0   30.0   33.333333333333336
100.0   0.0   33.333333333333336
100.0   30.0   33.333333333333336
150.0   30.0   33.333333333333336
100.0   30.0   16.666666666666668
100.0   0.0   33.333333333333336
150.0   30.0   33.333333333333336
150.0   0.0   33.333333333333336
150.0   0.0   16.666666666666668
100.0   0.0   33.333333333333336
150.0   30.0   33.333333333333336
150.0   0.0   16.666666666666668
100.0   30.0   16.666666666666668
100.0   0.0   33.333333333333336
150.0   0.0   33.333333333333336
100.0   30.0   33.333333333333336
100.0   0.0   50.0
150.0   0.0   33.333333333333336
150.0   30.0   33.333333333333336
100.0   30.0   33.333333333333336
150.0   30.0   50.0
100.0   0.0   50.0
100.0   30.0   50.0
150.0   30.0   50.0
100.0   30.0   33.333333333333336
100.0   0.0   50.0
150.0   30.0   50.0
150.0   0.0   50.0
150.0   0.0   33.333333333333336
100.0   0.0   50.0
150.0   30.0   50.0
150.0   0.0   33.333333333333336
100.0   30.0   33.333333333333336
100.0   30.0   0.0
150.0   30.0   0.0
100.0   60.0   0.0
100.0   30.0   16.666666666666668
150.0   30.0   0.0
150.0   60.0   0.0
100.0   60.0   0.0
150.0   60.0   16.666666666666668
100.0   30.0   16.666666666666668
100.0   60.0   16.666666666666668
150.0   60.0   16.666666666666668
100.0   60.0   0.0
100.0   30.0   16.666666666666668
150.0   60.0   16.666666666666668
150.0   30.0   16.666666666666668
150.0   30.0   0.0
100.0   30.0   16.666666666666668
150.0   60.0   16.666666666666668
150.0   30.0   0.0
100.0   60.0   0.0
100.0   30.0   16.666666666666668
150.0   30.0   16.666666666666668
100.0   60.0   16.666666666666668
100.0   30.0   33.333333333333336
150.0   30.0   16.666666666666668
150.0   60.0   16.666666666666668
100.0   60.0   16.666666666666668
150.0   60.0   33.333333333333336
100.0   30.0   33.333333333333336
100.0   60.0   33.333333333333336
150.0   60.0   33.333333333333336
100.0   60.0   16.666666666666668
100.0   30.0   33.333333333333336
150.0   60.0   33.333333333333336
150.0   30.0   33.333333333333336
150.0   30.0   16.666666666666668
100.0   30.0   33.333333333333336
150.0   60.0   33.333333333333336
150.0   30.0   16.666666666666668
100.0   60.0   16.666666666666668
100.0   30.0   33.333333333333336
150.0   30.0   33.333333333333336
100.0   60.0   33.333333333333336
100.0   30.0   50.0
150.0   30.0   33.333333333333336
150.0   60.0   33.333333333333336
100.0   60.0   33.333333333333336
150.0   60.0   50.0
100.0   30.0   50.0
100.0   60.0   50.0
150.0   60.0   50.0
100.0   60.0   33.333333333333336
100.0   30.0   50.0
150.0   60.0   50.0
150.0   30.0   50.0
150.0   30.0   33.333333333333336
100.0   30.0   50.0
150.0   60.0   50.0
150.0   30.0   33.333333333333336
100.0   60.0   33.333333333333336
100.0   60.0   0.0
150.0   60.0   0.0
100.0   90.0   0.0
100.0   60.0   16.666666666666668
150.0   60.0   0.0
150.0   90.0   0.0
100.0   90.0   0.0
150.0   90.0   16.666666666666668
100.0   60.0   16.666666666666668
100.0   90.0   16.666666666666668
150.0   90.0   16.666666666666668
100.0   90.0   0.0
100.0   60.0   16.666666666666668
150.0   90.0   16.666666666666668
150.0   60.0   16.666666666666668
150.0   60.0   0.0
100.0   60.0   16.666666666666668
150.0   90.0   16.666666666666668
150.0   60.0   0.0
100.0   90.0   0.0
100.0   60.0   16.666666666666668
150.0   60.0   16.666666666666668
100.0   90.0   16.666666666666668
100.0   60.0   33.333333333333336
150.0   60.0   16.666666666666668
150.0   90.0   16.666666666666668
100.0   90.0   16.666666666666668
150.0   90.0   33.333333333333336
100.0   60.0   33.333333333333336
100.0   90.0   33.333333333333336
150.0   90.0   33.333333333333336
100.0   90.0   16.666666666666668
100.0   60.0   33.333333333333336
150.0   90.0   33.333333333333336
150.0   60.0   33.333333333333336
150.0   60.0   16.666666666666668
100.0   60.0   33.333333333333336
150.0   90.0   33.333333333333336
150.0   60.0   16.666666666666668
100.0   90.0   16.666666666666668
100.0   60.0   33.333333333333336
150.0   60.0   33.333333333333336
100.0   90.0   33.333333333333336
100.0   60.0   50.0
150.0   60.0   33.333333333333336
150.0   90.0   33.333333333333336
100.0   90.0   33.333333333333336
150.0   90.0   50.0
100.0   60.0   50.0
100.0   90.0   50.0
150.0   90.0   50.0
100.0   90.0   33.333333333333336
100.0   60.0   50.0
150.0   90.0   50.0
150.0   60.0   50.0
150.0   60.0   33.333333333333336
100.0   60.0   50.0
150.0   90.0   50.0
150.0   60.0   33.333333333333336
100.0   90.0   33.333333333333336
100.0   90.0   0.0
150.0   90.0   0.0
100.0   120.0   0.0
100.0   90.0   16.666666666666668
150.0   90.0   0.0
150.0   120.0   0.0
100.0   120.0   0.0
150.0   120.0   16.666666666666668
100.0   90.0   16.666666666666668
100.0   120.0   16.666666666666668
150.0   120.0   16.666666666666668
100.0   120.0   0.0
100.0   90.0   16.666666666666668
150.0   120.0   16.666666666666668
150.0   90.0   16.666666666666668
150.0   90.0   0.0
100.0   90.0   16.666666666666668
150.0   120.0   16.666666666666668
150.0   90.0   0.0
100.0   120.0   0.0
100.0   90.0   16.666666666666668
150.0   90.0   16.666666666666668
100.0   120.0   16.666666666666668
100.0   90.0   33.333333333333336
150.0   90.0   16.666666666666668
150.0   120.0   16.666666666666668
100.0   120.0   16.666666666666668
150.0   120.0   33.333333333333336
100.0   90.0   33.333333333333336
100.0   120.0   33.333333333333336
150.0   120.0   33.333333333333336
100.0   120.0   16.666666666666668
100.0   90.0   33.333333333333336
150.0   120.0   33.333333333333336
150.0   90.0   33.333333333333336
150.0   90.0   16.666666666666668
100.0   90.0   33.333333333333336
150.0   120.0   33.333333333333336
150.0   90.0   16.666666666666668
100.0   120.0   16.666666666666668
100.0   90.0   33.333333333333336
150.0   90.0   33.333333333333336
100.0   120.0   33.333333333333336
100.0   90.0   50.0
150.0   90.0   33.333333333333336
150.0   120.0   33.333333333333336
100.0   120.0   33.333333333333336
150.0   120.0   50.0
100.0   90.0   50.0
100.0   120.0   50.0
150.0   120.0   50.0
100.0   120.0   33.333333333333336
100.0   90.0   50.0
150.0   120.0   50.0
150.0   90.0   50.0
150.0   90.0   33.333333333333336
100.0   90.0   50.0
150.0   120.0   50.0
150.0   90.0   33.333333333333336
100.0   120.0   33.333333333333336
100.0   120.0   0.0
150.0   120.0   0.0
100.0   150.0   0.0
100.0   120.0   16.666666666666668
150.0   120.0   0.0
150.0   150.0   0.0
100.0   150.0   0.0
150.0   150.0   16.666666666666668
100.0   120.0   16.666666666666668
100.0   150.0   16.666666666666668
150.0   150.0   16.666666666666668
100.0   150.0   0.0
100.0   120.0   16.666666666666668
150.0   150.0   16.666666666666668
150.0   120.0   16.666666666666668
150.0   120.0   0.0
100.0   120.0   16.666666666666668
150.0   150.0   16.666666666666668
150.0   120.0   0.0
100.0   150.0   0.0
100.0   120.0   16.666666666666668
150.0   120.0   16.666666666666668
100.0   150.0   16.666666666666668
100.0   120.0   33.333333333333336
150.0   120.0   16.666666666666668
150.0   150.0   16.666666666666668
100.0   150.0   16.666666666666668
150.0   150.0   33.333333333333336
100.0   120.0   33.333333333333336
100.0   150.0   33.333333333333336
150.0   150.0   33.333333333333336
100.0   150.0   16.666666666666668
100.0   120.0   33.333333333333336
150.0   150.0   33.333333333333336
150.0   120.0   33.333333333333336
150.0   120.0   16.666666666666668
100.0   120.0   33.333333333333336
150.0   150.0   33.333333333333336
150.0   120.0   16.666666666666668
100.0   150.0   16.666666666666668
100.0   120.0   33.333333333333336
150.0   120.0   33.333333333333336
100.0   150.0   33.333333333333336
100.0   120.0   50.0
150.0   120.0   33.333333333333336
150.0   150.0   33.333333333333336
100.0   150.0   33.333333333333336
150.0   150.0   50.0
100.0   120.0   50.0
100.0   150.0   50.0
150.0   150.0   50.0
100.0   150.0   33.333333333333336
100.0   120.0   50.0
150.0   150.0   50.0
150.0   120.0   50.0
150.0   120.0   33.333333333333336
100.0   120.0   50.0
150.0   150.0   50.0
150.0   120.0   33.333333333333336
100.0   150.0   33.333333333333336
150.0   0.0   0.0
200.0   0.0   0.0
150.0   30.0   0.0
150.0   0.0   16.666666666666668
200.0   0.0   0.0
200.0   30.0   0.0
150.0   30.0   0.0
200.0   30.0   16.666666666666668
150.0   0.0   16.666666666666668
150.0   30.0   16.666666666666668
200.0   30.0   16.666666666666668
150.0   30.0   0.0
150.0   0.0   16.666666666666668
200.0   30.0   16.666666666666668
200.0   0.0   16.666666666666668
200.0   0.0   0.0
150.0   0.0   16.666666666666668
200.0   30.0   16.666666666666668
200.0   0.0   0.0
150.0   30.0   0.0
150.0   0.0   16.666666666666668
200.0   0.0   16.666666666666668
150.0   30.0   16.666666666666668
150.0   0.0   33.333333333333336
200.0   0.0   16.666666666666668
200.0   30.0   16.666666666666668
150.0   30.0   16.666666666666668
200.0   30.0   33.333333333333336
150.0   0.0   33.333333333333336
150.0   30.0   33.333333333333336
200.0   30.0   33.333333333333336
150.0   30.0   16.666666666666668
150.0   0.0   33.333333333333336
200.0   30.0   33.333333333333336
200.0   0.0   33.333333333333336
200.0   0.0   16.666666666666668
150.0   0.0   33.333333333333336
200.0   30.0   33.333333333333336
200.0   0.0   16.666666666666668
150.0   30.0   16.666666666666668
150.0   0.0   33.333333333333336
200.0   0.0   33.333333333333336
150.0   30.0   33.333333333333336
150.0   0.0   50.0
200.0   0.0   33.333333333333336
200.0   30.0   33.333333333333336
150.0   30.0   33.333333333333336
200.0   30.0   50.0
150.0   0.0   50.0
150.0   30.0   50.0
200.0   30.0   50.0
150.0   30.0   33.333333333333336
150.0   0.0   50.0
200.0   30.0   50.0
200.0   0.0   50.0
200.0   0.0   33.333333333333336
150.0   0.0   50.0
200.0   30.0   50.0
200.0   0.0   33.333333333333336
150.0   30.0   33.333333333333336
150.0   30.0   0.0
200.0   30.0   0.0
150.0   60.0   0.0
150.0   30.0   16.666666666666668
200.0   30.0   0.0
200.0   60.0   0.0
150.0   60.0   0.0
200.0   60.0   16.666666666666668
150.0   30.0   16.666666666666668
150.0   60.0   16.666666666666668
200.0   60.0   16.666666666666668
150.0   60.0   0.0
150.0   30.0   16.666666666666668
200.0   60.0   16.666666666666668
200.0   30.0   16.666666666666668
200.0   30.0   0.0
150.0   30.0   16.666666666666668
200.0   60.0   16.666666666666668
200.0   30.0   0.0
150.0   60.0   0.0
150.0   30.0   16.666666666666668
200.0   30.0   16.666666666666668
150.0   60.0   16.666666666666668
150.0   30.0   33.333333333333336
200.0   30.0   16.666666666666668
200.0   60.0   16.666666666666668
150.0   60.0   16.666666666666668
200.0   60.0   33.333333333333336
150.0   30.0   33.333333333333336
150.0   60.0   33.333333333333336
200.0   60.0   33.333333333333336
150.0   60.0   16.666666666666668
150.0   30.0   33.333333333333336
200.0   60.0   33.333333333333336
200.0   30.0   33.333333333333336
200.0   30.0   16.666666666666668
150.0   30.0   33.333333333333336
200.0   60.0   33.333333333333336
200.0   30.0   16.666666666666668
150.0   60.0   16.666666666666668
150.0   30.0   33.333333333333336
200.0   30.0   33.333333333333336
150.0   60.0   33.333333333333336
150.0   30.0   50.0
200.0   30.0   33.333333333333336
200.0   60.0   33.333333333333336
150.0   60.0   33.333333333333336
200.0   60.0   50.0
150.0   30.0   50.0
150.0   60.0   50.0
200.0   60.0   50.0
150.0   60.0   33.333333333333336
150.0   30.0   50.0
200.0   60.0   50.0
200.0   30.0   50.0
200.0   30.0   33.333333333333336
150.0   30.0   50.0
200.0   60.0   50.0
200.0   30.0   33.333333333333336
150.0   60.0   33.333333333333336
150.0   60.0   0.0
200.0   60.0   0.0
150.0   90.0   0.0
150.0   60.0   16.666666666666668
200.0   60.0   0.0
200.0   90.0   0.0
150.0   90.0   0.0
200.0   90.0   16.666666666666668
150.0   60.0   16.666666666666668
150.0   90.0   16.666666666666668
200.0   90.0   16.666666666666668
150.0   90.0   0.0
150.0   60.0   16.666666666666668
200.0   90.0   16.666666666666668
200.0   60.0   16.666666666666668
200.0   60.0   0.0
150.0   60.0   16.666666666666668
200.0   90.0   16.666666666666668
200.0   60.0   0.0
150.0   90.0   0.0
150.0   60.0   16.666666666666668
200.0   60.0   16.666666666666668
150.0   90.0   16.666666666666668
150.0   60.0   33.333333333333336
200.0   60.0   16.666666666666668
200.0   90.0   16.666666666666668
150.0   90.0   16.666666666666668
200.0   90.0   33.333333333333336
150.0   60.0   33.333333333333336
150.0   90.0   33.333333333333336
200.0   90.0   33.333333333333336
150.0   90.0   16.666666666666668
150.0   60.0   33.333333333333336
200.0   90.0   33.333333333333336
200.0   60.0   33.333333333333336
200.0   60.0   16.666666666666668
150.0   60.0   33.333333333333336
200.0   90.0   33.333333333333336
200.0   60.0   16.666666666666668
150.0   90.0   16.666666666666668
150.0   60.0   33.333333333333336
200.0   60.0   33.333333333333336
150.0   90.0   33.333333333333336
150.0   60.0   50.0
200.0   60.0   33.333333333333336
200.0   90.0   33.333333333333336
150.0   90.0   33.333333333333336
200.0   90.0   50.0
150.0   60.0   50.0
150.0   90.0   50.0
200.0   90.0   50.0
150.0   90.0   33.333333333333336
150.0   60.0   50.0
200.0   90.0   50.0
200.0   60.0   50.0
200.0   60.0   33.333333333333336
150.0   60.0   50.0
200.0   90.0   50.0
200.0   60.0   33.333333333333336
150.0   90.0   33.333333333333336
150.0   90.0   0.0
200.0   90.0   0.0
150.0   120.0   0.0
150.0   90.0   16.666666666666668
200.0   90.0   0.0
200.0   120.0   0.0
150.0   120.0   0.0
200.0   120.0   16.666666666666668
150.0   90.0   16.666666666666668
150.0   120.0   16.666666666666668
200.0   120.0   16.666666666666668
150.0   120.0   0.0
150.0   90.0   16.666666666666668
200.0   120.0   16.666666666666668
200.0   90.0   16.666666666666668
200.0   90.0   0.0
150.0   90.0   16.666666666666668
200.0   120.0   16.666666666666668
200.0   90.0   0.0
150.0   120.0   0.0
150.0   90.0   16.666666666666668
200.0   90.0   16.666666666666668
150.0   120.0   16.666666666666668
150.0   90.0   33.333333333333336
200.0   90.0   16.666666666666668
200.0   120.0   16.666666666666668
150.0   120.0   16.666666666666668
200.0   120.0   33.333333333333336
150.0   90.0   33.333333333333336
150.0   120.0   33.333333333333336
200.0   120.0   33.333333333333336
150.0   120.0   16.666666666666668
150.0   90.0   33.333333333333336
200.0   120.0   33.333333333333336
200.0   90.0   33.333333333333336
200.0   90.0   16.666666666666668
150.0   90.0   33.333333333333336
200.0   120.0   33.333333333333336
200.0   90.0   16.666666666666668
150.0   120.0   16.666666666666668
150.0   90.0   33.333333333333336
200.0   90.0   33.333333333333336
150.0   120.0   33.333333333333336
150.0   90.0   50.0
200.0   90.0   33.333333333333336
200.0   120.0   33.333333333333336
150.0   120.0   33.333333333333336
200.0   120.0   50.0
150.0   90.0   50.0
150.0   120.0   50.0
200.0   120.0   50.0
150.0   120.0   33.333333333333336
150.0   90.0   50.0
200.0   120.0   50.0
200.0   90.0   50.0
200.0   90.0   33.333333333333336
150.0   90.0   50.0
200.0   120.0   50.0
200.0   90.0   33.333333333333336
150.0   120.0   33.333333333333336
150.0   120.0   0.0
200.0   120.0   0.0
150.0   150.0   0.0
150.0   120.0   16.666666666666668
200.0   120.0   0.0
200.0   150.0   0.0
150.0   150.0   0.0
200.0   150.0   16.666666666666668
150.0   120.0   16.666666666666668
150.0   150.0   16.666666666666668
200.0   150.0   16.666666666666668
150.0   150.0   0.0
150.0   120.0   16.666666666666668
200.0   150.0   16.666666666666668
200.0   120.0   16.666666666666668
200.0   120.0   0.0
150.0   120.0   16.666666666666668
200.0   150.0   16.666666666666668
200.0   120.0   0.0
150.0   150.0   0.0
150.0   120.0   16.666666666666668
200.0   120.0   16.666666666666668
150.0   150.0   16.666666666666668
150.0   120.0   33.333333333333336
200.0   120.0   16.666666666666668
200.0   150.0   16.666666666666668
150.0   150.0   16.666666666666668
200.0   150.0   33.333333333333336
150.0   120.0   33.333333333333336
150.0   150.0   33.333333333333336
200.0   150.0   33.333333333333336
150.0   150.0   16.666666666666668
150.0   120.0   33.333333333333336
200.0   150.0   33.333333333333336
200.0   120.0   33.333333333333336
200.0   120.0   16.666666666666668
150.0   120.0   33.333333333333336
200.0   150.0   33.333333333333336
200.0   120.0   16.666666666666668
150.0   150.0   16.666666666666668
150.0   120.0   33.333333333333336
200.0   120.0   33.333333333333336
150.0   150.0   33.333333333333336
150.0   120.0   50.0
200.0   120.0   33.333333333333336
200.0   150.0   33.333333333333336
150.0   150.0   33.333333333333336
200.0   150.0   50.0
150.0   120.0   50.0
150.0   150.0   50.0
200.0   150.0   50.0
150.0   150.0   33.333333333333336
150.0   120.0   50.0
200.0   150.0   50.0
200.0   120.0   50.0
200.0   120.0   33.333333333333336
150.0   120.0   50.0
200.0   150.0   50.0
200.0   120.0   33.333333333333336
150.0   150.0   33.333333333333336
200.0   0.0   0.0
250.0   0.0   0.0
200.0   30.0   0.0
200.0   0.0   16.666666666666668
250.0   0.0   0.0
250.0   30.0   0.0
200.0   30.0   0.0
250.0   30.0   16.666666666666668
200.0   0.0   16.666666666666668
200.0   30.0   16.666666666666668
250.0   30.0   16.666666666666668
200.0   30.0   0.0
200.0   0.0   16.666666666666668
250.0   30.0   16.666666666666668
250.0   0.0   16.666666666666668
250.0   0.0   0.0
200.0   0.0   16.666666666666668
250.0   30.0   16.666666666666668
250.0   0.0   0.0
200.0   30.0   0.0
200.0   0.0   16.666666666666668
250.0   0.0   16.666666666666668
200.0   30.0   16.666666666666668
200.0   0.0   33.333333333333336
250.0   0.0   16.666666666666668
250.0   30.0   16.666666666666668
200.0   30.0   16.666666666666668
250.0   30.0   33.333333333333336
200.0   0.0   33.333333333333336
200.0   30.0   33.333333333333336
250.0   30.0   33.333333333333336
200.0   30.0   16.666666666666668
200.0   0.0   33.333333333333336
250.0   30.0   33.333333333333336
250.0   0.0   33.333333333333336
250.0   0.0   16.666666666666668
200.0   0.0   33.333333333333336
250.0   30.0   33.333333333333336
250.0   0.0   16.666666666666668
200.0   30.0   16.666666666666668
200.0   0.0   33.333333333333336
250.0   0.0   33.333333333333336
200.0   30.0   33.333333333333336
200.0   0.0   50.0
250.0   0.0   33.333333333333336
250.0   30.0   33.333333333333336
200.0   30.0   33.333333333333336
250.0   30.0   50.0
200.0   0.0   50.0
200.0   30.0   50.0
250.0   30.0   50.0
200.0   30.0   33.333333333333336
200.0   0.0   50.0
250.0   30.0   50.0
250.0   0.0   50.0
250.0   0.0   33.333333333333336
200.0   0.0   50.0
250.0   30.0   50.0
250.0   0.0   33.333333333333336
200.0   30.0   33.333333333333336
200.0   30.0   0.0
250.0   30.0   0.0
200.0   60.0   0.0
200.0   30.0   16.666666666666668
250.0   30.0   0.0
250.0   60.0   0.0
200.0   60.0   0.0
250.0   60.0   16.666666666666668
200.0   30.0   16.666666666666668
200.0   60.0   16.666666666666668
250.0   60.0   16.666666666666668
200.0   60.0   0.0
200.0   30.0   16.666666666666668
250.0   60.0   16.666666666666668
250.0   30.0   16.666666666666668
250.0   30.0   0.0
200.0   30.0   16.666666666666668
250.0   60.0   16.666666666666668
250.0   30.0   0.0
200.0   60.0   0.0
200.0   30.0   16.666666666666668
250.0   30.0   16.666666666666668
200.0   60.0   16.666666666666668
200.0   30.0   33.333333333333336
250.0   30.0   16.666666666666668
250.0   60.0   16.666666666666668
200.0   60.0   16.666666666666668
250.0   60.0   33.333333333333336
200.0   30.0   33.333333333333336
200.0   60.0   33.333333333333336
250.0   60.0   33.333333333333336
200.0   60.0   16.666666666666668
200.0   30.0   33.333333333333336
250.0   60.0   33.333333333333336
250.0   30.0   33.333333333333336
250.0   30.0   16.666666666666668
200.0   30.0   33.333333333333336
250.0   60.0   33.333333333333336
250.0   30.0   16.666666666666668
200.0   60.0   16.666666666666668
200.0   30.0   33.333333333333336
250.0   30.0   33.333333333333336
200.0   60.0   33.333333333333336
200.0   30.0   50.0
250.0   30.0   33.333333333333336
250.0   60.0   33.333333333333336
200.0   60.0   33.333333333333336
250.0   60.0   50.0
200.0   30.0   50.0
200.0   60.0   50.0
250.0   60.0   50.0
200.0   60.0   33.333333333333336
200.0   30.0   50.0
250.0   60.0   50.0
250.0   30.0   50.0
250.0   30.0   33.333333333333336
200.0   30.0   50.0
250.0   60.0   50.0
250.0   30.0   33.333333333333336
200.0   60.0   33.333333333333336
200.0   60.0   0.0
250.0   60.0   0.0
200.0   90.0   0.0
200.0   60.0   16.666666666666668
250.0   60.0   0.0
250.0   90.0   0.0
200.0   90.0   0.0
250.0   90.0   16.666666666666668
200.0   60.0   16.666666666666668
200.0   90.0   16.666666666666668
250.0   90.0   16.666666666666668
200.0   90.0   0.0
200.0   60.0   16.666666666666668
250.0   90.0   16.666666666666668
250.0   60.0   16.666666666666668
250.0   60.0   0.0
200.0   60.0   16.666666666666668
250.0   90.0   16.666666666666668
250.0   60.0   0.0
200.0   90.0   0.0
200.0   60.0   16.666666666666668
250.0   60.0   16.666666666666668
200.0   90.0   16.666666666666668
200.0   60.0   33.333333333333336
250.0   60.0   16.666666666666668
250.0   90.0   16.666666666666668
200.0   90.0   16.666666666666668
250.0   90.0   33.333333333333336
200.0   60.0   33.333333333333336
200.0   90.0   33.333333333333336
250.0   90.0   33.333333333333336
200.0   90.0   16.666666666666668
200.0   60.0   33.333333333333336
250.0   90.0   33.333333333333336
250.0   60.0   33.333333333333336
250.0   60.0   16.666666666666668
200.0   60.0   33.333333333333336
250.0   90.0   33.333333333333336
250.0   60.0   16.666666666666668
200.0   90.0   16.666666666666668
200.0   60.0   33.333333333333336
250.0   60.0   33.333333333333336
200.0   90.0   33.333333333333336
200.0   60.0   50.0
250.0   60.0   33.333333333333336
250.0   90.0   33.333333333333336
200.0   90.0   33.333333333333336
250.0   90.0   50.0
200.0   60.0   50.0
200.0   90.0   50.0
250.0   90.0   50.0
200.0   90.0   33.333333333333336
200.0   60.0   50.0
250.0   90.0   50.0
250.0   60.0   50.0
250.0   60.0   33.333333333333336
200.0   60.0   50.0
250.0   90.0   50.0
250.0   60.0   33.333333333333336
200.0   90.0   33.333333333333336
200.0   90.0   0.0
250.0   90.0   0.0
200.0   120.0   0.0
200.0   90.0   16.666666666666668
250.0   90.0   0.0
250.0   120.0   0.0
200.0   120.0   0.0
250.0   120.0   16.666666666666668
200.0   90.0   16.666666666666668
200.0   120.0   16.666666666666668
250.0   120.0   16.666666666666668
200.0   120.0   0.0
200.0   90.0   16.666666666666668
250.0   120.0   16.666666666666668
250.0   90.0   16.666666666666668
250.0   90.0   0.0
200.0   90.0   16.666666666666668
250.0   120.0   16.666666666666668
250.0   90.0   0.0
200.0   120.0   0.0
200.0   90.0   16.666666666666668
250.0   90.0   16.666666666666668
200.0   120.0   16.666666666666668
200.0   90.0   33.333333333333336
250.0   90.0   16.666666666666668
250.0   120.0   16.666666666666668
200.0   120.0   16.666666666666668
250.0   120.0   33.333333333333336
200.0   90.0   33.333333333333336
200.0   120.0   33.333333333333336
250.0   120.0   33.333333333333336
200.0   120.0   16.666666666666668
200.0   90.0   33.333333333333336
250.0   120.0   33.333333333333336
250.0   90.0   33.333333333333336
250.0   90.0   16.666666666666668
200.0   90.0   33.333333333333336
250.0   120.0   33.333333333333336
250.0   90.0   16.666666666666668
200.0   120.0   16.666666666666668
200.0   90.0   33.333333333333336
250.0   90.0   33.333333333333336
200.0   120.0   33.333333333333336
200.0   90.0   50.0
250.0   90.0   33.333333333333336
250.0   120.0   33.333333333333336
200.0   120.0   33.333333333333336
250.0   120.0   50.0
200.0   90.0   50.0
200.0   120.0   50.0
250.0   120.0   50.0
200.0   120.0   33.333333333333336
200.0   90.0   50.0
250.0   120.0   50.0
250.0   90.0   50.0
250.0   90.0   33.333333333333336
200.0   90.0   50.0
250.0   120.0   50.0
250.0   90.0   33.333333333333336
200.0   120.0   33.333333333333336
200.0   120.0   0.0
250.0   120.0   0.0
200.0   150.0   0.0
200.0   120.0   16.666666666666668
250.0   120.0   0.0
250.0   150.0   0.0
200.0   150.0   0.0
250.0   150.0   16.666666666666668
200.0   120.0   16.666666666666668
200.0   150.0   16.666666666666668
250.0   150.0   16.666666666666668
200.0   150.0   0.0
200.0   120.0   16.666666666666668
250.0   150.0   16.666666666666668
250.0   120.0   16.666666666666668
250.0   120.0   0.0
200.0   120.0   16.666666666666668
250.0   150.0   16.666666666666668
250.0   120.0   0.0
200.0   150.0   0.0
200.0   120.0   16.666666666666668
250.0   120.0   16.666666666666668
200.0   150.0   16.666666666666668
200.0   120.0   33.333333333333336
250.0   120.0   16.666666666666668
250.0   150.0   16.666666666666668
200.0   150.0   16.666666666666668
250.0   150.0   33.333333333333336
200.0   120.0   33.333333333333336
200.0   150.0   33.333333333333336
250.0   150.0   33.333333333333336
200.0   150.0   16.666666666666668
200.0   120.0   33.333333333333336
250.0   150.0   33.333333333333336
250.0   120.0   33.333333333333336
250.0   120.0   16.666666666666668
200.0   120.0   33.333333333333336
250.0   150.0   33.333333333333336
250.0   120.0   16.666666666666668
200.0   150.0   16.666666666666668
200.0   120.0   33.333333333333336
250.0   120.0   33.333333333333336
200.0   150.0   33.333333333333336
200.0   120.0   50.0
250.0   120.0   33.333333333333336
250.0   150.0   33.333333333333336
200.0   150.0   33.333333333333336
250.0   150.0   50.0
200.0   120.0   50.0
200.0   150.0   50.0
250.0   150.0   50.0
200.0   150.0   33.333333333333336
200.0   120.0   50.0
250.0   150.0   50.0
250.0   120.0   50.0
250.0   120.0   33.333333333333336
200.0   120.0   50.0
250.0   150.0   50.0
250.0   120.0   33.333333333333336
200.0   150.0   33.333333333333336
250.0   0.0   0.0
300.0   0.0   0.0
250.0   30.0   0.0
250.0   0.0   16.666666666666668
300.0   0.0   0.0
300.0   30.0   0.0
250.0   30.0   0.0
300.0   30.0   16.666666666666668
250.0   0.0   16.666666666666668
250.0   30.0   16.666666666666668
300.0   30.0   16.666666666666668
250.0   30.0   0.0
250.0   0.0   16.666666666666668
300.0   30.0   16.666666666666668
300.0   0.0   16.666666666666668
300.0   0.0   0.0
250.0   0.0   16.666666666666668
300.0   30.0   16.666666666666668
300.0   0.0   0.0
250.0   30.0   0.0
250.0   0.0   16.666666666666668
300.0   0.0   16.666666666666668
250.0   30.0   16.666666666666668
250.0   0.0   33.333333333333336
300.0   0.0   16.666666666666668
300.0   30.0   16.666666666666668
250.0   30.0   16.666666666666668
300.0   30.0   33.333333333333336
250.0   0.0   33.333333333333336
250.0   30.0   33.333333333333336
300.0   30.0   33.333333333333336
250.0   30.0   16.666666666666668
250.0   0.0   33.333333333333336
300.0   30.0   33.333333333333336
300.0   0.0   33.333333333333336
300.0   0.0   16.666666666666668
250.0   0.0   33.333333333333336
300.0   30.0   33.333333333333336
300.0   0.0   16.666666666666668
250.0   30.0   16.666666666666668
250.0   0.0   33.333333333333336
300.0   0.0   33.333333333333336
250.0   30.0   33.333333333333336
250.0   0.0   50.0
300.0   0.0   33.333333333333336
300.0   30.0   33.333333333333336
250.0   30.0   33.333333333333336
300.0   30.0   50.0
250.0   0.0   50.0
250.0   30.0   50.0
300.0   30.0   50.0
250.0   30.0   33.333333333333336
250.0   0.0   50.0
300.0   30.0   50.0
300.0   0.0   50.0
300.0   0.0   33.333333333333336
250.0   0.0   50.0
300.0   30.0   50.0
300.0   0.0   33.333333333333336
250.0   30.0   33.333333333333336
250.0   30.0   0.0
300.0   30.0   0.0
250.0   60.0   0.0
250.0   30.0   16.666666666666668
300.0   30.0   0.0
300.0   60.0   0.0
250.0   60.0   0.0
300.0   60.0   16.666666666666668
250.0   30.0   16.666666666666668
250.0   60.0   16.666666666666668
300.0   60.0   16.666666666666668
250.0   60.0   0.0
250.0   30.0   16.666666666666668
300.0   60.0   16.666666666666668
300.0   30.0   16.666666666666668
300.0   30.0   0.0
250.0   30.0   16.666666666666668
300.0   60.0   16.666666666666668
300.0   30.0   0.0
250.0   60.0   0.0
250.0   30.0   16.666666666666668
300.0   30.0   16.666666666666668
250.0   60.0   16.666666666666668
250.0   30.0   33.333333333333336
300.0   30.0   16.666666666666668
300.0   60.0   16.666666666666668
250.0   60.0   16.666666666666668
300.0   60.0   33.333333333333336
250.0   30.0   33.333333333333336
250.0   60.0   33.333333333333336
300.0   60.0   33.333333333333336
250.0   60.0   16.666666666666668
250.0   30.0   33.333333333333336
300.0   60.0   33.333333333333336
300.0   30.0   33.333333333333336
300.0   30.0   16.666666666666668
250.0   30.0   33.333333333333336
300.0   60.0   33.333333333333336
300.0   30.0   16.666666666666668
250.0   60.0   16.666666666666668
250.0   30.0   33.333333333333336
300.0   30.0   33.333333333333336
250.0   60.0   33.333333333333336
250.0   30.0   50.0
300.0   30.0   33.333333333333336
300.0   60.0   33.333333333333336
250.0   60.0   33.333333333333336
300.0   60.0   50.0
250.0   30.0   50.0
250.0   60.0   50.0
300.0   60.0   50.0
250.0   60.0   33.333333333333336
250.0   30.0   50.0
300.0   60.0   50.0
300.0   30.0   50.0
300.0   30.0   33.333333333333336
250.0   30.0   50.0
300.0   60.0   50.0
300.0   30.0   33.333333333333336
250.0   60.0   33.333333333333336
250.0   60.0   0.0
300.0   60.0   0.0
250.0   90.0   0.0
250.0   60.0   16.666666666666668
300.0   60.0   0.0
300.0   90.0   0.0
250.0   90.0   0.0
300.0   90.0   16.666666666666668
250.0   60.0   16.666666666666668
250.0   90.0   16.666666666666668
300.0   90.0   16.666666666666668
250.0   90.0   0.0
250.0   60.0   16.666666666666668
300.0   90.0   16.666666666666668
300.0   60.0   16.666666666666668
300.0   60.0   0.0
250.0   60.0   16.666666666666668
300.0   90.0   16.666666666666668
300.0   60.0   0.0
250.0   90.0   0.0
250.0   60.0   16.666666666666668
300.0   60.0   16.666666666666668
250.0   90.0   16.666666666666668
250.0   60.0   33.333333333333336
300.0   60.0   16.666666666666668
300.0   90.0   16.666666666666668
250.0   90.0   16.666666666666668
300.0   90.0   33.333333333333336
250.0   60.0   33.333333333333336
250.0   90.0   33.333333333333336
300.0   90.0   33.333333333333336
250.0   90.0   16.666666666666668
250.0   60.0   33.333333333333336
300.0   90.0   33.333333333333336
300.0   60.0   33.333333333333336
300.0   60.0   16.666666666666668
250.0   60.0   33.333333333333336
300.0   90.0   33.333333333333336
300.0   60.0   16.666666666666668
250.0   90.0   16.666666666666668
250.0   60.0   33.333333333333336
300.0   60.0   33.333333333333336
250.0   90.0   33.333333333333336
250.0   60.0   50.0
300.0   60.0   33.333333333333336
300.0   90.0   33.333333333333336
250.0   90.0   33.333333333333336
300.0   90.0   50.0
250.0   60.0   50.0
250.0   90.0   50.0
300.0   90.0   50.0
250.0   90.0   33.333333333333336
250.0   60.0   50.0
300.0   90.0   50.0
300.0   60.0   50.0
300.0   60.0   33.333333333333336
250.0   60.0   50.0
300.0   90.0   50.0
300.0   60.0   33.333333333333336
250.0   90.0   33.333333333333336
250.0   90.0   0.0
300.0   90.0   0.0
250.0   120.0   0.0
250.0   90.0   16.666666666666668
300.0   90.0   0.0
300.0   120.0   0.0
250.0   120.0   0.0
300.0   120.0   16.666666666666668
250.0   90.0   16.666666666666668
250.0   120.0   16.666666666666668
300.0   120.0   16.666666666666668
250.0   120.0   0.0
250.0   90.0   16.666666666666668
300.0   120.0   16.666666666666668
300.0   90.0   16.666666666666668
300.0   90.0   0.0
250.0   90.0   16.666666666666668
300.0   120.0   16.666666666666668
300.0   90.0   0.0
250.0   120.0   0.0
250.0   90.0   16.666666666666668
300.0   90.0   16.666666666666668
250.0   120.0   16.666666666666668
250.0   90.0   33.333333333333336
300.0   90.0   16.666666666666668
300.0   120.0   16.666666666666668
250.0   120.0   16.666666666666668
300.0   120.0   33.333333333333336
250.0   90.0   33.333333333333336
250.0   120.0   33.333333333333336
300.0   120.0   33.333333333333336
250.0   120.0   16.666666666666668
250.0   90.0   33.333333333333336
300.0   120.0   33.333333333333336
300.0   90.0   33.333333333333336
300.0   90.0   16.666666666666668
250.0   90.0   33.333333333333336
300.0   120.0   33.333333333333336
300.0   90.0   16.666666666666668
250.0   120.0   16.666666666666668
250.0   90.0   33.333333333333336
300.0   90.0   33.333333333333336
250.0   120.0   33.333333333333336
250.0   90.0   50.0
300.0   90.0   33.333333333333336
300.0   120.0   33.333333333333336
250.0   120.0   33.333333333333336
300.0   120.0   50.0
250.0   90.0   50.0
250.0   120.0   50.0
300.0   120.0   50.0
250.0   120.0   33.333333333333336
250.0   90.0   50.0
300.0   120.0   50.0
300.0   90.0   50.0
300.0   90.0   33.333333333333336
250.0   90.0   50.0
300.0   120.0   50.0
300.0   90.0   33.333333333333336
250.0   120.0   33.333333333333336
250.0   120.0   0.0
300.0   120.0   0.0
250.0   150.0   0.0
250.0   120.0   16.666666666666668
300.0   120.0   0.0
300.0   150.0   0.0
250.0   150.0   0.0
300.0   150.0   16.666666666666668
250.0   120.0   16.666666666666668
250.0   150.0   16.666666666666668
300.0   150.0   16.666666666666668
250.0   150.0   0.0
250.0   120.0   16.666666666666668
300.0   150.0   16.666666666666668
300.0   120.0   16.666666666666668
300.0   120.0   0.0
250.0   120.0   16.666666666666668
300.0   150.0   16.666666666666668
300.0   120.0   0.0
250.0   150.0   0.0
250.0   120.0   16.666666666666668
300.0   120.0   16.666666666666668
250.0   150.0   16.666666666666668
250.0   120.0   33.333333333333336
300.0   120.0   16.666666666666668
300.0   150.0   16.666666666666668
250.0   150.0   16.666666666666668
300.0   150.0   33.333333333333336
250.0   120.0   33.333333333333336
250.0   150.0   33.333333333333336
300.0   150.0   33.333333333333336
250.0   150.0   16.666666666666668
250.0   120.0   33.333333333333336
300.0   150.0   33.333333333333336
300.0   120.0   33.333333333333336
300.0   120.0   16.666666666666668
250.0   120.0   33.333333333333336
300.0   150.0   33.333333333333336
300.0   120.0   16.666666666666668
250.0   150.0   16.666666666666668
250.0   120.0   33.333333333333336
300.0   120.0   33.333333333333336
250.0   150.0   33.333333333333336
250.0   120.0   50.0
300.0   120.0   33.333333333333336
300.0   150.0   33.333333333333336
250.0   150.0   33.333333333333336
300.0   150.0   50.0
250.0   120.0   50.0
250.0   150.0   50.0
300.0   150.0   50.0
250.0   150.0   33.333333333333336
250.0   120.0   50.0
300.0   150.0   50.0
300.0   120.0   50.0
300.0   120.0   33.333333333333336
250.0   120.0   50.0
300.0   150.0   50.0
300.0   120.0   33.333333333333336
250.0   150.0   33.333333333333336
300.0   0.0   0.0
350.0   0.0   0.0
300.0   30.0   0.0
300.0   0.0   16.666666666666668
350.0   0.0   0.0
350.0   30.0   0.0
300.0   30.0   0.0
350.0   30.0   16.666666666666668
300.0   0.0   16.666666666666668
300.0   30.0   16.666666666666668
350.0   30.0   16.666666666666668
300.0   30.0   0.0
300.0   0.0   16.666666666666668
350.0   30.0   16.666666666666668
350.0   0.0   16.666666666666668
350.0   0.0   0.0
300.0   0.0   16.666666666666668
350.0   30.0   16.666666666666668
350.0   0.0   0.0
300.0   30.0   0.0
300.0   0.0   16.666666666666668
350.0   0.0   16.666666666666668
300.0   30.0   16.666666666666668
300.0   0.0   33.333333333333336
350.0   0.0   16.666666666666668
350.0   30.0   16.666666666666668
300.0   30.0   16.666666666666668
350.0   30.0   33.333333333333336
300.0   0.0   33.333333333333336
300.0   30.0   33.333333333333336
350.0   30.0   33.333333333333336
300.0   30.0   16.666666666666668
300.0   0.0   33.333333333333336
350.0   30.0   33.333333333333336
350.0   0.0   33.333333333333336
350.0   0.0   16.666666666666668
300.0   0.0   33.333333333333336
350.0   30.0   33.333333333333336
350.0   0.0   16.666666666666668
300.0   30.0   16.666666666666668
300.0   0.0   33.333333333333336
350.0   0.0   33.333333333333336
300.0   30.0   33.333333333333336
300.0   0.0   50.0
350.0   0.0   33.333333333333336
350.0   30.0   33.333333333333336
300.0   30.0   33.333333333333336
350.0   30.0   50.0
300.0   0.0   50.0
300.0   30.0   50.0
350.0   30.0   50.0
300.0   30.0   33.333333333333336
300.0   0.0   50.0
350.0   30.0   50.0
350.0   0.0   50.0
350.0   0.0   33.333333333333336
300.0   0.0   50.0
350.0   30.0   50.0
350.0   0.0   33.333333333333336
300.0   30.0   33.333333333333336
300.0   30.0   0.0
350.0   30.0   0.0
300.0   60.0   0.0
300.0   30.0   16.666666666666668
350.0   30.0   0.0
350.0   60.0   0.0
300.0   60.0   0.0
350.0   60.0   16.666666666666668
300.0   30.0   16.666666666666668
300.0   60.0   16.666666666666668
350.0   60.0   16.666666666666668
300.0   60.0   0.0
300.0   30.0   16.666666666666668
350.0   60.0   16.666666666666668
350.0   30.0   16.666666666666668
350.0   30.0   0.0
300.0   30.0   16.666666666666668
350.0   60.0   16.666666666666668
350.0   30.0   0.0
300.0   60.0   0.0
300.0   30.0   16.666666666666668
350.0   30.0   16.666666666666668
300.0   60.0   16.666666666666668
300.0   30.0   33.333333333333336
350.0   30.0   16.666666666666668
350.0   60.0   16.666666666666668
300.0   60.0   16.666666666666668
350.0   60.0   33.333333333333336
300.0   30.0   33.333333333333336
300.0   60.0   33.333333333333336
350.0   60.0   33.333333333333336
300.0   60.0   16.666666666666668
300.0   30.0   33.333333333333336
350.0   60.0   33.333333333333336
350.0   30.0   33.333333333333336
350.0   30.0   16.666666666666668
300.0   30.0   33.333333333333336
350.0   60.0   33.333333333333336
350.0   30.0   16.666666666666668
300.0   60.0   16.666666666666668
300.0   30.0   33.333333333333336
350.0   30.0   33.333333333333336
300.0   60.0   33.333333333333336
300.0   30.0   50.0
350.0   30.0   33.333333333333336
350.0   60.0   33.333333333333336
300.0   60.0   33.333333333333336
350.0   60.0   50.0
300.0   30.0   50.0
300.0   60.0   50.0
350.0   60.0   50.0
300.0   60.0   33.333333333333336
300.0   30.0   50.0
350.0   60.0   50.0
350.0   30.0   50.0
350.0   30.0   33.333333333333336
300.0   30.0   50.0
350.0   60.0   50.0
350.0   30.0   33.333333333333336
300.0   60.0   33.333333333333336
300.0   60.0   0.0
350.0   60.0   0.0
300.0   90.0   0.0
300.0   60.0   16.666666666666668
350.0   60.0   0.0
350.0   90.0   0.0
300.0   90.0   0.0
350.0   90.0   16.666666666666668
300.0   60.0   16.666666666666668
300.0   90.0   16.666666666666668
350.0   90.0   16.666666666666668
300.0   90.0   0.0
300.0   60.0   16.666666666666668
350.0   90.0   16.666666666666668
350.0   60.0   16.666666666666668
350.0   60.0   0.0
300.0   60.0   16.666666666666668
350.0   90.0   16.666666666666668
350.0   60.0   0.0
300.0   90.0   0.0
300.0   60.0   16.666666666666668
350.0   60.0   16.666666666666668
300.0   90.0   16.666666666666668
300.0   60.0   33.333333333333336
350.0   60.0   16.666666666666668
350.0   90.0   16.666666666666668
300.0   90.0   16.666666666666668
350.0   90.0   33.333333333333336
300.0   60.0   33.333333333333336
300.0   90.0   33.333333333333336
350.0   90.0   33.333333333333336
300.0   90.0   16.666666666666668
300.0   60.0   33.333333333333336
350.0   90.0   33.333333333333336
350.0   60.0   33.333333333333336
350.0   60.0   16.666666666666668
300.0   60.0   33.333333333333336
350.0   90.0   33.333333333333336
350.0   60.0   16.666666666666668
300.0   90.0   16.666666666666668
300.0   60.0   33.333333333333336
350.0   60.0   33.333333333333336
300.0   90.0   33.333333333333336
300.0   60.0   50.0
350.0   60.0   33.333333333333336
350.0   90.0   33.333333333333336
300.0   90.0   33.333333333333336
350.0   90.0   50.0
300.0   60.0   50.0
300.0   90.0   50.0
350.0   90.0   50.0
300.0   90.0   33.333333333333336
300.0   60.0   50.0
350.0   90.0   50.0
350.0   60.0   50.0
350.0   60.0   33.333333333333336
300.0   60.0   50.0
350.0   90.0   50.0
350.0   60.0   33.333333333333336
300.0   90.0   33.333333333333336
300.0   90.0   0.0
350.0   90.0   0.0
300.0   120.0   0.0
300.0   90.0   16.666666666666668
350.0   90.0   0.0
350.0   120.0   0.0
300.0   120.0   0.0
350.0   120.0   16.666666666666668
300.0   90.0   16.666666666666668
300.0   120.0   16.666666666666668
350.0   120.0   16.666666666666668
300.0   120.0   0.0
300.0   90.0   16.666666666666668
350.0   120.0   16.666666666666668
350.0   90.0   16.666666666666668
350.0   90.0   0.0
300.0   90.0   16.666666666666668
350.0   120.0   16.666666666666668
350.0   90.0   0.0
300.0   120.0   0.0
300.0   90.0   16.666666666666668
350.0   90.0   16.666666666666668
300.0   120.0   16.666666666666668
300.0   90.0   33.333333333333336
350.0   90.0   16.666666666666668
350.0   120.0   16.666666666666668
300.0   120.0   16.666666666666668
350.0   120.0   33.333333333333336
300.0   90.0   33.333333333333336
300.0   120.0   33.333333333333336
350.0   120.0   33.333333333333336
300.0   120.0   16.666666666666668
300.0   90.0   33.333333333333336
350.0   120.0   33.333333333333336
350.0   90.0   33.333333333333336
350.0   90.0   16.666666666666668
300.0   90.0   33.333333333333336
350.0   120.0   33.333333333333336
350.0   90.0   16.666666666666668
300.0   120.0   16.666666666666668
300.0   90.0   33.333333333333336
350.0   90.0   33.333333333333336
300.0   120.0   33.333333333333336
300.0   90.0   50.0
350.0   90.0   33.333333333333336
350.0   120.0   33.333333333333336
300.0   120.0   33.333333333333336
350.0   120.0   50.0
300.0   90.0   50.0
300.0   120.0   50.0
350.0   120.0   50.0
300.0   120.0   33.333333333333336
300.0   90.0   50.0
350.0   120.0   50.0
350.0   90.0   50.0
350.0   90.0   33.333333333333336
300.0   90.0   50.0
350.0   120.0   50.0
350.0   90.0   33.333333333333336
300.0   120.0   33.333333333333336
300.0   120.0   0.0
350.0   120.0   0.0
300.0   150.0   0.0
300.0   120.0   16.666666666666668
350.0   120.0   0.0
350.0   150.0   0.0
300.0   150.0   0.0
350.0   150.0   16.666666666666668
300.0   120.0   16.666666666666668
300.0   150.0   16.666666666666668
350.0   150.0   16.666666666666668
300.0   150.0   0.0
300.0   120.0   16.666666666666668
350.0   150.0   16.666666666666668
350.0   120.0   16.666666666666668
350.0   120.0   0.0
300.0   120.0   16.666666666666668
350.0   150.0   16.666666666666668
350.0   120.0   0.0
300.0   150.0   0.0
300.0   120.0   16.666666666666668
350.0   120.0   16.666666666666668
300.0   150.0   16.666666666666668
300.0   120.0   33.333333333333336
350.0   120.0   16.666666666666668
350.0   150.0   16.666666666666668
300.0   150.0   16.666666666666668
350.0   150.0   33.333333333333336
300.0   120.0   33.333333333333336
300.0   150.0   33.333333333333336
350.0   150.0   33.333333333333336
300.0   150.0   16.666666666666668
300.0   120.0   33.333333333333336
350.0   150.0   33.333333333333336
350.0   120.0   33.333333333333336
350.0   120.0   16.666666666666668
300.0   120.0   33.333333333333336
350.0   150.0   33.333333333333336
350.0   120.0   16.666666666666668
300.0   150.0   16.666666666666668
300.0   120.0   33.333333333333336
350.0   120.0   33.333333333333336
300.0   150.0   33.333333333333336
300.0   120.0   50.0
350.0   120.0   33.333333333333336
350.0   150.0   33.333333333333336
300.0   150.0   33.333333333333336
350.0   150.0   50.0
300.0   120.0   50.0
300.0   150.0   50.0
350.0   150.0   50.0
300.0   150.0   33.333333333333336
300.0   120.0   50.0
350.0   150.0   50.0
350.0   120.0   50.0
350.0   120.0   33.333333333333336
300.0   120.0   50.0
350.0   150.0   50.0
350.0   120.0   33.333333333333336
300.0   150.0   33.333333333333336
350.0   0.0   0.0
400.0   0.0   0.0
350.0   30.0   0.0
350.0   0.0   16.666666666666668
400.0   0.0   0.0
400.0   30.0   0.0
350.0   30.0   0.0
400.0   30.0   16.666666666666668
350.0   0.0   16.666666666666668
350.0   30.0   16.666666666666668
400.0   30.0   16.666666666666668
350.0   30.0   0.0
350.0   0.0   16.666666666666668
400.0   30.0   16.666666666666668
400.0   0.0   16.666666666666668
400.0   0.0   0.0
350.0   0.0   16.666666666666668
400.0   30.0   16.666666666666668
400.0   0.0   0.0
350.0   30.0   0.0
350.0   0.0   16.666666666666668
400.0   0.0   16.666666666666668
350.0   30.0   16.666666666666668
350.0   0.0   33.333333333333336
400.0   0.0   16.666666666666668
400.0   30.0   16.666666666666668
350.0   30.0   16.666666666666668
400.0   30.0   33.333333333333336
350.0   0.0   33.333333333333336
350.0   30.0   33.333333333333336
400.0   30.0   33.333333333333336
350.0   30.0   16.666666666666668
350.0   0.0   33.333333333333336
400.0   30.0   33.333333333333336
400.0   0.0   33.333333333333336
400.0   0.0   16.666666666666668
350.0   0.0   33.333333333333336
400.0   30.0   33.333333333333336
400.0   0.0   16.666666666666668
350.0   30.0   16.666666666666668
350.0   0.0   33.333333333333336
400.0   0.0   33.333333333333336
350.0   30.0   33.333333333333336
350.0   0.0   50.0
400.0   0.0   33.333333333333336
400.0   30.0   33.333333333333336
350.0   30.0   33.333333333333336
400.0   30.0   50.0
350.0   0.0   50.0
350.0   30.0   50.0
400.0   30.0   50.0
350.0   30.0   33.333333333333336
350.0   0.0   50.0
400.0   30.0   50.0
400.0   0.0   50.0
400.0   0.0   33.333333333333336
350.0   0.0   50.0
400.0   30.0   50.0
400.0   0.0   33.333333333333336
350.0   30.0   33.333333333333336
350.0   30.0   0.0
400.0   30.0   0.0
350.0   60.0   0.0
350.0   30.0   16.666666666666668
400.0   30.0   0.0
400.0   60.0   0.0
350.0   60.0   0.0
400.0   60.0   16.666666666666668
350.0   30.0   16.666666666666668
350.0   60.0   16.666666666666668
400.0   60.0   16.666666666666668
350.0   60.0   0.0
350.0   30.0   16.666666666666668
400.0   60.0   16.666666666666668
400.0   30.0   16.666666666666668
400.0   30.0   0.0
350.0   30.0   16.666666666666668
400.0   60.0   16.666666666666668
400.0   30.0   0.0
350.0   60.0   0.0
350.0   30.0   16.666666666666668
400.0   30.0   16.666666666666668
350.0   60.0   16.666666666666668
350.0   30.0   33.333333333333336
400.0   30.0   16.666666666666668
400.0   60.0   16.666666666666668
350.0   60.0   16.666666666666668
400.0   60.0   33.333333333333336
350.0   30.0   33.333333333333336
350.0   60.0   33.333333333333336
400.0   60.0   33.333333333333336
350.0   60.0   16.666666666666668
350.0   30.0   33.333333333333336
400.0   60.0   33.333333333333336
400.0   30.0   33.333333333333336
400.0   30.0   16.666666666666668
350.0   30.0   33.333333333333336
400.0   60.0   33.333333333333336
400.0   30.0   16.666666666666668
350.0   60.0   16.666666666666668
350.0   30.0   33.333333333333336
400.0   30.0   33.333333333333336
350.0   60.0   33.333333333333336
350.0   30.0   50.0
400.0   30.0   33.333333333333336
400.0   60.0   33.333333333333336
350.0   60.0   33.333333333333336
400.0   60.0   50.0
350.0   30.0   50.0
350.0   60.0   50.0
400.0   60.0   50.0
350.0   60.0   33.333333333333336
350.0   30.0   50.0
400.0   60.0   50.0
400.0   30.0   50.0
400.0   30.0   33.333333333333336
350.0   30.0   50.0
400.0   60.0   50.0
400.0   30.0   33.333333333333336
350.0   60.0   33.333333333333336
350.0   60.0   0.0
400.0   60.0   0.0
350.0   90.0   0.0
350.0   60.0   16.666666666666668
400.0   60.0   0.0
400.0   90.0   0.0
350.0   90.0   0.0
400.0   90.0   16.666666666666668
350.0   60.0   16.666666666666668
350.0   90.0   16.666666666666668
400.0   90.0   16.666666666666668
350.0   90.0   0.0
350.0   60.0   16.666666666666668
400.0   90.0   16.666666666666668
400.0   60.0   16.666666666666668
400.0   60.0   0.0
350.0   60.0   16.666666666666668
400.0   90.0   16.666666666666668
400.0   60.0   0.0
350.0   90.0   0.0
350.0   60.0   16.666666666666668
400.0   60.0   16.666666666666668
350.0   90.0   16.666666666666668
350.0   60.0   33.333333333333336
400.0   60.0   16.666666666666668
400.0   90.0   16.666666666666668
350.0   90.0   16.666666666666668
400.0   90.0   33.333333333333336
350.0   60.0   33.333333333333336
350.0   90.0   33.333333333333336
400.0   90.0   33.333333333333336
350.0   90.0   16.666666666666668
350.0   60.0   33.333333333333336
400.0   90.0   33.333333333333336
400.0   60.0   33.333333333333336
400.0   60.0   16.666666666666668
350.0   60.0   33.333333333333336
400.0   90.0   33.333333333333336
400.0   60.0   16.666666666666668
350.0   90.0   16.666666666666668
350.0   60.0   33.333333333333336
400.0   60.0   33.333333333333336
350.0   90.0   33.333333333333336
350.0   60.0   50.0
400.0   60.0   33.333333333333336
400.0   90.0   33.333333333333336
350.0   90.0   33.333333333333336
400.0   90.0   50.0
350.0   60.0   50.0
350.0   90.0   50.0
400.0   90.0   50.0
350.0   90.0   33.333333333333336
350.0   60.0   50.0
400.0   90.0   50.0
400.0   60.0   50.0
400.0   60.0   33.333333333333336
350.0   60.0   50.0
400.0   90.0   50.0
400.0   60.0   33.333333333333336
350.0   90.0   33.333333333333336
350.0   90.0   0.0
400.0   90.0   0.0
350.0   120.0   0.0
350.0   90.0   16.666666666666668
400.0   90.0   0.0
400.0   120.0   0.0
350.0   120.0   0.0
400.0   120.0   16.666666666666668
350.0   90.0   16.666666666666668
350.0   120.0   16.666666666666668
400.0   120.0   16.666666666666668
350.0   120.0   0.0
350.0   90.0   16.666666666666668
400.0   120.0   16.666666666666668
400.0   90.0   16.666666666666668
400.0   90.0   0.0
350.0   90.0   16.666666666666668
400.0   120.0   16.666666666666668
400.0   90.0   0.0
350.0   120.0   0.0
350.0   90.0   16.666666666666668
400.0   90.0   16.666666666666668
350.0   120.0   16.666666666666668
350.0   90.0   33.333333333333336
400.0   90.0   16.666666666666668
400.0   120.0   16.666666666666668
350.0   120.0   16.666666666666668
400.0   120.0   33.333333333333336
350.0   90.0   33.333333333333336
350.0   120.0   33.333333333333336
400.0   120.0   33.333333333333336
350.0   120.0   16.666666666666668
350.0   90.0   33.333333333333336
400.0   120.0   33.333333333333336
400.0   90.0   33.333333333333336
400.0   90.0   16.666666666666668
350.0   90.0   33.333333333333336
400.0   120.0   33.333333333333336
400.0   90.0   16.666666666666668
350.0   120.0   16.666666666666668
350.0   90.0   33.333333333333336
400.0   90.0   33.333333333333336
350.0   120.0   33.333333333333336
350.0   90.0   50.0
400.0   90.0   33.333333333333336
400.0   120.0   33.333333333333336
350.0   120.0   33.333333333333336
400.0   120.0   50.0
350.0   90.0   50.0
350.0   120.0   50.0
400.0   120.0   50.0
350.0   120.0   33.333333333333336
350.0   90.0   50.0
400.0   120.0   50.0
400.0   90.0   50.0
400.0   90.0   33.333333333333336
350.0   90.0   50.0
400.0   120.0   50.0
400.0   90.0   33.333333333333336
350.0   120.0   33.333333333333336
350.0   120.0   0.0
400.0   120.0   0.0
350.0   150.0   0.0
350.0   120.0   16.666666666666668
400.0   120.0   0.0
400.0   150.0   0.0
350.0   150.0   0.0
400.0   150.0   16.666666666666668
350.0   120.0   16.666666666666668
350.0   150.0   16.666666666666668
400.0   150.0   16.666666666666668
350.0   150.0   0.0
350.0   120.0   16.666666666666668
400.0   150.0   16.666666666666668
400.0   120.0   16.666666666666668
400.0   120.0   0.0
350.0   120.0   16.666666666666668
400.0   150.0   16.666666666666668
400.0   120.0   0.0
350.0   150.0   0.0
350.0   120.0   16.666666666666668
400.0   120.0   16.666666666666668
350.0   150.0   16.666666666666668
350.0   120.0   33.333333333333336
400.0   120.0   16.666666666666668
400.0   150.0   16.666666666666668
350.0   150.0   16.666666666666668
400.0   150.0   33.333333333333336
350.0   120.0   33.333333333333336
350.0   150.0   33.333333333333336
400.0   150.0   33.333333333333336
350.0   150.0   16.666666666666668
350.0   120.0   33.333333333333336
400.0   150.0   33.333333333333336
400.0   120.0   33.333333333333336
400.0   120.0   16.666666666666668
350.0   120.0   33.333333333333336
400.0   150.0   33.333333333333336
400.0   120.0   16.666666666666668
350.0   150.0   16.666666666666668
350.0   120.0   33.333333333333336
400.0   120.0   33.333333333333336
350.0   150.0   33.333333333333336
350.0   120.0   50.0
400.0   120.0   33.333333333333336
400.0   150.0   33.333333333333336
350.0   150.0   33.333333333333336
400.0   150.0   50.0
350.0   120.0   50.0
350.0   150.0   50.0
400.0   150.0   50.0
350.0   150.0   33.333333333333336
350.0   120.0   50.0
400.0   150.0   50.0
400.0   120.0   50.0
400.0   120.0   33.333333333333336
350.0   120.0   50.0
400.0   150.0   50.0
400.0   120.0   33.333333333333336
350.0   150.0   33.333333333333336
400.0   0.0   0.0
450.0   0.0   0.0
400.0   30.0   0.0
400.0   0.0   16.666666666666668
450.0   0.0   0.0
450.0   30.0   0.0
400.0   30.0   0.0
450.0   30.0   16.666666666666668
400.0   0.0   16.666666666666668
400.0   30.0   16.666666666666668
450.0   30.0   16.666666666666668
400.0   30.0   0.0
400.0   0.0   16.666666666666668
450.0   30.0   16.666666666666668
450.0   0.0   16.666666666666668
450.0   0.0   0.0
400.0   0.0   16.666666666666668
450.0   30.0   16.666666666666668
450.0   0.0   0.0
400.0   30.0   0.0
400.0   0.0   16.666666666666668
450.0   0.0   16.666666666666668
400.0   30.0   16.666666666666668
400.0   0.0   33.333333333333336
450.0   0.0   16.666666666666668
450.0   30.0   16.666666666666668
400.0   30.0   16.666666666666668
450.0   30.0   33.333333333333336
400.0   0.0   33.333333333333336
400.0   30.0   33.333333333333336
450.0   30.0   33.333333333333336
400.0   30.0   16.666666666666668
400.0   0.0   33.333333333333336
450.0   30.0   33.333333333333336
450.0   0.0   33.333333333333336
450.0   0.0   16.666666666666668
400.0   0.0   33.333333333333336
450.0   30.0   33.333333333333336
450.0   0.0   16.666666666666668
400.0   30.0   16.666666666666668
400.0   0.0   33.333333333333336
450.0   0.0   33.333333333333336
400.0   30.0   33.333333333333336
400.0   0.0   50.0
450.0   0.0   33.333333333333336
450.0   30.0   33.333333333333336
400.0   30.0   33.333333333333336
450.0   30.0   50.0
400.0   0.0   50.0
400.0   30.0   50.0
450.0   30.0   50.0
400.0   30.0   33.333333333333336
400.0   0.0   50.0
450.0   30.0   50.0
450.0   0.0   50.0
450.0   0.0   33.333333333333336
400.0   0.0   50.0
450.0   30.0   50.0
450.0   0.0   33.333333333333336
400.0   30.0   33.333333333333336
400.0   30.0   0.0
450.0   30.0   0.0
400.0   60.0   0.0
400.0   30.0   16.666666666666668
450.0   30.0   0.0
450.0   60.0   0.0
400.0   60.0   0.0
450.0   60.0   16.666666666666668
400.0   30.0   16.666666666666668
400.0   60.0   16.666666666666668
450.0   60.0   16.666666666666668
400.0   60.0   0.0
400.0   30.0   16.666666666666668
450.0   60.0   16.666666666666668
450.0   30.0   16.666666666666668
450.0   30.0   0.0
400.0   30.0   16.666666666666668
450.0   60.0   16.666666666666668
450.0   30.0   0.0
400.0   60.0   0.0
400.0   30.0   16.666666666666668
450.0   30.0   16.666666666666668
400.0   60.0   16.666666666666668
400.0   30.0   33.333333333333336
450.0   30.0   16.666666666666668
450.0   60.0   16.666666666666668
400.0   60.0   16.666666666666668
450.0   60.0   33.333333333333336
400.0   30.0   33.333333333333336
400.0   60.0   33.333333333333336
450.0   60.0   33.333333333333336
400.0   60.0   16.666666666666668
400.0   30.0   33.333333333333336
450.0   60.0   33.333333333333336
450.0   30.0   33.333333333333336
450.0   30.0   16.666666666666668
400.0   30.0   33.333333333333336
450.0   60.0   33.333333333333336
450.0   30.0   16.666666666666668
400.0   60.0   16.666666666666668
400.0   30.0   33.333333333333336
450.0   30.0   33.333333333333336
400.0   60.0   33.333333333333336
400.0   30.0   50.0
450.0   30.0   33.333333333333336
450.0   60.0   33.333333333333336
400.0   60.0   33.333333333333336
450.0   60.0   50.0
400.0   30.0   50.0
400.0   60.0   50.0
450.0   60.0   50.0
400.0   60.0   33.333333333333336
400.0   30.0   50.0
450.0   60.0   50.0
450.0   30.0   50.0
450.0   30.0   33.333333333333336
400.0   30.0   50.0
450.0   60.0   50.0
450.0   30.0   33.333333333333336
400.0   60.0   33.333333333333336
400.0   60.0   0.0
450.0   60.0   0.0
400.0   90.0   0.0
400.0   60.0   16.666666666666668
450.0   60.0   0.0
450.0   90.0   0.0
400.0   90.0   0.0
450.0   90.0   16.666666666666668
400.0   60.0   16.666666666666668
400.0   90.0   16.666666666666668
450.0   90.0   16.666666666666668
400.0   90.0   0.0
400.0   60.0   16.666666666666668
450.0   90.0   16.666666666666668
450.0   60.0   16.666666666666668
450.0   60.0   0.0
400.0   60.0   16.666666666666668
450.0   90.0   16.666666666666668
450.0   60.0   0.0
400.0   90.0   0.0
400.0   60.0   16.666666666666668
450.0   60.0   16.666666666666668
400.0   90.0   16.666666666666668
400.0   60.0   33.333333333333336
450.0   60.0   16.666666666666668
450.0   90.0   16.666666666666668
400.0   90.0   16.666666666666668
450.0   90.0   33.333333333333336
400.0   60.0   33.333333333333336
400.0   90.0   33.333333333333336
450.0   90.0   33.333333333333336
400.0   90.0   16.666666666666668
400.0   60.0   33.333333333333336
450.0   90.0   33.333333333333336
450.0   60.0   33.333333333333336
450.0   60.0   16.666666666666668
400.0   60.0   33.333333333333336
450.0   90.0   33.333333333333336
450.0   60.0   16.666666666666668
400.0   90.0   16.666666666666668
400.0   60.0   33.333333333333336
450.0   60.0   33.333333333333336
400.0   90.0   33.333333333333336
400.0   60.0   50.0
450.0   60.0   33.333333333333336
450.0   90.0   33.333333333333336
400.0   90.0   33.333333333333336
450.0   90.0   50.0
400.0   60.0   50.0
400.0   90.0   50.0
450.0   90.0   50.0
400.0   90.0   33.333333333333336
400.0   60.0   50.0
450.0   90.0   50.0
450.0   60.0   50.0
450.0   60.0   33.333333333333336
400.0   60.0   50.0
450.0   90.0   50.0
450.0   60.0   33.333333333333336
400.0   90.0   33.333333333333336
400.0   90.0   0.0
450.0   90.0   0.0
400.0   120.0   0.0
400.0   90.0   16.666666666666668
450.0   90.0   0.0
450.0   120.0   0.0
400.0   120.0   0.0
450.0   120.0   16.666666666666668
400.0   90.0   16.666666666666668
400.0   120.0   16.666666666666668
450.0   120.0   16.666666666666668
400.0   120.0   0.0
400.0   90.0   16.666666666666668
450.0   120.0   16.666666666666668
450.0   90.0   16.666666666666668
450.0   90.0   0.0
400.0   90.0   16.666666666666668
450.0   120.0   16.666666666666668
450.0   90.0   0.0
400.0   120.0   0.0
400.0   90.0   16.666666666666668
450.0   90.0   16.666666666666668
400.0   120.0   16.666666666666668
400.0   90.0   33.333333333333336
450.0   90.0   16.666666666666668
450.0   120.0   16.666666666666668
400.0   120.0   16.666666666666668
450.0   120.0   33.333333333333336
400.0   90.0   33.333333333333336
400.0   120.0   33.333333333333336
450.0   120.0   33.333333333333336
400.0   120.0   16.666666666666668
400.0   90.0   33.333333333333336
450.0   120.0   33.333333333333336
450.0   90.0   33.333333333333336
450.0   90.0   16.666666666666668
400.0   90.0   33.333333333333336
450.0   120.0   33.333333333333336
450.0   90.0   16.666666666666668
400.0   120.0   16.666666666666668
400.0   90.0   33.333333333333336
450.0   90.0   33.333333333333336
400.0   120.0   33.333333333333336
400.0   90.0   50.0
450.0   90.0   33.333333333333336
450.0   120.0   33.333333333333336
400.0   120.0   33.333333333333336
450.0   120.0   50.0
400.0   90.0   50.0
400.0   120.0   50.0
450.0   120.0   50.0
400.0   120.0   33.333333333333336
400.0   90.0   50.0
450.0   120.0   50.0
450.0   90.0   50.0
450.0   90.0   33.333333333333336
400.0   90.0   50.0
450.0   120.0   50.0
450.0   90.0   33.333333333333336
400.0   120.0   33.333333333333336
400.0   120.0   0.0
450.0   120.0   0.0
400.0   150.0   0.0
400.0   120.0   16.666666666666668
450.0   120.0   0.0
450.0   150.0   0.0
400.0   150.0   0.0
450.0   150.0   16.666666666666668
400.0   120.0   16.666666666666668
400.0   150.0   16.666666666666668
450.0   150.0   16.666666666666668
400.0   150.0   0.0
400.0   120.0   16.666666666666668
450.0   150.0   16.666666666666668
450.0   120.0   16.666666666666668
450.0   120.0   0.0
400.0   120.0   16.666666666666668
450.0   150.0   16.666666666666668
450.0   120.0   0.0
400.0   150.0   0.0
400.0   120.0   16.666666666666668
450.0   120.0   16.666666666666668
400.0   150.0   16.666666666666668
400.0   120.0   33.333333333333336
450.0   120.0   16.666666666666668
450.0   150.0   16.666666666666668
400.0   150.0   16.666666666666668
450.0   150.0   33.333333333333336
400.0   120.0   33.333333333333336
400.0   150.0   33.333333333333336
450.0   150.0   33.333333333333336
400.0   150.0   16.666666666666668
400.0   120.0   33.333333333333336
450.0   150.0   33.333333333333336
450.0   120.0   33.333333333333336
450.0   120.0   16.666666666666668
400.0   120.0   33.333333333333336
450.0   150.0   33.333333333333336
450.0   120.0   16.666666666666668
400.0   150.0   16.666666666666668
400.0   120.0   33.333333333333336
450.0   120.0   33.333333333333336
400.0   150.0   33.333333333333336
400.0   120.0   50.0
450.0   120.0   33.333333333333336
450.0   150.0   33.333333333333336
400.0   150.0   33.333333333333336
450.0   150.0   50.0
400.0   120.0   50.0
400.0   150.0   50.0
450.0   150.0   50.0
400.0   150.0   33.333333333333336
400.0   120.0   50.0
450.0   150.0   50.0
450.0   120.0   50.0
450.0   120.0   33.333333333333336
400.0   120.0   50.0
450.0   150.0   50.0
450.0   120.0   33.333333333333336
400.0   150.0   33.333333333333336
450.0   0.0   0.0
500.0   0.0   0.0
450.0   30.0   0.0
450.0   0.0   16.666666666666668
500.0   0.0   0.0
500.0   30.0   0.0
450.0   30.0   0.0
500.0   30.0   16.666666666666668
450.0   0.0   16.666666666666668
450.0   30.0   16.666666666666668
500.0   30.0   16.666666666666668
450.0   30.0   0.0
450.0   0.0   16.666666666666668
500.0   30.0   16.666666666666668
500.0   0.0   16.666666666666668
500.0   0.0   0.0
450.0   0.0   16.666666666666668
500.0   30.0   16.666666666666668
500.0   0.0   0.0
450.0   30.0   0.0
450.0   0.0   16.666666666666668
500.0   0.0   16.666666666666668
450.0   30.0   16.666666666666668
450.0   0.0   33.333333333333336
500.0   0.0   16.666666666666668
500.0   30.0   16.666666666666668
450.0   30.0   16.666666666666668
500.0   30.0   33.333333333333336
450.0   0.0   33.333333333333336
450.0   30.0   33.333333333333336
500.0   30.0   33.333333333333336
450.0   30.0   16.666666666666668
450.0   0.0   33.333333333333336
500.0   30.0   33.333333333333336
500.0   0.0   33.333333333333336
500.0   0.0   16.666666666666668
450.0   0.0   33.333333333333336
500.0   30.0   33.333333333333336
500.0   0.0   16.666666666666668
450.0   30.0   16.666666666666668
450.0   0.0   33.333333333333336
500.0   0.0   33.333333333333336
450.0   30.0   33.333333333333336
450.0   0.0   50.0
500.0   0.0   33.333333333333336
500.0   30.0   33.333333333333336
450.0   30.0   33.333333333333336
500.0   30.0   50.0
450.0   0.0   50.0
450.0   30.0   50.0
500.0   30.0   50.0
450.0   30.0   33.333333333333336
450.0   0.0   50.0
500.0   30.0   50.0
500.0   0.0   50.0
500.0   0.0   33.333333333333336
450.0   0.0   50.0
500.0   30.0   50.0
500.0   0.0   33.333333333333336
450.0   30.0   33.333333333333336
450.0   30.0   0.0
500.0   30.0   0.0
450.0   60.0   0.0
450.0   30.0   16.666666666666668
500.0   30.0   0.0
500.0   60.0   0.0
450.0   60.0   0.0
500.0   60.0   16.666666666666668
450.0   30.0   16.666666666666668
450.0   60.0   16.666666666666668
500.0   60.0   16.666666666666668
450.0   60.0   0.0
450.0   30.0   16.666666666666668
500.0   60.0   16.666666666666668
500.0   30.0   16.666666666666668
500.0   30.0   0.0
450.0   30.0   16.666666666666668
500.0   60.0   16.666666666666668
500.0   30.0   0.0
450.0   60.0   0.0
450.0   30.0   16.666666666666668
500.0   30.0   16.666666666666668
450.0   60.0   16.666666666666668
450.0   30.0   33.333333333333336
500.0   30.0   16.666666666666668
500.0   60.0   16.666666666666668
450.0   60.0   16.666666666666668
500.0   60.0   33.333333333333336
450.0   30.0   33.333333333333336
450.0   60.0   33.333333333333336
500.0   60.0   33.333333333333336
450.0   60.0   16.666666666666668
450.0   30.0   33.333333333333336
500.0   60.0   33.333333333333336
500.0   30.0   33.333333333333336
500.0   30.0   16.666666666666668
450.0   30.0   33.333333333333336
500.0   60.0   33.333333333333336
500.0   30.0   16.666666666666668
450.0   60.0   16.666666666666668
450.0   30.0   33.333333333333336
500.0   30.0   33.333333333333336
450.0   60.0   33.333333333333336
450.0   30.0   50.0
500.0   30.0   33.333333333333336
500.0   60.0   33.333333333333336
450.0   60.0   33.333333333333336
500.0   60.0   50.0
450.0   30.0   50.0
450.0   60.0   50.0
500.0   60.0   50.0
450.0   60.0   33.333333333333336
450.0   30.0   50.0
500.0   60.0   50.0
500.0   30.0   50.0
500.0   30.0   33.333333333333336
450.0   30.0   50.0
500.0   60.0   50.0
500.0   30.0   33.333333333333336
450.0   60.0   33.333333333333336
450.0   60.0   0.0
500.0   60.0   0.0
450.0   90.0   0.0
450.0   60.0   16.666666666666668
500.0   60.0   0.0
500.0   90.0   0.0
450.0   90.0   0.0
500.0   90.0   16.666666666666668
450.0   60.0   16.666666666666668
450.0   90.0   16.666666666666668
500.0   90.0   16.666666666666668
450.0   90.0   0.0
450.0   60.0   16.666666666666668
500.0   90.0   16.666666666666668
500.0   60.0   16.666666666666668
500.0   60.0   0.0
450.0   60.0   16.666666666666668
500.0   90.0   16.666666666666668
500.0   60.0   0.0
450.0   90.0   0.0
450.0   60.0   16.666666666666668
500.0   60.0   16.666666666666668
450.0   90.0   16.666666666666668
450.0   60.0   33.333333333333336
500.0   60.0   16.666666666666668
500.0   90.0   16.666666666666668
450.0   90.0   16.666666666666668
500.0   90.0   33.333333333333336
450.0   60.0   33.333333333333336
450.0   90.0   33.333333333333336
500.0   90.0   33.333333333333336
450.0   90.0   16.666666666666668
450.0   60.0   33.333333333333336
500.0   90.0   33.333333333333336
500.0   60.0   33.333333333333336
500.0   60.0   16.666666666666668
450.0   60.0   33.333333333333336
500.0   90.0   33.333333333333336
500.0   60.0   16.666666666666668
450.0   90.0   16.666666666666668
450.0   60.0   33.333333333333336
500.0   60.0   33.333333333333336
450.0   90.0   33.333333333333336
450.0   60.0   50.0
500.0   60.0   33.333333333333336
500.0   90.0   33.333333333333336
450.0   90.0   33.333333333333336
500.0   90.0   50.0
450.0   60.0   50.0
450.0   90.0   50.0
500.0   90.0   50.0
450.0   90.0   33.333333333333336
450.0   60.0   50.0
500.0   90.0   50.0
500.0   60.0   50.0
500.0   60.0   33.333333333333336
450.0   60.0   50.0
500.0   90.0   50.0
500.0   60.0   33.333333333333336
450.0   90.0   33.333333333333336
450.0   90.0   0.0
500.0   90.0   0.0
450.0   120.0   0.0
450.0   90.0   16.666666666666668
500.0   90.0   0.0
500.0   120.0   0.0
450.0   120.0   0.0
500.0   120.0   16.666666666666668
450.0   90.0   16.666666666666668
450.0   120.0   16.666666666666668
500.0   120.0   16.666666666666668
450.0   120.0   0.0
450.0   90.0   16.666666666666668
500.0   120.0   16.666666666666668
500.0   90.0   16.666666666666668
500.0   90.0   0.0
450.0   90.0   16.666666666666668
500.0   120.0   16.666666666666668
500.0   90.0   0.0
450.0   120.0   0.0
450.0   90.0   16.666666666666668
500.0   90.0   16.666666666666668
450.0   120.0   16.666666666666668
450.0   90.0   33.333333333333336
500.0   90.0   16.666666666666668
500.0   120.0   16.666666666666668
450.0   120.0   16.666666666666668
500.0   120.0   33.333333333333336
450.0   90.0   33.333333333333336
450.0   120.0   33.333333333333336
500.0   120.0   33.333333333333336
450.0   120.0   16.666666666666668
450.0   90.0   33.333333333333336
500.0   120.0   33.333333333333336
500.0   90.0   33.333333333333336
500.0   90.0   16.666666666666668
450.0   90.0   33.333333333333336
500.0   120.0   33.333333333333336
500.0   90.0   16.666666666666668
450.0   120.0   16.666666666666668
450.0   90.0   33.333333333333336
500.0   90.0   33.333333333333336
450.0   120.0   33.333333333333336
450.0   90.0   50.0
500.0   90.0   33.333333333333336
500.0   120.0   33.333333333333336
450.0   120.0   33.333333333333336
500.0   120.0   50.0
450.0   90.0   50.0
450.0   120.0   50.0
500.0   120.0   50.0
450.0   120.0   33.333333333333336
450.0   90.0   50.0
500.0   120.0   50.0
500.0   90.0   50.0
500.0   90.0   33.333333333333336
450.0   90.0   50.0
500.0   120.0   50.0
500.0   90.0   33.333333333333336
450.0   120.0   33.333333333333336
450.0   120.0   0.0
500.0   120.0   0.0
450.0   150.0   0.0
450.0   120.0   16.666666666666668
500.0   120.0   0.0
500.0   150.0   0.0
450.0   150.0   0.0
500.0   150.0   16.666666666666668
450.0   120.0   16.666666666666668
450.0   150.0   16.666666666666668
500.0   150.0   16.666666666666668
450.0   150.0   0.0
450.0   120.0   16.666666666666668
500.0   150.0   16.666666666666668
500.0   120.0   16.666666666666668
500.0   120.0   0.0
450.0   120.0   16.666666666666668
500.0   150.0   16.666666666666668
500.0   120.0   0.0
450.0   150.0   0.0
450.0   120.0   16.666666666666668
500.0   120.0   16.666666666666668
450.0   150.0   16.666666666666668
450.0   120.0   33.333333333333336
500.0   120.0   16.666666666666668
500.0   150.0   16.666666666666668
450.0   150.0   16.666666666666668
500.0   150.0   33.333333333333336
450.0   120.0   33.333333333333336
450.0   150.0   33.333333333333336
500.0   150.0   33.333333333333336
450.0   150.0   16.666666666666668
450.0   120.0   33.333333333333336
500.0   150.0   33.333333333333336
500.0   120.0   33.333333333333336
500.0   120.0   16.666666666666668
450.0   120.0   33.333333333333336
500.0   150.0   33.333333333333336
500.0   120.0   16.666666666666668
450.0   150.0   16.666666666666668
450.0   120.0   33.333333333333336
500.0   120.0   33.333333333333336
450.0   150.0   33.333333333333336
450.0   120.0   50.0
500.0   120.0   33.333333333333336
500.0   150.0   33.333333333333336
450.0   150.0   33.333333333333336
500.0   150.0   50.0
450.0   120.0   50.0
450.0   150.0   50.0
500.0   150.0   50.0
450.0   150.0   33.333333333333336
450.0   120.0   50.0
500.0   150.0   50.0
500.0   120.0   50.0
500.0   120.0   33.333333333333336
450.0   120.0   50.0
500.0   150.0   50.0
500.0   120.0   33.333333333333336
450.0   150.0   33.333333333333336
             </DataArray>   
          </Points>  
          <Cells>  
             <DataArray type="Int32" Name="connectivity" format="ascii">   
0   1   2   3
4   5   6   7
8   9   10   11
12   13   14   15
16   17   18   19
20   21   22   23
24   25   26   27
28   29   30   31
32   33   34   35
36   37   38   39
40   41   42   43
44   45   46   47
48   49   50   51
52   53   54   55
56   57   58   59
60   61   62   63
64   65   66   67
68   69   70   71
72   73   74   75
76   77   78   79
80   81   82   83
84   85   86   87
88   89   90   91
92   93   94   95
96   97   98   99
100   101   102   103
104   105   106   107
108   109   110   111
112   113   114   115
116   117   118   119
120   121   122   123
124   125   126   127
128   129   130   131
132   133   134   135
136   137   138   139
140   141   142   143
144   145   146   147
148   149   150   151
152   153   154   155
156   157   158   159
160   161   162   163
164   165   166   167
168   169   170   171
172   173   174   175
176   177   178   179
180   181   182   183
184   185   186   187
188   189   190   191
192   193   194   195
196   197   198   199
200   201   202   203
204   205   206   207
208   209   210   211
212   213   214   215
216   217   218   219
220   221   222   223
224   225   226   227
228   229   230   231
232   233   234   235
236   237   238   239
240   241   242   243
244   245   246   247
248   249   250   251
252   253   254   255
256   257   258   259
260   261   262   263
264   265   266   267
268   269   270   271
272   273   274   275
276   277   278   279
280   281   282   283
284   285   286   287
288   289   290   291
292   293   294   295
296   297   298   299
300   301   302   303
304   305   306   307
308   309   310   311
312   313   314   315
316   317   318   319
320   321   322   323
324   325   326   327
328   329   330   331
332   333   334   335
336   337   338   339
340   341   342   343
344   345   346   347
348   349   350   351
352   353   354   355
356   357   358   359
360   361   362   363
364   365   366   367
368   369   370   371
372   373   374   375
376   377   378   379
380   381   382   383
384   385   386   387
388   389   390   391
392   393   394   395
396   397   398   399
400   401   402   403
404   405   406   407
408   409   410   411
412   413   414   415
416   417   418   419
420   421   422   423
424   425   426   427
428   429   430   431
432   433   434   435
436   437   438   439
440   441   442   443
444   445   446   447
448   449   450   451
452   453   454   455
456   457   458   459
460   461   462   463
464   465   466   467
468   469   470   471
472   473   474   475
476   477   478   479
480   481   482   483
484   485   486   487
488   489   490   491
492   493   494   495
496   497   498   499
500   501   502   503
504   505   506   507
508   509   510   511
512   513   514   515
516   517   518   519
520   521   522   523
524   525   526   527
528   529   530   531
532   533   534   535
536   537   538   539
540   541   542   543
544   545   546   547
548   549   550   551
552   553   554   555
556   557   558   559
560   561   562   563
564   565   566   567
568   569   570   571
572   573   574   575
576   577   578   579
580   581   582   583
584   585   586   587
588   589   590   591
592   593   594   595
596   597   598   599
600   601   602   603
604   605   606   607
608   609   610   611
612   613   614   615
616   617   618   619
620   621   622   623
624   625   626   627
628   629   630   631
632   633   634   635
636   637   638   639
640   641   642   643
644   645   646   647
648   649   650   651
652   653   654   655
656   657   658   659
660   661   662   663
664   665   666   667
668   669   670   671
672   673   674   675
676   677   678   679
680   681   682   683
684   685   686   687
688   689   690   691
692   693   694   695
696   697   698   699
700   701   702   703
704   705   706   707
708   709   710   711
712   713   714   715
716   717   718   719
720   721   722   723
724   725   726   727
728   729   730   731
732   733   734   735
736   737   738   739
740   741   742   743
744   745   746   747
748   749   750   751
752   753   754   755
756   757   758   759
760   761   762   763
764   765   766   767
768   769   770   771
772   773   774   775
776   777   778   779
780   781   782   783
784   785   786   787
788   789   790   791
792   793   794   795
796   797   798   799
800   801   802   803
804   805   806   807
808   809   810   811
812   813   814   815
816   817   818   819
820   821   822   823
824   825   826   827
828   829   830   831
832   833   834   835
836   837   838   839
840   841   842   843
844   845   846   847
848   849   850   851
852   853   854   855
856   857   858   859
860   861   862   863
864   865   866   867
868   869   870   871
872   873   874   875
876   877   878   879
880   881   882   883
884   885   886   887
888   889   890   891
892   893   894   895
896   897   898   899
900   901   902   903
904   905   906   907
908   909   910   911
912   913   914   915
916   917   918   919
920   921   922   923
924   925   926   927
928   929   930   931
932   933   934   935
936   937   938   939
940   941   942   943
944   945   946   947
948   949   950   951
952   953   954   955
956   957   958   959
960   961   962   963
964   965   966   967
968   969   970   971
972   973   974   975
976   977   978   979
980   981   982   983
984   985   986   987
988   989   990   991
992   993   994   995
996   997   998   999
1000   1001   1002   1003
1004   1005   1006   1007
1008   1009   1010   1011
1012   1013   1014   1015
1016   1017   1018   1019
1020   1021   1022   1023
1024   1025   1026   1027
1028   1029   1030   1031
1032   1033   1034   1035
1036   1037   1038   1039
1040   1041   1042   1043
1044   1045   1046   1047
1048   1049   1050   1051
1052   1053   1054   1055
1056   1057   1058   1059
1060   1061   1062   1063
1064   1065   1066   1067
1068   1069   1070   1071
1072   1073   1074   1075
1076   1077   1078   1079
1080   1081   1082   1083
1084   1085   1086   1087
1088   1089   1090   1091
1092   1093   1094   1095
1096   1097   1098   1099
1100   1101   1102   1103
1104   1105   1106   1107
1108   1109   1110   1111
1112   1113   1114   1115
1116   1117   1118   1119
1120   1121   1122   1123
1124   1125   1126   1127
1128   1129   1130   1131
1132   1133   1134   1135
1136   1137   1138   1139
1140   1141   1142   1143
1144   1145   1146   1147
1148   1149   1150   1151
1152   1153   1154   1155
1156   1157   1158   1159
1160   1161   1162   1163
1164   1165   1166   1167
1168   1169   1170   1171
1172   1173   1174   1175
1176   1177   1178   1179
1180   1181   1182   1183
1184   1185   1186   1187
1188   1189   1190   1191
1192   1193   1194   1195
1196   1197   1198   1199
1200   1201   1202   1203
1204   1205   1206   1207
1208   1209   1210   1211
1212   1213   1214   1215
1216   1217   1218   1219
1220   1221   1222   1223
1224   1225   1226   1227
1228   1229   1230   1231
1232   1233   1234   1235
1236   1237   1238   1239
1240   1241   1242   1243
1244   1245   1246   1247
1248   1249   1250   1251
1252   1253   1254   1255
1256   1257   1258   1259
1260   1261   1262   1263
1264   1265   1266   1267
1268   1269   1270   1271
1272   1273   1274   1275
1276   1277   1278   1279
1280   1281   1282   1283
1284   1285   1286   1287
1288   1289   1290   1291
1292   1293   1294   1295
1296   1297   1298   1299
1300   1301   1302   1303
1304   1305   1306   1307
1308   1309   1310   1311
1312   1313   1314   1315
1316   1317   1318   1319
1320   1321   1322   1323
1324   1325   1326   1327
1328   1329   1330   1331
1332   1333   1334   1335
1336   1337   1338   1339
1340   1341   1342   1343
1344   1345   1346   1347
1348   1349   1350   1351
1352   1353   1354   1355
1356   1357   1358   1359
1360   1361   1362   1363
1364   1365   1366   1367
1368   1369   1370   1371
1372   1373   1374   1375
1376   1377   1378   1379
1380   1381   1382   1383
1384   1385   1386   1387
1388   1389   1390   1391
1392   1393   1394   1395
1396   1397   1398   1399
1400   1401   1402   1403
1404   1405   1406   1407
1408   1409   1410   1411
1412   1413   1414   1415
1416   1417   1418   1419
1420   1421   1422   1423
1424   1425   1426   1427
1428   1429   1430   1431
1432   1433   1434   1435
1436   1437   1438   1439
1440   1441   1442   1443
1444   1445   1446   1447
1448   1449   1450   1451
1452   1453   1454   1455
1456   1457   1458   1459
1460   1461   1462   1463
1464   1465   1466   1467
1468   1469   1470   1471
1472   1473   1474   1475
1476   1477   1478   1479
1480   1481   1482   1483
1484   1485   1486   1487
1488   1489   1490   1491
1492   1493   1494   1495
1496   1497   1498   1499
1500   1501   1502   1503
1504   1505   1506   1507
1508   1509   1510   1511
1512   1513   1514   1515
1516   1517   1518   1519
1520   1521   1522   1523
1524   1525   1526   1527
1528   1529   1530   1531
1532   1533   1534   1535
1536   1537   1538   1539
1540   1541   1542   1543
1544   1545   1546   1547
1548   1549   1550   1551
1552   1553   1554   1555
1556   1557   1558   1559
1560   1561   1562   1563
1564   1565   1566   1567
1568   1569   1570   1571
1572   1573   1574   1575
1576   1577   1578   1579
1580   1581   1582   1583
1584   1585   1586   1587
1588   1589   1590   1591
1592   1593   1594   1595
1596   1597   1598   1599
1600   1601   1602   1603
1604   1605   1606   1607
1608   1609   1610   1611
1612   1613   1614   1615
1616   1617   1618   1619
1620   1621   1622   1623
1624   1625   1626   1627
1628   1629   1630   1631
1632   1633   1634   1635
1636   1637   1638   1639
1640   1641   1642   1643
1644   1645   1646   1647
1648   1649   1650   1651
1652   1653   1654   1655
1656   1657   1658   1659
1660   1661   1662   1663
1664   1665   1666   1667
1668   1669   1670   1671
1672   1673   1674   1675
1676   1677   1678   1679
1680   1681   1682   1683
1684   1685   1686   1687
1688   1689   1690   1691
1692   1693   1694   1695
1696   1697   1698   1699
1700   1701   1702   1703
1704   1705   1706   1707
1708   1709   1710   1711
1712   1713   1714   1715
1716   1717   1718   1719
1720   1721   1722   1723
1724   1725   1726   1727
1728   1729   1730   1731
1732   1733   1734   1735
1736   1737   1738   1739
1740   1741   1742   1743
1744   1745   1746   1747
1748   1749   1750   1751
1752   1753   1754   1755
1756   1757   1758   1759
1760   1761   1762   1763
1764   1765   1766   1767
1768   1769   1770   1771
1772   1773   1774   1775
1776   1777   1778   1779
1780   1781   1782   1783
1784   1785   1786   1787
1788   1789   1790   1791
1792   1793   1794   1795
1796   1797   1798   1799
1800   1801   1802   1803
1804   1805   1806   1807
1808   1809   1810   1811
1812   1813   1814   1815
1816   1817   1818   1819
1820   1821   1822   1823
1824   1825   1826   1827
1828   1829   1830   1831
1832   1833   1834   1835
1836   1837   1838   1839
1840   1841   1842   1843
1844   1845   1846   1847
1848   1849   1850   1851
1852   1853   1854   1855
1856   1857   1858   1859
1860   1861   1862   1863
1864   1865   1866   1867
1868   1869   1870   1871
1872   1873   1874   1875
1876   1877   1878   1879
1880   1881   1882   1883
1884   1885   1886   1887
1888   1889   1890   1891
1892   1893   1894   1895
1896   1897   1898   1899
1900   1901   1902   1903
1904   1905   1906   1907
1908   1909   1910   1911
1912   1913   1914   1915
1916   1917   1918   1919
1920   1921   1922   1923
1924   1925   1926   1927
1928   1929   1930   1931
1932   1933   1934   1935
1936   1937   1938   1939
1940   1941   1942   1943
1944   1945   1946   1947
1948   1949   1950   1951
1952   1953   1954   1955
1956   1957   1958   1959
1960   1961   1962   1963
1964   1965   1966   1967
1968   1969   1970   1971
1972   1973   1974   1975
1976   1977   1978   1979
1980   1981   1982   1983
1984   1985   1986   1987
1988   1989   1990   1991
1992   1993   1994   1995
1996   1997   1998   1999
2000   2001   2002   2003
2004   2005   2006   2007
2008   2009   2010   2011
2012   2013   2014   2015
2016   2017   2018   2019
2020   2021   2022   2023
2024   2025   2026   2027
2028   2029   2030   2031
2032   2033   2034   2035
2036   2037   2038   2039
2040   2041   2042   2043
2044   2045   2046   2047
2048   2049   2050   2051
2052   2053   2054   2055
2056   2057   2058   2059
2060   2061   2062   2063
2064   2065   2066   2067
2068   2069   2070   2071
2072   2073   2074   2075
2076   2077   2078   2079
2080   2081   2082   2083
2084   2085   2086   2087
2088   2089   2090   2091
2092   2093   2094   2095
2096   2097   2098   2099
2100   2101   2102   2103
2104   2105   2106   2107
2108   2109   2110   2111
2112   2113   2114   2115
2116   2117   2118   2119
2120   2121   2122   2123
2124   2125   2126   2127
2128   2129   2130   2131
2132   2133   2134   2135
2136   2137   2138   2139
2140   2141   2142   2143
2144   2145   2146   2147
2148   2149   2150   2151
2152   2153   2154   2155
2156   2157   2158   2159
2160   2161   2162   2163
2164   2165   2166   2167
2168   2169   2170   2171
2172   2173   2174   2175
2176   2177   2178   2179
2180   2181   2182   2183
2184   2185   2186   2187
2188   2189   2190   2191
2192   2193   2194   2195
2196   2197   2198   2199
2200   2201   2202   2203
2204   2205   2206   2207
2208   2209   2210   2211
2212   2213   2214   2215
2216   2217   2218   2219
2220   2221   2222   2223
2224   2225   2226   2227
2228   2229   2230   2231
2232   2233   2234   2235
2236   2237   2238   2239
2240   2241   2242   2243
2244   2245   2246   2247
2248   2249   2250   2251
2252   2253   2254   2255
2256   2257   2258   2259
2260   2261   2262   2263
2264   2265   2266   2267
2268   2269   2270   2271
2272   2273   2274   2275
2276   2277   2278   2279
2280   2281   2282   2283
2284   2285   2286   2287
2288   2289   2290   2291
2292   2293   2294   2295
2296   2297   2298   2299
2300   2301   2302   2303
2304   2305   2306   2307
2308   2309   2310   2311
2312   2313   2314   2315
2316   2317   2318   2319
2320   2321   2322   2323
2324   2325   2326   2327
2328   2329   2330   2331
2332   2333   2334   2335
2336   2337   2338   2339
2340   2341   2342   2343
2344   2345   2346   2347
2348   2349   2350   2351
2352   2353   2354   2355
2356   2357   2358   2359
2360   2361   2362   2363
2364   2365   2366   2367
2368   2369   2370   2371
2372   2373   2374   2375
2376   2377   2378   2379
2380   2381   2382   2383
2384   2385   2386   2387
2388   2389   2390   2391
2392   2393   2394   2395
2396   2397   2398   2399
2400   2401   2402   2403
2404   2405   2406   2407
2408   2409   2410   2411
2412   2413   2414   2415
2416   2417   2418   2419
2420   2421   2422   2423
2424   2425   2426   2427
2428   2429   2430   2431
2432   2433   2434   2435
2436   2437   2438   2439
2440   2441   2442   2443
2444   2445   2446   2447
2448   2449   2450   2451
2452   2453   2454   2455
2456   2457   2458   2459
2460   2461   2462   2463
2464   2465   2466   2467
2468   2469   2470   2471
2472   2473   2474   2475
2476   2477   2478   2479
2480   2481   2482   2483
2484   2485   2486   2487
2488   2489   2490   2491
2492   2493   2494   2495
2496   2497   2498   2499
2500   2501   2502   2503
2504   2505   2506   2507
2508   2509   2510   2511
2512   2513   2514   2515
2516   2517   2518   2519
2520   2521   2522   2523
2524   2525   2526   2527
2528   2529   2530   2531
2532   2533   2534   2535
2536   2537   2538   2539
2540   2541   2542   2543
2544   2545   2546   2547
2548   2549   2550   2551
2552   2553   2554   2555
2556   2557   2558   2559
2560   2561   2562   2563
2564   2565   2566   2567
2568   2569   2570   2571
2572   2573   2574   2575
2576   2577   2578   2579
2580   2581   2582   2583
2584   2585   2586   2587
2588   2589   2590   2591
2592   2593   2594   2595
2596   2597   2598   2599
2600   2601   2602   2603
2604   2605   2606   2607
2608   2609   2610   2611
2612   2613   2614   2615
2616   2617   2618   2619
2620   2621   2622   2623
2624   2625   2626   2627
2628   2629   2630   2631
2632   2633   2634   2635
2636   2637   2638   2639
2640   2641   2642   2643
2644   2645   2646   2647
2648   2649   2650   2651
2652   2653   2654   2655
2656   2657   2658   2659
2660   2661   2662   2663
2664   2665   2666   2667
2668   2669   2670   2671
2672   2673   2674   2675
2676   2677   2678   2679
2680   2681   2682   2683
2684   2685   2686   2687
2688   2689   2690   2691
2692   2693   2694   2695
2696   2697   2698   2699
2700   2701   2702   2703
2704   2705   2706   2707
2708   2709   2710   2711
2712   2713   2714   2715
2716   2717   2718   2719
2720   2721   2722   2723
2724   2725   2726   2727
2728   2729   2730   2731
2732   2733   2734   2735
2736   2737   2738   2739
2740   2741   2742   2743
2744   2745   2746   2747
2748   2749   2750   2751
2752   2753   2754   2755
2756   2757   2758   2759
2760   2761   2762   2763
2764   2765   2766   2767
2768   2769   2770   2771
2772   2773   2774   2775
2776   2777   2778   2779
2780   2781   2782   2783
2784   2785   2786   2787
2788   2789   2790   2791
2792   2793   2794   2795
2796   2797   2798   2799
2800   2801   2802   2803
2804   2805   2806   2807
2808   2809   2810   2811
2812   2813   2814   2815
2816   2817   2818   2819
2820   2821   2822   2823
2824   2825   2826   2827
2828   2829   2830   2831
2832   2833   2834   2835
2836   2837   2838   2839
2840   2841   2842   2843
2844   2845   2846   2847
2848   2849   2850   2851
2852   2853   2854   2855
2856   2857   2858   2859
2860   2861   2862   2863
2864   2865   2866   2867
2868   2869   2870   2871
2872   2873   2874   2875
2876   2877   2878   2879
2880   2881   2882   2883
2884   2885   2886   2887
2888   2889   2890   2891
2892   2893   2894   2895
2896   2897   2898   2899
2900   2901   2902   2903
2904   2905   2906   2907
2908   2909   2910   2911
2912   2913   2914   2915
2916   2917   2918   2919
2920   2921   2922   2923
2924   2925   2926   2927
2928   2929   2930   2931
2932   2933   2934   2935
2936   2937   2938   2939
2940   2941   2942   2943
2944   2945   2946   2947
2948   2949   2950   2951
2952   2953   2954   2955
2956   2957   2958   2959
2960   2961   2962   2963
2964   2965   2966   2967
2968   2969   2970   2971
2972   2973   2974   2975
2976   2977   2978   2979
2980   2981   2982   2983
2984   2985   2986   2987
2988   2989   2990   2991
2992   2993   2994   2995
2996   2997   2998   2999
3000   3001   3002   3003
3004   3005   3006   3007
3008   3009   3010   3011
3012   3013   3014   3015
3016   3017   3018   3019
3020   3021   3022   3023
3024   3025   3026   3027
3028   3029   3030   3031
3032   3033   3034   3035
3036   3037   3038   3039
3040   3041   3042   3043
3044   3045   3046   3047
3048   3049   3050   3051
3052   3053   3054   3055
3056   3057   3058   3059
3060   3061   3062   3063
3064   3065   3066   3067
3068   3069   3070   3071
3072   3073   3074   3075
3076   3077   3078   3079
3080   3081   3082   3083
3084   3085   3086   3087
3088   3089   3090   3091
3092   3093   3094   3095
3096   3097   3098   3099
3100   3101   3102   3103
3104   3105   3106   3107
3108   3109   3110   3111
3112   3113   3114   3115
3116   3117   3118   3119
3120   3121   3122   3123
3124   3125   3126   3127
3128   3129   3130   3131
3132   3133   3134   3135
3136   3137   3138   3139
3140   3141   3142   3143
3144   3145   3146   3147
3148   3149   3150   3151
3152   3153   3154   3155
3156   3157   3158   3159
3160   3161   3162   3163
3164   3165   3166   3167
3168   3169   3170   3171
3172   3173   3174   3175
3176   3177   3178   3179
3180   3181   3182   3183
3184   3185   3186   3187
3188   3189   3190   3191
3192   3193   3194   3195
3196   3197   3198   3199
3200   3201   3202   3203
3204   3205   3206   3207
3208   3209   3210   3211
3212   3213   3214   3215
3216   3217   3218   3219
3220   3221   3222   3223
3224   3225   3226   3227
3228   3229   3230   3231
3232   3233   3234   3235
3236   3237   3238   3239
3240   3241   3242   3243
3244   3245   3246   3247
3248   3249   3250   3251
3252   3253   3254   3255
3256   3257   3258   3259
3260   3261   3262   3263
3264   3265   3266   3267
3268   3269   3270   3271
3272   3273   3274   3275
3276   3277   3278   3279
3280   3281   3282   3283
3284   3285   3286   3287
3288   3289   3290   3291
3292   3293   3294   3295
3296   3297   3298   3299
3300   3301   3302   3303
3304   3305   3306   3307
3308   3309   3310   3311
3312   3313   3314   3315
3316   3317   3318   3319
3320   3321   3322   3323
3324   3325   3326   3327
3328   3329   3330   3331
3332   3333   3334   3335
3336   3337   3338   3339
3340   3341   3342   3343
3344   3345   3346   3347
3348   3349   3350   3351
3352   3353   3354   3355
3356   3357   3358   3359
3360   3361   3362   3363
3364   3365   3366   3367
3368   3369   3370   3371
3372   3373   3374   3375
3376   3377   3378   3379
3380   3381   3382   3383
3384   3385   3386   3387
3388   3389   3390   3391
3392   3393   3394   3395
3396   3397   3398   3399
3400   3401   3402   3403
3404   3405   3406   3407
3408   3409   3410   3411
3412   3413   3414   3415
3416   3417   3418   3419
3420   3421   3422   3423
3424   3425   3426   3427
3428   3429   3430   3431
3432   3433   3434   3435
3436   3437   3438   3439
3440   3441   3442   3443
3444   3445   3446   3447
3448   3449   3450   3451
3452   3453   3454   3455
3456   3457   3458   3459
3460   3461   3462   3463
3464   3465   3466   3467
3468   3469   3470   3471
3472   3473   3474   3475
3476   3477   3478   3479
3480   3481   3482   3483
3484   3485   3486   3487
3488   3489   3490   3491
3492   3493   3494   3495
3496   3497   3498   3499
3500   3501   3502   3503
3504   3505   3506   3507
3508   3509   3510   3511
3512   3513   3514   3515
3516   3517   3518   3519
3520   3521   3522   3523
3524   3525   3526   3527
3528   3529   3530   3531
3532   3533   3534   3535
3536   3537   3538   3539
3540   3541   3542   3543
3544   3545   3546   3547
3548   3549   3550   3551
3552   3553   3554   3555
3556   3557   3558   3559
3560   3561   3562   3563
3564   3565   3566   3567
3568   3569   3570   3571
3572   3573   3574   3575
3576   3577   3578   3579
3580   3581   3582   3583
3584   3585   3586   3587
3588   3589   3590   3591
3592   3593   3594   3595
3596   3597   3598   3599
3600   3601   3602   3603
3604   3605   3606   3607
3608   3609   3610   3611
3612   3613   3614   3615
3616   3617   3618   3619
3620   3621   3622   3623
3624   3625   3626   3627
3628   3629   3630   3631
3632   3633   3634   3635
3636   3637   3638   3639
3640   3641   3642   3643
3644   3645   3646   3647
3648   3649   3650   3651
3652   3653   3654   3655
3656   3657   3658   3659
3660   3661   3662   3663
3664   3665   3666   3667
3668   3669   3670   3671
3672   3673   3674   3675
3676   3677   3678   3679
3680   3681   3682   3683
3684   3685   3686   3687
3688   3689   3690   3691
3692   3693   3694   3695
3696   3697   3698   3699
3700   3701   3702   3703
3704   3705   3706   3707
3708   3709   3710   3711
3712   3713   3714   3715
3716   3717   3718   3719
3720   3721   3722   3723
3724   3725   3726   3727
3728   3729   3730   3731
3732   3733   3734   3735
3736   3737   3738   3739
3740   3741   3742   3743
3744   3745   3746   3747
3748   3749   3750   3751
3752   3753   3754   3755
3756   3757   3758   3759
3760   3761   3762   3763
3764   3765   3766   3767
3768   3769   3770   3771
3772   3773   3774   3775
3776   3777   3778   3779
3780   3781   3782   3783
3784   3785   3786   3787
3788   3789   3790   3791
3792   3793   3794   3795
3796   3797   3798   3799
3800   3801   3802   3803
3804   3805   3806   3807
3808   3809   3810   3811
3812   3813   3814   3815
3816   3817   3818   3819
3820   3821   3822   3823
3824   3825   3826   3827
3828   3829   3830   3831
3832   3833   3834   3835
3836   3837   3838   3839
3840   3841   3842   3843
3844   3845   3846   3847
3848   3849   3850   3851
3852   3853   3854   3855
3856   3857   3858   3859
3860   3861   3862   3863
3864   3865   3866   3867
3868   3869   3870   3871
3872   3873   3874   3875
3876   3877   3878   3879
3880   3881   3882   3883
3884   3885   3886   3887
3888   3889   3890   3891
3892   3893   3894   3895
3896   3897   3898   3899
3900   3901   3902   3903
3904   3905   3906   3907
3908   3909   3910   3911
3912   3913   3914   3915
3916   3917   3918   3919
3920   3921   3922   3923
3924   3925   3926   3927
3928   3929   3930   3931
3932   3933   3934   3935
3936   3937   3938   3939
3940   3941   3942   3943
3944   3945   3946   3947
3948   3949   3950   3951
3952   3953   3954   3955
3956   3957   3958   3959
3960   3961   3962   3963
3964   3965   3966   3967
3968   3969   3970   3971
3972   3973   3974   3975
3976   3977   3978   3979
3980   3981   3982   3983
3984   3985   3986   3987
3988   3989   3990   3991
3992   3993   3994   3995
3996   3997   3998   3999
4000   4001   4002   4003
4004   4005   4006   4007
4008   4009   4010   4011
4012   4013   4014   4015
4016   4017   4018   4019
4020   4021   4022   4023
4024   4025   4026   4027
4028   4029   4030   4031
4032   4033   4034   4035
4036   4037   4038   4039
4040   4041   4042   4043
4044   4045   4046   4047
4048   4049   4050   4051
4052   4053   4054   4055
4056   4057   4058   4059
4060   4061   4062   4063
4064   4065   4066   4067
4068   4069   4070   4071
4072   4073   4074   4075
4076   4077   4078   4079
4080   4081   4082   4083
4084   4085   4086   4087
4088   4089   4090   4091
4092   4093   4094   4095
4096   4097   4098   4099
4100   4101   4102   4103
4104   4105   4106   4107
4108   4109   4110   4111
4112   4113   4114   4115
4116   4117   4118   4119
4120   4121   4122   4123
4124   4125   4126   4127
4128   4129   4130   4131
4132   4133   4134   4135
4136   4137   4138   4139
4140   4141   4142   4143
4144   4145   4146   4147
4148   4149   4150   4151
4152   4153   4154   4155
4156   4157   4158   4159
4160   4161   4162   4163
4164   4165   4166   4167
4168   4169   4170   4171
4172   4173   4174   4175
4176   4177   4178   4179
4180   4181   4182   4183
4184   4185   4186   4187
4188   4189   4190   4191
4192   4193   4194   4195
4196   4197   4198   4199
4200   4201   4202   4203
4204   4205   4206   4207
4208   4209   4210   4211
4212   4213   4214   4215
4216   4217   4218   4219
4220   4221   4222   4223
4224   4225   4226   4227
4228   4229   4230   4231
4232   4233   4234   4235
4236   4237   4238   4239
4240   4241   4242   4243
4244   4245   4246   4247
4248   4249   4250   4251
4252   4253   4254   4255
4256   4257   4258   4259
4260   4261   4262   4263
4264   4265   4266   4267
4268   4269   4270   4271
4272   4273   4274   4275
4276   4277   4278   4279
4280   4281   4282   4283
4284   4285   4286   4287
4288   4289   4290   4291
4292   4293   4294   4295
4296   4297   4298   4299
4300   4301   4302   4303
4304   4305   4306   4307
4308   4309   4310   4311
4312   4313   4314   4315
4316   4317   4318   4319
4320   4321   4322   4323
4324   4325   4326   4327
4328   4329   4330   4331
4332   4333   4334   4335
4336   4337   4338   4339
4340   4341   4342   4343
4344   4345   4346   4347
4348   4349   4350   4351
4352   4353   4354   4355
4356   4357   4358   4359
4360   4361   4362   4363
4364   4365   4366   4367
4368   4369   4370   4371
4372   4373   4374   4375
4376   4377   4378   4379
4380   4381   4382   4383
4384   4385   4386   4387
4388   4389   4390   4391
4392   4393   4394   4395
4396   4397   4398   4399
4400   4401   4402   4403
4404   4405   4406   4407
4408   4409   4410   4411
4412   4413   4414   4415
4416   4417   4418   4419
4420   4421   4422   4423
4424   4425   4426   4427
4428   4429   4430   4431
4432   4433   4434   4435
4436   4437   4438   4439
4440   4441   4442   4443
4444   4445   4446   4447
4448   4449   4450   4451
4452   4453   4454   4455
4456   4457   4458   4459
4460   4461   4462   4463
4464   4465   4466   4467
4468   4469   4470   4471
4472   4473   4474   4475
4476   4477   4478   4479
4480   4481   4482   4483
4484   4485   4486   4487
4488   4489   4490   4491
4492   4493   4494   4495
4496   4497   4498   4499
4500   4501   4502   4503
4504   4505   4506   4507
4508   4509   4510   4511
4512   4513   4514   4515
4516   4517   4518   4519
4520   4521   4522   4523
4524   4525   4526   4527
4528   4529   4530   4531
4532   4533   4534   4535
4536   4537   4538   4539
4540   4541   4542   4543
4544   4545   4546   4547
4548   4549   4550   4551
4552   4553   4554   4555
4556   4557   4558   4559
4560   4561   4562   4563
4564   4565   4566   4567
4568   4569   4570   4571
4572   4573   4574   4575
4576   4577   4578   4579
4580   4581   4582   4583
4584   4585   4586   4587
4588   4589   4590   4591
4592   4593   4594   4595
4596   4597   4598   4599
4600   4601   4602   4603
4604   4605   4606   4607
4608   4609   4610   4611
4612   4613   4614   4615
4616   4617   4618   4619
4620   4621   4622   4623
4624   4625   4626   4627
4628   4629   4630   4631
4632   4633   4634   4635
4636   4637   4638   4639
4640   4641   4642   4643
4644   4645   4646   4647
4648   4649   4650   4651
4652   4653   4654   4655
4656   4657   4658   4659
4660   4661   4662   4663
4664   4665   4666   4667
4668   4669   4670   4671
4672   4673   4674   4675
4676   4677   4678   4679
4680   4681   4682   4683
4684   4685   4686   4687
4688   4689   4690   4691
4692   4693   4694   4695
4696   4697   4698   4699
4700   4701   4702   4703
4704   4705   4706   4707
4708   4709   4710   4711
4712   4713   4714   4715
4716   4717   4718   4719
4720   4721   4722   4723
4724   4725   4726   4727
4728   4729   4730   4731
4732   4733   4734   4735
4736   4737   4738   4739
4740   4741   4742   4743
4744   4745   4746   4747
4748   4749   4750   4751
4752   4753   4754   4755
4756   4757   4758   4759
4760   4761   4762   4763
4764   4765   4766   4767
4768   4769   4770   4771
4772   4773   4774   4775
4776   4777   4778   4779
4780   4781   4782   4783
4784   4785   4786   4787
4788   4789   4790   4791
4792   4793   4794   4795
4796   4797   4798   4799
4800   4801   4802   4803
4804   4805   4806   4807
4808   4809   4810   4811
4812   4813   4814   4815
4816   4817   4818   4819
4820   4821   4822   4823
4824   4825   4826   4827
4828   4829   4830   4831
4832   4833   4834   4835
4836   4837   4838   4839
4840   4841   4842   4843
4844   4845   4846   4847
4848   4849   4850   4851
4852   4853   4854   4855
4856   4857   4858   4859
4860   4861   4862   4863
4864   4865   4866   4867
4868   4869   4870   4871
4872   4873   4874   4875
4876   4877   4878   4879
4880   4881   4882   4883
4884   4885   4886   4887
4888   4889   4890   4891
4892   4893   4894   4895
4896   4897   4898   4899
4900   4901   4902   4903
4904   4905   4906   4907
4908   4909   4910   4911
4912   4913   4914   4915
4916   4917   4918   4919
4920   4921   4922   4923
4924   4925   4926   4927
4928   4929   4930   4931
4932   4933   4934   4935
4936   4937   4938   4939
4940   4941   4942   4943
4944   4945   4946   4947
4948   4949   4950   4951
4952   4953   4954   4955
4956   4957   4958   4959
4960   4961   4962   4963
4964   4965   4966   4967
4968   4969   4970   4971
4972   4973   4974   4975
4976   4977   4978   4979
4980   4981   4982   4983
4984   4985   4986   4987
4988   4989   4990   4991
4992   4993   4994   4995
4996   4997   4998   4999
5000   5001   5002   5003
5004   5005   5006   5007
5008   5009   5010   5011
5012   5013   5014   5015
5016   5017   5018   5019
5020   5021   5022   5023
5024   5025   5026   5027
5028   5029   5030   5031
5032   5033   5034   5035
5036   5037   5038   5039
5040   5041   5042   5043
5044   5045   5046   5047
5048   5049   5050   5051
5052   5053   5054   5055
5056   5057   5058   5059
5060   5061   5062   5063
5064   5065   5066   5067
5068   5069   5070   5071
5072   5073   5074   5075
5076   5077   5078   5079
5080   5081   5082   5083
5084   5085   5086   5087
5088   5089   5090   5091
5092   5093   5094   5095
5096   5097   5098   5099
5100   5101   5102   5103
5104   5105   5106   5107
5108   5109   5110   5111
5112   5113   5114   5115
5116   5117   5118   5119
5120   5121   5122   5123
5124   5125   5126   5127
5128   5129   5130   5131
5132   5133   5134   5135
5136   5137   5138   5139
5140   5141   5142   5143
5144   5145   5146   5147
5148   5149   5150   5151
5152   5153   5154   5155
5156   5157   5158   5159
5160   5161   5162   5163
5164   5165   5166   5167
5168   5169   5170   5171
5172   5173   5174   5175
5176   5177   5178   5179
5180   5181   5182   5183
5184   5185   5186   5187
5188   5189   5190   5191
5192   5193   5194   5195
5196   5197   5198   5199
5200   5201   5202   5203
5204   5205   5206   5207
5208   5209   5210   5211
5212   5213   5214   5215
5216   5217   5218   5219
5220   5221   5222   5223
5224   5225   5226   5227
5228   5229   5230   5231
5232   5233   5234   5235
5236   5237   5238   5239
5240   5241   5242   5243
5244   5245   5246   5247
5248   5249   5250   5251
5252   5253   5254   5255
5256   5257   5258   5259
5260   5261   5262   5263
5264   5265   5266   5267
5268   5269   5270   5271
5272   5273   5274   5275
5276   5277   5278   5279
5280   5281   5282   5283
5284   5285   5286   5287
5288   5289   5290   5291
5292   5293   5294   5295
5296   5297   5298   5299
5300   5301   5302   5303
5304   5305   5306   5307
5308   5309   5310   5311
5312   5313   5314   5315
5316   5317   5318   5319
5320   5321   5322   5323
5324   5325   5326   5327
5328   5329   5330   5331
5332   5333   5334   5335
5336   5337   5338   5339
5340   5341   5342   5343
5344   5345   5346   5347
5348   5349   5350   5351
5352   5353   5354   5355
5356   5357   5358   5359
5360   5361   5362   5363
5364   5365   5366   5367
5368   5369   5370   5371
5372   5373   5374   5375
5376   5377   5378   5379
5380   5381   5382   5383
5384   5385   5386   5387
5388   5389   5390   5391
5392   5393   5394   5395
5396   5397   5398   5399
5400   5401   5402   5403
5404   5405   5406   5407
5408   5409   5410   5411
5412   5413   5414   5415
5416   5417   5418   5419
5420   5421   5422   5423
5424   5425   5426   5427
5428   5429   5430   5431
5432   5433   5434   5435
5436   5437   5438   5439
5440   5441   5442   5443
5444   5445   5446   5447
5448   5449   5450   5451
5452   5453   5454   5455
5456   5457   5458   5459
5460   5461   5462   5463
5464   5465   5466   5467
5468   5469   5470   5471
5472   5473   5474   5475
5476   5477   5478   5479
5480   5481   5482   5483
5484   5485   5486   5487
5488   5489   5490   5491
5492   5493   5494   5495
5496   5497   5498   5499
5500   5501   5502   5503
5504   5505   5506   5507
5508   5509   5510   5511
5512   5513   5514   5515
5516   5517   5518   5519
5520   5521   5522   5523
5524   5525   5526   5527
5528   5529   5530   5531
5532   5533   5534   5535
5536   5537   5538   5539
5540   5541   5542   5543
5544   5545   5546   5547
5548   5549   5550   5551
5552   5553   5554   5555
5556   5557   5558   5559
5560   5561   5562   5563
5564   5565   5566   5567
5568   5569   5570   5571
5572   5573   5574   5575
5576   5577   5578   5579
5580   5581   5582   5583
5584   5585   5586   5587
5588   5589   5590   5591
5592   5593   5594   5595
5596   5597   5598   5599
5600   5601   5602   5603
5604   5605   5606   5607
5608   5609   5610   5611
5612   5613   5614   5615
5616   5617   5618   5619
5620   5621   5622   5623
5624   5625   5626   5627
5628   5629   5630   5631
5632   5633   5634   5635
5636   5637   5638   5639
5640   5641   5642   5643
5644   5645   5646   5647
5648   5649   5650   5651
5652   5653   5654   5655
5656   5657   5658   5659
5660   5661   5662   5663
5664   5665   5666   5667
5668   5669   5670   5671
5672   5673   5674   5675
5676   5677   5678   5679
5680   5681   5682   5683
5684   5685   5686   5687
5688   5689   5690   5691
5692   5693   5694   5695
5696   5697   5698   5699
5700   5701   5702   5703
5704   5705   5706   5707
5708   5709   5710   5711
5712   5713   5714   5715
5716   5717   5718   5719
5720   5721   5722   5723
5724   5725   5726   5727
5728   5729   5730   5731
5732   5733   5734   5735
5736   5737   5738   5739
5740   5741   5742   5743
5744   5745   5746   5747
5748   5749   5750   5751
5752   5753   5754   5755
5756   5757   5758   5759
5760   5761   5762   5763
5764   5765   5766   5767
5768   5769   5770   5771
5772   5773   5774   5775
5776   5777   5778   5779
5780   5781   5782   5783
5784   5785   5786   5787
5788   5789   5790   5791
5792   5793   5794   5795
5796   5797   5798   5799
5800   5801   5802   5803
5804   5805   5806   5807
5808   5809   5810   5811
5812   5813   5814   5815
5816   5817   5818   5819
5820   5821   5822   5823
5824   5825   5826   5827
5828   5829   5830   5831
5832   5833   5834   5835
5836   5837   5838   5839
5840   5841   5842   5843
5844   5845   5846   5847
5848   5849   5850   5851
5852   5853   5854   5855
5856   5857   5858   5859
5860   5861   5862   5863
5864   5865   5866   5867
5868   5869   5870   5871
5872   5873   5874   5875
5876   5877   5878   5879
5880   5881   5882   5883
5884   5885   5886   5887
5888   5889   5890   5891
5892   5893   5894   5895
5896   5897   5898   5899
5900   5901   5902   5903
5904   5905   5906   5907
5908   5909   5910   5911
5912   5913   5914   5915
5916   5917   5918   5919
5920   5921   5922   5923
5924   5925   5926   5927
5928   5929   5930   5931
5932   5933   5934   5935
5936   5937   5938   5939
5940   5941   5942   5943
5944   5945   5946   5947
5948   5949   5950   5951
5952   5953   5954   5955
5956   5957   5958   5959
5960   5961   5962   5963
5964   5965   5966   5967
5968   5969   5970   5971
5972   5973   5974   5975
5976   5977   5978   5979
5980   5981   5982   5983
5984   5985   5986   5987
5988   5989   5990   5991
5992   5993   5994   5995
5996   5997   5998   5999
              </DataArray>   
              <DataArray type="Int32" Name="offsets" format="ascii">   
4
8
12
16
20
24
28
32
36
40
44
48
52
56
60
64
68
72
76
80
84
88
92
96
100
104
108
112
116
120
124
128
132
136
140
144
148
152
156
160
164
168
172
176
180
184
188
192
196
200
204
208
212
216
220
224
228
232
236
240
244
248
252
256
260
264
268
272
276
280
284
288
292
296
300
304
308
312
316
320
324
328
332
336
340
344
348
352
356
360
364
368
372
376
380
384
388
392
396
400
404
408
412
416
420
424
428
432
436
440
444
448
452
456
460
464
468
472
476
480
484
488
492
496
500
504
508
512
516
520
524
528
532
536
540
544
548
552
556
560
564
568
572
576
580
584
588
592
596
600
604
608
612
616
620
624
628
632
636
640
644
648
652
656
660
664
668
672
676
680
684
688
692
696
700
704
708
712
716
720
724
728
732
736
740
744
748
752
756
760
764
768
772
776
780
784
788
792
796
800
804
808
812
816
820
824
828
832
836
840
844
848
852
856
860
864
868
872
876
880
884
888
892
896
900
904
908
912
916
920
924
928
932
936
940
944
948
952
956
960
964
968
972
976
980
984
988
992
996
1000
1004
1008
1012
1016
1020
1024
1028
1032
1036
1040
1044
1048
1052
1056
1060
1064
1068
1072
1076
1080
1084
1088
1092
1096
1100
1104
1108
1112
1116
1120
1124
1128
1132
1136
1140
1144
1148
1152
1156
1160
1164
1168
1172
1176
1180
1184
1188
1192
1196
1200
1204
1208
1212
1216
1220
1224
1228
1232
1236
1240
1244
1248
1252
1256
1260
1264
1268
1272
1276
1280
1284
1288
1292
1296
1300
1304
1308
1312
1316
1320
1324
1328
1332
1336
1340
1344
1348
1352
1356
1360
1364
1368
1372
1376
1380
1384
1388
1392
1396
1400
1404
1408
1412
1416
1420
1424
1428
1432
1436
1440
1444
1448
1452
1456
1460
1464
1468
1472
1476
1480
1484
1488
1492
1496
1500
1504
1508
1512
1516
1520
1524
1528
1532
1536
1540
1544
1548
1552
1556
1560
1564
1568
1572
1576
1580
1584
1588
1592
1596
1600
1604
1608
1612
1616
1620
1624
1628
1632
1636
1640
1644
1648
1652
1656
1660
1664
1668
1672
1676
1680
1684
1688
1692
1696
1700
1704
1708
1712
1716
1720
1724
1728
1732
1736
1740
1744
1748
1752
1756
1760
1764
1768
1772
1776
1780
1784
1788
1792
1796
1800
1804
1808
1812
1816
1820
1824
1828
1832
1836
1840
1844
1848
1852
1856
1860
1864
1868
1872
1876
1880
1884
1888
1892
1896
1900
1904
1908
1912
1916
1920
1924
1928
1932
1936
1940
1944
1948
1952
1956
1960
1964
1968
1972
1976
1980
1984
1988
1992
1996
2000
2004
2008
2012
2016
2020
2024
2028
2032
2036
2040
2044
2048
2052
2056
2060
2064
2068
2072
2076
2080
2084
2088
2092
2096
2100
2104
2108
2112
2116
2120
2124
2128
2132
2136
2140
2144
2148
2152
2156
2160
2164
2168
2172
2176
2180
2184
2188
2192
2196
2200
2204
2208
2212
2216
2220
2224
2228
2232
2236
2240
2244
2248
2252
2256
2260
2264
2268
2272
2276
2280
2284
2288
2292
2296
2300
2304
2308
2312
2316
2320
2324
2328
2332
2336
2340
2344
2348
2352
2356
2360
2364
2368
2372
2376
2380
2384
2388
2392
2396
2400
2404
2408
2412
2416
2420
2424
2428
2432
2436
2440
2444
2448
2452
2456
2460
2464
2468
2472
2476
2480
2484
2488
2492
2496
2500
2504
2508
2512
2516
2520
2524
2528
2532
2536
2540
2544
2548
2552
2556
2560
2564
2568
2572
2576
2580
2584
2588
2592
2596
2600
2604
2608
2612
2616
2620
2624
2628
2632
2636
2640
2644
2648
2652
2656
2660
2664
2668
2672
2676
2680
2684
2688
2692
2696
2700
2704
2708
2712
2716
2720
2724
2728
2732
2736
2740
2744
2748
2752
2756
2760
2764
2768
2772
2776
2780
2784
2788
2792
2796
2800
2804
2808
2812
2816
2820
2824
2828
2832
2836
2840
2844
2848
2852
2856
2860
2864
2868
2872
2876
2880
2884
2888
2892
2896
2900
2904
2908
2912
2916
2920
2924
2928
2932
2936
2940
2944
2948
2952
2956
2960
2964
2968
2972
2976
2980
2984
2988
2992
2996
3000
3004
3008
3012
3016
3020
3024
3028
3032
3036
3040
3044
3048
3052
3056
3060
3064
3068
3072
3076
3080
3084
3088
3092
3096
3100
3104
3108
3112
3116
3120
3124
3128
3132
3136
3140
3144
3148
3152
3156
3160
3164
3168
3172
3176
3180
3184
3188
3192
3196
3200
3204
3208
3212
3216
3220
3224
3228
3232
3236
3240
3244
3248
3252
3256
3260
3264
3268
3272
3276
3280
3284
3288
3292
3296
3300
3304
3308
3312
3316
3320
3324
3328
3332
3336
3340
3344
3348
3352
3356
3360
3364
3368
3372
3376
3380
3384
3388
3392
3396
3400
3404
3408
3412
3416
3420
3424
3428
3432
3436
3440
3444
3448
3452
3456
3460
3464
3468
3472
3476
3480
3484
3488
3492
3496
3500
3504
3508
3512
3516
3520
3524
3528
3532
3536
3540
3544
3548
3552
3556
3560
3564
3568
3572
3576
3580
3584
3588
3592
3596
3600
3604
3608
3612
3616
3620
3624
3628
3632
3636
3640
3644
3648
3652
3656
3660
3664
3668
3672
3676
3680
3684
3688
3692
3696
3700
3704
3708
3712
3716
3720
3724
3728
3732
3736
3740
3744
3748
3752
3756
3760
3764
3768
3772
3776
3780
3784
3788
3792
3796
3800
3804
3808
3812
3816
3820
3824
3828
3832
3836
3840
3844
3848
3852
3856
3860
3864
3868
3872
3876
3880
3884
3888
3892
3896
3900
3904
3908
3912
3916
3920
3924
3928
3932
3936
3940
3944
3948
3952
3956
3960
3964
3968
3972
3976
3980
3984
3988
3992
3996
4000
4004
4008
4012
4016
4020
4024
4028
4032
4036
4040
4044
4048
4052
4056
4060
4064
4068
4072
4076
4080
4084
4088
4092
4096
4100
4104
4108
4112
4116
4120
4124
4128
4132
4136
4140
4144
4148
4152
4156
4160
4164
4168
4172
4176
4180
4184
4188
4192
4196
4200
4204
4208
4212
4216
4220
4224
4228
4232
4236
4240
4244
4248
4252
4256
4260
4264
4268
4272
4276
4280
4284
4288
4292
4296
4300
4304
4308
4312
4316
4320
4324
4328
4332
4336
4340
4344
4348
4352
4356
4360
4364
4368
4372
4376
4380
4384
4388
4392
4396
4400
4404
4408
4412
4416
4420
4424
4428
4432
4436
4440
4444
4448
4452
4456
4460
4464
4468
4472
4476
4480
4484
4488
4492
4496
4500
4504
4508
4512
4516
4520
4524
4528
4532
4536
4540
4544
4548
4552
4556
4560
4564
4568
4572
4576
4580
4584
4588
4592
4596
4600
4604
4608
4612
4616
4620
4624
4628
4632
4636
4640
4644
4648
4652
4656
4660
4664
4668
4672
4676
4680
4684
4688
4692
4696
4700
4704
4708
4712
4716
4720
4724
4728
4732
4736
4740
4744
4748
4752
4756
4760
4764
4768
4772
4776
4780
4784
4788
4792
4796
4800
4804
4808
4812
4816
4820
4824
4828
4832
4836
4840
4844
4848
4852
4856
4860
4864
4868
4872
4876
4880
4884
4888
4892
4896
4900
4904
4908
4912
4916
4920
4924
4928
4932
4936
4940
4944
4948
4952
4956
4960
4964
4968
4972
4976
4980
4984
4988
4992
4996
5000
5004
5008
5012
5016
5020
5024
5028
5032
5036
5040
5044
5048
5052
5056
5060
5064
5068
5072
5076
5080
5084
5088
5092
5096
5100
5104
5108
5112
5116
5120
5124
5128
5132
5136
5140
5144
5148
5152
5156
5160
5164
5168
5172
5176
5180
5184
5188
5192
5196
5200
5204
5208
5212
5216
5220
5224
5228
5232
5236
5240
5244
5248
5252
5256
5260
5264
5268
5272
5276
5280
5284
5288
5292
5296
5300
5304
5308
5312
5316
5320
5324
5328
5332
5336
5340
5344
5348
5352
5356
5360
5364
5368
5372
5376
5380
5384
5388
5392
5396
5400
5404
5408
5412
5416
5420
5424
5428
5432
5436
5440
5444
5448
5452
5456
5460
5464
5468
5472
5476
5480
5484
5488
5492
5496
5500
5504
5508
5512
5516
5520
5524
5528
5532
5536
5540
5544
5548
5552
5556
5560
5564
5568
5572
5576
5580
5584
5588
5592
5596
5600
5604
5608
5612
5616
5620
5624
5628
5632
5636
5640
5644
5648
5652
5656
5660
5664
5668
5672
5676
5680
5684
5688
5692
5696
5700
5704
5708
5712
5716
5720
5724
5728
5732
5736
5740
5744
5748
5752
5756
5760
5764
5768
5772
5776
5780
5784
5788
5792
5796
5800
5804
5808
5812
5816
5820
5824
5828
5832
5836
5840
5844
5848
5852
5856
5860
5864
5868
5872
5876
5880
5884
5888
5892
5896
5900
5904
5908
5912
5916
5920
5924
5928
5932
5936
5940
5944
5948
5952
5956
5960
5964
5968
5972
5976
5980
5984
5988
5992
5996
6000
              </DataArray>   
              <DataArray type="UInt8" Name="types" format="ascii">   
10
10
10
10
10
10
10
10
10
10
10
10
10
10
10
10
10
10
10
10
10
10
10
10
10
10
10
10
10
10
10
10
10
10
10
10
10
10
10
10
10
10
10
10
10
10
10
10
10
10
10
10
10
10
10
10
10
10
10
10
10
10
10
10
10
10
10
10
10
10
10
10
10
10
10
10
10
10
10
10
10
10
10
10
10
10
10
10
10
10
10
10
10
10
10
10
10
10
10
10
10
10
10
10
10
10
10
10
10
10
10
10
10
10
10
10
10
10
10
10
10
10
10
10
10
10
10
10
10
10
10
10
10
10
10
10
10
10
10
10
10
10
10
10
10
10
10
10
10
10
10
10
10
10
10
10
10
10
10
10
10
10
10
10
10
10
10
10
10
10
10
10
10
10
10
10
10
10
10
10
10
10
10
10
10
10
10
10
10
10
10
10
10
10
10
10
10
10
10
10
10
10
10
10
10
10
10
10
10
10
10
10
10
10
10
10
10
10
10
10
10
10
10
10
10
10
10
10
10
10
10
10
10
10
10
10
10
10
10
10
10
10
10
10
10
10
10
10
10
10
10
10
10
10
10
10
10
10
10
10
10
10
10
10
10
10
10
10
10
10
10
10
10
10
10
10
10
10
10
10
10
10
10
10
10
10
10
10
10
10
10
10
10
10
10
10
10
10
10
10
10
10
10
10
10
10
10
10
10
10
10
10
10
10
10
10
10
10
10
10
10
10
10
10
10
10
10
10
10
10
10
10
10
10
10
10
10
10
10
10
10
10
10
10
10
10
10
10
10
10
10
10
10
10
10
10
10
10
10
10
10
10
10
10
10
10
10
10
10
10
10
10
10
10
10
10
10
10
10
10
10
10
10
10
10
10
10
10
10
10
10
10
10
10
10
10
10
10
10
10
10
10
10
10
10
10
10
10
10
10
10
10
10
10
10
10
10
10
10
10
10
10
10
10
10
10
10
10
10
10
10
10
10
10
10
10
10
10
10
10
10
10
10
10
10
10
10
10
10
10
10
10
10
10
10
10
10
10
10
10
10
10
10
10
10
10
10
10
10
10
10
10
10
10
10
10
10
10
10
10
10
10
10
10
10
10
10
10
10
10
10
10
10
10
10
10
10
10
10
10
10
10
10
10
10
10
10
10
10
10
10
10
10
10
10
10
10
10
10
10
10
10
10
10
10
10
10
10
10
10
10
10
10
10
10
10
10
10
10
10
10
10
10
10
10
10
10
10
10
10
10
10
10
10
10
10
10
10
10
10
10
10
10
10
10
10
10
10
10
10
10
10
10
10
10
10
10
10
10
10
10
10
10
10
10
10
10
10
10
10
10
10
10
10
10
10
10
10
10
10
10
10
10
10
10
10
10
10
10
10
10
10
10
10
10
10
10
10
10
10
10
10
10
10
10
10
10
10
10
10
10
10
10
10
10
10
10
10
10
10
10
10
10
10
10
10
10
10
10
10
10
10
10
10
10
10
10
10
10
10
10
10
10
10
10
10
10
10
10
10
10
10
10
10
10
10
10
10
10
10
10
10
10
10
10
10
10
10
10
10
10
10
10
10
10
10
10
10
10
10
10
10
10
10
10
10
10
10
10
10
10
10
10
10
10
10
10
10
10
10
10
10
10
10
10
10
10
10
10
10
10
10
10
10
10
10
10
10
10
10
10
10
10
10
10
10
10
10
10
10
10
10
10
10
10
10
10
10
10
10
10
10
10
10
10
10
10
10
10
10
10
10
10
10
10
10
10
10
10
10
10
10
10
10
10
10
10
10
10
10
10
10
10
10
10
10
10
10
10
10
10
10
10
10
10
10
10
10
10
10
10
10
10
10
10
10
10
10
10
10
10
10
10
10
10
10
10
10
10
10
10
10
10
10
10
10
10
10
10
10
10
10
10
10
10
10
10
10
10
10
10
10
10
10
10
10
10
10
10
10
10
10
10
10
10
10
10
10
10
10
10
10
10
10
10
10
10
10
10
10
10
10
10
10
10
10
10
10
10
10
10
10
10
10
10
10
10
10
10
10
10
10
10
10
10
10
10
10
10
10
10
10
10
10
10
10
10
10
10
10
10
10
10
10
10
10
10
10
10
10
10
10
10
10
10
10
10
10
10
10
10
10
10
10
10
10
10
10
10
10
10
10
10
10
10
10
10
10
10
10
10
10
10
10
10
10
10
10
10
10
10
10
10
10
10
10
10
10
10
10
10
10
10
10
10
10
10
10
10
10
10
10
10
10
10
10
10
10
10
10
10
10
10
10
10
10
10
10
10
10
10
10
10
10
10
10
10
10
10
10
10
10
10
10
10
10
10
10
10
10
10
10
10
10
10
10
10
10
10
10
10
10
10
10
10
10
10
10
10
10
10
10
10
10
10
10
10
10
10
10
10
10
10
10
10
10
10
10
10
10
10
10
10
10
10
10
10
10
10
10
10
10
10
10
10
10
10
10
10
10
10
10
10
10
10
10
10
10
10
10
10
10
10
10
10
10
10
10
10
10
10
10
10
10
10
10
10
10
10
10
10
10
10
10
10
10
10
10
10
10
10
10
10
10
10
10
10
10
10
10
10
10
10
10
10
10
10
10
10
10
10
10
10
10
10
10
10
10
10
10
10
10
10
10
10
10
10
10
10
10
10
10
10
10
10
10
10
10
10
10
10
10
10
10
10
10
10
10
10
10
10
10
10
10
10
10
10
10
10
10
10
10
10
10
10
10
10
10
10
10
10
10
10
10
10
10
10
10
10
10
10
10
10
10
10
10
10
10
10
10
10
10
10
10
10
10
10
10
10
10
10
10
10
10
10
10
10
10
10
10
10
10
10
10
10
10
10
10
10
10
10
10
10
10
10
10
10
10
10
10
10
10
10
10
10
10
10
10
10
10
10
10
10
10
10
10
10
10
10
10
10
10
10
10
10
10
10
10
10
10
10
10
10
10
10
10
10
10
10
10
10
10
10
10
10
10
10
10
10
10
10
10
10
10
10
10
10
10
10
10
10
10
10
10
10
10
10
10
10
10
10
10
10
10
10
10
10
10
10
10
10
10
10
10
10
10
10
10
10
10
10
10
10
10
10
10
10
10
10
10
10
10
10
10
10
10
10
10
10
10
10
10
10
10
10
10
10
10
10
10
10
10
10
10
10
10
10
10
10
10
10
10
10
10
10
10
10
10
10
10
10
10
10
10
10
10
10
10
10
10
10
10
10
10
10
10
10
10
10
10
10
10
10
10
10
10
10
10
10
10
10
10
10
10
10
10
10
10
10
10
10
10
10
10
10
10
10
10
10
10
10
10
10
10
10
10
10
10
10
10
10
10
10
10
10
10
10
10
10
10
10
10
10
10
10
10
10
10
10
10
10
10
10
10
10
10
10
10
10
10
              </DataArray>   
          </Cells>  
          <PointData>  
             <DataArray type="Float64" NumberOfComponents="3" Name="Strains" format="ascii">   
-0.0006263538703274119   0.0   -0.0004096035263897311
-0.0006263538703274119   0.0   -0.0004096035263897311
-0.0006263538703274119   0.0   -0.0004096035263897311
-0.0006263538703274119   0.0   -0.0004096035263897311
-0.00039870687354984214   6.958353287009821e-05   1.1558254628276743e-05
-0.00039870687354984214   6.958353287009821e-05   1.1558254628276743e-05
-0.00039870687354984214   6.958353287009821e-05   1.1558254628276743e-05
-0.00039870687354984214   6.958353287009821e-05   1.1558254628276743e-05
-0.0003909237333993573   0.0   -0.0003863908406664114
-0.0003909237333993573   0.0   -0.0003863908406664114
-0.0003909237333993573   0.0   -0.0003863908406664114
-0.0003909237333993573   0.0   -0.0003863908406664114
-0.0006556350915578966   8.34104905433784e-05   4.74846193846204e-06
-0.0006556350915578966   8.34104905433784e-05   4.74846193846204e-06
-0.0006556350915578966   8.34104905433784e-05   4.74846193846204e-06
-0.0006556350915578966   8.34104905433784e-05   4.74846193846204e-06
-0.0005086388018633837   1.9343904769433102e-05   -0.0002018054027546919
-0.0005086388018633837   1.9343904769433102e-05   -0.0002018054027546919
-0.0005086388018633837   1.9343904769433102e-05   -0.0002018054027546919
-0.0005086388018633837   1.9343904769433102e-05   -0.0002018054027546919
-0.0006556350915578977   0.0   -0.00043643713499243853
-0.0006556350915578977   0.0   -0.00043643713499243853
-0.0006556350915578977   0.0   -0.00043643713499243853
-0.0006556350915578977   0.0   -0.00043643713499243853
-0.0003909237333993573   8.341049054337861e-05   5.479475626448912e-05
-0.0003909237333993573   8.341049054337861e-05   5.479475626448912e-05
-0.0003909237333993573   8.341049054337861e-05   5.479475626448912e-05
-0.0003909237333993573   8.341049054337861e-05   5.479475626448912e-05
-0.0003921364938206023   0.0   -0.0003958780156387206
-0.0003921364938206023   0.0   -0.0003958780156387206
-0.0003921364938206023   0.0   -0.0003958780156387206
-0.0003921364938206023   0.0   -0.0003958780156387206
-0.0006762496365794317   8.933635447080218e-05   2.4042076276848713e-05
-0.0006762496365794317   8.933635447080218e-05   2.4042076276848713e-05
-0.0006762496365794317   8.933635447080218e-05   2.4042076276848713e-05
-0.0006762496365794317   8.933635447080218e-05   2.4042076276848713e-05
-0.0005238857926892491   3.379926612809823e-05   -0.00019657541053449962
-0.0005238857926892491   3.379926612809823e-05   -0.00019657541053449962
-0.0005238857926892491   3.379926612809823e-05   -0.00019657541053449962
-0.0005238857926892491   3.379926612809823e-05   -0.00019657541053449962
-0.0006762496365794329   0.0   -0.000449479828321202
-0.0006762496365794329   0.0   -0.000449479828321202
-0.0006762496365794329   0.0   -0.000449479828321202
-0.0006762496365794329   0.0   -0.000449479828321202
-0.0003921364938206023   8.93363544708024e-05   7.764388895933015e-05
-0.0003921364938206023   8.93363544708024e-05   7.764388895933015e-05
-0.0003921364938206023   8.93363544708024e-05   7.764388895933015e-05
-0.0003921364938206023   8.93363544708024e-05   7.764388895933015e-05
-0.0003920547017004862   0.0   -0.0003982984502367864
-0.0003920547017004862   0.0   -0.0003982984502367864
-0.0003920547017004862   0.0   -0.0003982984502367864
-0.0003920547017004862   0.0   -0.0003982984502367864
-0.0007205495985912284   0.0001016930549230362   8.817721162729711e-05
-0.0007205495985912284   0.0001016930549230362   8.817721162729711e-05
-0.0007205495985912284   0.0001016930549230362   8.817721162729711e-05
-0.0007205495985912284   0.0001016930549230362   8.817721162729711e-05
-0.0005341521691399586   4.265114840367964e-05   -0.00018706002687987144
-0.0005341521691399586   4.265114840367964e-05   -0.00018706002687987144
-0.0005341521691399586   4.265114840367964e-05   -0.00018706002687987144
-0.0005341521691399586   4.265114840367964e-05   -0.00018706002687987144
-0.0003987068735498428   0.0   -0.00036785340666767216
-0.0003987068735498428   0.0   -0.00036785340666767216
-0.0003987068735498428   0.0   -0.00036785340666767216
-0.0003987068735498428   0.0   -0.00036785340666767216
-0.0001814457281701459   2.5558230924427328e-05   9.583440853145513e-06
-0.0001814457281701459   2.5558230924427328e-05   9.583440853145513e-06
-0.0001814457281701459   2.5558230924427328e-05   9.583440853145513e-06
-0.0001814457281701459   2.5558230924427328e-05   9.583440853145513e-06
-0.00017461942366930273   0.0   -0.0003645972871053605
-0.00017461942366930273   0.0   -0.0003645972871053605
-0.00017461942366930273   0.0   -0.0003645972871053605
-0.00017461942366930273   0.0   -0.0003645972871053605
-0.0003909237333993573   3.6322589268418114e-05   -2.588365778298724e-05
-0.0003909237333993573   3.6322589268418114e-05   -2.588365778298724e-05
-0.0003909237333993573   3.6322589268418114e-05   -2.588365778298724e-05
-0.0003909237333993573   3.6322589268418114e-05   -2.588365778298724e-05
-0.0002866631486095723   2.713432968592998e-06   -0.00017948580531939912
-0.0002866631486095723   2.713432968592998e-06   -0.00017948580531939912
-0.0002866631486095723   2.713432968592998e-06   -0.00017948580531939912
-0.0002866631486095723   2.713432968592998e-06   -0.00017948580531939912
-0.000390923733399357   0.0   -0.00038639084066641107
-0.000390923733399357   0.0   -0.00038639084066641107
-0.000390923733399357   0.0   -0.00038639084066641107
-0.000390923733399357   0.0   -0.00038639084066641107
-0.00017461942366930273   3.6322589268418114e-05   -4.090104221936308e-06
-0.00017461942366930273   3.6322589268418114e-05   -4.090104221936308e-06
-0.00017461942366930273   3.6322589268418114e-05   -4.090104221936308e-06
-0.00017461942366930273   3.6322589268418114e-05   -4.090104221936308e-06
-0.00017083064315485147   0.0   -0.0003691967740703421
-0.00017083064315485147   0.0   -0.0003691967740703421
-0.00017083064315485147   0.0   -0.0003691967740703421
-0.00017083064315485147   0.0   -0.0003691967740703421
-0.0003921364938206023   4.446873594729755e-05   -2.703493119580254e-05
-0.0003921364938206023   4.446873594729755e-05   -2.703493119580254e-05
-0.0003921364938206023   4.446873594729755e-05   -2.703493119580254e-05
-0.0003921364938206023   4.446873594729755e-05   -2.703493119580254e-05
-0.00028087718827710383   1.4328388830057753e-05   -0.0001943828988312879
-0.00028087718827710383   1.4328388830057753e-05   -0.0001943828988312879
-0.00028087718827710383   1.4328388830057753e-05   -0.0001943828988312879
-0.00028087718827710383   1.4328388830057753e-05   -0.0001943828988312879
-0.0003921364938206023   0.0   -0.0003958780156387206
-0.0003921364938206023   0.0   -0.0003958780156387206
-0.0003921364938206023   0.0   -0.0003958780156387206
-0.0003921364938206023   0.0   -0.0003958780156387206
-0.00017083064315485147   4.446873594729755e-05   -3.5368962742398855e-07
-0.00017083064315485147   4.446873594729755e-05   -3.5368962742398855e-07
-0.00017083064315485147   4.446873594729755e-05   -3.5368962742398855e-07
-0.00017083064315485147   4.446873594729755e-05   -3.5368962742398855e-07
-0.0001673988804074713   0.0   -0.0003672674075613406
-0.0001673988804074713   0.0   -0.0003672674075613406
-0.0001673988804074713   0.0   -0.0003672674075613406
-0.0001673988804074713   0.0   -0.0003672674075613406
-0.0003920547017004852   5.171840445907568e-05   -2.3872081415094695e-05
-0.0003920547017004852   5.171840445907568e-05   -2.3872081415094695e-05
-0.0003920547017004852   5.171840445907568e-05   -2.3872081415094695e-05
-0.0003920547017004852   5.171840445907568e-05   -2.3872081415094695e-05
-0.0002797676871140367   2.3842173397816443e-05   -0.000194291367089088
-0.0002797676871140367   2.3842173397816443e-05   -0.000194291367089088
-0.0002797676871140367   2.3842173397816443e-05   -0.000194291367089088
-0.0002797676871140367   2.3842173397816443e-05   -0.000194291367089088
-0.00018144572817014622   0.0   -0.0003525184681130157
-0.00018144572817014622   0.0   -0.0003525184681130157
-0.00018144572817014622   0.0   -0.0003525184681130157
-0.00018144572817014622   0.0   -0.0003525184681130157
2.391949482651925e-05   -3.245989550091418e-06   -1.2190690181961086e-05
2.391949482651925e-05   -3.245989550091418e-06   -1.2190690181961086e-05
2.391949482651925e-05   -3.245989550091418e-06   -1.2190690181961086e-05
2.391949482651925e-05   -3.245989550091418e-06   -1.2190690181961086e-05
2.8225589856368273e-05   0.0   -0.00036074107921305775
2.8225589856368273e-05   0.0   -0.00036074107921305775
2.8225589856368273e-05   0.0   -0.00036074107921305775
2.8225589856368273e-05   0.0   -0.00036074107921305775
-0.00017461942366930243   6.427013153835807e-06   -2.6522264562575367e-05
-0.00017461942366930243   6.427013153835807e-06   -2.6522264562575367e-05
-0.00017461942366930243   6.427013153835807e-06   -2.6522264562575367e-05
-0.00017461942366930243   6.427013153835807e-06   -2.6522264562575367e-05
-7.661006915688866e-05   -6.852175916702708e-06   -0.00018190367530760782
-7.661006915688866e-05   -6.852175916702708e-06   -0.00018190367530760782
-7.661006915688866e-05   -6.852175916702708e-06   -0.00018190367530760782
-7.661006915688866e-05   -6.852175916702708e-06   -0.00018190367530760782
-0.00017461942366930273   0.0   -0.0003645972871053605
-0.00017461942366930273   0.0   -0.0003645972871053605
-0.00017461942366930273   0.0   -0.0003645972871053605
-0.00017461942366930273   0.0   -0.0003645972871053605
2.8225589856368324e-05   6.427013153835807e-06   -2.2666056670273857e-05
2.8225589856368324e-05   6.427013153835807e-06   -2.2666056670273857e-05
2.8225589856368324e-05   6.427013153835807e-06   -2.2666056670273857e-05
2.8225589856368324e-05   6.427013153835807e-06   -2.2666056670273857e-05
3.160965598557079e-05   0.0   -0.00036023345393968977
3.160965598557079e-05   0.0   -0.00036023345393968977
3.160965598557079e-05   0.0   -0.00036023345393968977
3.160965598557079e-05   0.0   -0.00036023345393968977
-0.00017083064315485087   1.493886688441943e-05   -3.1796275502971516e-05
-0.00017083064315485087   1.493886688441943e-05   -3.1796275502971516e-05
-0.00017083064315485087   1.493886688441943e-05   -3.1796275502971516e-05
-0.00017083064315485087   1.493886688441943e-05   -3.1796275502971516e-05
-7.150488384186582e-05   3.636527638058466e-06   -0.0001905578041434637
-7.150488384186582e-05   3.636527638058466e-06   -0.0001905578041434637
-7.150488384186582e-05   3.636527638058466e-06   -0.0001905578041434637
-7.150488384186582e-05   3.636527638058466e-06   -0.0001905578041434637
-0.00017083064315485147   0.0   -0.0003691967740703421
-0.00017083064315485147   0.0   -0.0003691967740703421
-0.00017083064315485147   0.0   -0.0003691967740703421
-0.00017083064315485147   0.0   -0.0003691967740703421
3.1609655985570844e-05   1.493886688441943e-05   -2.2832955372319912e-05
3.1609655985570844e-05   1.493886688441943e-05   -2.2832955372319912e-05
3.1609655985570844e-05   1.493886688441943e-05   -2.2832955372319912e-05
3.1609655985570844e-05   1.493886688441943e-05   -2.2832955372319912e-05
3.6199543346964274e-05   0.0   -0.000352384815517851
3.6199543346964274e-05   0.0   -0.000352384815517851
3.6199543346964274e-05   0.0   -0.000352384815517851
3.6199543346964274e-05   0.0   -0.000352384815517851
-0.00016739888040747086   2.4804320072482097e-05   -2.7936701303947964e-05
-0.00016739888040747086   2.4804320072482097e-05   -2.7936701303947964e-05
-0.00016739888040747086   2.4804320072482097e-05   -2.7936701303947964e-05
-0.00016739888040747086   2.4804320072482097e-05   -2.7936701303947964e-05
-6.731554990394345e-05   1.4009965460408662e-05   -0.00018826563937591654
-6.731554990394345e-05   1.4009965460408662e-05   -0.00018826563937591654
-6.731554990394345e-05   1.4009965460408662e-05   -0.00018826563937591654
-6.731554990394345e-05   1.4009965460408662e-05   -0.00018826563937591654
2.391949482651929e-05   0.0   -0.00035446606184307055
2.391949482651929e-05   0.0   -0.00035446606184307055
2.391949482651929e-05   0.0   -0.00035446606184307055
2.391949482651929e-05   0.0   -0.00035446606184307055
0.0002467465081860245   -2.8940264023329543e-05   -4.518646578927565e-07
0.0002467465081860245   -2.8940264023329543e-05   -4.518646578927565e-07
0.0002467465081860245   -2.8940264023329543e-05   -4.518646578927565e-07
0.0002467465081860245   -2.8940264023329543e-05   -4.518646578927565e-07
0.00024704295343300296   0.0   -0.0003738500087269074
0.00024704295343300296   0.0   -0.0003738500087269074
0.00024704295343300296   0.0   -0.0003738500087269074
0.00024704295343300296   0.0   -0.0003738500087269074
2.822558985636837e-05   -2.184821585641389e-05   3.9545267479985415e-06
2.822558985636837e-05   -2.184821585641389e-05   3.9545267479985415e-06
2.822558985636837e-05   -2.184821585641389e-05   3.9545267479985415e-06
2.822558985636837e-05   -2.184821585641389e-05   3.9545267479985415e-06
0.00013548122412976112   -1.6153289069864e-05   -0.0001782218197795858
0.00013548122412976112   -1.6153289069864e-05   -0.0001782218197795858
0.00013548122412976112   -1.6153289069864e-05   -0.0001782218197795858
0.00013548122412976112   -1.6153289069864e-05   -0.0001782218197795858
2.822558985636837e-05   0.0   -0.00036074107921305905
2.822558985636837e-05   0.0   -0.00036074107921305905
2.822558985636837e-05   0.0   -0.00036074107921305905
2.822558985636837e-05   0.0   -0.00036074107921305905
0.00024704295343300296   -2.184821585641389e-05   -9.154402765849793e-06
0.00024704295343300296   -2.184821585641389e-05   -9.154402765849793e-06
0.00024704295343300296   -2.184821585641389e-05   -9.154402765849793e-06
0.00024704295343300296   -2.184821585641389e-05   -9.154402765849793e-06
0.00024586226289424035   0.0   -0.00036851055221599055
0.00024586226289424035   0.0   -0.00036851055221599055
0.00024586226289424035   0.0   -0.00036851055221599055
0.00024586226289424035   0.0   -0.00036851055221599055
3.1609655985570844e-05   -1.3795163793833571e-05   -3.1457757585745704e-06
3.1609655985570844e-05   -1.3795163793833571e-05   -3.1457757585745704e-06
3.1609655985570844e-05   -1.3795163793833571e-05   -3.1457757585745704e-06
3.1609655985570844e-05   -1.3795163793833571e-05   -3.1457757585745704e-06
0.00013704392637530437   -6.474560835776277e-06   -0.00018326192151629802
0.00013704392637530437   -6.474560835776277e-06   -0.00018326192151629802
0.00013704392637530437   -6.474560835776277e-06   -0.00018326192151629802
0.00013704392637530437   -6.474560835776277e-06   -0.00018326192151629802
3.160965598557082e-05   0.0   -0.0003602334539396901
3.160965598557082e-05   0.0   -0.0003602334539396901
3.160965598557082e-05   0.0   -0.0003602334539396901
3.160965598557082e-05   0.0   -0.0003602334539396901
0.00024586226289424035   -1.3795163793833571e-05   -1.1422874034874722e-05
0.00024586226289424035   -1.3795163793833571e-05   -1.1422874034874722e-05
0.00024586226289424035   -1.3795163793833571e-05   -1.1422874034874722e-05
0.00024586226289424035   -1.3795163793833571e-05   -1.1422874034874722e-05
0.00025050603301954836   0.0   -0.0003541645273244263
0.00025050603301954836   0.0   -0.0003541645273244263
0.00025050603301954836   0.0   -0.0003541645273244263
0.00025050603301954836   0.0   -0.0003541645273244263
3.6199543346964335e-05   -2.9661863442912058e-06   4.792667269788378e-06
3.6199543346964335e-05   -2.9661863442912058e-06   4.792667269788378e-06
3.6199543346964335e-05   -2.9661863442912058e-06   4.792667269788378e-06
3.6199543346964335e-05   -2.9661863442912058e-06   4.792667269788378e-06
0.0001410578445025595   5.057438846053398e-06   -0.00017478534310374344
0.0001410578445025595   5.057438846053398e-06   -0.00017478534310374344
0.0001410578445025595   5.057438846053398e-06   -0.00017478534310374344
0.0001410578445025595   5.057438846053398e-06   -0.00017478534310374344
0.0002467465081860245   0.0   -0.0003718302202570683
0.0002467465081860245   0.0   -0.0003718302202570683
0.0002467465081860245   0.0   -0.0003718302202570683
0.0002467465081860245   0.0   -0.0003718302202570683
0.0005563130205882293   -7.32676972681665e-05   0.00010015334871904264
0.0005563130205882293   -7.32676972681665e-05   0.00010015334871904264
0.0005563130205882293   -7.32676972681665e-05   0.00010015334871904264
0.0005563130205882293   -7.32676972681665e-05   0.00010015334871904264
0.000522282850946636   0.0   -0.00041129859879147327
0.000522282850946636   0.0   -0.00041129859879147327
0.000522282850946636   0.0   -0.00041129859879147327
0.000522282850946636   0.0   -0.00041129859879147327
0.00024704295343300296   -6.241431677427652e-05   8.48831537958142e-05
0.00024704295343300296   -6.241431677427652e-05   8.48831537958142e-05
0.00024704295343300296   -6.241431677427652e-05   8.48831537958142e-05
0.00024704295343300296   -6.241431677427652e-05   8.48831537958142e-05
0.00038451467956633026   -3.2890315445337486e-05   -0.0001619507905570944
0.00038451467956633026   -3.2890315445337486e-05   -0.0001619507905570944
0.00038451467956633026   -3.2890315445337486e-05   -0.0001619507905570944
0.00038451467956633026   -3.2890315445337486e-05   -0.0001619507905570944
0.00024704295343300274   0.0   -0.00037385000872690706
0.00024704295343300274   0.0   -0.00037385000872690706
0.00024704295343300274   0.0   -0.00037385000872690706
0.00024704295343300274   0.0   -0.00037385000872690706
0.0005222828509466341   -6.241431677427619e-05   4.743456373124816e-05
0.0005222828509466341   -6.241431677427619e-05   4.743456373124816e-05
0.0005222828509466341   -6.241431677427619e-05   4.743456373124816e-05
0.0005222828509466341   -6.241431677427619e-05   4.743456373124816e-05
0.0005065347831648737   0.0   -0.0004027461314396622
0.0005065347831648737   0.0   -0.0004027461314396622
0.0005065347831648737   0.0   -0.0004027461314396622
0.0005065347831648737   0.0   -0.0004027461314396622
0.00024586226289424035   -5.705929870611945e-05   6.594364823506475e-05
0.00024586226289424035   -5.705929870611945e-05   6.594364823506475e-05
0.00024586226289424035   -5.705929870611945e-05   6.594364823506475e-05
0.00024586226289424035   -5.705929870611945e-05   6.594364823506475e-05
0.00037678886829893804   -2.4080102260629055e-05   -0.0001720548786400589
0.00037678886829893804   -2.4080102260629055e-05   -0.0001720548786400589
0.00037678886829893804   -2.4080102260629055e-05   -0.0001720548786400589
0.00037678886829893804   -2.4080102260629055e-05   -0.0001720548786400589
0.00024586226289424035   0.0   -0.00036851055221599055
0.00024586226289424035   0.0   -0.00036851055221599055
0.00024586226289424035   0.0   -0.00036851055221599055
0.00024586226289424035   0.0   -0.00036851055221599055
0.0005065347831648718   -5.705929870611923e-05   3.170806901139304e-05
0.0005065347831648718   -5.705929870611923e-05   3.170806901139304e-05
0.0005065347831648718   -5.705929870611923e-05   3.170806901139304e-05
0.0005065347831648718   -5.705929870611923e-05   3.170806901139304e-05
0.0004831760592700494   0.0   -0.00038082625406254966
0.0004831760592700494   0.0   -0.00038082625406254966
0.0004831760592700494   0.0   -0.00038082625406254966
0.0004831760592700494   0.0   -0.00038082625406254966
0.00025050603301954836   -4.443621123020663e-05   3.3618849759743435e-05
0.00025050603301954836   -4.443621123020663e-05   3.3618849759743435e-05
0.00025050603301954836   -4.443621123020663e-05   3.3618849759743435e-05
0.00025050603301954836   -4.443621123020663e-05   3.3618849759743435e-05
0.00036451916108214534   -1.0263084872133132e-05   -0.0001769069061594287
0.00036451916108214534   -1.0263084872133132e-05   -0.0001769069061594287
0.00036451916108214534   -1.0263084872133132e-05   -0.0001769069061594287
0.00036451916108214534   -1.0263084872133132e-05   -0.0001769069061594287
-0.0005445419352821671   6.95835328700981e-05   -0.0003563098281304678
-0.0005445419352821671   6.95835328700981e-05   -0.0003563098281304678
-0.0005445419352821671   6.95835328700981e-05   -0.0003563098281304678
-0.0005445419352821671   6.95835328700981e-05   -0.0003563098281304678
-0.0003486765703525526   6.264132761318137e-05   -3.4032876401926754e-05
-0.0003486765703525526   6.264132761318137e-05   -3.4032876401926754e-05
-0.0003486765703525526   6.264132761318137e-05   -3.4032876401926754e-05
-0.0003486765703525526   6.264132761318137e-05   -3.4032876401926754e-05
-0.0003575102912637874   8.34104905433784e-05   -0.0002991500136085847
-0.0003575102912637874   8.34104905433784e-05   -0.0002991500136085847
-0.0003575102912637874   8.34104905433784e-05   -0.0002991500136085847
-0.0003575102912637874   8.34104905433784e-05   -0.0002991500136085847
-0.0005505641402668862   7.512373115153327e-05   2.757845703168756e-05
-0.0005505641402668862   7.512373115153327e-05   2.757845703168756e-05
-0.0005505641402668862   7.512373115153327e-05   2.757845703168756e-05
-0.0005505641402668862   7.512373115153327e-05   2.757845703168756e-05
-0.00043249393258249245   7.265191077918077e-05   -0.00016772213021889288
-0.00043249393258249245   7.265191077918077e-05   -0.00016772213021889288
-0.00043249393258249245   7.265191077918077e-05   -0.00016772213021889288
-0.00043249393258249245   7.265191077918077e-05   -0.00016772213021889288
-0.0005505641402668862   8.34104905433784e-05   -0.0002941779579734777
-0.0005505641402668862   8.34104905433784e-05   -0.0002941779579734777
-0.0005505641402668862   8.34104905433784e-05   -0.0002941779579734777
-0.0005505641402668862   8.34104905433784e-05   -0.0002941779579734777
-0.00035751029126378865   7.51237311515337e-05   2.2606401396581006e-05
-0.00035751029126378865   7.51237311515337e-05   2.2606401396581006e-05
-0.00035751029126378865   7.51237311515337e-05   2.2606401396581006e-05
-0.00035751029126378865   7.51237311515337e-05   2.2606401396581006e-05
-0.00035942528475642663   8.933635447080218e-05   -0.00026888536992530237
-0.00035942528475642663   8.933635447080218e-05   -0.00026888536992530237
-0.00035942528475642663   8.933635447080218e-05   -0.00026888536992530237
-0.00035942528475642663   8.933635447080218e-05   -0.00026888536992530237
-0.0005545488644358659   8.075505737659269e-05   6.146937446362003e-05
-0.0005545488644358659   8.075505737659269e-05   6.146937446362003e-05
-0.0005545488644358659   8.075505737659269e-05   6.146937446362003e-05
-0.0005545488644358659   8.075505737659269e-05   6.146937446362003e-05
-0.00044529382021151213   8.050365615794547e-05   -0.00012047152517911269
-0.00044529382021151213   8.050365615794547e-05   -0.00012047152517911269
-0.00044529382021151213   8.050365615794547e-05   -0.00012047152517911269
-0.00044529382021151213   8.050365615794547e-05   -0.00012047152517911269
-0.0005545488644358649   8.933635447080218e-05   -0.00026373659166877646
-0.0005545488644358649   8.933635447080218e-05   -0.00026373659166877646
-0.0005545488644358649   8.933635447080218e-05   -0.00026373659166877646
-0.0005545488644358649   8.933635447080218e-05   -0.00026373659166877646
-0.00035942528475642723   8.075505737659269e-05   5.632059620709422e-05
-0.00035942528475642723   8.075505737659269e-05   5.632059620709422e-05
-0.00035942528475642723   8.075505737659269e-05   5.632059620709422e-05
-0.00035942528475642723   8.075505737659269e-05   5.632059620709422e-05
-0.0003574548131026883   0.00010169305492303599   -0.00019846816214690835
-0.0003574548131026883   0.00010169305492303599   -0.00019846816214690835
-0.0003574548131026883   0.00010169305492303599   -0.00019846816214690835
-0.0003574548131026883   0.00010169305492303599   -0.00019846816214690835
-0.000539331938612088   8.520067173313885e-05   0.0001145558102826948
-0.000539331938612088   8.520067173313885e-05   0.0001145558102826948
-0.000539331938612088   8.520067173313885e-05   0.0001145558102826948
-0.000539331938612088   8.520067173313885e-05   0.0001145558102826948
-0.000433810961703321   8.826373744859708e-05   -6.315032399452532e-05
-0.000433810961703321   8.826373744859708e-05   -6.315032399452532e-05
-0.000433810961703321   8.826373744859708e-05   -6.315032399452532e-05
-0.000433810961703321   8.826373744859708e-05   -6.315032399452532e-05
-0.0003486765703525526   2.555823092442722e-05   -0.0003777849036144053
-0.0003486765703525526   2.555823092442722e-05   -0.0003777849036144053
-0.0003486765703525526   2.555823092442722e-05   -0.0003777849036144053
-0.0003486765703525526   2.555823092442722e-05   -0.0003777849036144053
-0.00016504766778570806   2.9145901781210638e-05   -6.958413015559374e-05
-0.00016504766778570806   2.9145901781210638e-05   -6.958413015559374e-05
-0.00016504766778570806   2.9145901781210638e-05   -6.958413015559374e-05
-0.00016504766778570806   2.9145901781210638e-05   -6.958413015559374e-05
-0.00016905581200521544   3.6322589268418005e-05   -0.0003772465634115957
-0.00016905581200521544   3.6322589268418005e-05   -0.0003772465634115957
-0.00016905581200521544   3.6322589268418005e-05   -0.0003772465634115957
-0.00016905581200521544   3.6322589268418005e-05   -0.0003772465634115957
-0.0003575102912637874   4.0625696342526905e-05   -6.573762889177347e-05
-0.0003575102912637874   4.0625696342526905e-05   -6.573762889177347e-05
-0.0003575102912637874   4.0625696342526905e-05   -6.573762889177347e-05
-0.0003575102912637874   4.0625696342526905e-05   -6.573762889177347e-05
-0.00025934460900370543   3.271796533437779e-05   -0.00022460246072035592
-0.00025934460900370543   3.271796533437779e-05   -0.00022460246072035592
-0.00025934460900370543   3.271796533437779e-05   -0.00022460246072035592
-0.00025934460900370543   3.271796533437779e-05   -0.00022460246072035592
-0.0003575102912637871   3.6322589268418005e-05   -0.0003798284276560603
-0.0003575102912637871   3.6322589268418005e-05   -0.0003798284276560603
-0.0003575102912637871   3.6322589268418005e-05   -0.0003798284276560603
-0.0003575102912637871   3.6322589268418005e-05   -0.0003798284276560603
-0.0001690558120052157   4.0625696342526905e-05   -6.315576464730827e-05
-0.0001690558120052157   4.0625696342526905e-05   -6.315576464730827e-05
-0.0001690558120052157   4.0625696342526905e-05   -6.315576464730827e-05
-0.0001690558120052157   4.0625696342526905e-05   -6.315576464730827e-05
-0.0001703665263273946   4.4468735947297334e-05   -0.0003701731414750488
-0.0001703665263273946   4.4468735947297334e-05   -0.0003701731414750488
-0.0001703665263273946   4.4468735947297334e-05   -0.0003701731414750488
-0.0001703665263273946   4.4468735947297334e-05   -0.0003701731414750488
-0.00035942528475642663   5.012048362294059e-05   -5.8466259365381676e-05
-0.00035942528475642663   5.012048362294059e-05   -5.8466259365381676e-05
-0.00035942528475642663   5.012048362294059e-05   -5.8466259365381676e-05
-0.00035942528475642663   5.012048362294059e-05   -5.8466259365381676e-05
-0.0002614376383277432   4.1495149792456984e-05   -0.0002166038031148963
-0.0002614376383277432   4.1495149792456984e-05   -0.0002166038031148963
-0.0002614376383277432   4.1495149792456984e-05   -0.0002166038031148963
-0.0002614376383277432   4.1495149792456984e-05   -0.0002166038031148963
-0.00035942528475642663   4.4468735947297334e-05   -0.0003735641900804348
-0.00035942528475642663   4.4468735947297334e-05   -0.0003735641900804348
-0.00035942528475642663   4.4468735947297334e-05   -0.0003735641900804348
-0.00035942528475642663   4.4468735947297334e-05   -0.0003735641900804348
-0.0001703665263273952   5.012048362294081e-05   -5.5075210759996014e-05
-0.0001703665263273952   5.012048362294081e-05   -5.5075210759996014e-05
-0.0001703665263273952   5.012048362294081e-05   -5.5075210759996014e-05
-0.0001703665263273952   5.012048362294081e-05   -5.5075210759996014e-05
-0.0001700204269323661   5.171840445907568e-05   -0.00036636619896755437
-0.0001700204269323661   5.171840445907568e-05   -0.00036636619896755437
-0.0001700204269323661   5.171840445907568e-05   -0.00036636619896755437
-0.0001700204269323661   5.171840445907568e-05   -0.00036636619896755437
-0.000357454813102688   6.0330219751687265e-05   -5.914264452591862e-05
-0.000357454813102688   6.0330219751687265e-05   -5.914264452591862e-05
-0.000357454813102688   6.0330219751687265e-05   -5.914264452591862e-05
-0.000357454813102688   6.0330219751687265e-05   -5.914264452591862e-05
-0.0002630478705307647   4.943915914827537e-05   -0.00020995291245041136
-0.0002630478705307647   4.943915914827537e-05   -0.00020995291245041136
-0.0002630478705307647   4.943915914827537e-05   -0.00020995291245041136
-0.0002630478705307647   4.943915914827537e-05   -0.00020995291245041136
-0.00016504766778570776   -3.2459895500913096e-06   -0.000395458838405387
-0.00016504766778570776   -3.2459895500913096e-06   -0.000395458838405387
-0.00016504766778570776   -3.2459895500913096e-06   -0.000395458838405387
-0.00016504766778570776   -3.2459895500913096e-06   -0.000395458838405387
1.6275993778927608e-05   -8.506721857477577e-07   -9.18155453790551e-05
1.6275993778927608e-05   -8.506721857477577e-07   -9.18155453790551e-05
1.6275993778927608e-05   -8.506721857477577e-07   -9.18155453790551e-05
1.6275993778927608e-05   -8.506721857477577e-07   -9.18155453790551e-05
1.5463579183990848e-05   6.427013153835807e-06   -0.00039770117707555277
1.5463579183990848e-05   6.427013153835807e-06   -0.00039770117707555277
1.5463579183990848e-05   6.427013153835807e-06   -0.00039770117707555277
1.5463579183990848e-05   6.427013153835807e-06   -0.00039770117707555277
-0.00016905581200521544   9.722924281639926e-06   -9.214640510355669e-05
-0.00016905581200521544   9.722924281639926e-06   -9.214640510355669e-05
-0.00016905581200521544   9.722924281639926e-06   -9.214640510355669e-05
-0.00016905581200521544   9.722924281639926e-06   -9.214640510355669e-05
-7.605214903635568e-05   3.222187175337503e-06   -0.00024325206778787596
-7.605214903635568e-05   3.222187175337503e-06   -0.00024325206778787596
-7.605214903635568e-05   3.222187175337503e-06   -0.00024325206778787596
-7.605214903635568e-05   3.222187175337503e-06   -0.00024325206778787596
-0.00016905581200521544   6.427013153835807e-06   -0.0003996787237522348
-0.00016905581200521544   6.427013153835807e-06   -0.0003996787237522348
-0.00016905581200521544   6.427013153835807e-06   -0.0003996787237522348
-0.00016905581200521544   6.427013153835807e-06   -0.0003996787237522348
1.5463579183990848e-05   9.722924281639926e-06   -9.016885842687446e-05
1.5463579183990848e-05   9.722924281639926e-06   -9.016885842687446e-05
1.5463579183990848e-05   9.722924281639926e-06   -9.016885842687446e-05
1.5463579183990848e-05   9.722924281639926e-06   -9.016885842687446e-05
1.4375903031678843e-05   1.493886688441943e-05   -0.0003985479211137303
1.4375903031678843e-05   1.493886688441943e-05   -0.0003985479211137303
1.4375903031678843e-05   1.493886688441943e-05   -0.0003985479211137303
1.4375903031678843e-05   1.493886688441943e-05   -0.0003985479211137303
-0.0001703665263273946   2.0051877279196e-05   -9.371167841880747e-05
-0.0001703665263273946   2.0051877279196e-05   -9.371167841880747e-05
-0.0001703665263273946   2.0051877279196e-05   -9.371167841880747e-05
-0.0001703665263273946   2.0051877279196e-05   -9.371167841880747e-05
-7.754231167939269e-05   1.2187378864060659e-05   -0.00024370000378306199
-7.754231167939269e-05   1.2187378864060659e-05   -0.00024370000378306199
-7.754231167939269e-05   1.2187378864060659e-05   -0.00024370000378306199
-7.754231167939269e-05   1.2187378864060659e-05   -0.00024370000378306199
-0.0001703665263273946   1.493886688441943e-05   -0.0004016157273505963
-0.0001703665263273946   1.493886688441943e-05   -0.0004016157273505963
-0.0001703665263273946   1.493886688441943e-05   -0.0004016157273505963
-0.0001703665263273946   1.493886688441943e-05   -0.0004016157273505963
1.4375903031678863e-05   2.0051877279196216e-05   -9.064387218194164e-05
1.4375903031678863e-05   2.0051877279196216e-05   -9.064387218194164e-05
1.4375903031678863e-05   2.0051877279196216e-05   -9.064387218194164e-05
1.4375903031678863e-05   2.0051877279196216e-05   -9.064387218194164e-05
1.226245461644527e-05   2.480432007248199e-05   -0.00039785468281545186
1.226245461644527e-05   2.480432007248199e-05   -0.00039785468281545186
1.226245461644527e-05   2.480432007248199e-05   -0.00039785468281545186
1.226245461644527e-05   2.480432007248199e-05   -0.00039785468281545186
-0.00017002042693236625   3.081628459981824e-05   -9.765705895050129e-05
-0.00017002042693236625   3.081628459981824e-05   -9.765705895050129e-05
-0.00017002042693236625   3.081628459981824e-05   -9.765705895050129e-05
-0.00017002042693236625   3.081628459981824e-05   -9.765705895050129e-05
-7.847297354846793e-05   2.1397290849385847e-05   -0.0002445847516734054
-7.847297354846793e-05   2.1397290849385847e-05   -0.0002445847516734054
-7.847297354846793e-05   2.1397290849385847e-05   -0.0002445847516734054
-7.847297354846793e-05   2.1397290849385847e-05   -0.0002445847516734054
1.6275993778927608e-05   -2.8940264023329543e-05   -0.0003649186640487147
1.6275993778927608e-05   -2.8940264023329543e-05   -0.0003649186640487147
1.6275993778927608e-05   -2.8940264023329543e-05   -0.0003649186640487147
1.6275993778927608e-05   -2.8940264023329543e-05   -0.0003649186640487147
0.00020313590477055948   -2.9758925520896422e-05   -5.397667596120158e-05
0.00020313590477055948   -2.9758925520896422e-05   -5.397667596120158e-05
0.00020313590477055948   -2.9758925520896422e-05   -5.397667596120158e-05
0.00020313590477055948   -2.9758925520896422e-05   -5.397667596120158e-05
0.00020472080819067018   -2.1848215856413783e-05   -0.00037006989667184
0.00020472080819067018   -2.1848215856413783e-05   -0.00037006989667184
0.00020472080819067018   -2.1848215856413783e-05   -0.00037006989667184
0.00020472080819067018   -2.1848215856413783e-05   -0.00037006989667184
1.5463579183990848e-05   -2.0163720880682096e-05   -5.565187864614632e-05
1.5463579183990848e-05   -2.0163720880682096e-05   -5.565187864614632e-05
1.5463579183990848e-05   -2.0163720880682096e-05   -5.565187864614632e-05
1.5463579183990848e-05   -2.0163720880682096e-05   -5.565187864614632e-05
0.00010849357609336375   -2.411797576071218e-05   -0.00020832932056708366
0.00010849357609336375   -2.411797576071218e-05   -0.00020832932056708366
0.00010849357609336375   -2.411797576071218e-05   -0.00020832932056708366
0.00010849357609336375   -2.411797576071218e-05   -0.00020832932056708366
1.5463579183990824e-05   -2.184821585641389e-05   -0.00037108059365727994
1.5463579183990824e-05   -2.184821585641389e-05   -0.00037108059365727994
1.5463579183990824e-05   -2.184821585641389e-05   -0.00037108059365727994
1.5463579183990824e-05   -2.184821585641389e-05   -0.00037108059365727994
0.0002047208081906705   -2.016372088068188e-05   -5.46411816607069e-05
0.0002047208081906705   -2.016372088068188e-05   -5.46411816607069e-05
0.0002047208081906705   -2.016372088068188e-05   -5.46411816607069e-05
0.0002047208081906705   -2.016372088068188e-05   -5.46411816607069e-05
0.0002036245968782181   -1.3795163793833571e-05   -0.0003770380056992172
0.0002036245968782181   -1.3795163793833571e-05   -0.0003770380056992172
0.0002036245968782181   -1.3795163793833571e-05   -0.0003770380056992172
0.0002036245968782181   -1.3795163793833571e-05   -0.0003770380056992172
1.4375903031678843e-05   -1.0757270792554957e-05   -6.344625175575272e-05
1.4375903031678843e-05   -1.0757270792554957e-05   -6.344625175575272e-05
1.4375903031678843e-05   -1.0757270792554957e-05   -6.344625175575272e-05
1.4375903031678843e-05   -1.0757270792554957e-05   -6.344625175575272e-05
0.00010726170969712212   -1.6446260043453606e-05   -0.00021484253598095187
0.00010726170969712212   -1.6446260043453606e-05   -0.00021484253598095187
0.00010726170969712212   -1.6446260043453606e-05   -0.00021484253598095187
0.00010726170969712212   -1.6446260043453606e-05   -0.00021484253598095187
1.437590303167883e-05   -1.3795163793833571e-05   -0.0003788607414999843
1.437590303167883e-05   -1.3795163793833571e-05   -0.0003788607414999843
1.437590303167883e-05   -1.3795163793833571e-05   -0.0003788607414999843
1.437590303167883e-05   -1.3795163793833571e-05   -0.0003788607414999843
0.00020362459687821885   -1.0757270792555174e-05   -6.162351595498557e-05
0.00020362459687821885   -1.0757270792555174e-05   -6.162351595498557e-05
0.00020362459687821885   -1.0757270792555174e-05   -6.162351595498557e-05
0.00020362459687821885   -1.0757270792555174e-05   -6.162351595498557e-05
0.00019760735544312435   -2.9661863442910974e-06   -0.00037769618563486833
0.00019760735544312435   -2.9661863442910974e-06   -0.00037769618563486833
0.00019760735544312435   -2.9661863442910974e-06   -0.00037769618563486833
0.00019760735544312435   -2.9661863442910974e-06   -0.00037769618563486833
1.226245461644527e-05   8.866814062682884e-07   -7.109973824073926e-05
1.226245461644527e-05   8.866814062682884e-07   -7.109973824073926e-05
1.226245461644527e-05   8.866814062682884e-07   -7.109973824073926e-05
1.226245461644527e-05   8.866814062682884e-07   -7.109973824073926e-05
0.00010601857061935903   -7.485049020236004e-06   -0.00022233689332302594
0.00010601857061935903   -7.485049020236004e-06   -0.00022233689332302594
0.00010601857061935903   -7.485049020236004e-06   -0.00022233689332302594
0.00010601857061935903   -7.485049020236004e-06   -0.00022233689332302594
0.00020313590477055948   -7.32676972681665e-05   -0.00022084402920941965
0.00020313590477055948   -7.32676972681665e-05   -0.00022084402920941965
0.00020313590477055948   -7.32676972681665e-05   -0.00022084402920941965
0.00020313590477055948   -7.32676972681665e-05   -0.00022084402920941965
0.0003876991786211281   -5.537023301214919e-05   9.749990576180478e-05
0.0003876991786211281   -5.537023301214919e-05   9.749990576180478e-05
0.0003876991786211281   -5.537023301214919e-05   9.749990576180478e-05
0.0003876991786211281   -5.537023301214919e-05   9.749990576180478e-05
0.00040224629102554306   -6.24143167742763e-05   -0.0002687577552075753
0.00040224629102554306   -6.24143167742763e-05   -0.0002687577552075753
0.00040224629102554306   -6.24143167742763e-05   -0.0002687577552075753
0.00040224629102554306   -6.24143167742763e-05   -0.0002687577552075753
0.00020472080819067089   -5.029000860327275e-05   5.317679794794388e-05
0.00020472080819067089   -5.029000860327275e-05   5.317679794794388e-05
0.00020472080819067089   -5.029000860327275e-05   5.317679794794388e-05
0.00020472080819067089   -5.029000860327275e-05   5.317679794794388e-05
0.00028552779045376456   -6.00932580077766e-05   -7.561955618117725e-05
0.00028552779045376456   -6.00932580077766e-05   -7.561955618117725e-05
0.00028552779045376456   -6.00932580077766e-05   -7.561955618117725e-05
0.00028552779045376456   -6.00932580077766e-05   -7.561955618117725e-05
0.00020472080819067034   -6.241431677427619e-05   -0.00027603234011017624
0.00020472080819067034   -6.241431677427619e-05   -0.00027603234011017624
0.00020472080819067034   -6.241431677427619e-05   -0.00027603234011017624
0.00020472080819067034   -6.241431677427619e-05   -0.00027603234011017624
0.00040224629102554306   -5.029000860327275e-05   6.0451382850545965e-05
0.00040224629102554306   -5.029000860327275e-05   6.0451382850545965e-05
0.00040224629102554306   -5.029000860327275e-05   6.0451382850545965e-05
0.00040224629102554306   -5.029000860327275e-05   6.0451382850545965e-05
0.00040060636874203123   -5.705929870611945e-05   -0.00029236104870927814
0.00040060636874203123   -5.705929870611945e-05   -0.00029236104870927814
0.00040060636874203123   -5.705929870611945e-05   -0.00029236104870927814
0.00040060636874203123   -5.705929870611945e-05   -0.00029236104870927814
0.00020362459687821885   -4.487524083945124e-05   2.863146967707435e-05
0.00020362459687821885   -4.487524083945124e-05   2.863146967707435e-05
0.00020362459687821885   -4.487524083945124e-05   2.863146967707435e-05
0.00020362459687821885   -4.487524083945124e-05   2.863146967707435e-05
0.00029537989984485083   -5.311159651305965e-05   -0.00011935222186314719
0.00029537989984485083   -5.311159651305965e-05   -0.00011935222186314719
0.00029537989984485083   -5.311159651305965e-05   -0.00011935222186314719
0.00029537989984485083   -5.311159651305965e-05   -0.00011935222186314719
0.00020362459687821847   -5.705929870611923e-05   -0.00029967148342927865
0.00020362459687821847   -5.705929870611923e-05   -0.00029967148342927865
0.00020362459687821847   -5.705929870611923e-05   -0.00029967148342927865
0.00020362459687821847   -5.705929870611923e-05   -0.00029967148342927865
0.00040060636874203123   -4.487524083945124e-05   3.5941904397075296e-05
0.00040060636874203123   -4.487524083945124e-05   3.5941904397075296e-05
0.00040060636874203123   -4.487524083945124e-05   3.5941904397075296e-05
0.00040060636874203123   -4.487524083945124e-05   3.5941904397075296e-05
0.0003980278482835999   -4.443621123020663e-05   -0.0003403591054135694
0.0003980278482835999   -4.443621123020663e-05   -0.0003403591054135694
0.0003980278482835999   -4.443621123020663e-05   -0.0003403591054135694
0.0003980278482835999   -4.443621123020663e-05   -0.0003403591054135694
0.00019760735544312505   -3.321756802225563e-05   -1.3056136604215683e-05
0.00019760735544312505   -3.321756802225563e-05   -1.3056136604215683e-05
0.00019760735544312505   -3.321756802225563e-05   -1.3056136604215683e-05
0.00019760735544312505   -3.321756802225563e-05   -1.3056136604215683e-05
0.0002868249755708437   -4.5761753816000355e-05   -0.00015422565867416623
0.0002868249755708437   -4.5761753816000355e-05   -0.00015422565867416623
0.0002868249755708437   -4.5761753816000355e-05   -0.00015422565867416623
0.0002868249755708437   -4.5761753816000355e-05   -0.00015422565867416623
-0.00043467436182905925   6.264132761318137e-05   -0.0002993562112225377
-0.00043467436182905925   6.264132761318137e-05   -0.0002993562112225377
-0.00043467436182905925   6.264132761318137e-05   -0.0002993562112225377
-0.00043467436182905925   6.264132761318137e-05   -0.0002993562112225377
-0.0002847520432034833   4.794205359461056e-05   -5.830524459105339e-05
-0.0002847520432034833   4.794205359461056e-05   -5.830524459105339e-05
-0.0002847520432034833   4.794205359461056e-05   -5.830524459105339e-05
-0.0002847520432034833   4.794205359461056e-05   -5.830524459105339e-05
-0.0002861664858190148   7.512373115153327e-05   -0.0002485160015631748
-0.0002861664858190148   7.512373115153327e-05   -0.0002485160015631748
-0.0002861664858190148   7.512373115153327e-05   -0.0002485160015631748
-0.0002861664858190148   7.512373115153327e-05   -0.0002485160015631748
-0.00042819865993512203   5.795403314236324e-05   -1.493892564160583e-06
-0.00042819865993512203   5.795403314236324e-05   -1.493892564160583e-06
-0.00042819865993512203   5.795403314236324e-05   -1.493892564160583e-06
-0.00042819865993512203   5.795403314236324e-05   -1.493892564160583e-06
-0.00034329400109680994   6.367597430063845e-05   -0.0001464348219896469
-0.00034329400109680994   6.367597430063845e-05   -0.0001464348219896469
-0.00034329400109680994   6.367597430063845e-05   -0.0001464348219896469
-0.00034329400109680994   6.367597430063845e-05   -0.0001464348219896469
-0.00042819865993512203   7.512373115153327e-05   -0.00023821418275767276
-0.00042819865993512203   7.512373115153327e-05   -0.00023821418275767276
-0.00042819865993512203   7.512373115153327e-05   -0.00023821418275767276
-0.00042819865993512203   7.512373115153327e-05   -0.00023821418275767276
-0.0002861664858190148   5.795403314236324e-05   -1.1795711369661736e-05
-0.0002861664858190148   5.795403314236324e-05   -1.1795711369661736e-05
-0.0002861664858190148   5.795403314236324e-05   -1.1795711369661736e-05
-0.0002861664858190148   5.795403314236324e-05   -1.1795711369661736e-05
-0.0002859168554598526   8.075505737659269e-05   -0.00021257882803881953
-0.0002859168554598526   8.075505737659269e-05   -0.00021257882803881953
-0.0002859168554598526   8.075505737659269e-05   -0.00021257882803881953
-0.0002859168554598526   8.075505737659269e-05   -0.00021257882803881953
-0.0004218654188119866   6.234557075628219e-05   2.5047802853588996e-05
-0.0004218654188119866   6.234557075628219e-05   2.5047802853588996e-05
-0.0004218654188119866   6.234557075628219e-05   2.5047802853588996e-05
-0.0004218654188119866   6.234557075628219e-05   2.5047802853588996e-05
-0.00034632200005917254   6.948064086778963e-05   -0.00010513893713466854
-0.00034632200005917254   6.948064086778963e-05   -0.00010513893713466854
-0.00034632200005917254   6.948064086778963e-05   -0.00010513893713466854
-0.00034632200005917254   6.948064086778963e-05   -0.00010513893713466854
-0.0004218654188119866   8.075505737659269e-05   -0.0002015331360666335
-0.0004218654188119866   8.075505737659269e-05   -0.0002015331360666335
-0.0004218654188119866   8.075505737659269e-05   -0.0002015331360666335
-0.0004218654188119866   8.075505737659269e-05   -0.0002015331360666335
-0.000285916855459853   6.234557075628262e-05   1.4002110881404907e-05
-0.000285916855459853   6.234557075628262e-05   1.4002110881404907e-05
-0.000285916855459853   6.234557075628262e-05   1.4002110881404907e-05
-0.000285916855459853   6.234557075628262e-05   1.4002110881404907e-05
-0.00028623797090994354   8.520067173313885e-05   -0.00016219511598504748
-0.00028623797090994354   8.520067173313885e-05   -0.00016219511598504748
-0.00028623797090994354   8.520067173313885e-05   -0.00016219511598504748
-0.00028623797090994354   8.520067173313885e-05   -0.00016219511598504748
-0.00041356558082475316   6.664417616545791e-05   6.115146454690763e-05
-0.00041356558082475316   6.664417616545791e-05   6.115146454690763e-05
-0.00041356558082475316   6.664417616545791e-05   6.115146454690763e-05
-0.00041356558082475316   6.664417616545791e-05   6.115146454690763e-05
-0.00033848404488002847   7.251607578692048e-05   -6.750756846717293e-05
-0.00033848404488002847   7.251607578692048e-05   -6.750756846717293e-05
-0.00033848404488002847   7.251607578692048e-05   -6.750756846717293e-05
-0.00033848404488002847   7.251607578692048e-05   -6.750756846717293e-05
-0.0002847520432034833   2.9145901781210638e-05   -0.00034587963190141715
-0.0002847520432034833   2.9145901781210638e-05   -0.00034587963190141715
-0.0002847520432034833   2.9145901781210638e-05   -0.00034587963190141715
-0.0002847520432034833   2.9145901781210638e-05   -0.00034587963190141715
-0.00014469303097561502   2.3876006768684503e-05   -0.00011560988186248567
-0.00014469303097561502   2.3876006768684503e-05   -0.00011560988186248567
-0.00014469303097561502   2.3876006768684503e-05   -0.00011560988186248567
-0.00014469303097561502   2.3876006768684503e-05   -0.00011560988186248567
-0.00014648203172731253   4.0625696342526905e-05   -0.00034100557928904915
-0.00014648203172731253   4.0625696342526905e-05   -0.00034100557928904915
-0.00014648203172731253   4.0625696342526905e-05   -0.00034100557928904915
-0.00014648203172731253   4.0625696342526905e-05   -0.00034100557928904915
-0.0002861664858190144   3.371645061332664e-05   -0.0001040526083653584
-0.0002861664858190144   3.371645061332664e-05   -0.0001040526083653584
-0.0002861664858190144   3.371645061332664e-05   -0.0001040526083653584
-0.0002861664858190144   3.371645061332664e-05   -0.0001040526083653584
-0.00021368266694435535   3.357425812483463e-05   -0.00022477365766336273
-0.00021368266694435535   3.357425812483463e-05   -0.00022477365766336273
-0.00021368266694435535   3.357425812483463e-05   -0.00022477365766336273
-0.00021368266694435535   3.357425812483463e-05   -0.00022477365766336273
-0.0002861664858190146   4.0625696342526905e-05   -0.00033686003185152817
-0.0002861664858190146   4.0625696342526905e-05   -0.00033686003185152817
-0.0002861664858190146   4.0625696342526905e-05   -0.00033686003185152817
-0.0002861664858190146   4.0625696342526905e-05   -0.00033686003185152817
-0.0001464820317273128   3.371645061332664e-05   -0.00010819815580287797
-0.0001464820317273128   3.371645061332664e-05   -0.00010819815580287797
-0.0001464820317273128   3.371645061332664e-05   -0.00010819815580287797
-0.0001464820317273128   3.371645061332664e-05   -0.00010819815580287797
-0.00014765305996580958   5.012048362294059e-05   -0.0003319681956995761
-0.00014765305996580958   5.012048362294059e-05   -0.0003319681956995761
-0.00014765305996580958   5.012048362294059e-05   -0.0003319681956995761
-0.00014765305996580958   5.012048362294059e-05   -0.0003319681956995761
-0.0002859168554598526   4.2449630142472015e-05   -9.69260244545586e-05
-0.0002859168554598526   4.2449630142472015e-05   -9.69260244545586e-05
-0.0002859168554598526   4.2449630142472015e-05   -9.69260244545586e-05
-0.0002859168554598526   4.2449630142472015e-05   -9.69260244545586e-05
-0.00021410686283933396   4.166375885081156e-05   -0.0002161378227137562
-0.00021410686283933396   4.166375885081156e-05   -0.0002161378227137562
-0.00021410686283933396   4.166375885081156e-05   -0.0002161378227137562
-0.00021410686283933396   4.166375885081156e-05   -0.0002161378227137562
-0.0002859168554598526   5.012048362294081e-05   -0.00032736568361129564
-0.0002859168554598526   5.012048362294081e-05   -0.00032736568361129564
-0.0002859168554598526   5.012048362294081e-05   -0.00032736568361129564
-0.0002859168554598526   5.012048362294081e-05   -0.00032736568361129564
-0.00014765305996581002   4.2449630142472015e-05   -0.0001015285365428384
-0.00014765305996581002   4.2449630142472015e-05   -0.0001015285365428384
-0.00014765305996581002   4.2449630142472015e-05   -0.0001015285365428384
-0.00014765305996581002   4.2449630142472015e-05   -0.0001015285365428384
-0.00014915663483936202   6.033021975168748e-05   -0.00033115840315673956
-0.00014915663483936202   6.033021975168748e-05   -0.00033115840315673956
-0.00014915663483936202   6.033021975168748e-05   -0.00033115840315673956
-0.00014915663483936202   6.033021975168748e-05   -0.00033115840315673956
-0.0002862379709099433   5.172978262332631e-05   -9.752924742875333e-05
-0.0002862379709099433   5.172978262332631e-05   -9.752924742875333e-05
-0.0002862379709099433   5.172978262332631e-05   -9.752924742875333e-05
-0.0002862379709099433   5.172978262332631e-05   -9.752924742875333e-05
-0.00021667394596532996   4.9668087665342975e-05   -0.0002122322720283169
-0.00021667394596532996   4.9668087665342975e-05   -0.0002122322720283169
-0.00021667394596532996   4.9668087665342975e-05   -0.0002122322720283169
-0.00021667394596532996   4.9668087665342975e-05   -0.0002122322720283169
-0.00014469303097561475   -8.506721857475408e-07   -0.00037271017455100066
-0.00014469303097561475   -8.506721857475408e-07   -0.00037271017455100066
-0.00014469303097561475   -8.506721857475408e-07   -0.00037271017455100066
-0.00014469303097561475   -8.506721857475408e-07   -0.00037271017455100066
-6.234693994606216e-06   1.2653991006876877e-06   -0.00014067663681079177
-6.234693994606216e-06   1.2653991006876877e-06   -0.00014067663681079177
-6.234693994606216e-06   1.2653991006876877e-06   -0.00014067663681079177
-6.234693994606216e-06   1.2653991006876877e-06   -0.00014067663681079177
-7.674122012926443e-06   9.722924281639709e-06   -0.00036926391312988496
-7.674122012926443e-06   9.722924281639709e-06   -0.00036926391312988496
-7.674122012926443e-06   9.722924281639709e-06   -0.00036926391312988496
-7.674122012926443e-06   9.722924281639709e-06   -0.00036926391312988496
-0.00014648203172731253   1.0943435307327314e-05   -0.00013864970355465423
-0.00014648203172731253   1.0943435307327314e-05   -0.00013864970355465423
-0.00014648203172731253   1.0943435307327314e-05   -0.00013864970355465423
-0.00014648203172731253   1.0943435307327314e-05   -0.00013864970355465423
-7.584581641748237e-05   6.369788130019573e-06   -0.00025363254076465305
-7.584581641748237e-05   6.369788130019573e-06   -0.00025363254076465305
-7.584581641748237e-05   6.369788130019573e-06   -0.00025363254076465305
-7.584581641748237e-05   6.369788130019573e-06   -0.00025363254076465305
-0.00014648203172731253   9.722924281639926e-06   -0.00036999621974529774
-0.00014648203172731253   9.722924281639926e-06   -0.00036999621974529774
-0.00014648203172731253   9.722924281639926e-06   -0.00036999621974529774
-0.00014648203172731253   9.722924281639926e-06   -0.00036999621974529774
-7.674122012926456e-06   1.094343530732688e-05   -0.00013791739693924123
-7.674122012926456e-06   1.094343530732688e-05   -0.00013791739693924123
-7.674122012926456e-06   1.094343530732688e-05   -0.00013791739693924123
-7.674122012926456e-06   1.094343530732688e-05   -0.00013791739693924123
-8.725225972182584e-06   2.0051877279196e-05   -0.0003702807320554941
-8.725225972182584e-06   2.0051877279196e-05   -0.0003702807320554941
-8.725225972182584e-06   2.0051877279196e-05   -0.0003702807320554941
-8.725225972182584e-06   2.0051877279196e-05   -0.0003702807320554941
-0.00014765305996580975   2.0591762784019467e-05   -0.00013905827336901065
-0.00014765305996580975   2.0591762784019467e-05   -0.00013905827336901065
-0.00014765305996580975   2.0591762784019467e-05   -0.00013905827336901065
-0.00014765305996580975   2.0591762784019467e-05   -0.00013905827336901065
-7.769446695743837e-05   1.490263526550753e-05   -0.00025224245187185413
-7.769446695743837e-05   1.490263526550753e-05   -0.00025224245187185413
-7.769446695743837e-05   1.490263526550753e-05   -0.00025224245187185413
-7.769446695743837e-05   1.490263526550753e-05   -0.00025224245187185413
-0.00014765305996580975   2.0051877279196216e-05   -0.0003706046633583885
-0.00014765305996580975   2.0051877279196216e-05   -0.0003706046633583885
-0.00014765305996580975   2.0051877279196216e-05   -0.0003706046633583885
-0.00014765305996580975   2.0051877279196216e-05   -0.0003706046633583885
-8.725225972182598e-06   2.0591762784019467e-05   -0.00013873434206611518
-8.725225972182598e-06   2.0591762784019467e-05   -0.00013873434206611518
-8.725225972182598e-06   2.0591762784019467e-05   -0.00013873434206611518
-8.725225972182598e-06   2.0591762784019467e-05   -0.00013873434206611518
-1.0358713911546184e-05   3.081628459981824e-05   -0.0003750504871267962
-1.0358713911546184e-05   3.081628459981824e-05   -0.0003750504871267962
-1.0358713911546184e-05   3.081628459981824e-05   -0.0003750504871267962
-1.0358713911546184e-05   3.081628459981824e-05   -0.0003750504871267962
-0.00014915663483936186   3.0465317316638596e-05   -0.00014351003854386364
-0.00014915663483936186   3.0465317316638596e-05   -0.00014351003854386364
-0.00014915663483936186   3.0465317316638596e-05   -0.00014351003854386364
-0.00014915663483936186   3.0465317316638596e-05   -0.00014351003854386364
-7.96565985368022e-05   2.353676001618085e-05   -0.00025518629800118625
-7.96565985368022e-05   2.353676001618085e-05   -0.00025518629800118625
-7.96565985368022e-05   2.353676001618085e-05   -0.00025518629800118625
-7.96565985368022e-05   2.353676001618085e-05   -0.00025518629800118625
-6.234693994606223e-06   -2.975892552089664e-05   -0.000333110465462746
-6.234693994606223e-06   -2.975892552089664e-05   -0.000333110465462746
-6.234693994606223e-06   -2.975892552089664e-05   -0.000333110465462746
-6.234693994606223e-06   -2.975892552089664e-05   -0.000333110465462746
0.0001315828107355117   -2.000416615077034e-05   -9.756176862380731e-05
0.0001315828107355117   -2.000416615077034e-05   -9.756176862380731e-05
0.0001315828107355117   -2.000416615077034e-05   -9.756176862380731e-05
0.0001315828107355117   -2.000416615077034e-05   -9.756176862380731e-05
0.0001314504225383168   -2.0163720880682096e-05   -0.000329335658558764
0.0001314504225383168   -2.0163720880682096e-05   -0.000329335658558764
0.0001314504225383168   -2.0163720880682096e-05   -0.000329335658558764
0.0001314504225383168   -2.0163720880682096e-05   -0.000329335658558764
-7.674122012926456e-06   -1.1144929563358837e-05   -0.00010287269243041891
-7.674122012926456e-06   -1.1144929563358837e-05   -0.00010287269243041891
-7.674122012926456e-06   -1.1144929563358837e-05   -0.00010287269243041891
-7.674122012926456e-06   -1.1144929563358837e-05   -0.00010287269243041891
6.18016983879438e-05   -1.9576301103272405e-05   -0.00021360690350792112
6.18016983879438e-05   -1.9576301103272405e-05   -0.00021360690350792112
6.18016983879438e-05   -1.9576301103272405e-05   -0.00021360690350792112
6.18016983879438e-05   -1.9576301103272405e-05   -0.00021360690350792112
-7.674122012926456e-06   -2.016372088068188e-05   -0.0003347469333491572
-7.674122012926456e-06   -2.016372088068188e-05   -0.0003347469333491572
-7.674122012926456e-06   -2.016372088068188e-05   -0.0003347469333491572
-7.674122012926456e-06   -2.016372088068188e-05   -0.0003347469333491572
0.0001314504225383168   -1.1144929563358837e-05   -9.74614176400242e-05
0.0001314504225383168   -1.1144929563358837e-05   -9.74614176400242e-05
0.0001314504225383168   -1.1144929563358837e-05   -9.74614176400242e-05
0.0001314504225383168   -1.1144929563358837e-05   -9.74614176400242e-05
0.00013202559463047596   -1.0757270792555174e-05   -0.00033808640558759175
0.00013202559463047596   -1.0757270792555174e-05   -0.00033808640558759175
0.00013202559463047596   -1.0757270792555174e-05   -0.00033808640558759175
0.00013202559463047596   -1.0757270792555174e-05   -0.00033808640558759175
-8.725225972182612e-06   -2.429427389697824e-06   -0.00010849841062487639
-8.725225972182612e-06   -2.429427389697824e-06   -0.00010849841062487639
-8.725225972182612e-06   -2.429427389697824e-06   -0.00010849841062487639
-8.725225972182612e-06   -2.429427389697824e-06   -0.00010849841062487639
5.9889090394722085e-05   -1.1891595162943653e-05   -0.00021717830390576812
5.9889090394722085e-05   -1.1891595162943653e-05   -0.00021717830390576812
5.9889090394722085e-05   -1.1891595162943653e-05   -0.00021717830390576812
5.9889090394722085e-05   -1.1891595162943653e-05   -0.00021717830390576812
-8.725225972182598e-06   -1.0757270792555174e-05   -0.00034308311162930464
-8.725225972182598e-06   -1.0757270792555174e-05   -0.00034308311162930464
-8.725225972182598e-06   -1.0757270792555174e-05   -0.00034308311162930464
-8.725225972182598e-06   -1.0757270792555174e-05   -0.00034308311162930464
0.00013202559463047596   -2.429427389697824e-06   -0.00010350170458316025
0.00013202559463047596   -2.429427389697824e-06   -0.00010350170458316025
0.00013202559463047596   -2.429427389697824e-06   -0.00010350170458316025
0.00013202559463047596   -2.429427389697824e-06   -0.00010350170458316025
0.00013097606293424824   8.866814062680715e-07   -0.0003479693794079773
0.00013097606293424824   8.866814062680715e-07   -0.0003479693794079773
0.00013097606293424824   8.866814062680715e-07   -0.0003479693794079773
0.00013097606293424824   8.866814062680715e-07   -0.0003479693794079773
-1.0358713911546204e-05   7.77162428203422e-06   -0.00011654238372378038
-1.0358713911546204e-05   7.77162428203422e-06   -0.00011654238372378038
-1.0358713911546204e-05   7.77162428203422e-06   -0.00011654238372378038
-1.0358713911546204e-05   7.77162428203422e-06   -0.00011654238372378038
5.920046335305969e-05   -3.6600869309988057e-06   -0.0002256153191036352
5.920046335305969e-05   -3.6600869309988057e-06   -0.0002256153191036352
5.920046335305969e-05   -3.6600869309988057e-06   -0.0002256153191036352
5.920046335305969e-05   -3.6600869309988057e-06   -0.0002256153191036352
0.00013158281073551154   -5.537023301214919e-05   -0.00018651950667127395
0.00013158281073551154   -5.537023301214919e-05   -0.00018651950667127395
0.00013158281073551154   -5.537023301214919e-05   -0.00018651950667127395
0.00013158281073551154   -5.537023301214919e-05   -0.00018651950667127395
0.0002608620971100698   -3.6356522925100766e-05   4.0354196671886066e-05
0.0002608620971100698   -3.6356522925100766e-05   4.0354196671886066e-05
0.0002608620971100698   -3.6356522925100766e-05   4.0354196671886066e-05
0.0002608620971100698   -3.6356522925100766e-05   4.0354196671886066e-05
0.0002695400857845111   -5.029000860327275e-05   -0.00021010566163098094
0.0002695400857845111   -5.029000860327275e-05   -0.00021010566163098094
0.0002695400857845111   -5.029000860327275e-05   -0.00021010566163098094
0.0002695400857845111   -5.029000860327275e-05   -0.00021010566163098094
0.0001314504225383166   -3.126997973805414e-05   8.631759793545509e-06
0.0001314504225383166   -3.126997973805414e-05   8.631759793545509e-06
0.0001314504225383166   -3.126997973805414e-05   8.631759793545509e-06
0.0001314504225383166   -3.126997973805414e-05   8.631759793545509e-06
0.00018987924530787626   -4.2812463962647526e-05   -8.18241209542981e-05
0.00018987924530787626   -4.2812463962647526e-05   -8.18241209542981e-05
0.00018987924530787626   -4.2812463962647526e-05   -8.18241209542981e-05
0.00018987924530787626   -4.2812463962647526e-05   -8.18241209542981e-05
0.00013145042253831648   -5.029000860327275e-05   -0.00022151767895011148
0.00013145042253831648   -5.029000860327275e-05   -0.00022151767895011148
0.00013145042253831648   -5.029000860327275e-05   -0.00022151767895011148
0.00013145042253831648   -5.029000860327275e-05   -0.00022151767895011148
0.0002695400857845111   -3.126997973805414e-05   2.0043777112677998e-05
0.0002695400857845111   -3.126997973805414e-05   2.0043777112677998e-05
0.0002695400857845111   -3.126997973805414e-05   2.0043777112677998e-05
0.0002695400857845111   -3.126997973805414e-05   2.0043777112677998e-05
0.00027618784128871925   -4.487524083945124e-05   -0.0002370379909974628
0.00027618784128871925   -4.487524083945124e-05   -0.0002370379909974628
0.00027618784128871925   -4.487524083945124e-05   -0.0002370379909974628
0.00027618784128871925   -4.487524083945124e-05   -0.0002370379909974628
0.00013202559463047547   -2.6886192576004025e-05   -7.561008858459435e-06
0.00013202559463047547   -2.6886192576004025e-05   -7.561008858459435e-06
0.00013202559463047547   -2.6886192576004025e-05   -7.561008858459435e-06
0.00013202559463047547   -2.6886192576004025e-05   -7.561008858459435e-06
0.00019626358780648764   -3.952859557462525e-05   -0.00010703888901930571
0.00019626358780648764   -3.952859557462525e-05   -0.00010703888901930571
0.00019626358780648764   -3.952859557462525e-05   -0.00010703888901930571
0.00019626358780648764   -3.952859557462525e-05   -0.00010703888901930571
0.00013202559463047574   -4.487524083945124e-05   -0.0002478314199555313
0.00013202559463047574   -4.487524083945124e-05   -0.0002478314199555313
0.00013202559463047574   -4.487524083945124e-05   -0.0002478314199555313
0.00013202559463047574   -4.487524083945124e-05   -0.0002478314199555313
0.0002761878412887187   -2.6886192576003592e-05   3.2324200996106285e-06
0.0002761878412887187   -2.6886192576003592e-05   3.2324200996106285e-06
0.0002761878412887187   -2.6886192576003592e-05   3.2324200996106285e-06
0.0002761878412887187   -2.6886192576003592e-05   3.2324200996106285e-06
0.0002832529733087991   -3.321756802225563e-05   -0.0002828096909147911
0.0002832529733087991   -3.321756802225563e-05   -0.0002828096909147911
0.0002832529733087991   -3.321756802225563e-05   -0.0002828096909147911
0.0002832529733087991   -3.321756802225563e-05   -0.0002828096909147911
0.0001309760629342477   -1.7504555510593038e-05   -3.844264779753715e-05
0.0001309760629342477   -1.7504555510593038e-05   -3.844264779753715e-05
0.0001309760629342477   -1.7504555510593038e-05   -3.844264779753715e-05
0.0001309760629342477   -1.7504555510593038e-05   -3.844264779753715e-05
0.00019535739744790302   -3.407861211430574e-05   -0.00013580043802473405
0.00019535739744790302   -3.407861211430574e-05   -0.00013580043802473405
0.00019535739744790302   -3.407861211430574e-05   -0.00013580043802473405
0.00019535739744790302   -3.407861211430574e-05   -0.00013580043802473405
-0.0003131177278099559   4.794205359461056e-05   -0.0002377291453465164
-0.0003131177278099559   4.794205359461056e-05   -0.0002377291453465164
-0.0003131177278099559   4.794205359461056e-05   -0.0002377291453465164
-0.0003131177278099559   4.794205359461056e-05   -0.0002377291453465164
-0.0002129094966700747   3.0569756275466986e-05   -8.113880517153355e-05
-0.0002129094966700747   3.0569756275466986e-05   -8.113880517153355e-05
-0.0002129094966700747   3.0569756275466986e-05   -8.113880517153355e-05
-0.0002129094966700747   3.0569756275466986e-05   -8.113880517153355e-05
-0.00021214023262573008   5.795403314236324e-05   -0.00020194660957569954
-0.00021214023262573008   5.795403314236324e-05   -0.00020194660957569954
-0.00021214023262573008   5.795403314236324e-05   -0.00020194660957569954
-0.00021214023262573008   5.795403314236324e-05   -0.00020194660957569954
-0.0003038220056122945   3.887334772391133e-05   -3.7695243347020835e-05
-0.0003038220056122945   3.887334772391133e-05   -3.7695243347020835e-05
-0.0003038220056122945   3.887334772391133e-05   -3.7695243347020835e-05
-0.0003038220056122945   3.887334772391133e-05   -3.7695243347020835e-05
-0.0002494476297453496   4.6151960753908206e-05   -0.0001326863709432604
-0.0002494476297453496   4.6151960753908206e-05   -0.0001326863709432604
-0.0002494476297453496   4.6151960753908206e-05   -0.0001326863709432604
-0.0002494476297453496   4.6151960753908206e-05   -0.0001326863709432604
-0.0003038220056122945   5.795403314236324e-05   -0.0001904981983246283
-0.0003038220056122945   5.795403314236324e-05   -0.0001904981983246283
-0.0003038220056122945   5.795403314236324e-05   -0.0001904981983246283
-0.0003038220056122945   5.795403314236324e-05   -0.0001904981983246283
-0.0002121402326257305   3.88733477239122e-05   -4.914365459809204e-05
-0.0002121402326257305   3.88733477239122e-05   -4.914365459809204e-05
-0.0002121402326257305   3.88733477239122e-05   -4.914365459809204e-05
-0.0002121402326257305   3.88733477239122e-05   -4.914365459809204e-05
-0.00021053528599123848   6.234557075628219e-05   -0.0001760914625410729
-0.00021053528599123848   6.234557075628219e-05   -0.0001760914625410729
-0.00021053528599123848   6.234557075628219e-05   -0.0001760914625410729
-0.00021053528599123848   6.234557075628219e-05   -0.0001760914625410729
-0.00029686100882523724   4.273236850154804e-05   -2.0447336464900906e-05
-0.00029686100882523724   4.273236850154804e-05   -2.0447336464900906e-05
-0.00029686100882523724   4.273236850154804e-05   -2.0447336464900906e-05
-0.00029686100882523724   4.273236850154804e-05   -2.0447336464900906e-05
-0.00024948469354543876   5.078332550137454e-05   -0.00010423843613112816
-0.00024948469354543876   5.078332550137454e-05   -0.00010423843613112816
-0.00024948469354543876   5.078332550137454e-05   -0.00010423843613112816
-0.00024948469354543876   5.078332550137454e-05   -0.00010423843613112816
-0.00029686100882523724   6.234557075628219e-05   -0.00016432354118823276
-0.00029686100882523724   6.234557075628219e-05   -0.00016432354118823276
-0.00029686100882523724   6.234557075628219e-05   -0.00016432354118823276
-0.00029686100882523724   6.234557075628219e-05   -0.00016432354118823276
-0.0002105352859912389   4.2732368501548906e-05   -3.221525781774025e-05
-0.0002105352859912389   4.2732368501548906e-05   -3.221525781774025e-05
-0.0002105352859912389   4.2732368501548906e-05   -3.221525781774025e-05
-0.0002105352859912389   4.2732368501548906e-05   -3.221525781774025e-05
-0.00020988485747988335   6.664417616545834e-05   -0.00014026453343886965
-0.00020988485747988335   6.664417616545834e-05   -0.00014026453343886965
-0.00020988485747988335   6.664417616545834e-05   -0.00014026453343886965
-0.00020988485747988335   6.664417616545834e-05   -0.00014026453343886965
-0.0002877389479648729   4.7569904361836196e-05   9.368471182865344e-07
-0.0002877389479648729   4.7569904361836196e-05   9.368471182865344e-07
-0.0002877389479648729   4.7569904361836196e-05   9.368471182865344e-07
-0.0002877389479648729   4.7569904361836196e-05   9.368471182865344e-07
-0.00024211575989028622   5.327412085680012e-05   -7.852432956966969e-05
-0.00024211575989028622   5.327412085680012e-05   -7.852432956966969e-05
-0.00024211575989028622   5.327412085680012e-05   -7.852432956966969e-05
-0.00024211575989028622   5.327412085680012e-05   -7.852432956966969e-05
-0.00021290949667007427   2.387600676868407e-05   -0.00030229522400191874
-0.00021290949667007427   2.387600676868407e-05   -0.00030229522400191874
-0.00021290949667007427   2.387600676868407e-05   -0.00030229522400191874
-0.00021290949667007427   2.387600676868407e-05   -0.00030229522400191874
-0.00012217061554279003   1.5757013119351015e-05   -0.00015593515164604517
-0.00012217061554279003   1.5757013119351015e-05   -0.00015593515164604517
-0.00012217061554279003   1.5757013119351015e-05   -0.00015593515164604517
-0.00012217061554279003   1.5757013119351015e-05   -0.00015593515164604517
-0.00012222714939720005   3.371645061332664e-05   -0.00029972342002030587
-0.00012222714939720005   3.371645061332664e-05   -0.00029972342002030587
-0.00012222714939720005   3.371645061332664e-05   -0.00029972342002030587
-0.00012222714939720005   3.371645061332664e-05   -0.00029972342002030587
-0.00021214023262573008   2.4516594865142856e-05   -0.00014434836785717818
-0.00021214023262573008   2.4516594865142856e-05   -0.00014434836785717818
-0.00021214023262573008   2.4516594865142856e-05   -0.00014434836785717818
-0.00021214023262573008   2.4516594865142856e-05   -0.00014434836785717818
-0.00016582123158067794   2.6086366861907857e-05   -0.00022248856613032455
-0.00016582123158067794   2.6086366861907857e-05   -0.00022248856613032455
-0.00016582123158067794   2.6086366861907857e-05   -0.00022248856613032455
-0.00016582123158067794   2.6086366861907857e-05   -0.00022248856613032455
-0.00021214023262572986   3.371645061332621e-05   -0.00029420350657139403
-0.00021214023262572986   3.371645061332621e-05   -0.00029420350657139403
-0.00021214023262572986   3.371645061332621e-05   -0.00029420350657139403
-0.00021214023262572986   3.371645061332621e-05   -0.00029420350657139403
-0.00012222714939720005   2.4516594865142856e-05   -0.00014986828130608872
-0.00012222714939720005   2.4516594865142856e-05   -0.00014986828130608872
-0.00012222714939720005   2.4516594865142856e-05   -0.00014986828130608872
-0.00012222714939720005   2.4516594865142856e-05   -0.00014986828130608872
-0.00012213247994326997   4.2449630142472015e-05   -0.00029300293802772244
-0.00012213247994326997   4.2449630142472015e-05   -0.00029300293802772244
-0.00012213247994326997   4.2449630142472015e-05   -0.00029300293802772244
-0.00012213247994326997   4.2449630142472015e-05   -0.00029300293802772244
-0.00021053528599123848   3.247739655799255e-05   -0.00013968158779708749
-0.00021053528599123848   3.247739655799255e-05   -0.00013968158779708749
-0.00021053528599123848   3.247739655799255e-05   -0.00013968158779708749
-0.00021053528599123848   3.247739655799255e-05   -0.00013968158779708749
-0.00016504377553025132   3.327078984693716e-05   -0.000215976807872097
-0.00016504377553025132   3.327078984693716e-05   -0.000215976807872097
-0.00016504377553025132   3.327078984693716e-05   -0.000215976807872097
-0.00016504377553025132   3.327078984693716e-05   -0.000215976807872097
-0.00021053528599123848   4.2449630142472015e-05   -0.0002870195978770347
-0.00021053528599123848   4.2449630142472015e-05   -0.0002870195978770347
-0.00021053528599123848   4.2449630142472015e-05   -0.0002870195978770347
-0.00021053528599123848   4.2449630142472015e-05   -0.0002870195978770347
-0.00012213247994327008   3.247739655799255e-05   -0.00014566492794777439
-0.00012213247994327008   3.247739655799255e-05   -0.00014566492794777439
-0.00012213247994327008   3.247739655799255e-05   -0.00014566492794777439
-0.00012213247994327008   3.247739655799255e-05   -0.00014566492794777439
-0.00012222382098527024   5.172978262332631e-05   -0.00029418052040059654
-0.00012222382098527024   5.172978262332631e-05   -0.00029418052040059654
-0.00012222382098527024   5.172978262332631e-05   -0.00029418052040059654
-0.00012222382098527024   5.172978262332631e-05   -0.00029418052040059654
-0.00020988485747988356   4.111449541220353e-05   -0.00014170962058290002
-0.00020988485747988356   4.111449541220353e-05   -0.00014170962058290002
-0.00020988485747988356   4.111449541220353e-05   -0.00014170962058290002
-0.00020988485747988356   4.111449541220353e-05   -0.00014170962058290002
-0.00016610798401570754   4.036791130063427e-05   -0.00021422312588958536
-0.00016610798401570754   4.036791130063427e-05   -0.00021422312588958536
-0.00016610798401570754   4.036791130063427e-05   -0.00021422312588958536
-0.00016610798401570754   4.036791130063427e-05   -0.00021422312588958536
-0.0001221706155427898   1.2653991006876877e-06   -0.00033350301791168664
-0.0001221706155427898   1.2653991006876877e-06   -0.00033350301791168664
-0.0001221706155427898   1.2653991006876877e-06   -0.00033350301791168664
-0.0001221706155427898   1.2653991006876877e-06   -0.00033350301791168664
-3.2736370350578336e-05   2.6831124045273783e-06   -0.00018359531460903017
-3.2736370350578336e-05   2.6831124045273783e-06   -0.00018359531460903017
-3.2736370350578336e-05   2.6831124045273783e-06   -0.00018359531460903017
-3.2736370350578336e-05   2.6831124045273783e-06   -0.00018359531460903017
-3.279377558394227e-05   1.0943435307327314e-05   -0.0003298530613819535
-3.279377558394227e-05   1.0943435307327314e-05   -0.0003298530613819535
-3.279377558394227e-05   1.0943435307327314e-05   -0.0003298530613819535
-3.279377558394227e-05   1.0943435307327314e-05   -0.0003298530613819535
-0.00012222714939719983   1.1479945957539733e-05   -0.00018111934474998527
-0.00012222714939719983   1.1479945957539733e-05   -0.00018111934474998527
-0.00012222714939719983   1.1479945957539733e-05   -0.00018111934474998527
-0.00012222714939719983   1.1479945957539733e-05   -0.00018111934474998527
-7.696964911988903e-05   7.722307524681872e-06   -0.00025429392881912193
-7.696964911988903e-05   7.722307524681872e-06   -0.00025429392881912193
-7.696964911988903e-05   7.722307524681872e-06   -0.00025429392881912193
-7.696964911988903e-05   7.722307524681872e-06   -0.00025429392881912193
-0.00012222714939719983   1.0943435307327314e-05   -0.00033017496777208114
-0.00012222714939719983   1.0943435307327314e-05   -0.00033017496777208114
-0.00012222714939719983   1.0943435307327314e-05   -0.00033017496777208114
-0.00012222714939719983   1.0943435307327314e-05   -0.00033017496777208114
-3.279377558394227e-05   1.1479945957539733e-05   -0.00018079743835985743
-3.279377558394227e-05   1.1479945957539733e-05   -0.00018079743835985743
-3.279377558394227e-05   1.1479945957539733e-05   -0.00018079743835985743
-3.279377558394227e-05   1.1479945957539733e-05   -0.00018079743835985743
-3.267288729483224e-05   2.0591762784019467e-05   -0.000330704888557274
-3.267288729483224e-05   2.0591762784019467e-05   -0.000330704888557274
-3.267288729483224e-05   2.0591762784019467e-05   -0.000330704888557274
-3.267288729483224e-05   2.0591762784019467e-05   -0.000330704888557274
-0.00012213247994326997   2.0304739945051047e-05   -0.00018143335377316392
-0.00012213247994326997   2.0304739945051047e-05   -0.00018143335377316392
-0.00012213247994326997   2.0304739945051047e-05   -0.00018143335377316392
-0.00012213247994326997   2.0304739945051047e-05   -0.00018143335377316392
-7.748089431408632e-05   1.541176496931869e-05   -0.00025291687816969706
-7.748089431408632e-05   1.541176496931869e-05   -0.00025291687816969706
-7.748089431408632e-05   1.541176496931869e-05   -0.00025291687816969706
-7.748089431408632e-05   1.541176496931869e-05   -0.00025291687816969706
-0.00012213247994326997   2.05917627840199e-05   -0.0003305326748538934
-0.00012213247994326997   2.05917627840199e-05   -0.0003305326748538934
-0.00012213247994326997   2.05917627840199e-05   -0.0003305326748538934
-0.00012213247994326997   2.05917627840199e-05   -0.0003305326748538934
-3.2672887294832295e-05   2.0304739945051047e-05   -0.00018160556747654454
-3.2672887294832295e-05   2.0304739945051047e-05   -0.00018160556747654454
-3.2672887294832295e-05   2.0304739945051047e-05   -0.00018160556747654454
-3.2672887294832295e-05   2.0304739945051047e-05   -0.00018160556747654454
-3.272249306379652e-05   3.0465317316638596e-05   -0.0003357099401125321
-3.272249306379652e-05   3.0465317316638596e-05   -0.0003357099401125321
-3.272249306379652e-05   3.0465317316638596e-05   -0.0003357099401125321
-3.272249306379652e-05   3.0465317316638596e-05   -0.0003357099401125321
-0.00012222382098527014   2.928383252690219e-05   -0.00018583216936956626
-0.00012222382098527014   2.928383252690219e-05   -0.00018583216936956626
-0.00012222382098527014   2.928383252690219e-05   -0.00018583216936956626
-0.00012222382098527014   2.928383252690219e-05   -0.00018583216936956626
-7.814315463456318e-05   2.3202119365435883e-05   -0.00025565091872386506
-7.814315463456318e-05   2.3202119365435883e-05   -0.00025565091872386506
-7.814315463456318e-05   2.3202119365435883e-05   -0.00025565091872386506
-7.814315463456318e-05   2.3202119365435883e-05   -0.00025565091872386506
-3.273637035057828e-05   -2.000416615077034e-05   -0.0002953903773644734
-3.273637035057828e-05   -2.000416615077034e-05   -0.0002953903773644734
-3.273637035057828e-05   -2.000416615077034e-05   -0.0002953903773644734
-3.273637035057828e-05   -2.000416615077034e-05   -0.0002953903773644734
5.546367817122497e-05   -9.281888064618243e-06   -0.0001419569296431107
5.546367817122497e-05   -9.281888064618243e-06   -0.0001419569296431107
5.546367817122497e-05   -9.281888064618243e-06   -0.0001419569296431107
5.546367817122497e-05   -9.281888064618243e-06   -0.0001419569296431107
5.618624470291164e-05   -1.1144929563358837e-05   -0.00028872533125385604
5.618624470291164e-05   -1.1144929563358837e-05   -0.00028872533125385604
5.618624470291164e-05   -1.1144929563358837e-05   -0.00028872533125385604
5.618624470291164e-05   -1.1144929563358837e-05   -0.00028872533125385604
-3.279377558394227e-05   -1.0065535312351812e-06   -0.00014650832306170675
-3.279377558394227e-05   -1.0065535312351812e-06   -0.00014650832306170675
-3.279377558394227e-05   -1.0065535312351812e-06   -0.00014650832306170675
-3.279377558394227e-05   -1.0065535312351812e-06   -0.00014650832306170675
1.1572291202818048e-05   -9.596326172248669e-06   -0.00021529790412169974
1.1572291202818048e-05   -9.596326172248669e-06   -0.00021529790412169974
1.1572291202818048e-05   -9.596326172248669e-06   -0.00021529790412169974
1.1572291202818048e-05   -9.596326172248669e-06   -0.00021529790412169974
-3.279377558394227e-05   -1.1144929563358837e-05   -0.0002948083568731306
-3.279377558394227e-05   -1.1144929563358837e-05   -0.0002948083568731306
-3.279377558394227e-05   -1.1144929563358837e-05   -0.0002948083568731306
-3.279377558394227e-05   -1.1144929563358837e-05   -0.0002948083568731306
5.6186244702911966e-05   -1.0065535312351812e-06   -0.00014042529744243354
5.6186244702911966e-05   -1.0065535312351812e-06   -0.00014042529744243354
5.6186244702911966e-05   -1.0065535312351812e-06   -0.00014042529744243354
5.6186244702911966e-05   -1.0065535312351812e-06   -0.00014042529744243354
5.787233840892495e-05   -2.429427389697824e-06   -0.00029483275814236147
5.787233840892495e-05   -2.429427389697824e-06   -0.00029483275814236147
5.787233840892495e-05   -2.429427389697824e-06   -0.00029483275814236147
5.787233840892495e-05   -2.429427389697824e-06   -0.00029483275814236147
-3.2672887294832295e-05   6.964237566422192e-06   -0.00014956024760977125
-3.2672887294832295e-05   6.964237566422192e-06   -0.00014956024760977125
-3.2672887294832295e-05   6.964237566422192e-06   -0.00014956024760977125
-3.2672887294832295e-05   6.964237566422192e-06   -0.00014956024760977125
1.1065773524146425e-05   -2.714435399929667e-06   -0.00021665081186159193
1.1065773524146425e-05   -2.714435399929667e-06   -0.00021665081186159193
1.1065773524146425e-05   -2.714435399929667e-06   -0.00021665081186159193
1.1065773524146425e-05   -2.714435399929667e-06   -0.00021665081186159193
-3.267288729483227e-05   -2.429427389697824e-06   -0.0003004689571160326
-3.267288729483227e-05   -2.429427389697824e-06   -0.0003004689571160326
-3.267288729483227e-05   -2.429427389697824e-06   -0.0003004689571160326
-3.267288729483227e-05   -2.429427389697824e-06   -0.0003004689571160326
5.787233840892517e-05   6.964237566422192e-06   -0.0001439240486360992
5.787233840892517e-05   6.964237566422192e-06   -0.0001439240486360992
5.787233840892517e-05   6.964237566422192e-06   -0.0001439240486360992
5.787233840892517e-05   6.964237566422192e-06   -0.0001439240486360992
5.8693249286733795e-05   7.771624282034654e-06   -0.0003035282870052073
5.8693249286733795e-05   7.771624282034654e-06   -0.0003035282870052073
5.8693249286733795e-05   7.771624282034654e-06   -0.0003035282870052073
5.8693249286733795e-05   7.771624282034654e-06   -0.0003035282870052073
-3.2722493063796466e-05   1.6110654144256727e-05   -0.00015617213433832236
-3.2722493063796466e-05   1.6110654144256727e-05   -0.00015617213433832236
-3.2722493063796466e-05   1.6110654144256727e-05   -0.00015617213433832236
-3.2722493063796466e-05   1.6110654144256727e-05   -0.00015617213433832236
1.1377203989545575e-05   4.657704111870296e-06   -0.00022279985940779393
1.1377203989545575e-05   4.657704111870296e-06   -0.00022279985940779393
1.1377203989545575e-05   4.657704111870296e-06   -0.00022279985940779393
1.1377203989545575e-05   4.657704111870296e-06   -0.00022279985940779393
5.546367817122486e-05   -3.6356522925100766e-05   -0.00016244927126931805
5.546367817122486e-05   -3.6356522925100766e-05   -0.00016244927126931805
5.546367817122486e-05   -3.6356522925100766e-05   -0.00016244927126931805
5.546367817122486e-05   -3.6356522925100766e-05   -0.00016244927126931805
0.00013404920481308404   -1.7115622830202182e-05   -1.992885347594682e-05
0.00013404920481308404   -1.7115622830202182e-05   -1.992885347594682e-05
0.00013404920481308404   -1.7115622830202182e-05   -1.992885347594682e-05
0.00013404920481308404   -1.7115622830202182e-05   -1.992885347594682e-05
0.00014329369428668181   -3.126997973805414e-05   -0.00017078457932635446
0.00014329369428668181   -3.126997973805414e-05   -0.00017078457932635446
0.00014329369428668181   -3.126997973805414e-05   -0.00017078457932635446
0.00014329369428668181   -3.126997973805414e-05   -0.00017078457932635446
5.618624470291186e-05   -1.1524022248168321e-05   -3.745307118066966e-05
5.618624470291186e-05   -1.1524022248168321e-05   -3.745307118066966e-05
5.618624470291186e-05   -1.1524022248168321e-05   -3.745307118066966e-05
5.618624470291186e-05   -1.1524022248168321e-05   -3.745307118066966e-05
9.310167171263642e-05   -2.3323189944894455e-05   -9.189928224550832e-05
9.310167171263642e-05   -2.3323189944894455e-05   -9.189928224550832e-05
9.310167171263642e-05   -2.3323189944894455e-05   -9.189928224550832e-05
9.310167171263642e-05   -2.3323189944894455e-05   -9.189928224550832e-05
5.618624470291186e-05   -3.126997973805414e-05   -0.00018263215382028535
5.618624470291186e-05   -3.126997973805414e-05   -0.00018263215382028535
5.618624470291186e-05   -3.126997973805414e-05   -0.00018263215382028535
5.618624470291186e-05   -3.126997973805414e-05   -0.00018263215382028535
0.00014329369428668138   -1.1524022248168321e-05   -2.5605496686738338e-05
0.00014329369428668138   -1.1524022248168321e-05   -2.5605496686738338e-05
0.00014329369428668138   -1.1524022248168321e-05   -2.5605496686738338e-05
0.00014329369428668138   -1.1524022248168321e-05   -2.5605496686738338e-05
0.00015039860520125775   -2.6886192576003592e-05   -0.00018735140360470878
0.00015039860520125775   -2.6886192576003592e-05   -0.00018735140360470878
0.00015039860520125775   -2.6886192576003592e-05   -0.00018735140360470878
0.00015039860520125775   -2.6886192576003592e-05   -0.00018735140360470878
5.787233840892517e-05   -7.65176122108531e-06   -4.4681617763772837e-05
5.787233840892517e-05   -7.65176122108531e-06   -4.4681617763772837e-05
5.787233840892517e-05   -7.65176122108531e-06   -4.4681617763772837e-05
5.787233840892517e-05   -7.65176122108531e-06   -4.4681617763772837e-05
9.877317255107854e-05   -2.045731541903354e-05   -0.00010516634214859273
9.877317255107854e-05   -2.045731541903354e-05   -0.00010516634214859273
9.877317255107854e-05   -2.045731541903354e-05   -0.00010516634214859273
9.877317255107854e-05   -2.045731541903354e-05   -0.00010516634214859273
5.787233840892495e-05   -2.6886192576004025e-05   -0.00019889206241766
5.787233840892495e-05   -2.6886192576004025e-05   -0.00019889206241766
5.787233840892495e-05   -2.6886192576004025e-05   -0.00019889206241766
5.787233840892495e-05   -2.6886192576004025e-05   -0.00019889206241766
0.00015039860520125732   -7.65176122108531e-06   -3.314095895081987e-05
0.00015039860520125732   -7.65176122108531e-06   -3.314095895081987e-05
0.00015039860520125732   -7.65176122108531e-06   -3.314095895081987e-05
0.00015039860520125732   -7.65176122108531e-06   -3.314095895081987e-05
0.00015982546290288458   -1.7504555510593038e-05   -0.0002190668262748998
0.00015982546290288458   -1.7504555510593038e-05   -0.0002190668262748998
0.00015982546290288458   -1.7504555510593038e-05   -0.0002190668262748998
0.00015982546290288458   -1.7504555510593038e-05   -0.0002190668262748998
5.8693249286733795e-05   -1.6737961385827893e-08   -6.1005827444172685e-05
5.8693249286733795e-05   -1.6737961385827893e-08   -6.1005827444172685e-05
5.8693249286733795e-05   -1.6737961385827893e-08   -6.1005827444172685e-05
5.8693249286733795e-05   -1.6737961385827893e-08   -6.1005827444172685e-05
0.00010062434599232437   -1.61616920810511e-05   -0.00012120401614835671
0.00010062434599232437   -1.61616920810511e-05   -0.00012120401614835671
0.00010062434599232437   -1.61616920810511e-05   -0.00012120401614835671
0.00010062434599232437   -1.61616920810511e-05   -0.00012120401614835671
-0.00019019325935327254   3.0569756275466986e-05   -0.00017780656919177528
-0.00019019325935327254   3.0569756275466986e-05   -0.00017780656919177528
-0.00019019325935327254   3.0569756275466986e-05   -0.00017780656919177528
-0.00019019325935327254   3.0569756275466986e-05   -0.00017780656919177528
-0.00014006102680882396   1.2517567052411187e-05   -0.00010508416181819347
-0.00014006102680882396   1.2517567052411187e-05   -0.00010508416181819347
-0.00014006102680882396   1.2517567052411187e-05   -0.00010508416181819347
-0.00014006102680882396   1.2517567052411187e-05   -0.00010508416181819347
-0.00013798028450585074   3.88733477239122e-05   -0.00015685511994083592
-0.00013798028450585074   3.88733477239122e-05   -0.00015685511994083592
-0.00013798028450585074   3.88733477239122e-05   -0.00015685511994083592
-0.00013798028450585074   3.88733477239122e-05   -0.00015685511994083592
-0.0001799048068376961   1.944038172865207e-05   -7.532113645727012e-05
-0.0001799048068376961   1.944038172865207e-05   -7.532113645727012e-05
-0.0001799048068376961   1.944038172865207e-05   -7.532113645727012e-05
-0.0001799048068376961   1.944038172865207e-05   -7.532113645727012e-05
-0.00015516865053372727   2.740853360925881e-05   -0.00012132895475892294
-0.00015516865053372727   2.740853360925881e-05   -0.00012132895475892294
-0.00015516865053372727   2.740853360925881e-05   -0.00012132895475892294
-0.00015516865053372727   2.740853360925881e-05   -0.00012132895475892294
-0.0001799048068376961   3.88733477239122e-05   -0.00014519534034368063
-0.0001799048068376961   3.88733477239122e-05   -0.00014519534034368063
-0.0001799048068376961   3.88733477239122e-05   -0.00014519534034368063
-0.0001799048068376961   3.88733477239122e-05   -0.00014519534034368063
-0.00013798028450585096   1.9440381728652936e-05   -8.698091605442672e-05
-0.00013798028450585096   1.9440381728652936e-05   -8.698091605442672e-05
-0.00013798028450585096   1.9440381728652936e-05   -8.698091605442672e-05
-0.00013798028450585096   1.9440381728652936e-05   -8.698091605442672e-05
-0.00013501694479071047   4.2732368501548906e-05   -0.000140071861175658
-0.00013501694479071047   4.2732368501548906e-05   -0.000140071861175658
-0.00013501694479071047   4.2732368501548906e-05   -0.000140071861175658
-0.00013501694479071047   4.2732368501548906e-05   -0.000140071861175658
-0.00017167951068407716   2.2926549597845902e-05   -6.708409334449167e-05
-0.00017167951068407716   2.2926549597845902e-05   -6.708409334449167e-05
-0.00017167951068407716   2.2926549597845902e-05   -6.708409334449167e-05
-0.00017167951068407716   2.2926549597845902e-05   -6.708409334449167e-05
-0.00015244494863415805   3.1139293030399764e-05   -0.00010406934282055757
-0.00015244494863415805   3.1139293030399764e-05   -0.00010406934282055757
-0.00015244494863415805   3.1139293030399764e-05   -0.00010406934282055757
-0.00015244494863415805   3.1139293030399764e-05   -0.00010406934282055757
-0.00017167951068407694   4.2732368501548906e-05   -0.00012818836983343688
-0.00017167951068407694   4.2732368501548906e-05   -0.00012818836983343688
-0.00017167951068407694   4.2732368501548906e-05   -0.00012818836983343688
-0.00017167951068407694   4.2732368501548906e-05   -0.00012818836983343688
-0.00013501694479071068   2.2926549597845902e-05   -7.896758468671364e-05
-0.00013501694479071068   2.2926549597845902e-05   -7.896758468671364e-05
-0.00013501694479071068   2.2926549597845902e-05   -7.896758468671364e-05
-0.00013501694479071068   2.2926549597845902e-05   -7.896758468671364e-05
-0.00013298138126840065   4.7569904361836196e-05   -0.00011851616774176312
-0.00013298138126840065   4.7569904361836196e-05   -0.00011851616774176312
-0.00013298138126840065   4.7569904361836196e-05   -0.00011851616774176312
-0.00013298138126840065   4.7569904361836196e-05   -0.00011851616774176312
-0.00016120124591149747   2.8443099945417785e-05   -6.000697735341568e-05
-0.00016120124591149747   2.8443099945417785e-05   -6.000697735341568e-05
-0.00016120124591149747   2.8443099945417785e-05   -6.000697735341568e-05
-0.00016120124591149747   2.8443099945417785e-05   -6.000697735341568e-05
-0.00014530908888846954   3.370753515317005e-05   -8.965256684978409e-05
-0.00014530908888846954   3.370753515317005e-05   -8.965256684978409e-05
-0.00014530908888846954   3.370753515317005e-05   -8.965256684978409e-05
-0.00014530908888846954   3.370753515317005e-05   -8.965256684978409e-05
-0.00014006102680882396   1.5757013119351015e-05   -0.000258562833010519
-0.00014006102680882396   1.5757013119351015e-05   -0.000258562833010519
-0.00014006102680882396   1.5757013119351015e-05   -0.000258562833010519
-0.00014006102680882396   1.5757013119351015e-05   -0.000258562833010519
-9.937353472372205e-05   7.124036138814009e-06   -0.00019593013239033868
-9.937353472372205e-05   7.124036138814009e-06   -0.00019593013239033868
-9.937353472372205e-05   7.124036138814009e-06   -0.00019593013239033868
-9.937353472372205e-05   7.124036138814009e-06   -0.00019593013239033868
-9.79968965293946e-05   2.4516594865142856e-05   -0.0002577363164531915
-9.79968965293946e-05   2.4516594865142856e-05   -0.0002577363164531915
-9.79968965293946e-05   2.4516594865142856e-05   -0.0002577363164531915
-9.79968965293946e-05   2.4516594865142856e-05   -0.0002577363164531915
-0.00013798028450585096   1.5055789443028239e-05   -0.00018542085323916026
-0.00013798028450585096   1.5055789443028239e-05   -0.00018542085323916026
-0.00013798028450585096   1.5055789443028239e-05   -0.00018542085323916026
-0.00013798028450585096   1.5055789443028239e-05   -0.00018542085323916026
-0.00011769476916552706   1.7119477502285443e-05   -0.00022046825830859492
-0.00011769476916552706   1.7119477502285443e-05   -0.00022046825830859492
-0.00011769476916552706   1.7119477502285443e-05   -0.00022046825830859492
-0.00011769476916552706   1.7119477502285443e-05   -0.00022046825830859492
-0.00013798028450585052   2.4516594865142856e-05   -0.0002520598331999212
-0.00013798028450585052   2.4516594865142856e-05   -0.0002520598331999212
-0.00013798028450585052   2.4516594865142856e-05   -0.0002520598331999212
-0.00013798028450585052   2.4516594865142856e-05   -0.0002520598331999212
-9.79968965293946e-05   1.5055789443027372e-05   -0.0001910973364924306
-9.79968965293946e-05   1.5055789443027372e-05   -0.0001910973364924306
-9.79968965293946e-05   1.5055789443027372e-05   -0.0001910973364924306
-9.79968965293946e-05   1.5055789443027372e-05   -0.0001910973364924306
-9.647847265593034e-05   3.247739655799255e-05   -0.000253571823461733
-9.647847265593034e-05   3.247739655799255e-05   -0.000253571823461733
-9.647847265593034e-05   3.247739655799255e-05   -0.000253571823461733
-9.647847265593034e-05   3.247739655799255e-05   -0.000253571823461733
-0.0001350169447907109   2.242134271344693e-05   -0.00018330740426370255
-0.0001350169447907109   2.242134271344693e-05   -0.00018330740426370255
-0.0001350169447907109   2.242134271344693e-05   -0.00018330740426370255
-0.0001350169447907109   2.242134271344693e-05   -0.00018330740426370255
-0.00011589193641692281   2.3521886704594604e-05   -0.00021584274461470317
-0.00011589193641692281   2.3521886704594604e-05   -0.00021584274461470317
-0.00011589193641692281   2.3521886704594604e-05   -0.00021584274461470317
-0.00011589193641692281   2.3521886704594604e-05   -0.00021584274461470317
-0.00013501694479071047   3.247739655799168e-05   -0.0002475381911550044
-0.00013501694479071047   3.247739655799168e-05   -0.0002475381911550044
-0.00013501694479071047   3.247739655799168e-05   -0.0002475381911550044
-0.00013501694479071047   3.247739655799168e-05   -0.0002475381911550044
-9.647847265593012e-05   2.242134271344693e-05   -0.00018934103657042983
-9.647847265593012e-05   2.242134271344693e-05   -0.00018934103657042983
-9.647847265593012e-05   2.242134271344693e-05   -0.00018934103657042983
-9.647847265593012e-05   2.242134271344693e-05   -0.00018934103657042983
-9.512256266809051e-05   4.111449541220266e-05   -0.00025602904179873164
-9.512256266809051e-05   4.111449541220266e-05   -0.00025602904179873164
-9.512256266809051e-05   4.111449541220266e-05   -0.00025602904179873164
-9.512256266809051e-05   4.111449541220266e-05   -0.00025602904179873164
-0.00013298138126840108   3.0596213015612016e-05   -0.00018662004136025786
-0.00013298138126840108   3.0596213015612016e-05   -0.00018662004136025786
-0.00013298138126840108   3.0596213015612016e-05   -0.00018662004136025786
-0.00013298138126840108   3.0596213015612016e-05   -0.00018662004136025786
-0.00011516906903353148   2.9996112960131716e-05   -0.00021594716838508774
-0.00011516906903353148   2.9996112960131716e-05   -0.00021594716838508774
-0.00011516906903353148   2.9996112960131716e-05   -0.00021594716838508774
-0.00011516906903353148   2.9996112960131716e-05   -0.00021594716838508774
-9.937353472372172e-05   2.6831124045273783e-06   -0.00029225341014413103
-9.937353472372172e-05   2.6831124045273783e-06   -0.00029225341014413103
-9.937353472372172e-05   2.6831124045273783e-06   -0.00029225341014413103
-9.937353472372172e-05   2.6831124045273783e-06   -0.00029225341014413103
-5.9764277451791934e-05   4.041486164683798e-06   -0.00022542295710148734
-5.9764277451791934e-05   4.041486164683798e-06   -0.00022542295710148734
-5.9764277451791934e-05   4.041486164683798e-06   -0.00022542295710148734
-5.9764277451791934e-05   4.041486164683798e-06   -0.00022542295710148734
-5.841924081797224e-05   1.1479945957539733e-05   -0.00028860982835451736
-5.841924081797224e-05   1.1479945957539733e-05   -0.00028860982835451736
-5.841924081797224e-05   1.1479945957539733e-05   -0.00028860982835451736
-5.841924081797224e-05   1.1479945957539733e-05   -0.00028860982835451736
-9.79968965293946e-05   1.2109198528491988e-05   -0.00022302462037804933
-9.79968965293946e-05   1.2109198528491988e-05   -0.00022302462037804933
-9.79968965293946e-05   1.2109198528491988e-05   -0.00022302462037804933
-9.79968965293946e-05   1.2109198528491988e-05   -0.00022302462037804933
-7.838427701684711e-05   8.695317466817995e-06   -0.0002536639909286296
-7.838427701684711e-05   8.695317466817995e-06   -0.0002536639909286296
-7.838427701684711e-05   8.695317466817995e-06   -0.0002536639909286296
-7.838427701684711e-05   8.695317466817995e-06   -0.0002536639909286296
-9.79968965293945e-05   1.1479945957538866e-05   -0.0002889873798970883
-9.79968965293945e-05   1.1479945957538866e-05   -0.0002889873798970883
-9.79968965293945e-05   1.1479945957538866e-05   -0.0002889873798970883
-9.79968965293945e-05   1.1479945957538866e-05   -0.0002889873798970883
-5.841924081797224e-05   1.2109198528492855e-05   -0.00022264706883547885
-5.841924081797224e-05   1.2109198528492855e-05   -0.00022264706883547885
-5.841924081797224e-05   1.2109198528492855e-05   -0.00022264706883547885
-5.841924081797224e-05   1.2109198528492855e-05   -0.00022264706883547885
-5.6912104458397607e-05   2.0304739945051047e-05   -0.00028937424059643623
-5.6912104458397607e-05   2.0304739945051047e-05   -0.00028937424059643623
-5.6912104458397607e-05   2.0304739945051047e-05   -0.00028937424059643623
-5.6912104458397607e-05   2.0304739945051047e-05   -0.00028937424059643623
-9.647847265593012e-05   2.02480877628591e-05   -0.00022339630229123312
-9.647847265593012e-05   2.02480877628591e-05   -0.00022339630229123312
-9.647847265593012e-05   2.02480877628591e-05   -0.00022339630229123312
-9.647847265593012e-05   2.02480877628591e-05   -0.00022339630229123312
-7.747226704437631e-05   1.561931056428406e-05   -0.00025229604532467777
-7.747226704437631e-05   1.561931056428406e-05   -0.00025229604532467777
-7.747226704437631e-05   1.561931056428406e-05   -0.00025229604532467777
-7.747226704437631e-05   1.561931056428406e-05   -0.00025229604532467777
-9.64784726559299e-05   2.0304739945051047e-05   -0.0002893402492871208
-9.64784726559299e-05   2.0304739945051047e-05   -0.0002893402492871208
-9.64784726559299e-05   2.0304739945051047e-05   -0.0002893402492871208
-9.64784726559299e-05   2.0304739945051047e-05   -0.0002893402492871208
-5.691210445839771e-05   2.02480877628591e-05   -0.0002234302936005481
-5.691210445839771e-05   2.02480877628591e-05   -0.0002234302936005481
-5.691210445839771e-05   2.02480877628591e-05   -0.0002234302936005481
-5.691210445839771e-05   2.02480877628591e-05   -0.0002234302936005481
-5.5556290262722727e-05   2.928383252690306e-05   -0.0002942471822237969
-5.5556290262722727e-05   2.928383252690306e-05   -0.0002942471822237969
-5.5556290262722727e-05   2.928383252690306e-05   -0.0002942471822237969
-5.5556290262722727e-05   2.928383252690306e-05   -0.0002942471822237969
-9.512256266809062e-05   2.8509225918450093e-05   -0.00022783863091644274
-9.512256266809062e-05   2.8509225918450093e-05   -0.00022783863091644274
-9.512256266809062e-05   2.8509225918450093e-05   -0.00022783863091644274
-9.512256266809062e-05   2.8509225918450093e-05   -0.00022783863091644274
-7.671218195383834e-05   2.2635176829056622e-05   -0.00025499816931989663
-7.671218195383834e-05   2.2635176829056622e-05   -0.00025499816931989663
-7.671218195383834e-05   2.2635176829056622e-05   -0.00025499816931989663
-7.671218195383834e-05   2.2635176829056622e-05   -0.00025499816931989663
-5.9764277451791724e-05   -9.28188806461911e-06   -0.00025623336777380904
-5.9764277451791724e-05   -9.28188806461911e-06   -0.00025623336777380904
-5.9764277451791724e-05   -9.28188806461911e-06   -0.00025623336777380904
-5.9764277451791724e-05   -9.28188806461911e-06   -0.00025623336777380904
-2.127577013821488e-05   1.6530526839057466e-06   -0.00018552489113540013
-2.127577013821488e-05   1.6530526839057466e-06   -0.00018552489113540013
-2.127577013821488e-05   1.6530526839057466e-06   -0.00018552489113540013
-2.127577013821488e-05   1.6530526839057466e-06   -0.00018552489113540013
-1.9280788741793333e-05   -1.0065535312360485e-06   -0.0002480410784183409
-1.9280788741793333e-05   -1.0065535312360485e-06   -0.0002480410784183409
-1.9280788741793333e-05   -1.0065535312360485e-06   -0.0002480410784183409
-1.9280788741793333e-05   -1.0065535312360485e-06   -0.0002480410784183409
-5.841924081797213e-05   9.459504198806694e-06   -0.00018908995959606627
-5.841924081797213e-05   9.459504198806694e-06   -0.00018908995959606627
-5.841924081797213e-05   9.459504198806694e-06   -0.00018908995959606627
-5.841924081797213e-05   9.459504198806694e-06   -0.00018908995959606627
-3.928519318761583e-05   1.023409472799587e-06   -0.00021591838214439344
-3.928519318761583e-05   1.023409472799587e-06   -0.00021591838214439344
-3.928519318761583e-05   1.023409472799587e-06   -0.00021591838214439344
-3.928519318761583e-05   1.023409472799587e-06   -0.00021591838214439344
-5.8419240817972034e-05   -1.0065535312351812e-06   -0.0002543207130563654
-5.8419240817972034e-05   -1.0065535312351812e-06   -0.0002543207130563654
-5.8419240817972034e-05   -1.0065535312351812e-06   -0.0002543207130563654
-5.8419240817972034e-05   -1.0065535312351812e-06   -0.0002543207130563654
-1.9280788741793333e-05   9.459504198806694e-06   -0.0001828103249580425
-1.9280788741793333e-05   9.459504198806694e-06   -0.0001828103249580425
-1.9280788741793333e-05   9.459504198806694e-06   -0.0001828103249580425
-1.9280788741793333e-05   9.459504198806694e-06   -0.0001828103249580425
-1.6342656925014414e-05   6.964237566422192e-06   -0.00025141288600798737
-1.6342656925014414e-05   6.964237566422192e-06   -0.00025141288600798737
-1.6342656925014414e-05   6.964237566422192e-06   -0.00025141288600798737
-1.6342656925014414e-05   6.964237566422192e-06   -0.00025141288600798737
-5.6912104458397607e-05   1.6824295435880106e-05   -0.00018971317484068966
-5.6912104458397607e-05   1.6824295435880106e-05   -0.00018971317484068966
-5.6912104458397607e-05   1.6824295435880106e-05   -0.00018971317484068966
-5.6912104458397607e-05   1.6824295435880106e-05   -0.00018971317484068966
-3.807185405138663e-05   7.321212279834573e-06   -0.0002154117422920813
-3.807185405138663e-05   7.321212279834573e-06   -0.0002154117422920813
-3.807185405138663e-05   7.321212279834573e-06   -0.0002154117422920813
-3.807185405138663e-05   7.321212279834573e-06   -0.0002154117422920813
-5.691210445839746e-05   6.964237566422192e-06   -0.00025732892072966116
-5.691210445839746e-05   6.964237566422192e-06   -0.00025732892072966116
-5.691210445839746e-05   6.964237566422192e-06   -0.00025732892072966116
-5.691210445839746e-05   6.964237566422192e-06   -0.00025732892072966116
-1.6342656925014522e-05   1.6824295435880106e-05   -0.00018379714011901565
-1.6342656925014522e-05   1.6824295435880106e-05   -0.00018379714011901565
-1.6342656925014522e-05   1.6824295435880106e-05   -0.00018379714011901565
-1.6342656925014522e-05   1.6824295435880106e-05   -0.00018379714011901565
-1.4287210230496728e-05   1.611065414425586e-05   -0.0002584470907024592
-1.4287210230496728e-05   1.611065414425586e-05   -0.0002584470907024592
-1.4287210230496728e-05   1.611065414425586e-05   -0.0002584470907024592
-1.4287210230496728e-05   1.611065414425586e-05   -0.0002584470907024592
-5.5556290262722727e-05   2.5162596838007416e-05   -0.0001950964562649991
-5.5556290262722727e-05   2.5162596838007416e-05   -0.0001950964562649991
-5.5556290262722727e-05   2.5162596838007416e-05   -0.0001950964562649991
-5.5556290262722727e-05   2.5162596838007416e-05   -0.0001950964562649991
-3.679737602746583e-05   1.393263388639078e-05   -0.0002196233355527908
-3.679737602746583e-05   1.393263388639078e-05   -0.0002196233355527908
-3.679737602746583e-05   1.393263388639078e-05   -0.0002196233355527908
-3.679737602746583e-05   1.393263388639078e-05   -0.0002196233355527908
-2.127577013821488e-05   -1.7115622830201314e-05   -0.0001391888672144688
-2.127577013821488e-05   -1.7115622830201314e-05   -0.0001391888672144688
-2.127577013821488e-05   -1.7115622830201314e-05   -0.0001391888672144688
-2.127577013821488e-05   -1.7115622830201314e-05   -0.0001391888672144688
7.4983685584299655e-06   2.209073805114342e-06   -7.963715140553787e-05
7.4983685584299655e-06   2.209073805114342e-06   -7.963715140553787e-05
7.4983685584299655e-06   2.209073805114342e-06   -7.963715140553787e-05
7.4983685584299655e-06   2.209073805114342e-06   -7.963715140553787e-05
1.78702452656328e-05   -1.1524022248168321e-05   -0.00013313324858748058
1.78702452656328e-05   -1.1524022248168321e-05   -0.00013313324858748058
1.78702452656328e-05   -1.1524022248168321e-05   -0.00013313324858748058
1.78702452656328e-05   -1.1524022248168321e-05   -0.00013313324858748058
-1.9280788741793333e-05   8.368650366994551e-06   -8.315046214419893e-05
-1.9280788741793333e-05   8.368650366994551e-06   -8.315046214419893e-05
-1.9280788741793333e-05   8.368650366994551e-06   -8.315046214419893e-05
-1.9280788741793333e-05   8.368650366994551e-06   -8.315046214419893e-05
-3.7188154816527935e-06   -3.6733263351386436e-06   -0.00010186189822315598
-3.7188154816527935e-06   -3.6733263351386436e-06   -0.00010186189822315598
-3.7188154816527935e-06   -3.6733263351386436e-06   -0.00010186189822315598
-3.7188154816527935e-06   -3.6733263351386436e-06   -0.00010186189822315598
-1.9280788741793224e-05   -1.1524022248167454e-05   -0.00014506885215657657
-1.9280788741793224e-05   -1.1524022248167454e-05   -0.00014506885215657657
-1.9280788741793224e-05   -1.1524022248167454e-05   -0.00014506885215657657
-1.9280788741793224e-05   -1.1524022248167454e-05   -0.00014506885215657657
1.7870245265632582e-05   8.368650366994551e-06   -7.12148585751025e-05
1.7870245265632582e-05   8.368650366994551e-06   -7.12148585751025e-05
1.7870245265632582e-05   8.368650366994551e-06   -7.12148585751025e-05
1.7870245265632582e-05   8.368650366994551e-06   -7.12148585751025e-05
2.6056265758836374e-05   -7.65176122108531e-06   -0.00014047642302115202
2.6056265758836374e-05   -7.65176122108531e-06   -0.00014047642302115202
2.6056265758836374e-05   -7.65176122108531e-06   -0.00014047642302115202
2.6056265758836374e-05   -7.65176122108531e-06   -0.00014047642302115202
-1.6342656925014414e-05   1.1838292303096784e-05   -8.150558399590844e-05
-1.6342656925014414e-05   1.1838292303096784e-05   -8.150558399590844e-05
-1.6342656925014414e-05   1.1838292303096784e-05   -8.150558399590844e-05
-1.6342656925014414e-05   1.1838292303096784e-05   -8.150558399590844e-05
1.5778947117966774e-06   -7.335235753160724e-07   -0.00010383008053021234
1.5778947117966774e-06   -7.335235753160724e-07   -0.00010383008053021234
1.5778947117966774e-06   -7.335235753160724e-07   -0.00010383008053021234
1.5778947117966774e-06   -7.335235753160724e-07   -0.00010383008053021234
-1.6342656925014414e-05   -7.65176122108531e-06   -0.000152170455135661
-1.6342656925014414e-05   -7.65176122108531e-06   -0.000152170455135661
-1.6342656925014414e-05   -7.65176122108531e-06   -0.000152170455135661
-1.6342656925014414e-05   -7.65176122108531e-06   -0.000152170455135661
2.6056265758836157e-05   1.1838292303096784e-05   -6.981155188139944e-05
2.6056265758836157e-05   1.1838292303096784e-05   -6.981155188139944e-05
2.6056265758836157e-05   1.1838292303096784e-05   -6.981155188139944e-05
2.6056265758836157e-05   1.1838292303096784e-05   -6.981155188139944e-05
3.6363482694009956e-05   -1.6737961385827893e-08   -0.00015746397110696052
3.6363482694009956e-05   -1.6737961385827893e-08   -0.00015746397110696052
3.6363482694009956e-05   -1.6737961385827893e-08   -0.00015746397110696052
3.6363482694009956e-05   -1.6737961385827893e-08   -0.00015746397110696052
-1.4287210230496728e-05   1.801697973641877e-05   -8.386638018479612e-05
-1.4287210230496728e-05   1.801697973641877e-05   -8.386638018479612e-05
-1.4287210230496728e-05   1.801697973641877e-05   -8.386638018479612e-05
-1.4287210230496728e-05   1.801697973641877e-05   -8.386638018479612e-05
6.088831632826202e-06   2.647768353989527e-06   -0.00010860492312754553
6.088831632826202e-06   2.647768353989527e-06   -0.00010860492312754553
6.088831632826202e-06   2.647768353989527e-06   -0.00010860492312754553
6.088831632826202e-06   2.647768353989527e-06   -0.00010860492312754553
-6.694352837813798e-05   1.2517567052411187e-05   -0.00011904128264642998
-6.694352837813798e-05   1.2517567052411187e-05   -0.00011904128264642998
-6.694352837813798e-05   1.2517567052411187e-05   -0.00011904128264642998
-6.694352837813798e-05   1.2517567052411187e-05   -0.00011904128264642998
-6.718448902217331e-05   -5.721569696406567e-06   -0.00013038636576911435
-6.718448902217331e-05   -5.721569696406567e-06   -0.00013038636576911435
-6.718448902217331e-05   -5.721569696406567e-06   -0.00013038636576911435
-6.718448902217331e-05   -5.721569696406567e-06   -0.00013038636576911435
-6.37809775177957e-05   1.9440381728652936e-05   -0.00011183175995271508
-6.37809775177957e-05   1.9440381728652936e-05   -0.00011183175995271508
-6.37809775177957e-05   1.9440381728652936e-05   -0.00011183175995271508
-6.37809775177957e-05   1.9440381728652936e-05   -0.00011183175995271508
-5.5364699829311276e-05   -1.0832992192351398e-07   -0.00011412966244317641
-5.5364699829311276e-05   -1.0832992192351398e-07   -0.00011412966244317641
-5.5364699829311276e-05   -1.0832992192351398e-07   -0.00011412966244317641
-5.5364699829311276e-05   -1.0832992192351398e-07   -0.00011412966244317641
-6.054798665843376e-05   8.613948053253287e-06   -0.00011072421784641753
-6.054798665843376e-05   8.613948053253287e-06   -0.00011072421784641753
-6.054798665843376e-05   8.613948053253287e-06   -0.00011072421784641753
-6.054798665843376e-05   8.613948053253287e-06   -0.00011072421784641753
-5.5364699829311276e-05   1.9440381728652936e-05   -0.0001001025329623699
-5.5364699829311276e-05   1.9440381728652936e-05   -0.0001001025329623699
-5.5364699829311276e-05   1.9440381728652936e-05   -0.0001001025329623699
-5.5364699829311276e-05   1.9440381728652936e-05   -0.0001001025329623699
-6.37809775177957e-05   -1.0832992192351398e-07   -0.00012585888943352332
-6.37809775177957e-05   -1.0832992192351398e-07   -0.00012585888943352332
-6.37809775177957e-05   -1.0832992192351398e-07   -0.00012585888943352332
-6.37809775177957e-05   -1.0832992192351398e-07   -0.00012585888943352332
-5.949560011754996e-05   2.2926549597845902e-05   -0.00010378673117518271
-5.949560011754996e-05   2.2926549597845902e-05   -0.00010378673117518271
-5.949560011754996e-05   2.2926549597845902e-05   -0.00010378673117518271
-5.949560011754996e-05   2.2926549597845902e-05   -0.00010378673117518271
-4.57673209050026e-05   3.053647054928124e-06   -0.00011474345500367628
-4.57673209050026e-05   3.053647054928124e-06   -0.00011474345500367628
-4.57673209050026e-05   3.053647054928124e-06   -0.00011474345500367628
-4.57673209050026e-05   3.053647054928124e-06   -0.00011474345500367628
-5.504520101262461e-05   1.1488442261439746e-05   -0.00010434119861488494
-5.504520101262461e-05   1.1488442261439746e-05   -0.00010434119861488494
-5.504520101262461e-05   1.1488442261439746e-05   -0.00010434119861488494
-5.504520101262461e-05   1.1488442261439746e-05   -0.00010434119861488494
-4.57673209050026e-05   2.2926549597845902e-05   -9.186298964942996e-05
-4.57673209050026e-05   2.2926549597845902e-05   -9.186298964942996e-05
-4.57673209050026e-05   2.2926549597845902e-05   -9.186298964942996e-05
-4.57673209050026e-05   2.2926549597845902e-05   -9.186298964942996e-05
-5.949560011754996e-05   3.0536470549263894e-06   -0.00012666719652942643
-5.949560011754996e-05   3.0536470549263894e-06   -0.00012666719652942643
-5.949560011754996e-05   3.0536470549263894e-06   -0.00012666719652942643
-5.949560011754996e-05   3.0536470549263894e-06   -0.00012666719652942643
-5.6134695345459165e-05   2.8443099945417785e-05   -9.627989608950935e-05
-5.6134695345459165e-05   2.8443099945417785e-05   -9.627989608950935e-05
-5.6134695345459165e-05   2.8443099945417785e-05   -9.627989608950935e-05
-5.6134695345459165e-05   2.8443099945417785e-05   -9.627989608950935e-05
-3.39176703350705e-05   9.364634969659738e-06   -0.00012186119212136918
-3.39176703350705e-05   9.364634969659738e-06   -0.00012186119212136918
-3.39176703350705e-05   9.364634969659738e-06   -0.00012186119212136918
-3.39176703350705e-05   9.364634969659738e-06   -0.00012186119212136918
-4.815100166259657e-05   1.422627367535928e-05   -0.00010105595646557825
-4.815100166259657e-05   1.422627367535928e-05   -0.00010105595646557825
-4.815100166259657e-05   1.422627367535928e-05   -0.00010105595646557825
-4.815100166259657e-05   1.422627367535928e-05   -0.00010105595646557825
-6.71844890221731e-05   7.124036138813142e-06   -0.00021565094907954278
-6.71844890221731e-05   7.124036138813142e-06   -0.00021565094907954278
-6.71844890221731e-05   7.124036138813142e-06   -0.00021565094907954278
-6.71844890221731e-05   7.124036138813142e-06   -0.00021565094907954278
-7.689991916467749e-05   -1.2830585637071956e-06   -0.00023688758947189564
-7.689991916467749e-05   -1.2830585637071956e-06   -0.00023688758947189564
-7.689991916467749e-05   -1.2830585637071956e-06   -0.00023688758947189564
-7.689991916467749e-05   -1.2830585637071956e-06   -0.00023688758947189564
-7.41353384758742e-05   1.5055789443027372e-05   -0.00021583073315110946
-7.41353384758742e-05   1.5055789443027372e-05   -0.00021583073315110946
-7.41353384758742e-05   1.5055789443027372e-05   -0.00021583073315110946
-7.41353384758742e-05   1.5055789443027372e-05   -0.00021583073315110946
-6.378097751779592e-05   5.790729420264082e-06   -0.00022752896540091314
-6.378097751779592e-05   5.790729420264082e-06   -0.00022752896540091314
-6.378097751779592e-05   5.790729420264082e-06   -0.00022752896540091314
-6.378097751779592e-05   5.790729420264082e-06   -0.00022752896540091314
-6.967777329976442e-05   8.211924816668714e-06   -0.00021915368966881374
-6.967777329976442e-05   8.211924816668714e-06   -0.00021915368966881374
-6.967777329976442e-05   8.211924816668714e-06   -0.00021915368966881374
-6.967777329976442e-05   8.211924816668714e-06   -0.00021915368966881374
-6.37809775177957e-05   1.5055789443027372e-05   -0.00021027169713744819
-6.37809775177957e-05   1.5055789443027372e-05   -0.00021027169713744819
-6.37809775177957e-05   1.5055789443027372e-05   -0.00021027169713744819
-6.37809775177957e-05   1.5055789443027372e-05   -0.00021027169713744819
-7.41353384758742e-05   5.790729420262347e-06   -0.0002330880014145731
-7.41353384758742e-05   5.790729420262347e-06   -0.0002330880014145731
-7.41353384758742e-05   5.790729420262347e-06   -0.0002330880014145731
-7.41353384758742e-05   5.790729420262347e-06   -0.0002330880014145731
-7.126133878970081e-05   2.242134271344693e-05   -0.0002140239178661874
-7.126133878970081e-05   2.242134271344693e-05   -0.0002140239178661874
-7.126133878970081e-05   2.242134271344693e-05   -0.0002140239178661874
-7.126133878970081e-05   2.242134271344693e-05   -0.0002140239178661874
-5.9495600117550175e-05   1.2592397523419202e-05   -0.00022773611520575474
-5.9495600117550175e-05   1.2592397523419202e-05   -0.00022773611520575474
-5.9495600117550175e-05   1.2592397523419202e-05   -0.00022773611520575474
-5.9495600117550175e-05   1.2592397523419202e-05   -0.00022773611520575474
-6.690617391061831e-05   1.390342590670314e-05   -0.00021617177591394575
-6.690617391061831e-05   1.390342590670314e-05   -0.00021617177591394575
-6.690617391061831e-05   1.390342590670314e-05   -0.00021617177591394575
-6.690617391061831e-05   1.390342590670314e-05   -0.00021617177591394575
-5.949560011754996e-05   2.242134271344693e-05   -0.00020812655075217075
-5.949560011754996e-05   2.242134271344693e-05   -0.00020812655075217075
-5.949560011754996e-05   2.242134271344693e-05   -0.00020812655075217075
-5.949560011754996e-05   2.242134271344693e-05   -0.00020812655075217075
-7.126133878970059e-05   1.2592397523420937e-05   -0.00023363348231977008
-7.126133878970059e-05   1.2592397523420937e-05   -0.00023363348231977008
-7.126133878970059e-05   1.2592397523420937e-05   -0.00023363348231977008
-7.126133878970059e-05   1.2592397523420937e-05   -0.00023363348231977008
-6.85494452717459e-05   3.0596213015612016e-05   -0.00021756453720430356
-6.85494452717459e-05   3.0596213015612016e-05   -0.00021756453720430356
-6.85494452717459e-05   3.0596213015612016e-05   -0.00021756453720430356
-6.85494452717459e-05   3.0596213015612016e-05   -0.00021756453720430356
-5.6134695345459165e-05   2.0350113419272814e-05   -0.00023210812732364335
-5.6134695345459165e-05   2.0350113419272814e-05   -0.00023210812732364335
-5.6134695345459165e-05   2.0350113419272814e-05   -0.00023210812732364335
-5.6134695345459165e-05   2.0350113419272814e-05   -0.00023210812732364335
-6.446166476601408e-05   1.9863628241545764e-05   -0.0002179379538494175
-6.446166476601408e-05   1.9863628241545764e-05   -0.0002179379538494175
-6.446166476601408e-05   1.9863628241545764e-05   -0.0002179379538494175
-6.446166476601408e-05   1.9863628241545764e-05   -0.0002179379538494175
-7.689991916467705e-05   4.041486164684666e-06   -0.0002510030548682979
-7.689991916467705e-05   4.041486164684666e-06   -0.0002510030548682979
-7.689991916467705e-05   4.041486164684666e-06   -0.0002510030548682979
-7.689991916467705e-05   4.041486164684666e-06   -0.0002510030548682979
-8.719984535372565e-05   5.8055718909055115e-06   -0.00026711114708097977
-8.719984535372565e-05   5.8055718909055115e-06   -0.00026711114708097977
-8.719984535372565e-05   5.8055718909055115e-06   -0.00026711114708097977
-8.719984535372565e-05   5.8055718909055115e-06   -0.00026711114708097977
-8.447947352915544e-05   1.2109198528492855e-05   -0.000247160208562182
-8.447947352915544e-05   1.2109198528492855e-05   -0.000247160208562182
-8.447947352915544e-05   1.2109198528492855e-05   -0.000247160208562182
-8.447947352915544e-05   1.2109198528492855e-05   -0.000247160208562182
-7.41353384758742e-05   1.3105545986071693e-05   -0.0002649982421255297
-7.41353384758742e-05   1.3105545986071693e-05   -0.0002649982421255297
-7.41353384758742e-05   1.3105545986071693e-05   -0.0002649982421255297
-7.41353384758742e-05   1.3105545986071693e-05   -0.0002649982421255297
-8.019338637317015e-05   9.899075452388106e-06   -0.0002529776133098293
-8.019338637317015e-05   9.899075452388106e-06   -0.0002529776133098293
-8.019338637317015e-05   9.899075452388106e-06   -0.0002529776133098293
-8.019338637317015e-05   9.899075452388106e-06   -0.0002529776133098293
-7.413533847587398e-05   1.2109198528492855e-05   -0.00024775801703672863
-7.413533847587398e-05   1.2109198528492855e-05   -0.00024775801703672863
-7.413533847587398e-05   1.2109198528492855e-05   -0.00024775801703672863
-7.413533847587398e-05   1.2109198528492855e-05   -0.00024775801703672863
-8.447947352915556e-05   1.3105545986071693e-05   -0.00026440043365098375
-8.447947352915556e-05   1.3105545986071693e-05   -0.00026440043365098375
-8.447947352915556e-05   1.3105545986071693e-05   -0.00026440043365098375
-8.447947352915556e-05   1.3105545986071693e-05   -0.00026440043365098375
-8.162344757365746e-05   2.02480877628591e-05   -0.0002478873565465046
-8.162344757365746e-05   2.02480877628591e-05   -0.0002478873565465046
-8.162344757365746e-05   2.02480877628591e-05   -0.0002478873565465046
-8.162344757365746e-05   2.02480877628591e-05   -0.0002478873565465046
-7.126133878970081e-05   2.056779949700417e-05   -0.0002653493648935839
-7.126133878970081e-05   2.056779949700417e-05   -0.0002653493648935839
-7.126133878970081e-05   2.056779949700417e-05   -0.0002653493648935839
-7.126133878970081e-05   2.056779949700417e-05   -0.0002653493648935839
-7.790280333219105e-05   1.6135888852594413e-05   -0.00025162111093612665
-7.790280333219105e-05   1.6135888852594413e-05   -0.00025162111093612665
-7.790280333219105e-05   1.6135888852594413e-05   -0.00025162111093612665
-7.790280333219105e-05   1.6135888852594413e-05   -0.00025162111093612665
-7.126133878970059e-05   2.02480877628591e-05   -0.00024807918358699024
-7.126133878970059e-05   2.02480877628591e-05   -0.00024807918358699024
-7.126133878970059e-05   2.02480877628591e-05   -0.00024807918358699024
-7.126133878970059e-05   2.02480877628591e-05   -0.00024807918358699024
-8.162344757365746e-05   2.056779949700417e-05   -0.00026515753785309824
-8.162344757365746e-05   2.056779949700417e-05   -0.00026515753785309824
-8.162344757365746e-05   2.056779949700417e-05   -0.00026515753785309824
-8.162344757365746e-05   2.056779949700417e-05   -0.00026515753785309824
-7.892847289369802e-05   2.8509225918449226e-05   -0.0002526982213781285
-7.892847289369802e-05   2.8509225918449226e-05   -0.0002526982213781285
-7.892847289369802e-05   2.8509225918449226e-05   -0.0002526982213781285
-7.892847289369802e-05   2.8509225918449226e-05   -0.0002526982213781285
-6.85494452717459e-05   2.8132452492460325e-05   -0.00026977053669245297
-6.85494452717459e-05   2.8132452492460325e-05   -0.00026977053669245297
-6.85494452717459e-05   2.8132452492460325e-05   -0.00026977053669245297
-6.85494452717459e-05   2.8132452492460325e-05   -0.00026977053669245297
-7.57897542322937e-05   2.2459593099691602e-05   -0.00025429963945587967
-7.57897542322937e-05   2.2459593099691602e-05   -0.00025429963945587967
-7.57897542322937e-05   2.2459593099691602e-05   -0.00025429963945587967
-7.57897542322937e-05   2.2459593099691602e-05   -0.00025429963945587967
-8.719984535372534e-05   1.6530526839057466e-06   -0.00021660750191559216
-8.719984535372534e-05   1.6530526839057466e-06   -0.00021660750191559216
-8.719984535372534e-05   1.6530526839057466e-06   -0.00021660750191559216
-8.719984535372534e-05   1.6530526839057466e-06   -0.00021660750191559216
-9.802705891717516e-05   1.2927901295594832e-05   -0.00022788794868766268
-9.802705891717516e-05   1.2927901295594832e-05   -0.00022788794868766268
-9.802705891717516e-05   1.2927901295594832e-05   -0.00022788794868766268
-9.802705891717516e-05   1.2927901295594832e-05   -0.00022788794868766268
-9.474561808537826e-05   9.459504198806694e-06   -0.0002071308984992904
-9.474561808537826e-05   9.459504198806694e-06   -0.0002071308984992904
-9.474561808537826e-05   9.459504198806694e-06   -0.0002071308984992904
-9.474561808537826e-05   9.459504198806694e-06   -0.0002071308984992904
-8.447947352915544e-05   2.0246505571273887e-05   -0.0002307133402498073
-8.447947352915544e-05   2.0246505571273887e-05   -0.0002307133402498073
-8.447947352915544e-05   2.0246505571273887e-05   -0.0002307133402498073
-8.447947352915544e-05   2.0246505571273887e-05   -0.0002307133402498073
-9.041041942907429e-05   1.189146937027874e-05   -0.0002158154086960148
-9.041041942907429e-05   1.189146937027874e-05   -0.0002158154086960148
-9.041041942907429e-05   1.189146937027874e-05   -0.0002158154086960148
-9.041041942907429e-05   1.189146937027874e-05   -0.0002158154086960148
-8.44794735291553e-05   9.459504198806694e-06   -0.0002136030993227702
-8.44794735291553e-05   9.459504198806694e-06   -0.0002136030993227702
-8.44794735291553e-05   9.459504198806694e-06   -0.0002136030993227702
-8.44794735291553e-05   9.459504198806694e-06   -0.0002136030993227702
-9.474561808537826e-05   2.0246505571272153e-05   -0.00022424113942632815
-9.474561808537826e-05   2.0246505571272153e-05   -0.00022424113942632815
-9.474561808537826e-05   2.0246505571272153e-05   -0.00022424113942632815
-9.474561808537826e-05   2.0246505571272153e-05   -0.00022424113942632815
-9.052828052566258e-05   1.6824295435880106e-05   -0.00020806161591663784
-9.052828052566258e-05   1.6824295435880106e-05   -0.00020806161591663784
-9.052828052566258e-05   1.6824295435880106e-05   -0.00020806161591663784
-9.052828052566258e-05   1.6824295435880106e-05   -0.00020806161591663784
-8.16234475736573e-05   2.7005331885893852e-05   -0.00022901162603998647
-8.16234475736573e-05   2.7005331885893852e-05   -0.00022901162603998647
-8.16234475736573e-05   2.7005331885893852e-05   -0.00022901162603998647
-8.16234475736573e-05   2.7005331885893852e-05   -0.00022901162603998647
-8.747928447870017e-05   1.769149002048276e-05   -0.00021366359274567048
-8.747928447870017e-05   1.769149002048276e-05   -0.00021366359274567048
-8.747928447870017e-05   1.769149002048276e-05   -0.00021366359274567048
-8.747928447870017e-05   1.769149002048276e-05   -0.00021366359274567048
-8.16234475736571e-05   1.6824295435880106e-05   -0.0002141702377866433
-8.16234475736571e-05   1.6824295435880106e-05   -0.0002141702377866433
-8.16234475736571e-05   1.6824295435880106e-05   -0.0002141702377866433
-8.16234475736571e-05   1.6824295435880106e-05   -0.0002141702377866433
-9.05282805256628e-05   2.7005331885892117e-05   -0.00022290300416997946
-9.05282805256628e-05   2.7005331885892117e-05   -0.00022290300416997946
-9.05282805256628e-05   2.7005331885892117e-05   -0.00022290300416997946
-9.05282805256628e-05   2.7005331885892117e-05   -0.00022290300416997946
-8.720926577368126e-05   2.5162596838007416e-05   -0.00021383401262014146
-8.720926577368126e-05   2.5162596838007416e-05   -0.00021383401262014146
-8.720926577368126e-05   2.5162596838007416e-05   -0.00021383401262014146
-8.720926577368126e-05   2.5162596838007416e-05   -0.00021383401262014146
-7.892847289369802e-05   3.459138040712642e-05   -0.00023329260422825065
-7.892847289369802e-05   3.459138040712642e-05   -0.00023329260422825065
-7.892847289369802e-05   3.459138040712642e-05   -0.00023329260422825065
-7.892847289369802e-05   3.459138040712642e-05   -0.00023329260422825065
-8.526425910726649e-05   2.3628918313468167e-05   -0.00021615548328277143
-8.526425910726649e-05   2.3628918313468167e-05   -0.00021615548328277143
-8.526425910726649e-05   2.3628918313468167e-05   -0.00021615548328277143
-8.526425910726649e-05   2.3628918313468167e-05   -0.00021615548328277143
-9.802705891717484e-05   2.209073805114342e-06   -0.00011554967099990793
-9.802705891717484e-05   2.209073805114342e-06   -0.00011554967099990793
-9.802705891717484e-05   2.209073805114342e-06   -0.00011554967099990793
-9.802705891717484e-05   2.209073805114342e-06   -0.00011554967099990793
-0.0001182866648762619   2.1679461627113414e-05   -0.0001376334482385208
-0.0001182866648762619   2.1679461627113414e-05   -0.0001376334482385208
-0.0001182866648762619   2.1679461627113414e-05   -0.0001376334482385208
-0.0001182866648762619   2.1679461627113414e-05   -0.0001376334482385208
-0.00010678145614393514   8.368650366994551e-06   -9.550960325779194e-05
-0.00010678145614393514   8.368650366994551e-06   -9.550960325779194e-05
-0.00010678145614393514   8.368650366994551e-06   -9.550960325779194e-05
-0.00010678145614393514   8.368650366994551e-06   -9.550960325779194e-05
-9.474561808537816e-05   2.8304371079755294e-05   -0.00012753076578304195
-9.474561808537816e-05   2.8304371079755294e-05   -0.00012753076578304195
-9.474561808537816e-05   2.8304371079755294e-05   -0.00012753076578304195
-9.474561808537816e-05   2.8304371079755294e-05   -0.00012753076578304195
-0.00010023186292052615   1.5954489065510627e-05   -0.00011097709518258507
-0.00010023186292052615   1.5954489065510627e-05   -0.00011097709518258507
-0.00010023186292052615   1.5954489065510627e-05   -0.00011097709518258507
-0.00010023186292052615   1.5954489065510627e-05   -0.00011097709518258507
-9.474561808537783e-05   8.368650366994551e-06   -0.0001074710356854464
-9.474561808537783e-05   8.368650366994551e-06   -0.0001074710356854464
-9.474561808537783e-05   8.368650366994551e-06   -0.0001074710356854464
-9.474561808537783e-05   8.368650366994551e-06   -0.0001074710356854464
-0.00010678145614393493   2.8304371079755294e-05   -0.00011556933335538696
-0.00010678145614393493   2.8304371079755294e-05   -0.00011556933335538696
-0.00010678145614393493   2.8304371079755294e-05   -0.00011556933335538696
-0.00010678145614393493   2.8304371079755294e-05   -0.00011556933335538696
-9.74235621331971e-05   1.1838292303096784e-05   -9.406984735168926e-05
-9.74235621331971e-05   1.1838292303096784e-05   -9.406984735168926e-05
-9.74235621331971e-05   1.1838292303096784e-05   -9.406984735168926e-05
-9.74235621331971e-05   1.1838292303096784e-05   -9.406984735168926e-05
-9.052828052566258e-05   3.1338646372834275e-05   -0.00011726219580608763
-9.052828052566258e-05   3.1338646372834275e-05   -0.00011726219580608763
-9.052828052566258e-05   3.1338646372834275e-05   -0.00011726219580608763
-9.052828052566258e-05   3.1338646372834275e-05   -0.00011726219580608763
-9.527048956780004e-05   1.9009737886818007e-05   -0.00010196116897758347
-9.527048956780004e-05   1.9009737886818007e-05   -0.00010196116897758347
-9.527048956780004e-05   1.9009737886818007e-05   -0.00010196116897758347
-9.527048956780004e-05   1.9009737886818007e-05   -0.00010196116897758347
-9.052828052566247e-05   1.1838292303096784e-05   -0.00010577005979353193
-9.052828052566247e-05   1.1838292303096784e-05   -0.00010577005979353193
-9.052828052566247e-05   1.1838292303096784e-05   -0.00010577005979353193
-9.052828052566247e-05   1.1838292303096784e-05   -0.00010577005979353193
-9.74235621331971e-05   3.1338646372834275e-05   -0.00010556198336424561
-9.74235621331971e-05   3.1338646372834275e-05   -0.00010556198336424561
-9.74235621331971e-05   3.1338646372834275e-05   -0.00010556198336424561
-9.74235621331971e-05   3.1338646372834275e-05   -0.00010556198336424561
-8.600355746882986e-05   1.8016979736419636e-05   -9.720427631291703e-05
-8.600355746882986e-05   1.8016979736419636e-05   -9.720427631291703e-05
-8.600355746882986e-05   1.8016979736419636e-05   -9.720427631291703e-05
-8.600355746882986e-05   1.8016979736419636e-05   -9.720427631291703e-05
-8.720926577368115e-05   3.606835614187488e-05   -0.00010602558831476923
-8.720926577368115e-05   3.606835614187488e-05   -0.00010602558831476923
-8.720926577368115e-05   3.606835614187488e-05   -0.00010602558831476923
-8.720926577368115e-05   3.606835614187488e-05   -0.00010602558831476923
-8.806161512858968e-05   2.1498278174001198e-05   -9.586295927586593e-05
-8.806161512858968e-05   2.1498278174001198e-05   -9.586295927586593e-05
-8.806161512858968e-05   2.1498278174001198e-05   -9.586295927586593e-05
-8.806161512858968e-05   2.1498278174001198e-05   -9.586295927586593e-05
5.7696617854715616e-05   -5.721569696406567e-06   -6.088657807797396e-05
5.7696617854715616e-05   -5.721569696406567e-06   -6.088657807797396e-05
5.7696617854715616e-05   -5.721569696406567e-06   -6.088657807797396e-05
5.7696617854715616e-05   -5.721569696406567e-06   -6.088657807797396e-05
5.798452084242872e-06   -2.4346599447175668e-05   -0.00015855853887922254
5.798452084242872e-06   -2.4346599447175668e-05   -0.00015855853887922254
5.798452084242872e-06   -2.4346599447175668e-05   -0.00015855853887922254
5.798452084242872e-06   -2.4346599447175668e-05   -0.00015855853887922254
1.0473705431146866e-05   -1.0832992192351398e-07   -6.712248789028478e-05
1.0473705431146866e-05   -1.0832992192351398e-07   -6.712248789028478e-05
1.0473705431146866e-05   -1.0832992192351398e-07   -6.712248789028478e-05
1.0473705431146866e-05   -1.0832992192351398e-07   -6.712248789028478e-05
7.063198526441241e-05   -1.9991427523294997e-05   -0.0001554564290515703
7.063198526441241e-05   -1.9991427523294997e-05   -0.0001554564290515703
7.063198526441241e-05   -1.9991427523294997e-05   -0.0001554564290515703
7.063198526441241e-05   -1.9991427523294997e-05   -0.0001554564290515703
3.4811769410239774e-05   -1.0129896228613239e-05   -0.00010167298807142386
3.4811769410239774e-05   -1.0129896228613239e-05   -0.00010167298807142386
3.4811769410239774e-05   -1.0129896228613239e-05   -0.00010167298807142386
3.4811769410239774e-05   -1.0129896228613239e-05   -0.00010167298807142386
7.063198526441284e-05   -1.0832992192351398e-07   -5.5192629329460854e-05
7.063198526441284e-05   -1.0832992192351398e-07   -5.5192629329460854e-05
7.063198526441284e-05   -1.0832992192351398e-07   -5.5192629329460854e-05
7.063198526441284e-05   -1.0832992192351398e-07   -5.5192629329460854e-05
1.0473705431146866e-05   -1.9991427523294997e-05   -0.00016738628761239467
1.0473705431146866e-05   -1.9991427523294997e-05   -0.00016738628761239467
1.0473705431146866e-05   -1.9991427523294997e-05   -0.00016738628761239467
1.0473705431146866e-05   -1.9991427523294997e-05   -0.00016738628761239467
1.597803256898119e-05   3.053647054928124e-06   -6.758874396648601e-05
1.597803256898119e-05   3.053647054928124e-06   -6.758874396648601e-05
1.597803256898119e-05   3.053647054928124e-06   -6.758874396648601e-05
1.597803256898119e-05   3.053647054928124e-06   -6.758874396648601e-05
8.158911985841613e-05   -1.710348705854549e-05   -0.00016484627564745903
8.158911985841613e-05   -1.710348705854549e-05   -0.00016484627564745903
8.158911985841613e-05   -1.710348705854549e-05   -0.00016484627564745903
8.158911985841613e-05   -1.710348705854549e-05   -0.00016484627564745903
4.303395711547156e-05   -8.10451529428824e-06   -0.00010598705413444529
4.303395711547156e-05   -8.10451529428824e-06   -0.00010598705413444529
4.303395711547156e-05   -8.10451529428824e-06   -0.00010598705413444529
4.303395711547156e-05   -8.10451529428824e-06   -0.00010598705413444529
8.15891198584157e-05   3.053647054928124e-06   -5.549446349840167e-05
8.15891198584157e-05   3.053647054928124e-06   -5.549446349840167e-05
8.15891198584157e-05   3.053647054928124e-06   -5.549446349840167e-05
8.15891198584157e-05   3.053647054928124e-06   -5.549446349840167e-05
1.597803256898119e-05   -1.710348705854549e-05   -0.0001769405561155438
1.597803256898119e-05   -1.710348705854549e-05   -0.0001769405561155438
1.597803256898119e-05   -1.710348705854549e-05   -0.0001769405561155438
1.597803256898119e-05   -1.710348705854549e-05   -0.0001769405561155438
2.0527180621561546e-05   9.364634969659738e-06   -7.393269512871725e-05
2.0527180621561546e-05   9.364634969659738e-06   -7.393269512871725e-05
2.0527180621561546e-05   9.364634969659738e-06   -7.393269512871725e-05
2.0527180621561546e-05   9.364634969659738e-06   -7.393269512871725e-05
9.47493708687323e-05   -9.811394995080241e-06   -0.00018613072756182205
9.47493708687323e-05   -9.811394995080241e-06   -0.00018613072756182205
9.47493708687323e-05   -9.811394995080241e-06   -0.00018613072756182205
9.47493708687323e-05   -9.811394995080241e-06   -0.00018613072756182205
4.961378380370239e-05   -5.1439230232888655e-06   -0.00011370523230318577
4.961378380370239e-05   -5.1439230232888655e-06   -0.00011370523230318577
4.961378380370239e-05   -5.1439230232888655e-06   -0.00011370523230318577
4.961378380370239e-05   -5.1439230232888655e-06   -0.00011370523230318577
5.798452084242655e-06   -1.2830585637071956e-06   -0.0001735185628097052
5.798452084242655e-06   -1.2830585637071956e-06   -0.0001735185628097052
5.798452084242655e-06   -1.2830585637071956e-06   -0.0001735185628097052
5.798452084242655e-06   -1.2830585637071956e-06   -0.0001735185628097052
-5.5055356828046095e-05   -9.694343159913008e-06   -0.0002799883484212442
-5.5055356828046095e-05   -9.694343159913008e-06   -0.0002799883484212442
-5.5055356828046095e-05   -9.694343159913008e-06   -0.0002799883484212442
-5.5055356828046095e-05   -9.694343159913008e-06   -0.0002799883484212442
-5.0940849224082084e-05   5.790729420262347e-06   -0.00017451117509688537
-5.0940849224082084e-05   5.790729420262347e-06   -0.00017451117509688537
-5.0940849224082084e-05   5.790729420262347e-06   -0.00017451117509688537
-5.0940849224082084e-05   5.790729420262347e-06   -0.00017451117509688537
1.0473705431146866e-05   -3.740289311758918e-06   -0.0002711501549497223
1.0473705431146866e-05   -3.740289311758918e-06   -0.0002711501549497223
1.0473705431146866e-05   -3.740289311758918e-06   -0.0002711501549497223
1.0473705431146866e-05   -3.740289311758918e-06   -0.0002711501549497223
-2.190852352844749e-05   -4.14105481797572e-07   -0.00021917548364837596
-2.190852352844749e-05   -4.14105481797572e-07   -0.00021917548364837596
-2.190852352844749e-05   -4.14105481797572e-07   -0.00021917548364837596
-2.190852352844749e-05   -4.14105481797572e-07   -0.00021917548364837596
1.0473705431146866e-05   5.790729420264082e-06   -0.0001687925638576733
1.0473705431146866e-05   5.790729420264082e-06   -0.0001687925638576733
1.0473705431146866e-05   5.790729420264082e-06   -0.0001687925638576733
1.0473705431146866e-05   5.790729420264082e-06   -0.0001687925638576733
-5.0940849224082084e-05   -3.7402893117571834e-06   -0.0002768687661889365
-5.0940849224082084e-05   -3.7402893117571834e-06   -0.0002768687661889365
-5.0940849224082084e-05   -3.7402893117571834e-06   -0.0002768687661889365
-5.0940849224082084e-05   -3.7402893117571834e-06   -0.0002768687661889365
-4.68034417121509e-05   1.2592397523420937e-05   -0.00017476658475270614
-4.68034417121509e-05   1.2592397523420937e-05   -0.00017476658475270614
-4.68034417121509e-05   1.2592397523420937e-05   -0.00017476658475270614
-4.68034417121509e-05   1.2592397523420937e-05   -0.00017476658475270614
1.597803256898119e-05   2.4108606735979282e-06   -0.00027329345311136784
1.597803256898119e-05   2.4108606735979282e-06   -0.00027329345311136784
1.597803256898119e-05   2.4108606735979282e-06   -0.00027329345311136784
1.597803256898119e-05   2.4108606735979282e-06   -0.00027329345311136784
-1.8255572754408036e-05   4.465169986828804e-06   -0.00021747002982698983
-1.8255572754408036e-05   4.465169986828804e-06   -0.00021747002982698983
-1.8255572754408036e-05   4.465169986828804e-06   -0.00021747002982698983
-1.8255572754408036e-05   4.465169986828804e-06   -0.00021747002982698983
1.597803256898119e-05   1.2592397523419202e-05   -0.0001686576626428139
1.597803256898119e-05   1.2592397523419202e-05   -0.0001686576626428139
1.597803256898119e-05   1.2592397523419202e-05   -0.0001686576626428139
1.597803256898119e-05   1.2592397523419202e-05   -0.0001686576626428139
-4.68034417121509e-05   2.4108606735979282e-06   -0.00027940237522126096
-4.68034417121509e-05   2.4108606735979282e-06   -0.00027940237522126096
-4.68034417121509e-05   2.4108606735979282e-06   -0.00027940237522126096
-4.68034417121509e-05   2.4108606735979282e-06   -0.00027940237522126096
-4.2845510580686035e-05   2.0350113419272814e-05   -0.00017913043674601045
-4.2845510580686035e-05   2.0350113419272814e-05   -0.00017913043674601045
-4.2845510580686035e-05   2.0350113419272814e-05   -0.00017913043674601045
-4.2845510580686035e-05   2.0350113419272814e-05   -0.00017913043674601045
2.0527180621561546e-05   9.686971085151597e-06   -0.0002783537033492823
2.0527180621561546e-05   9.686971085151597e-06   -0.0002783537033492823
2.0527180621561546e-05   9.686971085151597e-06   -0.0002783537033492823
2.0527180621561546e-05   9.686971085151597e-06   -0.0002783537033492823
-1.419738670428662e-05   9.865187325437674e-06   -0.00022058635421704593
-1.419738670428662e-05   9.865187325437674e-06   -0.00022058635421704593
-1.419738670428662e-05   9.865187325437674e-06   -0.00022058635421704593
-1.419738670428662e-05   9.865187325437674e-06   -0.00022058635421704593
-5.5055356828046095e-05   5.8055718909055115e-06   -0.00020984734261224585
-5.5055356828046095e-05   5.8055718909055115e-06   -0.00020984734261224585
-5.5055356828046095e-05   5.8055718909055115e-06   -0.00020984734261224585
-5.5055356828046095e-05   5.8055718909055115e-06   -0.00020984734261224585
-0.00011540561132228184   7.322286841362005e-06   -0.000309521071132364
-0.00011540561132228184   7.322286841362005e-06   -0.000309521071132364
-0.00011540561132228184   7.322286841362005e-06   -0.000309521071132364
-0.00011540561132228184   7.322286841362005e-06   -0.000309521071132364
-0.00011125885027885547   1.3105545986071693e-05   -0.00020611822837357865
-0.00011125885027885547   1.3105545986071693e-05   -0.00020611822837357865
-0.00011125885027885547   1.3105545986071693e-05   -0.00020611822837357865
-0.00011125885027885547   1.3105545986071693e-05   -0.00020611822837357865
-5.09408492240823e-05   1.361085837651467e-05   -0.0003069514175658005
-5.09408492240823e-05   1.361085837651467e-05   -0.0003069514175658005
-5.09408492240823e-05   1.361085837651467e-05   -0.0003069514175658005
-5.09408492240823e-05   1.361085837651467e-05   -0.0003069514175658005
-8.268289801182123e-05   1.1245916521740451e-05   -0.0002526290378067038
-8.268289801182123e-05   1.1245916521740451e-05   -0.0002526290378067038
-8.268289801182123e-05   1.1245916521740451e-05   -0.0002526290378067038
-8.268289801182123e-05   1.1245916521740451e-05   -0.0002526290378067038
-5.09408492240823e-05   1.3105545986071693e-05   -0.0002064214158078448
-5.09408492240823e-05   1.3105545986071693e-05   -0.0002064214158078448
-5.09408492240823e-05   1.3105545986071693e-05   -0.0002064214158078448
-5.09408492240823e-05   1.3105545986071693e-05   -0.0002064214158078448
-0.00011125885027885547   1.361085837651467e-05   -0.000306648230131535
-0.00011125885027885547   1.361085837651467e-05   -0.000306648230131535
-0.00011125885027885547   1.361085837651467e-05   -0.000306648230131535
-0.00011125885027885547   1.361085837651467e-05   -0.000306648230131535
-0.0001070497457812301   2.056779949700417e-05   -0.0002066589230165913
-0.0001070497457812301   2.056779949700417e-05   -0.0002066589230165913
-0.0001070497457812301   2.056779949700417e-05   -0.0002066589230165913
-0.0001070497457812301   2.056779949700417e-05   -0.0002066589230165913
-4.68034417121509e-05   2.0273706680215553e-05   -0.0003068929741083181
-4.68034417121509e-05   2.0273706680215553e-05   -0.0003068929741083181
-4.68034417121509e-05   2.0273706680215553e-05   -0.0003068929741083181
-4.68034417121509e-05   2.0273706680215553e-05   -0.0003068929741083181
-7.902769467541908e-05   1.6728742214139683e-05   -0.0002510589071565627
-7.902769467541908e-05   1.6728742214139683e-05   -0.0002510589071565627
-7.902769467541908e-05   1.6728742214139683e-05   -0.0002510589071565627
-7.902769467541908e-05   1.6728742214139683e-05   -0.0002510589071565627
-4.68034417121509e-05   2.056779949700417e-05   -0.00020648246732651952
-4.68034417121509e-05   2.056779949700417e-05   -0.00020648246732651952
-4.68034417121509e-05   2.056779949700417e-05   -0.00020648246732651952
-4.68034417121509e-05   2.056779949700417e-05   -0.00020648246732651952
-0.00010704974578122994   2.0273706680215553e-05   -0.00030706942979839055
-0.00010704974578122994   2.0273706680215553e-05   -0.00030706942979839055
-0.00010704974578122994   2.0273706680215553e-05   -0.00030706942979839055
-0.00010704974578122994   2.0273706680215553e-05   -0.00030706942979839055
-0.00010303529777104441   2.8132452492460325e-05   -0.00021129396166636328
-0.00010303529777104441   2.8132452492460325e-05   -0.00021129396166636328
-0.00010303529777104441   2.8132452492460325e-05   -0.00021129396166636328
-0.00010303529777104441   2.8132452492460325e-05   -0.00021129396166636328
-4.284551058068625e-05   2.7051160310214914e-05   -0.0003109614983409462
-4.284551058068625e-05   2.7051160310214914e-05   -0.0003109614983409462
-4.284551058068625e-05   2.7051160310214914e-05   -0.0003109614983409462
-4.284551058068625e-05   2.7051160310214914e-05   -0.0003109614983409462
-7.562267755118968e-05   2.2294180182614448e-05   -0.00025347869864688266
-7.562267755118968e-05   2.2294180182614448e-05   -0.00025347869864688266
-7.562267755118968e-05   2.2294180182614448e-05   -0.00025347869864688266
-7.562267755118968e-05   2.2294180182614448e-05   -0.00025347869864688266
-0.00011540561132228203   1.2927901295594832e-05   -0.00017647902441566676
-0.00011540561132228203   1.2927901295594832e-05   -0.00017647902441566676
-0.00011540561132228203   1.2927901295594832e-05   -0.00017647902441566676
-0.00011540561132228203   1.2927901295594832e-05   -0.00017647902441566676
-0.00017494178815934087   2.3810684345006855e-05   -0.0002691763159811183
-0.00017494178815934087   2.3810684345006855e-05   -0.0002691763159811183
-0.00017494178815934087   2.3810684345006855e-05   -0.0002691763159811183
-0.00017494178815934087   2.3810684345006855e-05   -0.0002691763159811183
-0.00017021122021062158   2.0246505571273887e-05   -0.00016626568806375145
-0.00017021122021062158   2.0246505571273887e-05   -0.00016626568806375145
-0.00017021122021062158   2.0246505571273887e-05   -0.00016626568806375145
-0.00017021122021062158   2.0246505571273887e-05   -0.00016626568806375145
-0.00011125885027885547   3.0522250419025634e-05   -0.00027068508485868047
-0.00011125885027885547   3.0522250419025634e-05   -0.00027068508485868047
-0.00011125885027885547   3.0522250419025634e-05   -0.00027068508485868047
-0.00011125885027885547   3.0522250419025634e-05   -0.00027068508485868047
-0.00014196556897236068   2.2757075965332968e-05   -0.0002148481156972891
-0.00014196556897236068   2.2757075965332968e-05   -0.0002148481156972891
-0.00014196556897236068   2.2757075965332968e-05   -0.0002148481156972891
-0.00014196556897236068   2.2757075965332968e-05   -0.0002148481156972891
-0.00011125885027885569   2.0246505571272153e-05   -0.0001724311349724037
-0.00011125885027885569   2.0246505571272153e-05   -0.0001724311349724037
-0.00011125885027885569   2.0246505571272153e-05   -0.0001724311349724037
-0.00011125885027885569   2.0246505571272153e-05   -0.0001724311349724037
-0.0001702112202106219   3.0522250419025634e-05   -0.00026451963795003
-0.0001702112202106219   3.0522250419025634e-05   -0.00026451963795003
-0.0001702112202106219   3.0522250419025634e-05   -0.00026451963795003
-0.0001702112202106219   3.0522250419025634e-05   -0.00026451963795003
-0.00016456833385460724   2.7005331885892117e-05   -0.0001647720433131739
-0.00016456833385460724   2.7005331885892117e-05   -0.0001647720433131739
-0.00016456833385460724   2.7005331885892117e-05   -0.0001647720433131739
-0.00016456833385460724   2.7005331885892117e-05   -0.0001647720433131739
-0.0001070497457812301   3.657361170307169e-05   -0.00026637732465910905
-0.0001070497457812301   3.657361170307169e-05   -0.00026637732465910905
-0.0001070497457812301   3.657361170307169e-05   -0.00026637732465910905
-0.0001070497457812301   3.657361170307169e-05   -0.00026637732465910905
-0.00013720834371591396   2.804947191455305e-05   -0.00021099851089486288
-0.00013720834371591396   2.804947191455305e-05   -0.00021099851089486288
-0.00013720834371591396   2.804947191455305e-05   -0.00021099851089486288
-0.00013720834371591396   2.804947191455305e-05   -0.00021099851089486288
-0.00010704974578123002   2.7005331885892117e-05   -0.00017051301120347973
-0.00010704974578123002   2.7005331885892117e-05   -0.00017051301120347973
-0.00010704974578123002   2.7005331885892117e-05   -0.00017051301120347973
-0.00010704974578123002   2.7005331885892117e-05   -0.00017051301120347973
-0.00016456833385460724   3.6573611703069955e-05   -0.00026063635676880446
-0.00016456833385460724   3.6573611703069955e-05   -0.00026063635676880446
-0.00016456833385460724   3.6573611703069955e-05   -0.00026063635676880446
-0.00016456833385460724   3.6573611703069955e-05   -0.00026063635676880446
-0.00015986167696925276   3.459138040712642e-05   -0.00016933061533016148
-0.00015986167696925276   3.459138040712642e-05   -0.00016933061533016148
-0.00015986167696925276   3.459138040712642e-05   -0.00016933061533016148
-0.00015986167696925276   3.459138040712642e-05   -0.00016933061533016148
-0.00010303529777104441   4.3356963434467224e-05   -0.00026930059714357893
-0.00010303529777104441   4.3356963434467224e-05   -0.00026930059714357893
-0.00010303529777104441   4.3356963434467224e-05   -0.00026930059714357893
-0.00010303529777104441   4.3356963434467224e-05   -0.00026930059714357893
-0.0001339915937728276   3.3272248256454445e-05   -0.0002116559413671338
-0.0001339915937728276   3.3272248256454445e-05   -0.0002116559413671338
-0.0001339915937728276   3.3272248256454445e-05   -0.0002116559413671338
-0.0001339915937728276   3.3272248256454445e-05   -0.0002116559413671338
-0.00017494178815934087   2.1679461627113414e-05   -9.137708683007797e-05
-0.00017494178815934087   2.1679461627113414e-05   -9.137708683007797e-05
-0.00017494178815934087   2.1679461627113414e-05   -9.137708683007797e-05
-0.00017494178815934087   2.1679461627113414e-05   -9.137708683007797e-05
-0.00024269054292516885   4.0918120061936986e-05   -0.00019274848304556402
-0.00024269054292516885   4.0918120061936986e-05   -0.00019274848304556402
-0.00024269054292516885   4.0918120061936986e-05   -0.00019274848304556402
-0.00024269054292516885   4.0918120061936986e-05   -0.00019274848304556402
-0.00022982167204269976   2.8304371079755294e-05   -5.781250345149574e-05
-0.00022982167204269976   2.8304371079755294e-05   -5.781250345149574e-05
-0.00022982167204269976   2.8304371079755294e-05   -5.781250345149574e-05
-0.00022982167204269976   2.8304371079755294e-05   -5.781250345149574e-05
-0.00017021122021062158   4.787572269470894e-05   -0.0001689060674739298
-0.00017021122021062158   4.787572269470894e-05   -0.0001689060674739298
-0.00017021122021062158   4.787572269470894e-05   -0.0001689060674739298
-0.00017021122021062158   4.787572269470894e-05   -0.0001689060674739298
-0.00019609745154072628   3.550607316810464e-05   -0.0001183405588744595
-0.00019609745154072628   3.550607316810464e-05   -0.0001183405588744595
-0.00019609745154072628   3.550607316810464e-05   -0.0001183405588744595
-0.00019609745154072628   3.550607316810464e-05   -0.0001183405588744595
-0.0001702112202106218   2.8304371079755294e-05   -6.955531442046688e-05
-0.0001702112202106218   2.8304371079755294e-05   -6.955531442046688e-05
-0.0001702112202106218   2.8304371079755294e-05   -6.955531442046688e-05
-0.0001702112202106218   2.8304371079755294e-05   -6.955531442046688e-05
-0.0002298216720426989   4.7875722694707204e-05   -0.00015716325650495886
-0.0002298216720426989   4.7875722694707204e-05   -0.00015716325650495886
-0.0002298216720426989   4.7875722694707204e-05   -0.00015716325650495886
-0.0002298216720426989   4.7875722694707204e-05   -0.00015716325650495886
-0.00021918456932356473   3.1338646372834275e-05   -4.771525319747713e-05
-0.00021918456932356473   3.1338646372834275e-05   -4.771525319747713e-05
-0.00021918456932356473   3.1338646372834275e-05   -4.771525319747713e-05
-0.00021918456932356473   3.1338646372834275e-05   -4.771525319747713e-05
-0.00016456833385460702   5.036528262584647e-05   -0.00015015829406421304
-0.00016456833385460702   5.036528262584647e-05   -0.00015015829406421304
-0.00016456833385460702   5.036528262584647e-05   -0.00015015829406421304
-0.00016456833385460702   5.036528262584647e-05   -0.00015015829406421304
-0.00019131351600009433   3.862050761489419e-05   -9.853612548183042e-05
-0.00019131351600009433   3.862050761489419e-05   -9.853612548183042e-05
-0.00019131351600009433   3.862050761489419e-05   -9.853612548183042e-05
-0.00019131351600009433   3.862050761489419e-05   -9.853612548183042e-05
-0.00016456833385460724   3.1338646372834275e-05   -5.913123494928358e-05
-0.00016456833385460724   3.1338646372834275e-05   -5.913123494928358e-05
-0.00016456833385460724   3.1338646372834275e-05   -5.913123494928358e-05
-0.00016456833385460724   3.1338646372834275e-05   -5.913123494928358e-05
-0.0002191845693235645   5.0365282625844734e-05   -0.0001387423123124067
-0.0002191845693235645   5.0365282625844734e-05   -0.0001387423123124067
-0.0002191845693235645   5.0365282625844734e-05   -0.0001387423123124067
-0.0002191845693235645   5.0365282625844734e-05   -0.0001387423123124067
-0.00020663246284779307   3.606835614187315e-05   -3.723015625489712e-05
-0.00020663246284779307   3.606835614187315e-05   -3.723015625489712e-05
-0.00020663246284779307   3.606835614187315e-05   -3.723015625489712e-05
-0.00020663246284779307   3.606835614187315e-05   -3.723015625489712e-05
-0.00015986167696925276   5.3552878313965074e-05   -0.00012567217935571936
-0.00015986167696925276   5.3552878313965074e-05   -0.00012567217935571936
-0.00015986167696925276   5.3552878313965074e-05   -0.00012567217935571936
-0.00015986167696925276   5.3552878313965074e-05   -0.00012567217935571936
-0.00018134559952635027   4.013551454475767e-05   -8.181522349903292e-05
-0.00018134559952635027   4.013551454475767e-05   -8.181522349903292e-05
-0.00018134559952635027   4.013551454475767e-05   -8.181522349903292e-05
-0.00018134559952635027   4.013551454475767e-05   -8.181522349903292e-05
0.00018526925335847423   -2.4346599447175668e-05   -2.464716137686243e-06
0.00018526925335847423   -2.4346599447175668e-05   -2.464716137686243e-06
0.00018526925335847423   -2.4346599447175668e-05   -2.464716137686243e-06
0.00018526925335847423   -2.4346599447175668e-05   -2.464716137686243e-06
7.914442826714415e-05   -4.405965593140895e-05   -0.0001911672585137754
7.914442826714415e-05   -4.405965593140895e-05   -0.0001911672585137754
7.914442826714415e-05   -4.405965593140895e-05   -0.0001911672585137754
7.914442826714415e-05   -4.405965593140895e-05   -0.0001911672585137754
8.485355943969484e-05   -1.9991427523294997e-05   -2.1998258388011144e-05
8.485355943969484e-05   -1.9991427523294997e-05   -2.1998258388011144e-05
8.485355943969484e-05   -1.9991427523294997e-05   -2.1998258388011144e-05
8.485355943969484e-05   -1.9991427523294997e-05   -2.1998258388011144e-05
0.0001994567499828371   -4.095939655797583e-05   -0.00020042279453910466
0.0001994567499828371   -4.095939655797583e-05   -0.00020042279453910466
0.0001994567499828371   -4.095939655797583e-05   -0.00020042279453910466
0.0001994567499828371   -4.095939655797583e-05   -0.00020042279453910466
0.00013165795713499624   -2.8992939626926867e-05   -9.460468061799976e-05
0.00013165795713499624   -2.8992939626926867e-05   -9.460468061799976e-05
0.00013165795713499624   -2.8992939626926867e-05   -9.460468061799976e-05
0.00013165795713499624   -2.8992939626926867e-05   -9.460468061799976e-05
0.00019945674998283732   -1.9991427523294997e-05   -9.417476967202992e-06
0.00019945674998283732   -1.9991427523294997e-05   -9.417476967202992e-06
0.00019945674998283732   -1.9991427523294997e-05   -9.417476967202992e-06
0.00019945674998283732   -1.9991427523294997e-05   -9.417476967202992e-06
8.485355943969441e-05   -4.095939655797583e-05   -0.00021300357595991498
8.485355943969441e-05   -4.095939655797583e-05   -0.00021300357595991498
8.485355943969441e-05   -4.095939655797583e-05   -0.00021300357595991498
8.485355943969441e-05   -4.095939655797583e-05   -0.00021300357595991498
9.117258194730722e-05   -1.710348705854549e-05   -3.053301637843432e-05
9.117258194730722e-05   -1.710348705854549e-05   -3.053301637843432e-05
9.117258194730722e-05   -1.710348705854549e-05   -3.053301637843432e-05
9.117258194730722e-05   -1.710348705854549e-05   -3.053301637843432e-05
0.00021139716086063243   -3.831558794867469e-05   -0.00021818005403323373
0.00021139716086063243   -3.831558794867469e-05   -0.00021818005403323373
0.00021139716086063243   -3.831558794867469e-05   -0.00021818005403323373
0.00021139716086063243   -3.831558794867469e-05   -0.00021818005403323373
0.000142317210435762   -2.7817474774420592e-05   -0.00010934567122966848
0.000142317210435762   -2.7817474774420592e-05   -0.00010934567122966848
0.000142317210435762   -2.7817474774420592e-05   -0.00010934567122966848
0.000142317210435762   -2.7817474774420592e-05   -0.00010934567122966848
0.0002113971608606333   -1.710348705854549e-05   -1.78057558443568e-05
0.0002113971608606333   -1.710348705854549e-05   -1.78057558443568e-05
0.0002113971608606333   -1.710348705854549e-05   -1.78057558443568e-05
0.0002113971608606333   -1.710348705854549e-05   -1.78057558443568e-05
9.117258194730679e-05   -3.831558794867469e-05   -0.00023090731456731298
9.117258194730679e-05   -3.831558794867469e-05   -0.00023090731456731298
9.117258194730679e-05   -3.831558794867469e-05   -0.00023090731456731298
9.117258194730679e-05   -3.831558794867469e-05   -0.00023090731456731298
9.64132956894103e-05   -9.811394995080241e-06   -5.029858779107693e-05
9.64132956894103e-05   -9.811394995080241e-06   -5.029858779107693e-05
9.64132956894103e-05   -9.811394995080241e-06   -5.029858779107693e-05
9.64132956894103e-05   -9.811394995080241e-06   -5.029858779107693e-05
0.00022525816900053242   -2.9931644913836278e-05   -0.0002529678933583593
0.00022525816900053242   -2.9931644913836278e-05   -0.0002529678933583593
0.00022525816900053242   -2.9931644913836278e-05   -0.0002529678933583593
0.00022525816900053242   -2.9931644913836278e-05   -0.0002529678933583593
0.0001481553103598671   -2.4562806773657103e-05   -0.0001276844318413642
0.0001481553103598671   -2.4562806773657103e-05   -0.0001276844318413642
0.0001481553103598671   -2.4562806773657103e-05   -0.0001276844318413642
0.0001481553103598671   -2.4562806773657103e-05   -0.0001276844318413642
7.914442826714436e-05   -9.694343159913008e-06   -0.0001306755888125224
7.914442826714436e-05   -9.694343159913008e-06   -0.0001306755888125224
7.914442826714436e-05   -9.694343159913008e-06   -0.0001306755888125224
7.914442826714436e-05   -9.694343159913008e-06   -0.0001306755888125224
-3.339310063534733e-05   -2.0740480925070595e-05   -0.0003248658196424361
-3.339310063534733e-05   -2.0740480925070595e-05   -0.0003248658196424361
-3.339310063534733e-05   -2.0740480925070595e-05   -0.0003248658196424361
-3.339310063534733e-05   -2.0740480925070595e-05   -0.0003248658196424361
-2.8068812800120953e-05   -3.7402893117571834e-06   -0.00013339830381418026
-2.8068812800120953e-05   -3.7402893117571834e-06   -0.00013339830381418026
-2.8068812800120953e-05   -3.7402893117571834e-06   -0.00013339830381418026
-2.8068812800120953e-05   -3.7402893117571834e-06   -0.00013339830381418026
8.485355943969441e-05   -1.646725279316058e-05   -0.0003139660794583654
8.485355943969441e-05   -1.646725279316058e-05   -0.0003139660794583654
8.485355943969441e-05   -1.646725279316058e-05   -0.0003139660794583654
8.485355943969441e-05   -1.646725279316058e-05   -0.0003139660794583654
2.592010990351372e-05   -1.0048195876110819e-05   -0.00021959509771495933
2.592010990351372e-05   -1.0048195876110819e-05   -0.00021959509771495933
2.592010990351372e-05   -1.0048195876110819e-05   -0.00021959509771495933
2.592010990351372e-05   -1.0048195876110819e-05   -0.00021959509771495933
8.485355943969462e-05   -3.7402893117571834e-06   -0.0001257621257253396
8.485355943969462e-05   -3.7402893117571834e-06   -0.0001257621257253396
8.485355943969462e-05   -3.7402893117571834e-06   -0.0001257621257253396
8.485355943969462e-05   -3.7402893117571834e-06   -0.0001257621257253396
-2.8068812800120953e-05   -1.646725279316058e-05   -0.0003216022575472065
-2.8068812800120953e-05   -1.646725279316058e-05   -0.0003216022575472065
-2.8068812800120953e-05   -1.646725279316058e-05   -0.0003216022575472065
-2.8068812800120953e-05   -1.646725279316058e-05   -0.0003216022575472065
-2.298476786974737e-05   2.4108606735979282e-06   -0.0001350768805901733
-2.298476786974737e-05   2.4108606735979282e-06   -0.0001350768805901733
-2.298476786974737e-05   2.4108606735979282e-06   -0.0001350768805901733
-2.298476786974737e-05   2.4108606735979282e-06   -0.0001350768805901733
9.117258194730679e-05   -1.1240751352926959e-05   -0.00031714816306934986
9.117258194730679e-05   -1.1240751352926959e-05   -0.00031714816306934986
9.117258194730679e-05   -1.1240751352926959e-05   -0.00031714816306934986
9.117258194730679e-05   -1.1240751352926959e-05   -0.00031714816306934986
3.0160231358115875e-05   -6.27655329850374e-06   -0.0002184394309200149
3.0160231358115875e-05   -6.27655329850374e-06   -0.0002184394309200149
3.0160231358115875e-05   -6.27655329850374e-06   -0.0002184394309200149
3.0160231358115875e-05   -6.27655329850374e-06   -0.0002184394309200149
9.117258194730722e-05   2.4108606735979282e-06   -0.00012688591337425923
9.117258194730722e-05   2.4108606735979282e-06   -0.00012688591337425923
9.117258194730722e-05   2.4108606735979282e-06   -0.00012688591337425923
9.117258194730722e-05   2.4108606735979282e-06   -0.00012688591337425923
-2.298476786974737e-05   -1.1240751352926959e-05   -0.0003253391302852652
-2.298476786974737e-05   -1.1240751352926959e-05   -0.0003253391302852652
-2.298476786974737e-05   -1.1240751352926959e-05   -0.0003253391302852652
-2.298476786974737e-05   -1.1240751352926959e-05   -0.0003253391302852652
-1.8204821364094432e-05   9.686971085149862e-06   -0.0001396311351748742
-1.8204821364094432e-05   9.686971085149862e-06   -0.0001396311351748742
-1.8204821364094432e-05   9.686971085149862e-06   -0.0001396311351748742
-1.8204821364094432e-05   9.686971085149862e-06   -0.0001396311351748742
9.641329568941008e-05   -4.67167820681659e-06   -0.0003220461406888667
9.641329568941008e-05   -4.67167820681659e-06   -0.0003220461406888667
9.641329568941008e-05   -4.67167820681659e-06   -0.0003220461406888667
9.641329568941008e-05   -4.67167820681659e-06   -0.0003220461406888667
3.542462413261445e-05   -1.6297240683898345e-06   -0.0002222235272439357
3.542462413261445e-05   -1.6297240683898345e-06   -0.0002222235272439357
3.542462413261445e-05   -1.6297240683898345e-06   -0.0002222235272439357
3.542462413261445e-05   -1.6297240683898345e-06   -0.0002222235272439357
-3.339310063534744e-05   7.322286841362005e-06   -0.00016774602315301236
-3.339310063534744e-05   7.322286841362005e-06   -0.00016774602315301236
-3.339310063534744e-05   7.322286841362005e-06   -0.00016774602315301236
-3.339310063534744e-05   7.322286841362005e-06   -0.00016774602315301236
-0.0001439492398825975   3.5636557666317986e-06   -0.0003542614338766011
-0.0001439492398825975   3.5636557666317986e-06   -0.0003542614338766011
-0.0001439492398825975   3.5636557666317986e-06   -0.0003542614338766011
-0.0001439492398825975   3.5636557666317986e-06   -0.0003542614338766011
-0.00013821683207019197   1.3610858376516405e-05   -0.00016663430645567218
-0.00013821683207019197   1.3610858376516405e-05   -0.00016663430645567218
-0.00013821683207019197   1.3610858376516405e-05   -0.00016663430645567218
-0.00013821683207019197   1.3610858376516405e-05   -0.00016663430645567218
-2.8068812800120953e-05   8.355272935472655e-06   -0.00034706098730783136
-2.8068812800120953e-05   8.355272935472655e-06   -0.00034706098730783136
-2.8068812800120953e-05   8.355272935472655e-06   -0.00034706098730783136
-2.8068812800120953e-05   8.355272935472655e-06   -0.00034706098730783136
-8.531463409140876e-05   1.0030969130721268e-05   -0.00025265670287283413
-8.531463409140876e-05   1.0030969130721268e-05   -0.00025265670287283413
-8.531463409140876e-05   1.0030969130721268e-05   -0.00025265670287283413
-8.531463409140876e-05   1.0030969130721268e-05   -0.00025265670287283413
-2.8068812800120953e-05   1.361085837651467e-05   -0.00016348095519104662
-2.8068812800120953e-05   1.361085837651467e-05   -0.00016348095519104662
-2.8068812800120953e-05   1.361085837651467e-05   -0.00016348095519104662
-2.8068812800120953e-05   1.361085837651467e-05   -0.00016348095519104662
-0.00013821683207019197   8.355272935472655e-06   -0.00035021433857245713
-0.00013821683207019197   8.355272935472655e-06   -0.00035021433857245713
-0.00013821683207019197   8.355272935472655e-06   -0.00035021433857245713
-0.00013821683207019197   8.355272935472655e-06   -0.00035021433857245713
-0.00013269060362027942   2.0273706680217288e-05   -0.00016638237049854641
-0.00013269060362027942   2.0273706680217288e-05   -0.00016638237049854641
-0.00013269060362027942   2.0273706680217288e-05   -0.00016638237049854641
-0.00013269060362027942   2.0273706680217288e-05   -0.00016638237049854641
-2.2984767869747478e-05   1.3915554978028571e-05   -0.00034541053906145345
-2.2984767869747478e-05   1.3915554978028571e-05   -0.00034541053906145345
-2.2984767869747478e-05   1.3915554978028571e-05   -0.00034541053906145345
-2.2984767869747478e-05   1.3915554978028571e-05   -0.00034541053906145345
-8.037625689011593e-05   1.4514849438550942e-05   -0.0002501176340371507
-8.037625689011593e-05   1.4514849438550942e-05   -0.0002501176340371507
-8.037625689011593e-05   1.4514849438550942e-05   -0.0002501176340371507
-8.037625689011593e-05   1.4514849438550942e-05   -0.0002501176340371507
-2.2984767869747478e-05   2.0273706680215553e-05   -0.00016256747947723197
-2.2984767869747478e-05   2.0273706680215553e-05   -0.00016256747947723197
-2.2984767869747478e-05   2.0273706680215553e-05   -0.00016256747947723197
-2.2984767869747478e-05   2.0273706680215553e-05   -0.00016256747947723197
-0.00013269060362027942   1.3915554978028571e-05   -0.00034922543008276616
-0.00013269060362027942   1.3915554978028571e-05   -0.00034922543008276616
-0.00013269060362027942   1.3915554978028571e-05   -0.00034922543008276616
-0.00013269060362027942   1.3915554978028571e-05   -0.00034922543008276616
-0.0001275835938641713   2.705116031021665e-05   -0.0001702732818604502
-0.0001275835938641713   2.705116031021665e-05   -0.0001702732818604502
-0.0001275835938641713   2.705116031021665e-05   -0.0001702732818604502
-0.0001275835938641713   2.705116031021665e-05   -0.0001702732818604502
-1.8204821364094432e-05   1.9664098486235626e-05   -0.00034813899893285745
-1.8204821364094432e-05   1.9664098486235626e-05   -0.00034813899893285745
-1.8204821364094432e-05   1.9664098486235626e-05   -0.00034813899893285745
-1.8204821364094432e-05   1.9664098486235626e-05   -0.00034813899893285745
-7.595923023719083e-05   1.911606864872517e-05   -0.000251552832908529
-7.595923023719083e-05   1.911606864872517e-05   -0.000251552832908529
-7.595923023719083e-05   1.911606864872517e-05   -0.000251552832908529
-7.595923023719083e-05   1.911606864872517e-05   -0.000251552832908529
-0.00014394923988259777   2.3810684345006855e-05   -0.00013618611647625133
-0.00014394923988259777   2.3810684345006855e-05   -0.00013618611647625133
-0.00014394923988259777   2.3810684345006855e-05   -0.00013618611647625133
-0.00014394923988259777   2.3810684345006855e-05   -0.00013618611647625133
-0.00025233612103984094   2.8733201150777862e-05   -0.00031387740832152823
-0.00025233612103984094   2.8733201150777862e-05   -0.00031387740832152823
-0.00025233612103984094   2.8733201150777862e-05   -0.00031387740832152823
-0.00025233612103984094   2.8733201150777862e-05   -0.00031387740832152823
-0.00024543443248891447   3.0522250419025634e-05   -0.00012808505669586415
-0.00024543443248891447   3.0522250419025634e-05   -0.00012808505669586415
-0.00024543443248891447   3.0522250419025634e-05   -0.00012808505669586415
-0.00024543443248891447   3.0522250419025634e-05   -0.00012808505669586415
-0.00013821683207019219   3.48324245639485e-05   -0.0003093671618806885
-0.00013821683207019219   3.48324245639485e-05   -0.0003093671618806885
-0.00013821683207019219   3.48324245639485e-05   -0.0003093671618806885
-0.00013821683207019219   3.48324245639485e-05   -0.0003093671618806885
-0.00019355708593901897   3.0765266513623976e-05   -0.00021469311060245012
-0.00019355708593901897   3.0765266513623976e-05   -0.00021469311060245012
-0.00019355708593901897   3.0765266513623976e-05   -0.00021469311060245012
-0.00019355708593901897   3.0765266513623976e-05   -0.00021469311060245012
-0.00013821683207019219   3.0522250419025634e-05   -0.00013067116118281857
-0.00013821683207019219   3.0522250419025634e-05   -0.00013067116118281857
-0.00013821683207019219   3.0522250419025634e-05   -0.00013067116118281857
-0.00013821683207019219   3.0522250419025634e-05   -0.00013067116118281857
-0.00024543443248891496   3.48324245639485e-05   -0.0003067810573937355
-0.00024543443248891496   3.48324245639485e-05   -0.0003067810573937355
-0.00024543443248891496   3.48324245639485e-05   -0.0003067810573937355
-0.00024543443248891496   3.48324245639485e-05   -0.0003067810573937355
-0.00023781427893488215   3.657361170307169e-05   -0.00012358207942154628
-0.00023781427893488215   3.657361170307169e-05   -0.00012358207942154628
-0.00023781427893488215   3.657361170307169e-05   -0.00012358207942154628
-0.00023781427893488215   3.657361170307169e-05   -0.00012358207942154628
-0.00013269060362027966   4.008725493260222e-05   -0.0003008963908836032
-0.00013269060362027966   4.008725493260222e-05   -0.0003008963908836032
-0.00013269060362027966   4.008725493260222e-05   -0.0003008963908836032
-0.00013269060362027966   4.008725493260222e-05   -0.0003008963908836032
-0.00018659341622252512   3.5505112306518163e-05   -0.00020830908430421145
-0.00018659341622252512   3.5505112306518163e-05   -0.00020830908430421145
-0.00018659341622252512   3.5505112306518163e-05   -0.00020830908430421145
-0.00018659341622252512   3.5505112306518163e-05   -0.00020830908430421145
-0.00013269060362027952   3.657361170307169e-05   -0.00012569026535926443
-0.00013269060362027952   3.657361170307169e-05   -0.00012569026535926443
-0.00013269060362027952   3.657361170307169e-05   -0.00012569026535926443
-0.00013269060362027952   3.657361170307169e-05   -0.00012569026535926443
-0.00023781427893488215   4.008725493260222e-05   -0.00029878820494588353
-0.00023781427893488215   4.008725493260222e-05   -0.00029878820494588353
-0.00023781427893488215   4.008725493260222e-05   -0.00029878820494588353
-0.00023781427893488215   4.008725493260222e-05   -0.00029878820494588353
-0.00023137082305169361   4.3356963434467224e-05   -0.00012643060999533232
-0.00023137082305169361   4.3356963434467224e-05   -0.00012643060999533232
-0.00023137082305169361   4.3356963434467224e-05   -0.00012643060999533232
-0.00023137082305169361   4.3356963434467224e-05   -0.00012643060999533232
-0.00012758359386417153   4.591195569847613e-05   -0.0003009423206662735
-0.00012758359386417153   4.591195569847613e-05   -0.0003009423206662735
-0.00012758359386417153   4.591195569847613e-05   -0.0003009423206662735
-0.00012758359386417153   4.591195569847613e-05   -0.0003009423206662735
-0.0001822204912959883   3.987549470537734e-05   -0.00020625894835071996
-0.0001822204912959883   3.987549470537734e-05   -0.00020625894835071996
-0.0001822204912959883   3.987549470537734e-05   -0.00020625894835071996
-0.0001822204912959883   3.987549470537734e-05   -0.00020625894835071996
-0.00025233612103984094   4.0918120061936986e-05   -6.834796851813013e-05
-0.00025233612103984094   4.0918120061936986e-05   -6.834796851813013e-05
-0.00025233612103984094   4.0918120061936986e-05   -6.834796851813013e-05
-0.00025233612103984094   4.0918120061936986e-05   -6.834796851813013e-05
-0.00036633588920196507   5.664206382961605e-05   -0.00024891321586106505
-0.00036633588920196507   5.664206382961605e-05   -0.00024891321586106505
-0.00036633588920196507   5.664206382961605e-05   -0.00024891321586106505
-0.00036633588920196507   5.664206382961605e-05   -0.00024891321586106505
-0.00035060141166071645   4.787572269470894e-05   -2.235062542523588e-05
-0.00035060141166071645   4.787572269470894e-05   -2.235062542523588e-05
-0.00035060141166071645   4.787572269470894e-05   -2.235062542523588e-05
-0.00035060141166071645   4.787572269470894e-05   -2.235062542523588e-05
-0.00024543443248891447   6.474382401892506e-05   -0.0002077497848394357
-0.00024543443248891447   6.474382401892506e-05   -0.0002077497848394357
-0.00024543443248891447   6.474382401892506e-05   -0.0002077497848394357
-0.00024543443248891447   6.474382401892506e-05   -0.0002077497848394357
-0.00029111533632310906   5.3968512769154986e-05   -0.00012514975836591582
-0.00029111533632310906   5.3968512769154986e-05   -0.00012514975836591582
-0.00029111533632310906   5.3968512769154986e-05   -0.00012514975836591582
-0.00029111533632310906   5.3968512769154986e-05   -0.00012514975836591582
-0.00024543443248891474   4.787572269470894e-05   -3.247148621976503e-05
-0.00024543443248891474   4.787572269470894e-05   -3.247148621976503e-05
-0.00024543443248891474   4.787572269470894e-05   -3.247148621976503e-05
-0.00024543443248891474   4.787572269470894e-05   -3.247148621976503e-05
-0.0003506014116607159   6.474382401892506e-05   -0.00019762892404490487
-0.0003506014116607159   6.474382401892506e-05   -0.00019762892404490487
-0.0003506014116607159   6.474382401892506e-05   -0.00019762892404490487
-0.0003506014116607159   6.474382401892506e-05   -0.00019762892404490487
-0.0003376512810920317   5.0365282625844734e-05   -3.2021908473690505e-06
-0.0003376512810920317   5.0365282625844734e-05   -3.2021908473690505e-06
-0.0003376512810920317   5.0365282625844734e-05   -3.2021908473690505e-06
-0.0003376512810920317   5.0365282625844734e-05   -3.2021908473690505e-06
-0.00023781427893488215   6.686832574182358e-05   -0.00017949902031220546
-0.00023781427893488215   6.686832574182358e-05   -0.00017949902031220546
-0.00023781427893488215   6.686832574182358e-05   -0.00017949902031220546
-0.00023781427893488215   6.686832574182358e-05   -0.00017949902031220546
-0.00028566136984191424   5.717411839127433e-05   -9.393734439015278e-05
-0.00028566136984191424   5.717411839127433e-05   -9.393734439015278e-05
-0.00028566136984191424   5.717411839127433e-05   -9.393734439015278e-05
-0.00028566136984191424   5.717411839127433e-05   -9.393734439015278e-05
-0.00023781427893488215   5.0365282625844734e-05   -1.3104016716956705e-05
-0.00023781427893488215   5.0365282625844734e-05   -1.3104016716956705e-05
-0.00023781427893488215   5.0365282625844734e-05   -1.3104016716956705e-05
-0.00023781427893488215   5.0365282625844734e-05   -1.3104016716956705e-05
-0.0003376512810920305   6.686832574182358e-05   -0.00016959719444261875
-0.0003376512810920305   6.686832574182358e-05   -0.00016959719444261875
-0.0003376512810920305   6.686832574182358e-05   -0.00016959719444261875
-0.0003376512810920305   6.686832574182358e-05   -0.00016959719444261875
-0.000323709988976599   5.3552878313965074e-05   2.1046727573916305e-05
-0.000323709988976599   5.3552878313965074e-05   2.1046727573916305e-05
-0.000323709988976599   5.3552878313965074e-05   2.1046727573916305e-05
-0.000323709988976599   5.3552878313965074e-05   2.1046727573916305e-05
-0.00023137082305169361   6.873332764361847e-05   -0.0001419601518987176
-0.00023137082305169361   6.873332764361847e-05   -0.0001419601518987176
-0.00023137082305169361   6.873332764361847e-05   -0.0001419601518987176
-0.00023137082305169361   6.873332764361847e-05   -0.0001419601518987176
-0.00027258461033568225   5.770269065657509e-05   -6.665212423318098e-05
-0.00027258461033568225   5.770269065657509e-05   -6.665212423318098e-05
-0.00027258461033568225   5.770269065657509e-05   -6.665212423318098e-05
-0.00027258461033568225   5.770269065657509e-05   -6.665212423318098e-05
0.00031552558118477423   -4.405965593140895e-05   6.148758752501371e-05
0.00031552558118477423   -4.405965593140895e-05   6.148758752501371e-05
0.00031552558118477423   -4.405965593140895e-05   6.148758752501371e-05
0.00031552558118477423   -4.405965593140895e-05   6.148758752501371e-05
0.0001522955009302452   -6.540101207508538e-05   -0.000223367359918741
0.0001522955009302452   -6.540101207508538e-05   -0.000223367359918741
0.0001522955009302452   -6.540101207508538e-05   -0.000223367359918741
0.0001522955009302452   -6.540101207508538e-05   -0.000223367359918741
0.00015862929680578348   -4.095939655797583e-05   2.9089957090496638e-05
0.00015862929680578348   -4.095939655797583e-05   2.9089957090496638e-05
0.00015862929680578348   -4.095939655797583e-05   2.9089957090496638e-05
0.00015862929680578348   -4.095939655797583e-05   2.9089957090496638e-05
0.00033013503325981315   -6.385461620157795e-05   -0.00024301580521339083
0.00033013503325981315   -6.385461620157795e-05   -0.00024301580521339083
0.00033013503325981315   -6.385461620157795e-05   -0.00024301580521339083
0.00033013503325981315   -6.385461620157795e-05   -0.00024301580521339083
0.00022943480700528414   -4.827801830124823e-05   -8.452805352937402e-05
0.00022943480700528414   -4.827801830124823e-05   -8.452805352937402e-05
0.00022943480700528414   -4.827801830124823e-05   -8.452805352937402e-05
0.00022943480700528414   -4.827801830124823e-05   -8.452805352937402e-05
0.0003301350332598136   -4.095939655797583e-05   4.282708887665826e-05
0.0003301350332598136   -4.095939655797583e-05   4.282708887665826e-05
0.0003301350332598136   -4.095939655797583e-05   4.282708887665826e-05
0.0003301350332598136   -4.095939655797583e-05   4.282708887665826e-05
0.00015862929680578305   -6.385461620157795e-05   -0.00025675293699955245
0.00015862929680578305   -6.385461620157795e-05   -0.00025675293699955245
0.00015862929680578305   -6.385461620157795e-05   -0.00025675293699955245
0.00015862929680578305   -6.385461620157795e-05   -0.00025675293699955245
0.00016492747210119932   -3.831558794867469e-05   1.3284333588622563e-05
0.00016492747210119932   -3.831558794867469e-05   1.3284333588622563e-05
0.00016492747210119932   -3.831558794867469e-05   1.3284333588622563e-05
0.00016492747210119932   -3.831558794867469e-05   1.3284333588622563e-05
0.0003413634533296654   -6.164417929054554e-05   -0.00026677848032036515
0.0003413634533296654   -6.164417929054554e-05   -0.00026677848032036515
0.0003413634533296654   -6.164417929054554e-05   -0.00026677848032036515
0.0003413634533296654   -6.164417929054554e-05   -0.00026677848032036515
0.00024172310296610505   -4.812270578668544e-05   -0.00010882411381674768
0.00024172310296610505   -4.812270578668544e-05   -0.00010882411381674768
0.00024172310296610505   -4.812270578668544e-05   -0.00010882411381674768
0.00024172310296610505   -4.812270578668544e-05   -0.00010882411381674768
0.0003413634533296654   -3.831558794867469e-05   2.7281488393744377e-05
0.0003413634533296654   -3.831558794867469e-05   2.7281488393744377e-05
0.0003413634533296654   -3.831558794867469e-05   2.7281488393744377e-05
0.0003413634533296654   -3.831558794867469e-05   2.7281488393744377e-05
0.00016492747210119932   -6.16441792905438e-05   -0.00028077563512548826
0.00016492747210119932   -6.16441792905438e-05   -0.00028077563512548826
0.00016492747210119932   -6.16441792905438e-05   -0.00028077563512548826
0.00016492747210119932   -6.16441792905438e-05   -0.00028077563512548826
0.0001692215443321783   -2.9931644913836278e-05   -1.8627208131741235e-05
0.0001692215443321783   -2.9931644913836278e-05   -1.8627208131741235e-05
0.0001692215443321783   -2.9931644913836278e-05   -1.8627208131741235e-05
0.0001692215443321783   -2.9931644913836278e-05   -1.8627208131741235e-05
0.000353231397488692   -5.299916288720348e-05   -0.0003114697859419105
0.000353231397488692   -5.299916288720348e-05   -0.0003114697859419105
0.000353231397488692   -5.299916288720348e-05   -0.0003114697859419105
0.000353231397488692   -5.299916288720348e-05   -0.0003114697859419105
0.00024523243371686967   -4.443623821902276e-05   -0.00013660926778978665
0.00024523243371686967   -4.443623821902276e-05   -0.00013660926778978665
0.00024523243371686967   -4.443623821902276e-05   -0.00013660926778978665
0.00024523243371686967   -4.443623821902276e-05   -0.00013660926778978665
0.0001522955009302452   -2.074048092507233e-05   -7.83881046307576e-05
0.0001522955009302452   -2.074048092507233e-05   -7.83881046307576e-05
0.0001522955009302452   -2.074048092507233e-05   -7.83881046307576e-05
0.0001522955009302452   -2.074048092507233e-05   -7.83881046307576e-05
-8.783649714111993e-06   -4.264510541950907e-05   -0.0003599961304013516
-8.783649714111993e-06   -4.264510541950907e-05   -0.0003599961304013516
-8.783649714111993e-06   -4.264510541950907e-05   -0.0003599961304013516
-8.783649714111993e-06   -4.264510541950907e-05   -0.0003599961304013516
-2.2725783313761643e-06   -1.646725279316058e-05   -8.637624801060423e-05
-2.2725783313761643e-06   -1.646725279316058e-05   -8.637624801060423e-05
-2.2725783313761643e-06   -1.646725279316058e-05   -8.637624801060423e-05
-2.2725783313761643e-06   -1.646725279316058e-05   -8.637624801060423e-05
0.00015862929680578348   -4.0640088797576704e-05   -0.0003400423383032188
0.00015862929680578348   -4.0640088797576704e-05   -0.0003400423383032188
0.00015862929680578348   -4.0640088797576704e-05   -0.0003400423383032188
0.00015862929680578348   -4.0640088797576704e-05   -0.0003400423383032188
7.52013418007747e-05   -2.5788098846041274e-05   -0.00020990694059912522
7.52013418007747e-05   -2.5788098846041274e-05   -0.00020990694059912522
7.52013418007747e-05   -2.5788098846041274e-05   -0.00020990694059912522
7.52013418007747e-05   -2.5788098846041274e-05   -0.00020990694059912522
0.00015862929680578327   -1.646725279316058e-05   -7.187254640795421e-05
0.00015862929680578327   -1.646725279316058e-05   -7.187254640795421e-05
0.00015862929680578327   -1.646725279316058e-05   -7.187254640795421e-05
0.00015862929680578327   -1.646725279316058e-05   -7.187254640795421e-05
-2.2725783313761643e-06   -4.0640088797576704e-05   -0.00035454603990586926
-2.2725783313761643e-06   -4.0640088797576704e-05   -0.00035454603990586926
-2.2725783313761643e-06   -4.0640088797576704e-05   -0.00035454603990586926
-2.2725783313761643e-06   -4.0640088797576704e-05   -0.00035454603990586926
3.4665563511922584e-06   -1.1240751352926959e-05   -8.834026767852964e-05
3.4665563511922584e-06   -1.1240751352926959e-05   -8.834026767852964e-05
3.4665563511922584e-06   -1.1240751352926959e-05   -8.834026767852964e-05
3.4665563511922584e-06   -1.1240751352926959e-05   -8.834026767852964e-05
0.00016492747210119932   -3.6880339294782793e-05   -0.00034205804116342674
0.00016492747210119932   -3.6880339294782793e-05   -0.00034205804116342674
0.00016492747210119932   -3.6880339294782793e-05   -0.00034205804116342674
0.00016492747210119932   -3.6880339294782793e-05   -0.00034205804116342674
7.965627336301061e-05   -2.3711399755529938e-05   -0.00020784074032332601
7.965627336301061e-05   -2.3711399755529938e-05   -0.00020784074032332601
7.965627336301061e-05   -2.3711399755529938e-05   -0.00020784074032332601
7.965627336301061e-05   -2.3711399755529938e-05   -0.00020784074032332601
0.00016492747210119932   -1.1240751352926959e-05   -7.295651491341475e-05
0.00016492747210119932   -1.1240751352926959e-05   -7.295651491341475e-05
0.00016492747210119932   -1.1240751352926959e-05   -7.295651491341475e-05
0.00016492747210119932   -1.1240751352926959e-05   -7.295651491341475e-05
3.46655635119215e-06   -3.688033929478453e-05   -0.000357441793928541
3.46655635119215e-06   -3.688033929478453e-05   -0.000357441793928541
3.46655635119215e-06   -3.688033929478453e-05   -0.000357441793928541
3.46655635119215e-06   -3.688033929478453e-05   -0.000357441793928541
7.561145594363393e-06   -4.671678206818325e-06   -9.175019039189304e-05
7.561145594363393e-06   -4.671678206818325e-06   -9.175019039189304e-05
7.561145594363393e-06   -4.671678206818325e-06   -9.175019039189304e-05
7.561145594363393e-06   -4.671678206818325e-06   -9.175019039189304e-05
0.00016922154433217872   -3.153315300831461e-05   -0.0003450673034073521
0.00016922154433217872   -3.153315300831461e-05   -0.0003450673034073521
0.00016922154433217872   -3.153315300831461e-05   -0.0003450673034073521
0.00016922154433217872   -3.153315300831461e-05   -0.0003450673034073521
8.495466907056429e-05   -2.0035278297452636e-05   -0.0002115212361311859
8.495466907056429e-05   -2.0035278297452636e-05   -0.0002115212361311859
8.495466907056429e-05   -2.0035278297452636e-05   -0.0002115212361311859
8.495466907056429e-05   -2.0035278297452636e-05   -0.0002115212361311859
-8.783649714111993e-06   3.5636557666317986e-06   -0.00011867131491674794
-8.783649714111993e-06   3.5636557666317986e-06   -0.00011867131491674794
-8.783649714111993e-06   3.5636557666317986e-06   -0.00011867131491674794
-8.783649714111993e-06   3.5636557666317986e-06   -0.00011867131491674794
-0.00016748201940827408   -2.2801105787799772e-05   -0.000398987454673011
-0.00016748201940827408   -2.2801105787799772e-05   -0.000398987454673011
-0.00016748201940827408   -2.2801105787799772e-05   -0.000398987454673011
-0.00016748201940827408   -2.2801105787799772e-05   -0.000398987454673011
-0.000159673489341401   8.355272935472655e-06   -0.0001291182379311081
-0.000159673489341401   8.355272935472655e-06   -0.0001291182379311081
-0.000159673489341401   8.355272935472655e-06   -0.0001291182379311081
-0.000159673489341401   8.355272935472655e-06   -0.0001291182379311081
-2.2725783313761643e-06   -2.045016066432731e-05   -0.000374169829454603
-2.2725783313761643e-06   -2.045016066432731e-05   -0.000374169829454603
-2.2725783313761643e-06   -2.045016066432731e-05   -0.000374169829454603
-2.2725783313761643e-06   -2.045016066432731e-05   -0.000374169829454603
-8.353417727780587e-05   -4.675172188554205e-06   -0.0002481988242960167
-8.353417727780587e-05   -4.675172188554205e-06   -0.0002481988242960167
-8.353417727780587e-05   -4.675172188554205e-06   -0.0002481988242960167
-8.353417727780587e-05   -4.675172188554205e-06   -0.0002481988242960167
-2.2725783313761643e-06   8.355272935472655e-06   -0.00011183497777122846
-2.2725783313761643e-06   8.355272935472655e-06   -0.00011183497777122846
-2.2725783313761643e-06   8.355272935472655e-06   -0.00011183497777122846
-2.2725783313761643e-06   8.355272935472655e-06   -0.00011183497777122846
-0.000159673489341401   -2.0450160664329045e-05   -0.0003914530896144833
-0.000159673489341401   -2.0450160664329045e-05   -0.0003914530896144833
-0.000159673489341401   -2.0450160664329045e-05   -0.0003914530896144833
-0.000159673489341401   -2.0450160664329045e-05   -0.0003914530896144833
-0.00015250913395265946   1.3915554978028571e-05   -0.00012681199039226397
-0.00015250913395265946   1.3915554978028571e-05   -0.00012681199039226397
-0.00015250913395265946   1.3915554978028571e-05   -0.00012681199039226397
-0.00015250913395265946   1.3915554978028571e-05   -0.00012681199039226397
3.46655635119215e-06   -1.675163491788624e-05   -0.0003683711602944688
3.46655635119215e-06   -1.675163491788624e-05   -0.0003683711602944688
3.46655635119215e-06   -1.675163491788624e-05   -0.0003683711602944688
3.46655635119215e-06   -1.675163491788624e-05   -0.0003683711602944688
-7.716631306216407e-05   -1.9691606714840326e-06   -0.000242852529153383
-7.716631306216407e-05   -1.9691606714840326e-06   -0.000242852529153383
-7.716631306216407e-05   -1.9691606714840326e-06   -0.000242852529153383
-7.716631306216407e-05   -1.9691606714840326e-06   -0.000242852529153383
3.46655635119215e-06   1.3915554978028571e-05   -0.00010841167645471612
3.46655635119215e-06   1.3915554978028571e-05   -0.00010841167645471612
3.46655635119215e-06   1.3915554978028571e-05   -0.00010841167645471612
3.46655635119215e-06   1.3915554978028571e-05   -0.00010841167645471612
-0.00015250913395265967   -1.6751634917887975e-05   -0.00038677147423201927
-0.00015250913395265967   -1.6751634917887975e-05   -0.00038677147423201927
-0.00015250913395265967   -1.6751634917887975e-05   -0.00038677147423201927
-0.00015250913395265967   -1.6751634917887975e-05   -0.00038677147423201927
-0.0001476752599408378   1.966409848623736e-05   -0.00012897620765492737
-0.0001476752599408378   1.966409848623736e-05   -0.00012897620765492737
-0.0001476752599408378   1.966409848623736e-05   -0.00012897620765492737
-0.0001476752599408378   1.966409848623736e-05   -0.00012897620765492737
7.561145594363501e-06   -1.3249815837466927e-05   -0.00036795520161937213
7.561145594363501e-06   -1.3249815837466927e-05   -0.00036795520161937213
7.561145594363501e-06   -1.3249815837466927e-05   -0.00036795520161937213
7.561145594363501e-06   -1.3249815837466927e-05   -0.00036795520161937213
-7.261586953982677e-05   1.0736000236304805e-06   -0.0002429208925790508
-7.261586953982677e-05   1.0736000236304805e-06   -0.0002429208925790508
-7.261586953982677e-05   1.0736000236304805e-06   -0.0002429208925790508
-7.261586953982677e-05   1.0736000236304805e-06   -0.0002429208925790508
-0.0001674820194082737   2.8733201150776128e-05   -9.70596563777959e-05
-0.0001674820194082737   2.8733201150776128e-05   -9.70596563777959e-05
-0.0001674820194082737   2.8733201150776128e-05   -9.70596563777959e-05
-0.0001674820194082737   2.8733201150776128e-05   -9.70596563777959e-05
-0.0003283391065023395   4.911560532613185e-06   -0.0003794477859054707
-0.0003283391065023395   4.911560532613185e-06   -0.0003794477859054707
-0.0003283391065023395   4.911560532613185e-06   -0.0003794477859054707
-0.0003283391065023395   4.911560532613185e-06   -0.0003794477859054707
-0.0003172271188633626   3.48324245639485e-05   -0.00010358261362221517
-0.0003172271188633626   3.48324245639485e-05   -0.00010358261362221517
-0.0003172271188633626   3.48324245639485e-05   -0.00010358261362221517
-0.0003172271188633626   3.48324245639485e-05   -0.00010358261362221517
-0.00015967348934140067   9.313170592490164e-06   -0.0003508604437759426
-0.00015967348934140067   9.313170592490164e-06   -0.0003508604437759426
-0.00015967348934140067   9.313170592490164e-06   -0.0003508604437759426
-0.00015967348934140067   9.313170592490164e-06   -0.0003508604437759426
-0.00024063517851982056   2.157093010924163e-05   -0.00022327895085529504
-0.00024063517851982056   2.157093010924163e-05   -0.00022327895085529504
-0.00024063517851982056   2.157093010924163e-05   -0.00022327895085529504
-0.00024063517851982056   2.157093010924163e-05   -0.00022327895085529504
-0.00015967348934140067   3.48324245639485e-05   -8.827106123934086e-05
-0.00015967348934140067   3.48324245639485e-05   -8.827106123934086e-05
-0.00015967348934140067   3.48324245639485e-05   -8.827106123934086e-05
-0.00015967348934140067   3.48324245639485e-05   -8.827106123934086e-05
-0.00031722711886336317   9.313170592490164e-06   -0.00036617199615881883
-0.00031722711886336317   9.313170592490164e-06   -0.00036617199615881883
-0.00031722711886336317   9.313170592490164e-06   -0.00036617199615881883
-0.00031722711886336317   9.313170592490164e-06   -0.00036617199615881883
-0.00030650348949167307   4.008725493260222e-05   -9.451280875774799e-05
-0.00030650348949167307   4.008725493260222e-05   -9.451280875774799e-05
-0.00030650348949167307   4.008725493260222e-05   -9.451280875774799e-05
-0.00030650348949167307   4.008725493260222e-05   -9.451280875774799e-05
-0.00015250913395265967   1.3370825658193253e-05   -0.00033514021042479146
-0.00015250913395265967   1.3370825658193253e-05   -0.00033514021042479146
-0.00015250913395265967   1.3370825658193253e-05   -0.00033514021042479146
-0.00015250913395265967   1.3370825658193253e-05   -0.00033514021042479146
-0.00023061938758446468   2.539976728273448e-05   -0.0002121738193465077
-0.00023061938758446468   2.539976728273448e-05   -0.0002121738193465077
-0.00023061938758446468   2.539976728273448e-05   -0.0002121738193465077
-0.00023061938758446468   2.539976728273448e-05   -0.0002121738193465077
-0.00015250913395265935   4.008725493260222e-05   -7.848295119310122e-05
-0.00015250913395265935   4.008725493260222e-05   -7.848295119310122e-05
-0.00015250913395265935   4.008725493260222e-05   -7.848295119310122e-05
-0.00015250913395265935   4.008725493260222e-05   -7.848295119310122e-05
-0.0003065034894916736   1.3370825658193253e-05   -0.0003511700679894366
-0.0003065034894916736   1.3370825658193253e-05   -0.0003511700679894366
-0.0003065034894916736   1.3370825658193253e-05   -0.0003511700679894366
-0.0003065034894916736   1.3370825658193253e-05   -0.0003511700679894366
-0.00029834231480762403   4.591195569847613e-05   -9.480523959814156e-05
-0.00029834231480762403   4.591195569847613e-05   -9.480523959814156e-05
-0.00029834231480762403   4.591195569847613e-05   -9.480523959814156e-05
-0.00029834231480762403   4.591195569847613e-05   -9.480523959814156e-05
-0.000147675259940838   1.6815376858162617e-05   -0.00032845905040526516
-0.000147675259940838   1.6815376858162617e-05   -0.00032845905040526516
-0.000147675259940838   1.6815376858162617e-05   -0.00032845905040526516
-0.000147675259940838   1.6815376858162617e-05   -0.00032845905040526516
-0.0002249472792766031   2.8068684134836472e-05   -0.00020642433587832708
-0.0002249472792766031   2.8068684134836472e-05   -0.00020642433587832708
-0.0002249472792766031   2.8068684134836472e-05   -0.00020642433587832708
-0.0002249472792766031   2.8068684134836472e-05   -0.00020642433587832708
-0.0003283391065023395   5.664206382961605e-05   -5.582281454883861e-05
-0.0003283391065023395   5.664206382961605e-05   -5.582281454883861e-05
-0.0003283391065023395   5.664206382961605e-05   -5.582281454883861e-05
-0.0003283391065023395   5.664206382961605e-05   -5.582281454883861e-05
-0.0004962432580180712   5.330470639288744e-05   -0.00033766548153709754
-0.0004962432580180712   5.330470639288744e-05   -0.00033766548153709754
-0.0004962432580180712   5.330470639288744e-05   -0.00033766548153709754
-0.0004962432580180712   5.330470639288744e-05   -0.00033766548153709754
-0.0004744678173788557   6.47438240189268e-05   -2.770766408895578e-06
-0.0004744678173788557   6.47438240189268e-05   -2.770766408895578e-06
-0.0004744678173788557   6.47438240189268e-05   -2.770766408895578e-06
-0.0004744678173788557   6.47438240189268e-05   -2.770766408895578e-06
-0.0003172271188633621   6.771144845062367e-05   -0.00026661917192707235
-0.0003172271188633621   6.771144845062367e-05   -0.00026661917192707235
-0.0003172271188633621   6.771144845062367e-05   -0.00026661917192707235
-0.0003172271188633621   6.771144845062367e-05   -0.00026661917192707235
-0.00038663363741826666   6.387569370108412e-05   -0.0001486401881525051
-0.00038663363741826666   6.387569370108412e-05   -0.0001486401881525051
-0.00038663363741826666   6.387569370108412e-05   -0.0001486401881525051
-0.00038663363741826666   6.387569370108412e-05   -0.0001486401881525051
-0.0003172271188633629   6.474382401892506e-05   -4.551341067913703e-06
-0.0003172271188633629   6.474382401892506e-05   -4.551341067913703e-06
-0.0003172271188633629   6.474382401892506e-05   -4.551341067913703e-06
-0.0003172271188633629   6.474382401892506e-05   -4.551341067913703e-06
-0.0004744678173788557   6.771144845062367e-05   -0.0002648385972680526
-0.0004744678173788557   6.771144845062367e-05   -0.0002648385972680526
-0.0004744678173788557   6.771144845062367e-05   -0.0002648385972680526
-0.0004744678173788557   6.771144845062367e-05   -0.0002648385972680526
-0.0004563853930736908   6.686832574182358e-05   2.721861506324065e-05
-0.0004563853930736908   6.686832574182358e-05   2.721861506324065e-05
-0.0004563853930736908   6.686832574182358e-05   2.721861506324065e-05
-0.0004563853930736908   6.686832574182358e-05   2.721861506324065e-05
-0.00030650348949167307   7.093872438733786e-05   -0.00022502679676076552
-0.00030650348949167307   7.093872438733786e-05   -0.00022502679676076552
-0.00030650348949167307   7.093872438733786e-05   -0.00022502679676076552
-0.00030650348949167307   7.093872438733786e-05   -0.00022502679676076552
-0.00037825978051264127   6.854082872332148e-05   -0.00010399424099407067
-0.00037825978051264127   6.854082872332148e-05   -0.00010399424099407067
-0.00037825978051264127   6.854082872332148e-05   -0.00010399424099407067
-0.00037825978051264127   6.854082872332148e-05   -0.00010399424099407067
-0.0003065034894916736   6.686832574182532e-05   2.477637587593e-05
-0.0003065034894916736   6.686832574182532e-05   2.477637587593e-05
-0.0003065034894916736   6.686832574182532e-05   2.477637587593e-05
-0.0003065034894916736   6.686832574182532e-05   2.477637587593e-05
-0.00045638539307369004   7.093872438733786e-05   -0.00022258455757345752
-0.00045638539307369004   7.093872438733786e-05   -0.00022258455757345752
-0.00045638539307369004   7.093872438733786e-05   -0.00022258455757345752
-0.00045638539307369004   7.093872438733786e-05   -0.00022258455757345752
-0.0004374971351675731   6.873332764361847e-05   6.733435629874968e-05
-0.0004374971351675731   6.873332764361847e-05   6.733435629874968e-05
-0.0004374971351675731   6.873332764361847e-05   6.733435629874968e-05
-0.0004374971351675731   6.873332764361847e-05   6.733435629874968e-05
-0.00029834231480762403   7.655069845651993e-05   -0.00016928076678890863
-0.00029834231480762403   7.655069845651993e-05   -0.00016928076678890863
-0.00029834231480762403   7.655069845651993e-05   -0.00016928076678890863
-0.00029834231480762403   7.655069845651993e-05   -0.00016928076678890863
-0.000360073870593443   7.013680555567267e-05   -6.254650473870582e-05
-0.000360073870593443   7.013680555567267e-05   -6.254650473870582e-05
-0.000360073870593443   7.013680555567267e-05   -6.254650473870582e-05
-0.000360073870593443   7.013680555567267e-05   -6.254650473870582e-05
0.0004346452677490944   -6.540101207508538e-05   0.00014743500534511282
0.0004346452677490944   -6.540101207508538e-05   0.00014743500534511282
0.0004346452677490944   -6.540101207508538e-05   0.00014743500534511282
0.0004346452677490944   -6.540101207508538e-05   0.00014743500534511282
0.00021873620878943428   -8.283654425248616e-05   -0.0002228747455607612
0.00021873620878943428   -8.283654425248616e-05   -0.0002228747455607612
0.00021873620878943428   -8.283654425248616e-05   -0.0002228747455607612
0.00021873620878943428   -8.283654425248616e-05   -0.0002228747455607612
0.0002241662308753961   -6.385461620157969e-05   0.00010554831985887941
0.0002241662308753961   -6.385461620157969e-05   0.00010554831985887941
0.0002241662308753961   -6.385461620157969e-05   0.00010554831985887941
0.0002241662308753961   -6.385461620157969e-05   0.00010554831985887941
0.00044558717085483603   -8.490791435062164e-05   -0.000250854601217427
0.00044558717085483603   -8.490791435062164e-05   -0.000250854601217427
0.00044558717085483603   -8.490791435062164e-05   -0.000250854601217427
0.00044558717085483603   -8.490791435062164e-05   -0.000250854601217427
0.0003176252892225003   -6.680988512756947e-05   -4.8443616030699986e-05
0.0003176252892225003   -6.680988512756947e-05   -4.8443616030699986e-05
0.0003176252892225003   -6.680988512756947e-05   -4.8443616030699986e-05
0.0003176252892225003   -6.680988512756947e-05   -4.8443616030699986e-05
0.00044558717085483603   -6.385461620157969e-05   0.00011818029874830632
0.00044558717085483603   -6.385461620157969e-05   0.00011818029874830632
0.00044558717085483603   -6.385461620157969e-05   0.00011818029874830632
0.00044558717085483603   -6.385461620157969e-05   0.00011818029874830632
0.0002241662308753961   -8.490791435062164e-05   -0.00026348658010685345
0.0002241662308753961   -8.490791435062164e-05   -0.00026348658010685345
0.0002241662308753961   -8.490791435062164e-05   -0.00026348658010685345
0.0002241662308753961   -8.490791435062164e-05   -0.00026348658010685345
0.00022875794969942577   -6.16441792905438e-05   8.317320054640476e-05
0.00022875794969942577   -6.16441792905438e-05   8.317320054640476e-05
0.00022875794969942577   -6.16441792905438e-05   8.317320054640476e-05
0.00022875794969942577   -6.16441792905438e-05   8.317320054640476e-05
0.0004524149935281039   -8.415541166410453e-05   -0.0002760817997439209
0.0004524149935281039   -8.415541166410453e-05   -0.0002760817997439209
0.0004524149935281039   -8.415541166410453e-05   -0.0002760817997439209
0.0004524149935281039   -8.415541166410453e-05   -0.0002760817997439209
0.0003288992881755115   -6.894066818759204e-05   -7.935113690884328e-05
0.0003288992881755115   -6.894066818759204e-05   -7.935113690884328e-05
0.0003288992881755115   -6.894066818759204e-05   -7.935113690884328e-05
0.0003288992881755115   -6.894066818759204e-05   -7.935113690884328e-05
0.0004524149935281039   -6.16441792905438e-05   9.66799399705412e-05
0.0004524149935281039   -6.16441792905438e-05   9.66799399705412e-05
0.0004524149935281039   -6.16441792905438e-05   9.66799399705412e-05
0.0004524149935281039   -6.16441792905438e-05   9.66799399705412e-05
0.00022875794969942577   -8.415541166410453e-05   -0.0002895885391680595
0.00022875794969942577   -8.415541166410453e-05   -0.0002895885391680595
0.00022875794969942577   -8.415541166410453e-05   -0.0002895885391680595
0.00022875794969942577   -8.415541166410453e-05   -0.0002895885391680595
0.00023356782961734667   -5.299916288720348e-05   3.96595856532022e-05
0.00023356782961734667   -5.299916288720348e-05   3.96595856532022e-05
0.00023356782961734667   -5.299916288720348e-05   3.96595856532022e-05
0.00023356782961734667   -5.299916288720348e-05   3.96595856532022e-05
0.00045913702209036565   -7.952234355136645e-05   -0.0003203751600699986
0.00045913702209036565   -7.952234355136645e-05   -0.0003203751600699986
0.00045913702209036565   -7.952234355136645e-05   -0.0003203751600699986
0.00045913702209036565   -7.952234355136645e-05   -0.0003203751600699986
0.0003291444104946487   -6.637474113644487e-05   -0.00011160936885942427
0.0003291444104946487   -6.637474113644487e-05   -0.00011160936885942427
0.0003291444104946487   -6.637474113644487e-05   -0.00011160936885942427
0.0003291444104946487   -6.637474113644487e-05   -0.00011160936885942427
0.00021873620878943428   -4.2645105419507334e-05   1.3487690252724296e-05
0.00021873620878943428   -4.2645105419507334e-05   1.3487690252724296e-05
0.00021873620878943428   -4.2645105419507334e-05   1.3487690252724296e-05
0.00021873620878943428   -4.2645105419507334e-05   1.3487690252724296e-05
2.6644884311395958e-05   -8.373913935526972e-05   -0.00033132093757212884
2.6644884311395958e-05   -8.373913935526972e-05   -0.00033132093757212884
2.6644884311395958e-05   -8.373913935526972e-05   -0.00033132093757212884
2.6644884311395958e-05   -8.373913935526972e-05   -0.00033132093757212884
3.298174926412824e-05   -4.0640088797576704e-05   -3.3620876507649278e-06
3.298174926412824e-05   -4.0640088797576704e-05   -3.3620876507649278e-06
3.298174926412824e-05   -4.0640088797576704e-05   -3.3620876507649278e-06
3.298174926412824e-05   -4.0640088797576704e-05   -3.3620876507649278e-06
0.00022416623087539664   -8.334176580753958e-05   -0.0002963818841302333
0.00022416623087539664   -8.334176580753958e-05   -0.0002963818841302333
0.00022416623087539664   -8.334176580753958e-05   -0.0002963818841302333
0.00022416623087539664   -8.334176580753958e-05   -0.0002963818841302333
0.0001261374972817202   -5.6457740514055665e-05   -0.00014913107665019557
0.0001261374972817202   -5.6457740514055665e-05   -0.00014913107665019557
0.0001261374972817202   -5.6457740514055665e-05   -0.00014913107665019557
0.0001261374972817202   -5.6457740514055665e-05   -0.00014913107665019557
0.00022416623087539588   -4.064008879757497e-05   2.225891855521349e-05
0.00022416623087539588   -4.064008879757497e-05   2.225891855521349e-05
0.00022416623087539588   -4.064008879757497e-05   2.225891855521349e-05
0.00022416623087539588   -4.064008879757497e-05   2.225891855521349e-05
3.298174926412824e-05   -8.334176580753958e-05   -0.0003220028903362128
3.298174926412824e-05   -8.334176580753958e-05   -0.0003220028903362128
3.298174926412824e-05   -8.334176580753958e-05   -0.0003220028903362128
3.298174926412824e-05   -8.334176580753958e-05   -0.0003220028903362128
3.870284524688057e-05   -3.6880339294782793e-05   -5.340875447621893e-06
3.870284524688057e-05   -3.6880339294782793e-05   -5.340875447621893e-06
3.870284524688057e-05   -3.6880339294782793e-05   -5.340875447621893e-06
3.870284524688057e-05   -3.6880339294782793e-05   -5.340875447621893e-06
0.00022875794969942577   -8.226645588826215e-05   -0.0002948677129124425
0.00022875794969942577   -8.226645588826215e-05   -0.0002948677129124425
0.00022875794969942577   -8.226645588826215e-05   -0.0002948677129124425
0.00022875794969942577   -8.226645588826215e-05   -0.0002948677129124425
0.00012976336453923785   -5.711789370992787e-05   -0.00014496587495245895
0.00012976336453923785   -5.711789370992787e-05   -0.00014496587495245895
0.00012976336453923785   -5.711789370992787e-05   -0.00014496587495245895
0.00012976336453923785   -5.711789370992787e-05   -0.00014496587495245895
0.00022875794969942577   -3.688033929478453e-05   2.1890794508466066e-05
0.00022875794969942577   -3.688033929478453e-05   2.1890794508466066e-05
0.00022875794969942577   -3.688033929478453e-05   2.1890794508466066e-05
0.00022875794969942577   -3.688033929478453e-05   2.1890794508466066e-05
3.870284524688057e-05   -8.226645588826215e-05   -0.0003220993828685296
3.870284524688057e-05   -8.226645588826215e-05   -0.0003220993828685296
3.870284524688057e-05   -8.226645588826215e-05   -0.0003220993828685296
3.870284524688057e-05   -8.226645588826215e-05   -0.0003220993828685296
4.7234513111493455e-05   -3.153315300831634e-05   -9.23154499262932e-06
4.7234513111493455e-05   -3.153315300831634e-05   -9.23154499262932e-06
4.7234513111493455e-05   -3.153315300831634e-05   -9.23154499262932e-06
4.7234513111493455e-05   -3.153315300831634e-05   -9.23154499262932e-06
0.00023356782961734645   -8.009002628232842e-05   -0.000290652948537976
0.00023356782961734645   -8.009002628232842e-05   -0.000290652948537976
0.00023356782961734645   -8.009002628232842e-05   -0.000290652948537976
0.00023356782961734645   -8.009002628232842e-05   -0.000290652948537976
0.00013660685013433868   -5.62826366493456e-05   -0.00014333574984608504
0.00013660685013433868   -5.62826366493456e-05   -0.00014333574984608504
0.00013660685013433868   -5.62826366493456e-05   -0.00014333574984608504
0.00013660685013433868   -5.62826366493456e-05   -0.00014333574984608504
2.6644884311395958e-05   -2.2801105787801507e-05   -3.434119744773201e-05
2.6644884311395958e-05   -2.2801105787801507e-05   -3.434119744773201e-05
2.6644884311395958e-05   -2.2801105787801507e-05   -3.434119744773201e-05
2.6644884311395958e-05   -2.2801105787801507e-05   -3.434119744773201e-05
-0.00016348908559266713   -0.00010169300720080932   -0.0003985662881356416
-0.00016348908559266713   -0.00010169300720080932   -0.0003985662881356416
-0.00016348908559266713   -0.00010169300720080932   -0.0003985662881356416
-0.00016348908559266713   -0.00010169300720080932   -0.0003985662881356416
-0.00015362572422332032   -2.045016066432731e-05   -7.311091775734878e-05
-0.00015362572422332032   -2.045016066432731e-05   -7.311091775734878e-05
-0.00015362572422332032   -2.045016066432731e-05   -7.311091775734878e-05
-0.00015362572422332032   -2.045016066432731e-05   -7.311091775734878e-05
3.298174926412824e-05   -0.00010399189492741115   -0.00033399833301191325
3.298174926412824e-05   -0.00010399189492741115   -0.00033399833301191325
3.298174926412824e-05   -0.00010399189492741115   -0.00033399833301191325
3.298174926412824e-05   -0.00010399189492741115   -0.00033399833301191325
-6.214729836394312e-05   -5.766462679524312e-05   -0.00020324628117776144
-6.214729836394312e-05   -5.766462679524312e-05   -0.00020324628117776144
-6.214729836394312e-05   -5.766462679524312e-05   -0.00020324628117776144
-6.214729836394312e-05   -5.766462679524312e-05   -0.00020324628117776144
3.298174926412824e-05   -2.045016066432731e-05   -2.298587719950021e-05
3.298174926412824e-05   -2.045016066432731e-05   -2.298587719950021e-05
3.298174926412824e-05   -2.045016066432731e-05   -2.298587719950021e-05
3.298174926412824e-05   -2.045016066432731e-05   -2.298587719950021e-05
-0.00015362572422332054   -0.00010399189492741115   -0.00038412337356976203
-0.00015362572422332054   -0.00010399189492741115   -0.00038412337356976203
-0.00015362572422332054   -0.00010399189492741115   -0.00038412337356976203
-0.00015362572422332054   -0.00010399189492741115   -0.00038412337356976203
-0.00014513486798297325   -1.675163491788624e-05   -6.835863360992074e-05
-0.00014513486798297325   -1.675163491788624e-05   -6.835863360992074e-05
-0.00014513486798297325   -1.675163491788624e-05   -6.835863360992074e-05
-0.00014513486798297325   -1.675163491788624e-05   -6.835863360992074e-05
3.870284524688057e-05   -0.00010356562124517327   -0.0003226664305299733
3.870284524688057e-05   -0.00010356562124517327   -0.0003226664305299733
3.870284524688057e-05   -0.00010356562124517327   -0.0003226664305299733
3.870284524688057e-05   -0.00010356562124517327   -0.0003226664305299733
-5.513940592648226e-05   -5.901473211351524e-05   -0.00019299321205336253
-5.513940592648226e-05   -5.901473211351524e-05   -0.00019299321205336253
-5.513940592648226e-05   -5.901473211351524e-05   -0.00019299321205336253
-5.513940592648226e-05   -5.901473211351524e-05   -0.00019299321205336253
3.870284524688057e-05   -1.675163491788624e-05   -1.6270241813550607e-05
3.870284524688057e-05   -1.675163491788624e-05   -1.6270241813550607e-05
3.870284524688057e-05   -1.675163491788624e-05   -1.6270241813550607e-05
3.870284524688057e-05   -1.675163491788624e-05   -1.6270241813550607e-05
-0.0001451348679829737   -0.00010356562124517327   -0.0003747548223263456
-0.0001451348679829737   -0.00010356562124517327   -0.0003747548223263456
-0.0001451348679829737   -0.00010356562124517327   -0.0003747548223263456
-0.0001451348679829737   -0.00010356562124517327   -0.0003747548223263456
-0.00013049042444500804   -1.3249815837466927e-05   -6.805542769244659e-05
-0.00013049042444500804   -1.3249815837466927e-05   -6.805542769244659e-05
-0.00013049042444500804   -1.3249815837466927e-05   -6.805542769244659e-05
-0.00013049042444500804   -1.3249815837466927e-05   -6.805542769244659e-05
4.723451311149356e-05   -0.00010000459811863177   -0.0003122107875845844
4.723451311149356e-05   -0.00010000459811863177   -0.0003122107875845844
4.723451311149356e-05   -0.00010000459811863177   -0.0003122107875845844
4.723451311149356e-05   -0.00010000459811863177   -0.0003122107875845844
-4.603566495974253e-05   -5.7760948719315364e-05   -0.00018210668043878043
-4.603566495974253e-05   -5.7760948719315364e-05   -0.00018210668043878043
-4.603566495974253e-05   -5.7760948719315364e-05   -0.00018210668043878043
-4.603566495974253e-05   -5.7760948719315364e-05   -0.00018210668043878043
-0.00016348908559266702   4.911560532613185e-06   -4.784368515709653e-05
-0.00016348908559266702   4.911560532613185e-06   -4.784368515709653e-05
-0.00016348908559266702   4.911560532613185e-06   -4.784368515709653e-05
-0.00016348908559266702   4.911560532613185e-06   -4.784368515709653e-05
-0.0003758882114813724   -0.00012745420192851464   -0.00048126168578161745
-0.0003758882114813724   -0.00012745420192851464   -0.00048126168578161745
-0.0003758882114813724   -0.00012745420192851464   -0.00048126168578161745
-0.0003758882114813724   -0.00012745420192851464   -0.00048126168578161745
-0.00036416068635627367   9.313170592488429e-06   -0.00012333413644871616
-0.00036416068635627367   9.313170592488429e-06   -0.00012333413644871616
-0.00036416068635627367   9.313170592488429e-06   -0.00012333413644871616
-0.00036416068635627367   9.313170592488429e-06   -0.00012333413644871616
-0.00015362572422332032   -0.00014204660362402213   -0.00038340987547372924
-0.00015362572422332032   -0.00014204660362402213   -0.00038340987547372924
-0.00015362572422332032   -0.00014204660362402213   -0.00038340987547372924
-0.00015362572422332032   -0.00014204660362402213   -0.00038340987547372924
-0.0002604537665724208   -6.516056440837581e-05   -0.0002514947617546148
-0.0002604537665724208   -6.516056440837581e-05   -0.0002514947617546148
-0.0002604537665724208   -6.516056440837581e-05   -0.0002514947617546148
-0.0002604537665724208   -6.516056440837581e-05   -0.0002514947617546148
-0.00015362572422332032   9.313170592488429e-06   -3.251827191880739e-05
-0.00015362572422332032   9.313170592488429e-06   -3.251827191880739e-05
-0.00015362572422332032   9.313170592488429e-06   -3.251827191880739e-05
-0.00015362572422332032   9.313170592488429e-06   -3.251827191880739e-05
-0.00036416068635627367   -0.00014204660362402213   -0.0004742257400036382
-0.00036416068635627367   -0.00014204660362402213   -0.0004742257400036382
-0.00036416068635627367   -0.00014204660362402213   -0.0004742257400036382
-0.00036416068635627367   -0.00014204660362402213   -0.0004742257400036382
-0.0003529130076451474   1.3370825658193253e-05   -0.00011048993350101094
-0.0003529130076451474   1.3370825658193253e-05   -0.00011048993350101094
-0.0003529130076451474   1.3370825658193253e-05   -0.00011048993350101094
-0.0003529130076451474   1.3370825658193253e-05   -0.00011048993350101094
-0.00014513486798297347   -0.00014290011383900209   -0.00036302426923965074
-0.00014513486798297347   -0.00014290011383900209   -0.00036302426923965074
-0.00014513486798297347   -0.00014290011383900209   -0.00036302426923965074
-0.00014513486798297347   -0.00014290011383900209   -0.00036302426923965074
-0.00024902062711068746   -6.54364388141225e-05   -0.0002363595423750548
-0.00024902062711068746   -6.54364388141225e-05   -0.0002363595423750548
-0.00024902062711068746   -6.54364388141225e-05   -0.0002363595423750548
-0.00024902062711068746   -6.54364388141225e-05   -0.0002363595423750548
-0.00014513486798297325   1.3370825658193253e-05   -1.6727369802693043e-05
-0.00014513486798297325   1.3370825658193253e-05   -1.6727369802693043e-05
-0.00014513486798297325   1.3370825658193253e-05   -1.6727369802693043e-05
-0.00014513486798297325   1.3370825658193253e-05   -1.6727369802693043e-05
-0.000352913007645148   -0.00014290011383900209   -0.000456786832937971
-0.000352913007645148   -0.00014290011383900209   -0.000456786832937971
-0.000352913007645148   -0.00014290011383900209   -0.000456786832937971
-0.000352913007645148   -0.00014290011383900209   -0.000456786832937971
-0.00033451693818313636   1.6815376858164352e-05   -9.736557988932783e-05
-0.00033451693818313636   1.6815376858164352e-05   -9.736557988932783e-05
-0.00033451693818313636   1.6815376858164352e-05   -9.736557988932783e-05
-0.00033451693818313636   1.6815376858164352e-05   -9.736557988932783e-05
-0.00013049042444500847   -0.0001307757098171873   -0.0003488551174476648
-0.00013049042444500847   -0.0001307757098171873   -0.0003488551174476648
-0.00013049042444500847   -0.0001307757098171873   -0.0003488551174476648
-0.00013049042444500847   -0.0001307757098171873   -0.0003488551174476648
-0.00023768380764340244   -5.805567225749403e-05   -0.00021383150131948532
-0.00023768380764340244   -5.805567225749403e-05   -0.00021383150131948532
-0.00023768380764340244   -5.805567225749403e-05   -0.00021383150131948532
-0.00023768380764340244   -5.805567225749403e-05   -0.00021383150131948532
-0.0003758882114813724   5.330470639288744e-05   -8.347842380336534e-05
-0.0003758882114813724   5.330470639288744e-05   -8.347842380336534e-05
-0.0003758882114813724   5.330470639288744e-05   -8.347842380336534e-05
-0.0003758882114813724   5.330470639288744e-05   -8.347842380336534e-05
-0.000648617732081306   0.0   -0.0005700104486389881
-0.000648617732081306   0.0   -0.0005700104486389881
-0.000648617732081306   0.0   -0.0005700104486389881
-0.000648617732081306   0.0   -0.0005700104486389881
-0.0006314113695452435   6.77114484506254e-05   -6.440818128734468e-05
-0.0006314113695452435   6.77114484506254e-05   -6.440818128734468e-05
-0.0006314113695452435   6.77114484506254e-05   -6.440818128734468e-05
-0.0006314113695452435   6.77114484506254e-05   -6.440818128734468e-05
-0.000364160686356273   0.0   -0.00046919911753191953
-0.000364160686356273   0.0   -0.00046919911753191953
-0.000364160686356273   0.0   -0.00046919911753191953
-0.000364160686356273   0.0   -0.00046919911753191953
-0.0004835482394908569   2.056230445607668e-05   -0.0002825572449812602
-0.0004835482394908569   2.056230445607668e-05   -0.0002825572449812602
-0.0004835482394908569   2.056230445607668e-05   -0.0002825572449812602
-0.0004835482394908569   2.056230445607668e-05   -0.0002825572449812602
-0.0003641606863562734   6.77114484506254e-05   -2.3781312216968054e-05
-0.0003641606863562734   6.77114484506254e-05   -2.3781312216968054e-05
-0.0003641606863562734   6.77114484506254e-05   -2.3781312216968054e-05
-0.0003641606863562734   6.77114484506254e-05   -2.3781312216968054e-05
-0.0006314113695452423   0.0   -0.0005098259866022949
-0.0006314113695452423   0.0   -0.0005098259866022949
-0.0006314113695452423   0.0   -0.0005098259866022949
-0.0006314113695452423   0.0   -0.0005098259866022949
-0.0006168855575543487   7.09387243873396e-05   -2.6909896904745226e-05
-0.0006168855575543487   7.09387243873396e-05   -2.6909896904745226e-05
-0.0006168855575543487   7.09387243873396e-05   -2.6909896904745226e-05
-0.0006168855575543487   7.09387243873396e-05   -2.6909896904745226e-05
-0.000352913007645148   0.0   -0.0004243009121210119
-0.000352913007645148   0.0   -0.0004243009121210119
-0.000352913007645148   0.0   -0.0004243009121210119
-0.000352913007645148   0.0   -0.0004243009121210119
-0.00047829724903268703   3.275717439410464e-05   -0.00023498148111156855
-0.00047829724903268703   3.275717439410464e-05   -0.00023498148111156855
-0.00047829724903268703   3.275717439410464e-05   -0.00023498148111156855
-0.00047829724903268703   3.275717439410464e-05   -0.00023498148111156855
-0.000352913007645148   7.09387243873396e-05   1.5653337727659228e-05
-0.000352913007645148   7.09387243873396e-05   1.5653337727659228e-05
-0.000352913007645148   7.09387243873396e-05   1.5653337727659228e-05
-0.000352913007645148   7.09387243873396e-05   1.5653337727659228e-05
-0.0006168855575543476   0.0   -0.00046686414675341237
-0.0006168855575543476   0.0   -0.00046686414675341237
-0.0006168855575543476   0.0   -0.00046686414675341237
-0.0006168855575543476   0.0   -0.00046686414675341237
-0.0005879341415055152   7.65506984565182e-05   3.334023195730382e-05
-0.0005879341415055152   7.65506984565182e-05   3.334023195730382e-05
-0.0005879341415055152   7.65506984565182e-05   3.334023195730382e-05
-0.0005879341415055152   7.65506984565182e-05   3.334023195730382e-05
-0.00033451693818313695   0.0   -0.0003430913545060816
-0.00033451693818313695   0.0   -0.0003430913545060816
-0.00033451693818313695   0.0   -0.0003430913545060816
-0.00033451693818313695   0.0   -0.0003430913545060816
-0.0004531335912281169   4.045605842659464e-05   -0.00016967056782040465
-0.0004531335912281169   4.045605842659464e-05   -0.00016967056782040465
-0.0004531335912281169   4.045605842659464e-05   -0.00016967056782040465
-0.0004531335912281169   4.045605842659464e-05   -0.00016967056782040465
0.00048088662576806955   -8.283654425248616e-05   0.0002875315415985513
0.00048088662576806955   -8.283654425248616e-05   0.0002875315415985513
0.00048088662576806955   -8.283654425248616e-05   0.0002875315415985513
0.00048088662576806955   -8.283654425248616e-05   0.0002875315415985513
0.00024981487439216   -6.358989341998661e-05   -8.604005352846368e-05
0.00024981487439216   -6.358989341998661e-05   -8.604005352846368e-05
0.00024981487439216   -6.358989341998661e-05   -8.604005352846368e-05
0.00024981487439216   -6.358989341998661e-05   -8.604005352846368e-05
0.0002434659857414635   -8.490791435062164e-05   0.00025422624577510836
0.0002434659857414635   -8.490791435062164e-05   0.00025422624577510836
0.0002434659857414635   -8.490791435062164e-05   0.00025422624577510836
0.0002434659857414635   -8.490791435062164e-05   0.00025422624577510836
0.00047565450095697094   -6.996003702567852e-05   -0.00014172333931236885
0.00047565450095697094   -6.996003702567852e-05   -0.00014172333931236885
0.00047565450095697094   -6.996003702567852e-05   -0.00014172333931236885
0.00047565450095697094   -6.996003702567852e-05   -0.00014172333931236885
0.0003476399051551317   -7.124775193321706e-05   7.240694930188505e-05
0.0003476399051551317   -7.124775193321706e-05   7.240694930188505e-05
0.0003476399051551317   -7.124775193321706e-05   7.240694930188505e-05
0.0003476399051551317   -7.124775193321706e-05   7.240694930188505e-05
0.00047565450095697094   -8.490791435062164e-05   0.0002452575193801435
0.00047565450095697094   -8.490791435062164e-05   0.0002452575193801435
0.00047565450095697094   -8.490791435062164e-05   0.0002452575193801435
0.00047565450095697094   -8.490791435062164e-05   0.0002452575193801435
0.0002434659857414635   -6.996003702567852e-05   -0.00013275461291740315
0.0002434659857414635   -6.996003702567852e-05   -0.00013275461291740315
0.0002434659857414635   -6.996003702567852e-05   -0.00013275461291740315
0.0002434659857414635   -6.996003702567852e-05   -0.00013275461291740315
0.00023772862531150493   -8.415541166410453e-05   0.00022839510360364752
0.00023772862531150493   -8.415541166410453e-05   0.00022839510360364752
0.00023772862531150493   -8.415541166410453e-05   0.00022839510360364752
0.00023772862531150493   -8.415541166410453e-05   0.00022839510360364752
0.00046962644931233626   -7.056438628457937e-05   -0.0001662558849587878
0.00046962644931233626   -7.056438628457937e-05   -0.0001662558849587878
0.00046962644931233626   -7.056438628457937e-05   -0.0001662558849587878
0.00046962644931233626   -7.056438628457937e-05   -0.0001662558849587878
0.00034730023910799944   -7.249666497044852e-05   3.878049925996191e-05
0.00034730023910799944   -7.249666497044852e-05   3.878049925996191e-05
0.00034730023910799944   -7.249666497044852e-05   3.878049925996191e-05
0.00034730023910799944   -7.249666497044852e-05   3.878049925996191e-05
0.0004696264493123371   -8.415541166410453e-05   0.00022024048837593346
0.0004696264493123371   -8.415541166410453e-05   0.00022024048837593346
0.0004696264493123371   -8.415541166410453e-05   0.00022024048837593346
0.0004696264493123371   -8.415541166410453e-05   0.00022024048837593346
0.00023772862531150493   -7.056438628457937e-05   -0.00015810126973107158
0.00023772862531150493   -7.056438628457937e-05   -0.00015810126973107158
0.00023772862531150493   -7.056438628457937e-05   -0.00015810126973107158
0.00023772862531150493   -7.056438628457937e-05   -0.00015810126973107158
0.00023073213055470668   -7.952234355136645e-05   0.00018637088374625146
0.00023073213055470668   -7.952234355136645e-05   0.00018637088374625146
0.00023073213055470668   -7.952234355136645e-05   0.00018637088374625146
0.00023073213055470668   -7.952234355136645e-05   0.00018637088374625146
0.0004601836743304569   -6.915386087142164e-05   -0.00020226944548796752
0.0004601836743304569   -6.915386087142164e-05   -0.00020226944548796752
0.0004601836743304569   -6.915386087142164e-05   -0.00020226944548796752
0.0004601836743304569   -6.915386087142164e-05   -0.00020226944548796752
0.0003353762145332747   -6.894389424289687e-05   5.617007530221534e-06
0.0003353762145332747   -6.894389424289687e-05   5.617007530221534e-06
0.0003353762145332747   -6.894389424289687e-05   5.617007530221534e-06
0.0003353762145332747   -6.894389424289687e-05   5.617007530221534e-06
0.00024981487439216   -8.373913935526972e-05   0.00021528976044814067
0.00024981487439216   -8.373913935526972e-05   0.00021528976044814067
0.00024981487439216   -8.373913935526972e-05   0.00021528976044814067
0.00024981487439216   -8.373913935526972e-05   0.00021528976044814067
5.410028429145991e-05   -3.9596679407789825e-05   -8.441574708453747e-05
5.410028429145991e-05   -3.9596679407789825e-05   -8.441574708453747e-05
5.410028429145991e-05   -3.9596679407789825e-05   -8.441574708453747e-05
5.410028429145991e-05   -3.9596679407789825e-05   -8.441574708453747e-05
4.405087834790321e-05   -8.334176580753958e-05   0.00024612569088613284
4.405087834790321e-05   -8.334176580753958e-05   0.00024612569088613284
4.405087834790321e-05   -8.334176580753958e-05   0.00024612569088613284
4.405087834790321e-05   -8.334176580753958e-05   0.00024612569088613284
0.0002434659857414635   -4.201718391686621e-05   -0.0001110275705708708
0.0002434659857414635   -4.201718391686621e-05   -0.0001110275705708708
0.0002434659857414635   -4.201718391686621e-05   -0.0001110275705708708
0.0002434659857414635   -4.201718391686621e-05   -0.0001110275705708708
0.0001476648160583558   -5.987700968398263e-05   5.9356941027909234e-05
0.0001476648160583558   -5.987700968398263e-05   5.9356941027909234e-05
0.0001476648160583558   -5.987700968398263e-05   5.9356941027909234e-05
0.0001476648160583558   -5.987700968398263e-05   5.9356941027909234e-05
0.0002434659857414636   -8.334176580753958e-05   0.00022133094175172917
0.0002434659857414636   -8.334176580753958e-05   0.00022133094175172917
0.0002434659857414636   -8.334176580753958e-05   0.00022133094175172917
0.0002434659857414636   -8.334176580753958e-05   0.00022133094175172917
4.405087834790321e-05   -4.201718391686621e-05   -8.623282143646605e-05
4.405087834790321e-05   -4.201718391686621e-05   -8.623282143646605e-05
4.405087834790321e-05   -4.201718391686621e-05   -8.623282143646605e-05
4.405087834790321e-05   -4.201718391686621e-05   -8.623282143646605e-05
3.6894307978318835e-05   -8.226645588826215e-05   0.0002466052256285406
3.6894307978318835e-05   -8.226645588826215e-05   0.0002466052256285406
3.6894307978318835e-05   -8.226645588826215e-05   0.0002466052256285406
3.6894307978318835e-05   -8.226645588826215e-05   0.0002466052256285406
0.00023772862531150493   -4.311762960612989e-05   -0.00011160793236271297
0.00023772862531150493   -4.311762960612989e-05   -0.00011160793236271297
0.00023772862531150493   -4.311762960612989e-05   -0.00011160793236271297
0.00023772862531150493   -4.311762960612989e-05   -0.00011160793236271297
0.0001390736619173517   -5.866863833238825e-05   6.214761186330159e-05
0.0001390736619173517   -5.866863833238825e-05   6.214761186330159e-05
0.0001390736619173517   -5.866863833238825e-05   6.214761186330159e-05
0.0001390736619173517   -5.866863833238825e-05   6.214761186330159e-05
0.00023772862531150536   -8.226645588826215e-05   0.00022311592985926366
0.00023772862531150536   -8.226645588826215e-05   0.00022311592985926366
0.00023772862531150536   -8.226645588826215e-05   0.00022311592985926366
0.00023772862531150536   -8.226645588826215e-05   0.00022311592985926366
3.6894307978318835e-05   -4.311762960612989e-05   -8.811863659343583e-05
3.6894307978318835e-05   -4.311762960612989e-05   -8.811863659343583e-05
3.6894307978318835e-05   -4.311762960612989e-05   -8.811863659343583e-05
3.6894307978318835e-05   -4.311762960612989e-05   -8.811863659343583e-05
2.8929287006583667e-05   -8.009002628232842e-05   0.00025474801593640926
2.8929287006583667e-05   -8.009002628232842e-05   0.00025474801593640926
2.8929287006583667e-05   -8.009002628232842e-05   0.00025474801593640926
2.8929287006583667e-05   -8.009002628232842e-05   0.00025474801593640926
0.00023073213055470646   -4.21883391829303e-05   -0.00010433106890343313
0.00023073213055470646   -4.21883391829303e-05   -0.00010433106890343313
0.00023073213055470646   -4.21883391829303e-05   -0.00010433106890343313
0.00023073213055470646   -4.21883391829303e-05   -0.00010433106890343313
0.00013380046886126947   -5.612792686051846e-05   6.558545319218251e-05
0.00013380046886126947   -5.612792686051846e-05   6.558545319218251e-05
0.00013380046886126947   -5.612792686051846e-05   6.558545319218251e-05
0.00013380046886126947   -5.612792686051846e-05   6.558545319218251e-05
5.4100284291460016e-05   -0.00010169300720080932   0.00022186502670092263
5.4100284291460016e-05   -0.00010169300720080932   0.00022186502670092263
5.4100284291460016e-05   -0.00010169300720080932   0.00022186502670092263
5.4100284291460016e-05   -0.00010169300720080932   0.00022186502670092263
-0.0001338446508994147   -1.7078999759913976e-05   -4.060812748600019e-05
-0.0001338446508994147   -1.7078999759913976e-05   -4.060812748600019e-05
-0.0001338446508994147   -1.7078999759913976e-05   -4.060812748600019e-05
-0.0001338446508994147   -1.7078999759913976e-05   -4.060812748600019e-05
-0.0001494850118390523   -0.00010399189492741115   0.0002856965216155496
-0.0001494850118390523   -0.00010399189492741115   0.0002856965216155496
-0.0001494850118390523   -0.00010399189492741115   0.0002856965216155496
-0.0001494850118390523   -0.00010399189492741115   0.0002856965216155496
4.405087834790332e-05   -1.804810591888098e-05   -8.842956876782613e-05
4.405087834790332e-05   -1.804810591888098e-05   -8.842956876782613e-05
4.405087834790332e-05   -1.804810591888098e-05   -8.842956876782613e-05
4.405087834790332e-05   -1.804810591888098e-05   -8.842956876782613e-05
-4.458599397346981e-05   -5.827834363615961e-05   8.343669439816234e-05
-4.458599397346981e-05   -5.827834363615961e-05   8.343669439816234e-05
-4.458599397346981e-05   -5.827834363615961e-05   8.343669439816234e-05
-4.458599397346981e-05   -5.827834363615961e-05   8.343669439816234e-05
4.405087834790321e-05   -0.00010399189492741115   0.00023413024821043217
4.405087834790321e-05   -0.00010399189492741115   0.00023413024821043217
4.405087834790321e-05   -0.00010399189492741115   0.00023413024821043217
4.405087834790321e-05   -0.00010399189492741115   0.00023413024821043217
-0.00014948501183905207   -1.804810591888098e-05   -3.6863295362708076e-05
-0.00014948501183905207   -1.804810591888098e-05   -3.6863295362708076e-05
-0.00014948501183905207   -1.804810591888098e-05   -3.6863295362708076e-05
-0.00014948501183905207   -1.804810591888098e-05   -3.6863295362708076e-05
-0.00015902832431507444   -0.00010356562124517327   0.000296640409522762
-0.00015902832431507444   -0.00010356562124517327   0.000296640409522762
-0.00015902832431507444   -0.00010356562124517327   0.000296640409522762
-0.00015902832431507444   -0.00010356562124517327   0.000296640409522762
3.6894307978318835e-05   -1.922856865240255e-05   -8.049954252188998e-05
3.6894307978318835e-05   -1.922856865240255e-05   -8.049954252188998e-05
3.6894307978318835e-05   -1.922856865240255e-05   -8.049954252188998e-05
3.6894307978318835e-05   -1.922856865240255e-05   -8.049954252188998e-05
-5.5166689421848e-05   -5.8137050219730924e-05   9.628054208545359e-05
-5.5166689421848e-05   -5.8137050219730924e-05   9.628054208545359e-05
-5.5166689421848e-05   -5.8137050219730924e-05   9.628054208545359e-05
-5.5166689421848e-05   -5.8137050219730924e-05   9.628054208545359e-05
3.689430797831873e-05   -0.00010356562124517327   0.00024603817796709643
3.689430797831873e-05   -0.00010356562124517327   0.00024603817796709643
3.689430797831873e-05   -0.00010356562124517327   0.00024603817796709643
3.689430797831873e-05   -0.00010356562124517327   0.00024603817796709643
-0.00015902832431507411   -1.922856865240255e-05   -2.9897310966227678e-05
-0.00015902832431507411   -1.922856865240255e-05   -2.9897310966227678e-05
-0.00015902832431507411   -1.922856865240255e-05   -2.9897310966227678e-05
-0.00015902832431507411   -1.922856865240255e-05   -2.9897310966227678e-05
-0.00017027182141370002   -0.00010000459811863177   0.00031083717642150545
-0.00017027182141370002   -0.00010000459811863177   0.00031083717642150545
-0.00017027182141370002   -0.00010000459811863177   0.00031083717642150545
-0.00017027182141370002   -0.00010000459811863177   0.00031083717642150545
2.8929287006583667e-05   -1.914980550646664e-05   -6.967754651293276e-05
2.8929287006583667e-05   -1.914980550646664e-05   -6.967754651293276e-05
2.8929287006583667e-05   -1.914980550646664e-05   -6.967754651293276e-05
2.8929287006583667e-05   -1.914980550646664e-05   -6.967754651293276e-05
-6.377424424169306e-05   -5.5881812292109256e-05   0.00010686754297224883
-6.377424424169306e-05   -5.5881812292109256e-05   0.00010686754297224883
-6.377424424169306e-05   -5.5881812292109256e-05   0.00010686754297224883
-6.377424424169306e-05   -5.5881812292109256e-05   0.00010686754297224883
-0.00013384465089941503   -0.00012745420192851464   0.0002693574909961617
-0.00013384465089941503   -0.00012745420192851464   0.0002693574909961617
-0.00013384465089941503   -0.00012745420192851464   0.0002693574909961617
-0.00013384465089941503   -0.00012745420192851464   0.0002693574909961617
-0.00034834396960233764   1.7141830020925286e-05   -1.3837543390432527e-06
-0.00034834396960233764   1.7141830020925286e-05   -1.3837543390432527e-06
-0.00034834396960233764   1.7141830020925286e-05   -1.3837543390432527e-06
-0.00034834396960233764   1.7141830020925286e-05   -1.3837543390432527e-06
-0.00036707861256935685   -0.00014204660362402213   0.00038124225793071537
-0.00036707861256935685   -0.00014204660362402213   0.00038124225793071537
-0.00036707861256935685   -0.00014204660362402213   0.00038124225793071537
-0.00036707861256935685   -0.00014204660362402213   0.00038124225793071537
-0.00014948501183905207   1.6007126741199307e-05   -7.624598150559117e-05
-0.00014948501183905207   1.6007126741199307e-05   -7.624598150559117e-05
-0.00014948501183905207   1.6007126741199307e-05   -7.624598150559117e-05
-0.00014948501183905207   1.6007126741199307e-05   -7.624598150559117e-05
-0.00024615843045446066   -5.346643388615818e-05   0.00012656051922983486
-0.00024615843045446066   -5.346643388615818e-05   0.00012656051922983486
-0.00024615843045446066   -5.346643388615818e-05   0.00012656051922983486
-0.00024615843045446066   -5.346643388615818e-05   0.00012656051922983486
-0.0001494850118390523   -0.00014204660362402213   0.0002864100197115839
-0.0001494850118390523   -0.00014204660362402213   0.0002864100197115839
-0.0001494850118390523   -0.00014204660362402213   0.0002864100197115839
-0.0001494850118390523   -0.00014204660362402213   0.0002864100197115839
-0.00036707861256935685   1.6007126741199307e-05   1.8586256713540306e-05
-0.00036707861256935685   1.6007126741199307e-05   1.8586256713540306e-05
-0.00036707861256935685   1.6007126741199307e-05   1.8586256713540306e-05
-0.00036707861256935685   1.6007126741199307e-05   1.8586256713540306e-05
-0.0003785095536393176   -0.00014290011383900209   0.00040250663306118026
-0.0003785095536393176   -0.00014290011383900209   0.00040250663306118026
-0.0003785095536393176   -0.00014290011383900209   0.00040250663306118026
-0.0003785095536393176   -0.00014290011383900209   0.00040250663306118026
-0.00015902832431507411   1.3992670247209293e-05   -5.743108626428406e-05
-0.00015902832431507411   1.3992670247209293e-05   -5.743108626428406e-05
-0.00015902832431507411   1.3992670247209293e-05   -5.743108626428406e-05
-0.00015902832431507411   1.3992670247209293e-05   -5.743108626428406e-05
-0.0002583701326802488   -6.135715332611022e-05   0.00015334848848833332
-0.0002583701326802488   -6.135715332611022e-05   0.00015334848848833332
-0.0002583701326802488   -6.135715332611022e-05   0.00015334848848833332
-0.0002583701326802488   -6.135715332611022e-05   0.00015334848848833332
-0.000159028324315074   -0.00014290011383900209   0.00030837096260945447
-0.000159028324315074   -0.00014290011383900209   0.00030837096260945447
-0.000159028324315074   -0.00014290011383900209   0.00030837096260945447
-0.000159028324315074   -0.00014290011383900209   0.00030837096260945447
-0.0003785095536393171   1.3992670247209293e-05   3.670458418744346e-05
-0.0003785095536393171   1.3992670247209293e-05   3.670458418744346e-05
-0.0003785095536393171   1.3992670247209293e-05   3.670458418744346e-05
-0.0003785095536393171   1.3992670247209293e-05   3.670458418744346e-05
-0.0003908120613796745   -0.0001307757098171873   0.0004117442732601718
-0.0003908120613796745   -0.0001307757098171873   0.0004117442732601718
-0.0003908120613796745   -0.0001307757098171873   0.0004117442732601718
-0.0003908120613796745   -0.0001307757098171873   0.0004117442732601718
-0.0001702718214136996   1.1721885737892013e-05   -4.132135068283258e-05
-0.0001702718214136996   1.1721885737892013e-05   -4.132135068283258e-05
-0.0001702718214136996   1.1721885737892013e-05   -4.132135068283258e-05
-0.0001702718214136996   1.1721885737892013e-05   -4.132135068283258e-05
-0.0002709022844456985   -6.185434295715234e-05   0.0001705418249208614
-0.0002709022844456985   -6.185434295715234e-05   0.0001705418249208614
-0.0002709022844456985   -6.185434295715234e-05   0.0001705418249208614
-0.0002709022844456985   -6.185434295715234e-05   0.0001705418249208614
-0.00034834396960233644   0.0   0.00029934917114418473
-0.00034834396960233644   0.0   0.00029934917114418473
-0.00034834396960233644   0.0   0.00029934917114418473
-0.00034834396960233644   0.0   0.00029934917114418473
-0.0006149380512749326   8.046654149335142e-05   -9.669437341413255e-05
-0.0006149380512749326   8.046654149335142e-05   -9.669437341413255e-05
-0.0006149380512749326   8.046654149335142e-05   -9.669437341413255e-05
-0.0006149380512749326   8.046654149335142e-05   -9.669437341413255e-05
-0.0006408886709681214   0.0   0.00043278554603577886
-0.0006408886709681214   0.0   0.00043278554603577886
-0.0006408886709681214   0.0   0.00043278554603577886
-0.0006408886709681214   0.0   0.00043278554603577886
-0.0003670786125693562   7.752777605558175e-05   -7.00812169288456e-05
-0.0003670786125693562   7.752777605558175e-05   -7.00812169288456e-05
-0.0003670786125693562   7.752777605558175e-05   -7.00812169288456e-05
-0.0003670786125693562   7.752777605558175e-05   -7.00812169288456e-05
-0.0004717753505572966   4.774984094318285e-05   0.00012228010745182847
-0.0004717753505572966   4.774984094318285e-05   0.00012228010745182847
-0.0004717753505572966   4.774984094318285e-05   0.00012228010745182847
-0.0004717753505572966   4.774984094318285e-05   0.00012228010745182847
-0.000367078612569356   0.0   0.0003862688804024319
-0.000367078612569356   0.0   0.0003862688804024319
-0.000367078612569356   0.0   0.0003862688804024319
-0.000367078612569356   0.0   0.0003862688804024319
-0.0006408886709681226   7.752777605558175e-05   -2.356455129549559e-05
-0.0006408886709681226   7.752777605558175e-05   -2.356455129549559e-05
-0.0006408886709681226   7.752777605558175e-05   -2.356455129549559e-05
-0.0006408886709681226   7.752777605558175e-05   -2.356455129549559e-05
-0.0006539721949113082   0.0   0.0004802861571978432
-0.0006539721949113082   0.0   0.0004802861571978432
-0.0006539721949113082   0.0   0.0004802861571978432
-0.0006539721949113082   0.0   0.0004802861571978432
-0.0003785095536393171   7.548933886617273e-05   -2.411184824184791e-05
-0.0003785095536393171   7.548933886617273e-05   -2.411184824184791e-05
-0.0003785095536393171   7.548933886617273e-05   -2.411184824184791e-05
-0.0003785095536393171   7.548933886617273e-05   -2.411184824184791e-05
-0.0004966604641778241   3.98340096558758e-05   0.00019419953351518075
-0.0004966604641778241   3.98340096558758e-05   0.00019419953351518075
-0.0004966604641778241   3.98340096558758e-05   0.00019419953351518075
-0.0004966604641778241   3.98340096558758e-05   0.00019419953351518075
-0.0003785095536393171   0.0   0.0004349925538781399
-0.0003785095536393171   0.0   0.0004349925538781399
-0.0003785095536393171   0.0   0.0004349925538781399
-0.0003785095536393171   0.0   0.0004349925538781399
-0.0006539721949113104   7.548933886617273e-05   2.1181755077856468e-05
-0.0006539721949113104   7.548933886617273e-05   2.1181755077856468e-05
-0.0006539721949113104   7.548933886617273e-05   2.1181755077856468e-05
-0.0006539721949113104   7.548933886617273e-05   2.1181755077856468e-05
-0.0006685949783110181   0.0   0.0005436553855647126
-0.0006685949783110181   0.0   0.0005436553855647126
-0.0006685949783110181   0.0   0.0005436553855647126
-0.0006685949783110181   0.0   0.0005436553855647126
-0.0003908120613796745   6.265449559625033e-05   4.3091159988055665e-05
-0.0003908120613796745   6.265449559625033e-05   4.3091159988055665e-05
-0.0003908120613796745   6.265449559625033e-05   4.3091159988055665e-05
-0.0003908120613796745   6.265449559625033e-05   4.3091159988055665e-05
-0.0005009846093345427   2.7864424625961837e-05   0.00024758611582834187
-0.0005009846093345427   2.7864424625961837e-05   0.00024758611582834187
-0.0005009846093345427   2.7864424625961837e-05   0.00024758611582834187
-0.0005009846093345427   2.7864424625961837e-05   0.00024758611582834187
0.0004219090070755662   -6.358989341998314e-05   0.0003004636033304073
0.0004219090070755662   -6.358989341998314e-05   0.0003004636033304073
0.0004219090070755662   -6.358989341998314e-05   0.0003004636033304073
0.0004219090070755662   -6.358989341998314e-05   0.0003004636033304073
0.000213604563082525   -4.776078762624633e-05   -3.721300651508483e-05
0.000213604563082525   -4.776078762624633e-05   -3.721300651508483e-05
0.000213604563082525   -4.776078762624633e-05   -3.721300651508483e-05
0.000213604563082525   -4.776078762624633e-05   -3.721300651508483e-05
0.00020790591082130714   -6.996003702567852e-05   0.0002624717362450669
0.00020790591082130714   -6.996003702567852e-05   0.0002624717362450669
0.00020790591082130714   -6.996003702567852e-05   0.0002624717362450669
0.00020790591082130714   -6.996003702567852e-05   0.0002624717362450669
0.00041170786418681844   -5.418456200438973e-05   -8.666347104355963e-05
0.00041170786418681844   -5.418456200438973e-05   -8.666347104355963e-05
0.00041170786418681844   -5.418456200438973e-05   -8.666347104355963e-05
0.00041170786418681844   -5.418456200438973e-05   -8.666347104355963e-05
0.00029981267642900303   -5.650490301774627e-05   0.00010122071316081335
0.00029981267642900303   -5.650490301774627e-05   0.00010122071316081335
0.00029981267642900303   -5.650490301774627e-05   0.00010122071316081335
0.00029981267642900303   -5.650490301774627e-05   0.00010122071316081335
0.00041170786418681774   -6.996003702567852e-05   0.0002530064512322912
0.00041170786418681774   -6.996003702567852e-05   0.0002530064512322912
0.00041170786418681774   -6.996003702567852e-05   0.0002530064512322912
0.00041170786418681774   -6.996003702567852e-05   0.0002530064512322912
0.00020790591082130746   -5.418456200438973e-05   -7.719818603078507e-05
0.00020790591082130746   -5.418456200438973e-05   -7.719818603078507e-05
0.00020790591082130746   -5.418456200438973e-05   -7.719818603078507e-05
0.00020790591082130746   -5.418456200438973e-05   -7.719818603078507e-05
0.00020056164809462585   -7.056438628457937e-05   0.00023571948093116177
0.00020056164809462585   -7.056438628457937e-05   0.00023571948093116177
0.00020056164809462585   -7.056438628457937e-05   0.00023571948093116177
0.00020056164809462585   -7.056438628457937e-05   0.00023571948093116177
0.00040140338898956717   -5.515227292943875e-05   -0.00010826402190682456
0.00040140338898956717   -5.515227292943875e-05   -0.00010826402190682456
0.00040140338898956717   -5.515227292943875e-05   -0.00010826402190682456
0.00040140338898956717   -5.515227292943875e-05   -0.00010826402190682456
0.0002968887777218212   -5.898474685357008e-05   6.822648122722843e-05
0.0002968887777218212   -5.898474685357008e-05   6.822648122722843e-05
0.0002968887777218212   -5.898474685357008e-05   6.822648122722843e-05
0.0002968887777218212   -5.898474685357008e-05   6.822648122722843e-05
0.00040140338898956717   -7.056438628457937e-05   0.00022647221291807913
0.00040140338898956717   -7.056438628457937e-05   0.00022647221291807913
0.00040140338898956717   -7.056438628457937e-05   0.00022647221291807913
0.00040140338898956717   -7.056438628457937e-05   0.00022647221291807913
0.00020056164809462585   -5.515227292943875e-05   -9.901675389374122e-05
0.00020056164809462585   -5.515227292943875e-05   -9.901675389374122e-05
0.00020056164809462585   -5.515227292943875e-05   -9.901675389374122e-05
0.00020056164809462585   -5.515227292943875e-05   -9.901675389374122e-05
0.00019286088559184898   -6.915386087141817e-05   0.00019608494967645294
0.00019286088559184898   -6.915386087141817e-05   0.00019608494967645294
0.00019286088559184898   -6.915386087141817e-05   0.00019608494967645294
0.00019286088559184898   -6.915386087141817e-05   0.00019608494967645294
0.0003885082723340197   -5.4860653163565226e-05   -0.00013856995285187591
0.0003885082723340197   -5.4860653163565226e-05   -0.00013856995285187591
0.0003885082723340197   -5.4860653163565226e-05   -0.00013856995285187591
0.0003885082723340197   -5.4860653163565226e-05   -0.00013856995285187591
0.0002835522020030024   -5.745980048016755e-05   3.791631942311625e-05
0.0002835522020030024   -5.745980048016755e-05   3.791631942311625e-05
0.0002835522020030024   -5.745980048016755e-05   3.791631942311625e-05
0.0002835522020030024   -5.745980048016755e-05   3.791631942311625e-05
0.00021360456308252543   -3.9596679407789825e-05   0.00028509989728208937
0.00021360456308252543   -3.9596679407789825e-05   0.00028509989728208937
0.00021360456308252543   -3.9596679407789825e-05   0.00028509989728208937
0.00021360456308252543   -3.9596679407789825e-05   0.00028509989728208937
2.395192317127177e-05   -1.6921391625561444e-05   -1.738266323399705e-05
2.395192317127177e-05   -1.6921391625561444e-05   -1.738266323399705e-05
2.395192317127177e-05   -1.6921391625561444e-05   -1.738266323399705e-05
2.395192317127177e-05   -1.6921391625561444e-05   -1.738266323399705e-05
1.8297223332818294e-05   -4.201718391686621e-05   0.0002971776002478957
1.8297223332818294e-05   -4.201718391686621e-05   0.0002971776002478957
1.8297223332818294e-05   -4.201718391686621e-05   0.0002971776002478957
1.8297223332818294e-05   -4.201718391686621e-05   0.0002971776002478957
0.00020790591082130746   -2.0385814489706083e-05   -3.1815700555882435e-05
0.00020790591082130746   -2.0385814489706083e-05   -3.1815700555882435e-05
0.00020790591082130746   -2.0385814489706083e-05   -3.1815700555882435e-05
0.00020790591082130746   -2.0385814489706083e-05   -3.1815700555882435e-05
0.00011483257424956553   -2.7635737640530067e-05   0.00012765648095417956
0.00011483257424956553   -2.7635737640530067e-05   0.00012765648095417956
0.00011483257424956553   -2.7635737640530067e-05   0.00012765648095417956
0.00011483257424956553   -2.7635737640530067e-05   0.00012765648095417956
0.00020790591082130736   -4.201718391686621e-05   0.0002841987785915986
0.00020790591082130736   -4.201718391686621e-05   0.0002841987785915986
0.00020790591082130736   -4.201718391686621e-05   0.0002841987785915986
0.00020790591082130736   -4.201718391686621e-05   0.0002841987785915986
1.8297223332818294e-05   -2.0385814489706083e-05   -1.883687889958803e-05
1.8297223332818294e-05   -2.0385814489706083e-05   -1.883687889958803e-05
1.8297223332818294e-05   -2.0385814489706083e-05   -1.883687889958803e-05
1.8297223332818294e-05   -2.0385814489706083e-05   -1.883687889958803e-05
1.1072087928407602e-05   -4.311762960612989e-05   0.0002944785716860014
1.1072087928407602e-05   -4.311762960612989e-05   0.0002944785716860014
1.1072087928407602e-05   -4.311762960612989e-05   0.0002944785716860014
1.1072087928407602e-05   -4.311762960612989e-05   0.0002944785716860014
0.00020056164809462585   -2.267470729533025e-05   -3.3603115310845396e-05
0.00020056164809462585   -2.267470729533025e-05   -3.3603115310845396e-05
0.00020056164809462585   -2.267470729533025e-05   -3.3603115310845396e-05
0.00020056164809462585   -2.267470729533025e-05   -3.3603115310845396e-05
0.00010767290946250515   -2.8956218315185495e-05   0.00012498035568794027
0.00010767290946250515   -2.8956218315185495e-05   0.00012498035568794027
0.00010767290946250515   -2.8956218315185495e-05   0.00012498035568794027
0.00010767290946250515   -2.8956218315185495e-05   0.00012498035568794027
0.00020056164809462553   -4.3117629606133356e-05   0.0002822128182995206
0.00020056164809462553   -4.3117629606133356e-05   0.0002822128182995206
0.00020056164809462553   -4.3117629606133356e-05   0.0002822128182995206
0.00020056164809462553   -4.3117629606133356e-05   0.0002822128182995206
1.1072087928407602e-05   -2.267470729533025e-05   -2.1337361924363488e-05
1.1072087928407602e-05   -2.267470729533025e-05   -2.1337361924363488e-05
1.1072087928407602e-05   -2.267470729533025e-05   -2.1337361924363488e-05
1.1072087928407602e-05   -2.267470729533025e-05   -2.1337361924363488e-05
3.0898109350070355e-06   -4.218833918293377e-05   0.00029890709275821013
3.0898109350070355e-06   -4.218833918293377e-05   0.00029890709275821013
3.0898109350070355e-06   -4.218833918293377e-05   0.00029890709275821013
3.0898109350070355e-06   -4.218833918293377e-05   0.00029890709275821013
0.00019286088559184876   -2.3680245674281147e-05   -2.8482887775050877e-05
0.00019286088559184876   -2.3680245674281147e-05   -2.8482887775050877e-05
0.00019286088559184876   -2.3680245674281147e-05   -2.8482887775050877e-05
0.00019286088559184876   -2.3680245674281147e-05   -2.8482887775050877e-05
0.00010181297910957316   -2.8705671219944606e-05   0.00012627887835614353
0.00010181297910957316   -2.8705671219944606e-05   0.00012627887835614353
0.00010181297910957316   -2.8705671219944606e-05   0.00012627887835614353
0.00010181297910957316   -2.8705671219944606e-05   0.00012627887835614353
2.3951923171271878e-05   -1.7078999759913976e-05   0.00029174428508542925
2.3951923171271878e-05   -1.7078999759913976e-05   0.00029174428508542925
2.3951923171271878e-05   -1.7078999759913976e-05   0.00029174428508542925
2.3951923171271878e-05   -1.7078999759913976e-05   0.00029174428508542925
-0.0001597285651732934   1.4888691525986875e-05   4.790752616024366e-06
-0.0001597285651732934   1.4888691525986875e-05   4.790752616024366e-06
-0.0001597285651732934   1.4888691525986875e-05   4.790752616024366e-06
-0.0001597285651732934   1.4888691525986875e-05   4.790752616024366e-06
-0.00016609726687901003   -1.804810591888098e-05   0.00031313863989262947
-0.00016609726687901003   -1.804810591888098e-05   0.00031313863989262947
-0.00016609726687901003   -1.804810591888098e-05   0.00031313863989262947
-0.00016609726687901003   -1.804810591888098e-05   0.00031313863989262947
1.8297223332818294e-05   1.2214872374606556e-05   -1.2343297436509613e-05
1.8297223332818294e-05   1.2214872374606556e-05   -1.2343297436509613e-05
1.8297223332818294e-05   1.2214872374606556e-05   -1.2343297436509613e-05
1.8297223332818294e-05   1.2214872374606556e-05   -1.2343297436509613e-05
-7.076177955158303e-05   -5.985135619716864e-07   0.00014377640559943596
-7.076177955158303e-05   -5.985135619716864e-07   0.00014377640559943596
-7.076177955158303e-05   -5.985135619716864e-07   0.00014377640559943596
-7.076177955158303e-05   -5.985135619716864e-07   0.00014377640559943596
1.8297223332818186e-05   -1.804810591888098e-05   0.000294980852916538
1.8297223332818186e-05   -1.804810591888098e-05   0.000294980852916538
1.8297223332818186e-05   -1.804810591888098e-05   0.000294980852916538
1.8297223332818186e-05   -1.804810591888098e-05   0.000294980852916538
-0.00016609726687901003   1.2214872374603086e-05   5.814489539580567e-06
-0.00016609726687901003   1.2214872374603086e-05   5.814489539580567e-06
-0.00016609726687901003   1.2214872374603086e-05   5.814489539580567e-06
-0.00016609726687901003   1.2214872374603086e-05   5.814489539580567e-06
-0.00017465057675005672   -1.922856865240255e-05   0.00031947021005105866
-0.00017465057675005672   -1.922856865240255e-05   0.00031947021005105866
-0.00017465057675005672   -1.922856865240255e-05   0.00031947021005105866
-0.00017465057675005672   -1.922856865240255e-05   0.00031947021005105866
1.1072087928407602e-05   9.725671836782745e-06   -7.440108706560514e-06
1.1072087928407602e-05   9.725671836782745e-06   -7.440108706560514e-06
1.1072087928407602e-05   9.725671836782745e-06   -7.440108706560514e-06
1.1072087928407602e-05   9.725671836782745e-06   -7.440108706560514e-06
-7.704801420010043e-05   -1.3657133083183615e-06   0.00014608155926134486
-7.704801420010043e-05   -1.3657133083183615e-06   0.00014608155926134486
-7.704801420010043e-05   -1.3657133083183615e-06   0.00014608155926134486
-7.704801420010043e-05   -1.3657133083183615e-06   0.00014608155926134486
1.1072087928407602e-05   -1.922856865240255e-05   0.0003020976657575475
1.1072087928407602e-05   -1.922856865240255e-05   0.0003020976657575475
1.1072087928407602e-05   -1.922856865240255e-05   0.0003020976657575475
1.1072087928407602e-05   -1.922856865240255e-05   0.0003020976657575475
-0.0001746505767500564   9.725671836782745e-06   9.93243558695088e-06
-0.0001746505767500564   9.725671836782745e-06   9.93243558695088e-06
-0.0001746505767500564   9.725671836782745e-06   9.93243558695088e-06
-0.0001746505767500564   9.725671836782745e-06   9.93243558695088e-06
-0.00018376389445113044   -1.914980550646664e-05   0.00032706580694420034
-0.00018376389445113044   -1.914980550646664e-05   0.00032706580694420034
-0.00018376389445113044   -1.914980550646664e-05   0.00032706580694420034
-0.00018376389445113044   -1.914980550646664e-05   0.00032706580694420034
3.0898109350070355e-06   7.927201252075355e-06   -6.03239421155706e-07
3.0898109350070355e-06   7.927201252075355e-06   -6.03239421155706e-07
3.0898109350070355e-06   7.927201252075355e-06   -6.03239421155706e-07
3.0898109350070355e-06   7.927201252075355e-06   -6.03239421155706e-07
-8.507062884880915e-05   -1.9248316809744592e-06   0.00015224204664503888
-8.507062884880915e-05   -1.9248316809744592e-06   0.00015224204664503888
-8.507062884880915e-05   -1.9248316809744592e-06   0.00015224204664503888
-8.507062884880915e-05   -1.9248316809744592e-06   0.00015224204664503888
-0.00015972856517329297   1.7141830020928756e-05   0.0002633916538342558
-0.00015972856517329297   1.7141830020928756e-05   0.0002633916538342558
-0.00015972856517329297   1.7141830020928756e-05   0.0002633916538342558
-0.00015972856517329297   1.7141830020928756e-05   0.0002633916538342558
-0.00033950094904610577   4.869826806890368e-05   -1.72951231249786e-05
-0.00033950094904610577   4.869826806890368e-05   -1.72951231249786e-05
-0.00033950094904610577   4.869826806890368e-05   -1.72951231249786e-05
-0.00033950094904610577   4.869826806890368e-05   -1.72951231249786e-05
-0.00034880852643244585   1.6007126741199307e-05   0.0002917549015945091
-0.00034880852643244585   1.6007126741199307e-05   0.0002917549015945091
-0.00034880852643244585   1.6007126741199307e-05   0.0002917549015945091
-0.00034880852643244585   1.6007126741199307e-05   0.0002917549015945091
-0.00016609726687900948   4.600537314913833e-05   -3.0762812172646344e-05
-0.00016609726687900948   4.600537314913833e-05   -3.0762812172646344e-05
-0.00016609726687900948   4.600537314913833e-05   -3.0762812172646344e-05
-0.00016609726687900948   4.600537314913833e-05   -3.0762812172646344e-05
-0.0002515124855366349   3.255479521951238e-05   0.00011966623234783806
-0.0002515124855366349   3.255479521951238e-05   0.00011966623234783806
-0.0002515124855366349   3.255479521951238e-05   0.00011966623234783806
-0.0002515124855366349   3.255479521951238e-05   0.00011966623234783806
-0.0001660972668790097   1.6007126741199307e-05   0.00027375595374974637
-0.0001660972668790097   1.6007126741199307e-05   0.00027375595374974637
-0.0001660972668790097   1.6007126741199307e-05   0.00027375595374974637
-0.0001660972668790097   1.6007126741199307e-05   0.00027375595374974637
-0.0003488085264324453   4.600537314913833e-05   -1.276386432788254e-05
-0.0003488085264324453   4.600537314913833e-05   -1.276386432788254e-05
-0.0003488085264324453   4.600537314913833e-05   -1.276386432788254e-05
-0.0003488085264324453   4.600537314913833e-05   -1.276386432788254e-05
-0.0003602040216760619   1.3992670247209293e-05   0.0003096565568030743
-0.0003602040216760619   1.3992670247209293e-05   0.0003096565568030743
-0.0003602040216760619   1.3992670247209293e-05   0.0003096565568030743
-0.0003602040216760619   1.3992670247209293e-05   0.0003096565568030743
-0.0001746505767500564   4.352620699733106e-05   -1.731930679034206e-05
-0.0001746505767500564   4.352620699733106e-05   -1.731930679034206e-05
-0.0001746505767500564   4.352620699733106e-05   -1.731930679034206e-05
-0.0001746505767500564   4.352620699733106e-05   -1.731930679034206e-05
-0.00025846730851556955   3.1907801699850025e-05   0.00012934628933066947
-0.00025846730851556955   3.1907801699850025e-05   0.00012934628933066947
-0.00025846730851556955   3.1907801699850025e-05   0.00012934628933066947
-0.00025846730851556955   3.1907801699850025e-05   0.00012934628933066947
-0.00017465057675005629   1.3992670247209293e-05   0.0002919364347530023
-0.00017465057675005629   1.3992670247209293e-05   0.0002919364347530023
-0.00017465057675005629   1.3992670247209293e-05   0.0002919364347530023
-0.00017465057675005629   1.3992670247209293e-05   0.0002919364347530023
-0.0003602040216760619   4.352620699732759e-05   4.008152597314782e-07
-0.0003602040216760619   4.352620699732759e-05   4.008152597314782e-07
-0.0003602040216760619   4.352620699732759e-05   4.008152597314782e-07
-0.0003602040216760619   4.352620699732759e-05   4.008152597314782e-07
-0.0003722737593152502   1.1721885737888543e-05   0.00032399983487520385
-0.0003722737593152502   1.1721885737888543e-05   0.00032399983487520385
-0.0003722737593152502   1.1721885737888543e-05   0.00032399983487520385
-0.0003722737593152502   1.1721885737888543e-05   0.00032399983487520385
-0.0001837638944511299   4.020639851822633e-05   -7.27398089986407e-06
-0.0001837638944511299   4.020639851822633e-05   -7.27398089986407e-06
-0.0001837638944511299   4.020639851822633e-05   -7.27398089986407e-06
-0.0001837638944511299   4.020639851822633e-05   -7.27398089986407e-06
-0.00026997376495184336   2.9886769536587032e-05   0.00014260091399031626
-0.00026997376495184336   2.9886769536587032e-05   0.00014260091399031626
-0.00026997376495184336   2.9886769536587032e-05   0.00014260091399031626
-0.00026997376495184336   2.9886769536587032e-05   0.00014260091399031626
-0.00033950094904610577   8.046654149335142e-05   0.00013873497269194235
-0.00033950094904610577   8.046654149335142e-05   0.00013873497269194235
-0.00033950094904610577   8.046654149335142e-05   0.00013873497269194235
-0.00033950094904610577   8.046654149335142e-05   0.00013873497269194235
-0.0005114552372155795   7.919863982361851e-05   -0.00014861624859235402
-0.0005114552372155795   7.919863982361851e-05   -0.00014861624859235402
-0.0005114552372155795   7.919863982361851e-05   -0.00014861624859235402
-0.0005114552372155795   7.919863982361851e-05   -0.00014861624859235402
-0.0005281450045392599   7.752777605558175e-05   0.0002049670918756498
-0.0005281450045392599   7.752777605558175e-05   0.0002049670918756498
-0.0005281450045392599   7.752777605558175e-05   0.0002049670918756498
-0.0005281450045392599   7.752777605558175e-05   0.0002049670918756498
-0.0003488085264324453   8.066054926146073e-05   -9.580670222590452e-05
-0.0003488085264324453   8.066054926146073e-05   -9.580670222590452e-05
-0.0003488085264324453   8.066054926146073e-05   -9.580670222590452e-05
-0.0003488085264324453   8.066054926146073e-05   -9.580670222590452e-05
-0.00041458999542783514   8.076564319186783e-05   1.3766023074837305e-05
-0.00041458999542783514   8.076564319186783e-05   1.3766023074837305e-05
-0.00041458999542783514   8.076564319186783e-05   1.3766023074837305e-05
-0.00041458999542783514   8.076564319186783e-05   1.3766023074837305e-05
-0.00034880852643244477   7.752777605558175e-05   0.00020308742795212276
-0.00034880852643244477   7.752777605558175e-05   0.00020308742795212276
-0.00034880852643244477   7.752777605558175e-05   0.00020308742795212276
-0.00034880852643244477   7.752777605558175e-05   0.00020308742795212276
-0.0005281450045392599   8.066054926146246e-05   -9.392703830237575e-05
-0.0005281450045392599   8.066054926146246e-05   -9.392703830237575e-05
-0.0005281450045392599   8.066054926146246e-05   -9.392703830237575e-05
-0.0005281450045392599   8.066054926146246e-05   -9.392703830237575e-05
-0.0005445131274245309   7.548933886617273e-05   0.00025158289165768885
-0.0005445131274245309   7.548933886617273e-05   0.00025158289165768885
-0.0005445131274245309   7.548933886617273e-05   0.00025158289165768885
-0.0005445131274245309   7.548933886617273e-05   0.00025158289165768885
-0.00036020402167606105   8.006061767268195e-05   -5.834171854033525e-05
-0.00036020402167606105   8.006061767268195e-05   -5.834171854033525e-05
-0.00036020402167606105   8.006061767268195e-05   -5.834171854033525e-05
-0.00036020402167606105   8.006061767268195e-05   -5.834171854033525e-05
-0.0004336221788025926   8.070297686580546e-05   6.363646115468188e-05
-0.0004336221788025926   8.070297686580546e-05   6.363646115468188e-05
-0.0004336221788025926   8.070297686580546e-05   6.363646115468188e-05
-0.0004336221788025926   8.070297686580546e-05   6.363646115468188e-05
-0.00036020402167606105   7.548933886617273e-05   0.0002488401243737823
-0.00036020402167606105   7.548933886617273e-05   0.0002488401243737823
-0.00036020402167606105   7.548933886617273e-05   0.0002488401243737823
-0.00036020402167606105   7.548933886617273e-05   0.0002488401243737823
-0.0005445131274245309   8.006061767268369e-05   -5.5598951256429115e-05
-0.0005445131274245309   8.006061767268369e-05   -5.5598951256429115e-05
-0.0005445131274245309   8.006061767268369e-05   -5.5598951256429115e-05
-0.0005445131274245309   8.006061767268369e-05   -5.5598951256429115e-05
-0.0005638072728439756   6.265449559625033e-05   0.0003295074493506484
-0.0005638072728439756   6.265449559625033e-05   0.0003295074493506484
-0.0005638072728439756   6.265449559625033e-05   0.0003295074493506484
-0.0005638072728439756   6.265449559625033e-05   0.0003295074493506484
-0.0003722737593152489   7.364393082559192e-05   3.6912656651653247e-06
-0.0003722737593152489   7.364393082559192e-05   3.6912656651653247e-06
-0.0003722737593152489   7.364393082559192e-05   3.6912656651653247e-06
-0.0003722737593152489   7.364393082559192e-05   3.6912656651653247e-06
-0.0004405981284490699   7.682935801485782e-05   0.00011565395790797718
-0.0004405981284490699   7.682935801485782e-05   0.00011565395790797718
-0.0004405981284490699   7.682935801485782e-05   0.00011565395790797718
-0.0004405981284490699   7.682935801485782e-05   0.00011565395790797718
0.000341014386637748   -4.77607876262498e-05   0.0002641009912854077
0.000341014386637748   -4.77607876262498e-05   0.0002641009912854077
0.000341014386637748   -4.77607876262498e-05   0.0002641009912854077
0.000341014386637748   -4.77607876262498e-05   0.0002641009912854077
0.00016901390765308293   -3.486244766949011e-05   -1.482746971497896e-05
0.00016901390765308293   -3.486244766949011e-05   -1.482746971497896e-05
0.00016901390765308293   -3.486244766949011e-05   -1.482746971497896e-05
0.00016901390765308293   -3.486244766949011e-05   -1.482746971497896e-05
0.00016245288901125914   -5.418456200438973e-05   0.0002298047611285891
0.00016245288901125914   -5.418456200438973e-05   0.0002298047611285891
0.00016245288901125914   -5.418456200438973e-05   0.0002298047611285891
0.00016245288901125914   -5.418456200438973e-05   0.0002298047611285891
0.00032893932502710483   -4.049817483445933e-05   -5.5884464533107316e-05
0.00032893932502710483   -4.049817483445933e-05   -5.5884464533107316e-05
0.00032893932502710483   -4.049817483445933e-05   -5.5884464533107316e-05
0.00032893932502710483   -4.049817483445933e-05   -5.5884464533107316e-05
0.00023889010061883478   -4.387637437469616e-05   9.622449587148342e-05
0.00023889010061883478   -4.387637437469616e-05   9.622449587148342e-05
0.00023889010061883478   -4.387637437469616e-05   9.622449587148342e-05
0.00023889010061883478   -4.387637437469616e-05   9.622449587148342e-05
0.00032893932502710423   -5.418456200438626e-05   0.00022159292882663328
0.00032893932502710423   -5.418456200438626e-05   0.00022159292882663328
0.00032893932502710423   -5.418456200438626e-05   0.00022159292882663328
0.00032893932502710423   -5.418456200438626e-05   0.00022159292882663328
0.00016245288901125973   -4.049817483445933e-05   -4.7672632231153186e-05
0.00016245288901125973   -4.049817483445933e-05   -4.7672632231153186e-05
0.00016245288901125973   -4.049817483445933e-05   -4.7672632231153186e-05
0.00016245288901125973   -4.049817483445933e-05   -4.7672632231153186e-05
0.00015516761190601278   -5.515227292943875e-05   0.00020604106896038483
0.00015516761190601278   -5.515227292943875e-05   0.00020604106896038483
0.00015516761190601278   -5.515227292943875e-05   0.00020604106896038483
0.00015516761190601278   -5.515227292943875e-05   0.00020604106896038483
0.0003180159695017133   -4.163920216662155e-05   -7.34807028234742e-05
0.0003180159695017133   -4.163920216662155e-05   -7.34807028234742e-05
0.0003180159695017133   -4.163920216662155e-05   -7.34807028234742e-05
0.0003180159695017133   -4.163920216662155e-05   -7.34807028234742e-05
0.0002342875962829429   -4.6056433512077846e-05   6.871692468174949e-05
0.0002342875962829429   -4.6056433512077846e-05   6.871692468174949e-05
0.0002342875962829429   -4.6056433512077846e-05   6.871692468174949e-05
0.0002342875962829429   -4.6056433512077846e-05   6.871692468174949e-05
0.00031801596950171214   -5.515227292943875e-05   0.00019793322650269243
0.00031801596950171214   -5.515227292943875e-05   0.00019793322650269243
0.00031801596950171214   -5.515227292943875e-05   0.00019793322650269243
0.00031801596950171214   -5.515227292943875e-05   0.00019793322650269243
0.00015516761190601306   -4.163920216662155e-05   -6.537286036578313e-05
0.00015516761190601306   -4.163920216662155e-05   -6.537286036578313e-05
0.00015516761190601306   -4.163920216662155e-05   -6.537286036578313e-05
0.00015516761190601306   -4.163920216662155e-05   -6.537286036578313e-05
0.00014816554968350159   -5.4860653163565226e-05   0.00017297604229657773
0.00014816554968350159   -5.4860653163565226e-05   0.00017297604229657773
0.00014816554968350159   -5.4860653163565226e-05   0.00017297604229657773
0.00014816554968350159   -5.4860653163565226e-05   0.00017297604229657773
0.0003056547255290944   -4.214544286128101e-05   -9.713504362744561e-05
0.0003056547255290944   -4.214544286128101e-05   -9.713504362744561e-05
0.0003056547255290944   -4.214544286128101e-05   -9.713504362744561e-05
0.0003056547255290944   -4.214544286128101e-05   -9.713504362744561e-05
0.00022210800138128655   -4.529645485347976e-05   4.4000103814221744e-05
0.00022210800138128655   -4.529645485347976e-05   4.4000103814221744e-05
0.00022210800138128655   -4.529645485347976e-05   4.4000103814221744e-05
0.00022210800138128655   -4.529645485347976e-05   4.4000103814221744e-05
0.00016901390765308293   -1.6921391625561444e-05   0.0002780651658712153
0.00016901390765308293   -1.6921391625561444e-05   0.0002780651658712153
0.00016901390765308293   -1.6921391625561444e-05   0.0002780651658712153
0.00016901390765308293   -1.6921391625561444e-05   0.0002780651658712153
7.574418359506752e-06   -6.650330164857665e-06   1.5161987258342433e-05
7.574418359506752e-06   -6.650330164857665e-06   1.5161987258342433e-05
7.574418359506752e-06   -6.650330164857665e-06   1.5161987258342433e-05
7.574418359506752e-06   -6.650330164857665e-06   1.5161987258342433e-05
1.2815947312747565e-06   -2.0385814489706083e-05   0.00028102402044951486
1.2815947312747565e-06   -2.0385814489706083e-05   0.00028102402044951486
1.2815947312747565e-06   -2.0385814489706083e-05   0.00028102402044951486
1.2815947312747565e-06   -2.0385814489706083e-05   0.00028102402044951486
0.00016245288901125973   -1.0657858079663601e-05   6.568422803515921e-06
0.00016245288901125973   -1.0657858079663601e-05   6.568422803515921e-06
0.00016245288901125973   -1.0657858079663601e-05   6.568422803515921e-06
0.00016245288901125973   -1.0657858079663601e-05   6.568422803515921e-06
8.405140844545484e-05   -1.3142494390371365e-05   0.00013872833886628255
8.405140844545484e-05   -1.3142494390371365e-05   0.00013872833886628255
8.405140844545484e-05   -1.3142494390371365e-05   0.00013872833886628255
8.405140844545484e-05   -1.3142494390371365e-05   0.00013872833886628255
0.00016245288901125957   -2.0385814489702614e-05   0.00027518724660349075
0.00016245288901125957   -2.0385814489702614e-05   0.00027518724660349075
0.00016245288901125957   -2.0385814489702614e-05   0.00027518724660349075
0.00016245288901125957   -2.0385814489702614e-05   0.00027518724660349075
1.281594731274865e-06   -1.0657858079663601e-05   1.2405196649540456e-05
1.281594731274865e-06   -1.0657858079663601e-05   1.2405196649540456e-05
1.281594731274865e-06   -1.0657858079663601e-05   1.2405196649540456e-05
1.281594731274865e-06   -1.0657858079663601e-05   1.2405196649540456e-05
-5.258982699645571e-06   -2.267470729532678e-05   0.0002768700778758258
-5.258982699645571e-06   -2.267470729532678e-05   0.0002768700778758258
-5.258982699645571e-06   -2.267470729532678e-05   0.0002768700778758258
-5.258982699645571e-06   -2.267470729532678e-05   0.0002768700778758258
0.00015516761190601306   -1.3649090074417669e-05   4.0770498671818985e-06
0.00015516761190601306   -1.3649090074417669e-05   4.0770498671818985e-06
0.00015516761190601306   -1.3649090074417669e-05   4.0770498671818985e-06
0.00015516761190601306   -1.3649090074417669e-05   4.0770498671818985e-06
7.684042690459002e-05   -1.5248661912188946e-05   0.00013558210130555377
7.684042690459002e-05   -1.5248661912188946e-05   0.00013558210130555377
7.684042690459002e-05   -1.5248661912188946e-05   0.00013558210130555377
7.684042690459002e-05   -1.5248661912188946e-05   0.00013558210130555377
0.00015516761190601278   -2.267470729532678e-05   0.0002714547075432783
0.00015516761190601278   -2.267470729532678e-05   0.0002714547075432783
0.00015516761190601278   -2.267470729532678e-05   0.0002714547075432783
0.00015516761190601278   -2.267470729532678e-05   0.0002714547075432783
-5.258982699645571e-06   -1.3649090074417669e-05   9.492420199729013e-06
-5.258982699645571e-06   -1.3649090074417669e-05   9.492420199729013e-06
-5.258982699645571e-06   -1.3649090074417669e-05   9.492420199729013e-06
-5.258982699645571e-06   -1.3649090074417669e-05   9.492420199729013e-06
-1.2068025072839482e-05   -2.3680245674281147e-05   0.00027907981154418234
-1.2068025072839482e-05   -2.3680245674281147e-05   0.00027907981154418234
-1.2068025072839482e-05   -2.3680245674281147e-05   0.00027907981154418234
-1.2068025072839482e-05   -2.3680245674281147e-05   0.00027907981154418234
0.00014816554968350196   -1.602586434846197e-05   7.431224821455849e-06
0.00014816554968350196   -1.602586434846197e-05   7.431224821455849e-06
0.00014816554968350196   -1.602586434846197e-05   7.431224821455849e-06
0.00014816554968350196   -1.602586434846197e-05   7.431224821455849e-06
7.13962857660313e-05   -1.6396813010277275e-05   0.00013560256721433656
7.13962857660313e-05   -1.6396813010277275e-05   0.00013560256721433656
7.13962857660313e-05   -1.6396813010277275e-05   0.00013560256721433656
7.13962857660313e-05   -1.6396813010277275e-05   0.00013560256721433656
7.574418359506752e-06   1.4888691525986875e-05   0.00028722060382611707
7.574418359506752e-06   1.4888691525986875e-05   0.00028722060382611707
7.574418359506752e-06   1.4888691525986875e-05   0.00028722060382611707
7.574418359506752e-06   1.4888691525986875e-05   0.00028722060382611707
-0.0001491111515177872   2.172597267122156e-05   3.0180356051102107e-05
-0.0001491111515177872   2.172597267122156e-05   3.0180356051102107e-05
-0.0001491111515177872   2.172597267122156e-05   3.0180356051102107e-05
-0.0001491111515177872   2.172597267122156e-05   3.0180356051102107e-05
-0.00015568291690783143   1.2214872374606556e-05   0.0002912135477194499
-0.00015568291690783143   1.2214872374606556e-05   0.0002912135477194499
-0.00015568291690783143   1.2214872374606556e-05   0.0002912135477194499
-0.00015568291690783143   1.2214872374606556e-05   0.0002912135477194499
1.281594731274865e-06   1.8374782052700198e-05   2.591008251408354e-05
1.281594731274865e-06   1.8374782052700198e-05   2.591008251408354e-05
1.281594731274865e-06   1.8374782052700198e-05   2.591008251408354e-05
1.281594731274865e-06   1.8374782052700198e-05   2.591008251408354e-05
-7.410035790550787e-05   1.7007314726254913e-05   0.00015236715063792145
-7.410035790550787e-05   1.7007314726254913e-05   0.00015236715063792145
-7.410035790550787e-05   1.7007314726254913e-05   0.00015236715063792145
-7.410035790550787e-05   1.7007314726254913e-05   0.00015236715063792145
1.2815947312747565e-06   1.2214872374606556e-05   0.00028751760191259197
1.2815947312747565e-06   1.2214872374606556e-05   0.00028751760191259197
1.2815947312747565e-06   1.2214872374606556e-05   0.00028751760191259197
1.2815947312747565e-06   1.2214872374606556e-05   0.00028751760191259197
-0.00015568291690783143   1.8374782052700198e-05   2.9606028320939073e-05
-0.00015568291690783143   1.8374782052700198e-05   2.9606028320939073e-05
-0.00015568291690783143   1.8374782052700198e-05   2.9606028320939073e-05
-0.00015568291690783143   1.8374782052700198e-05   2.9606028320939073e-05
-0.00016262686845650845   9.725671836782745e-06   0.00029400394940442415
-0.00016262686845650845   9.725671836782745e-06   0.00029400394940442415
-0.00016262686845650845   9.725671836782745e-06   0.00029400394940442415
-0.00016262686845650845   9.725671836782745e-06   0.00029400394940442415
-5.25898269964568e-06   1.5120035688112599e-05   2.8487521498856035e-05
-5.25898269964568e-06   1.5120035688112599e-05   2.8487521498856035e-05
-5.25898269964568e-06   1.5120035688112599e-05   2.8487521498856035e-05
-5.25898269964568e-06   1.5120035688112599e-05   2.8487521498856035e-05
-8.020806158741623e-05   1.5085074806665821e-05   0.0001534236295073427
-8.020806158741623e-05   1.5085074806665821e-05   0.0001534236295073427
-8.020806158741623e-05   1.5085074806665821e-05   0.0001534236295073427
-8.020806158741623e-05   1.5085074806665821e-05   0.0001534236295073427
-5.258982699645571e-06   9.725671836782745e-06   0.000290767331093629
-5.258982699645571e-06   9.725671836782745e-06   0.000290767331093629
-5.258982699645571e-06   9.725671836782745e-06   0.000290767331093629
-5.258982699645571e-06   9.725671836782745e-06   0.000290767331093629
-0.00016262686845650866   1.5120035688112599e-05   3.172413980965377e-05
-0.00016262686845650866   1.5120035688112599e-05   3.172413980965377e-05
-0.00016262686845650866   1.5120035688112599e-05   3.172413980965377e-05
-0.00016262686845650866   1.5120035688112599e-05   3.172413980965377e-05
-0.0001697949162540104   7.927201252075355e-06   0.00029843141712697016
-0.0001697949162540104   7.927201252075355e-06   0.00029843141712697016
-0.0001697949162540104   7.927201252075355e-06   0.00029843141712697016
-0.0001697949162540104   7.927201252075355e-06   0.00029843141712697016
-1.2068025072839482e-05   1.2221890142211436e-05   3.2976451824271455e-05
-1.2068025072839482e-05   1.2221890142211436e-05   3.2976451824271455e-05
-1.2068025072839482e-05   1.2221890142211436e-05   3.2976451824271455e-05
-1.2068025072839482e-05   1.2221890142211436e-05   3.2976451824271455e-05
-8.681719541811262e-05   1.3241635853568356e-05   0.00015694655497291684
-8.681719541811262e-05   1.3241635853568356e-05   0.00015694655497291684
-8.681719541811262e-05   1.3241635853568356e-05   0.00015694655497291684
-8.681719541811262e-05   1.3241635853568356e-05   0.00015694655497291684
-0.00014911115151778785   4.869826806890368e-05   0.00025030323394347083
-0.00014911115151778785   4.869826806890368e-05   0.00025030323394347083
-0.00014911115151778785   4.869826806890368e-05   0.00025030323394347083
-0.00014911115151778785   4.869826806890368e-05   0.00025030323394347083
-0.0003006939933517215   4.9310702238937465e-05   -1.9673752777327885e-06
-0.0003006939933517215   4.9310702238937465e-05   -1.9673752777327885e-06
-0.0003006939933517215   4.9310702238937465e-05   -1.9673752777327885e-06
-0.0003006939933517215   4.9310702238937465e-05   -1.9673752777327885e-06
-0.0003083255128606831   4.600537314913833e-05   0.00025469054782070906
-0.0003083255128606831   4.600537314913833e-05   0.00025469054782070906
-0.0003083255128606831   4.600537314913833e-05   0.00025469054782070906
-0.0003083255128606831   4.600537314913833e-05   0.00025469054782070906
-0.00015568291690783165   4.609587617161737e-05   2.3191941913615344e-07
-0.00015568291690783165   4.609587617161737e-05   2.3191941913615344e-07
-0.00015568291690783165   4.609587617161737e-05   2.3191941913615344e-07
-0.00015568291690783165   4.609587617161737e-05   2.3191941913615344e-07
-0.00022743170976331198   4.743396432359964e-05   0.00011901038795374651
-0.00022743170976331198   4.743396432359964e-05   0.00011901038795374651
-0.00022743170976331198   4.743396432359964e-05   0.00011901038795374651
-0.00022743170976331198   4.743396432359964e-05   0.00011901038795374651
-0.00015568291690783165   4.600537314913833e-05   0.0002546362460072206
-0.00015568291690783165   4.600537314913833e-05   0.0002546362460072206
-0.00015568291690783165   4.600537314913833e-05   0.0002546362460072206
-0.00015568291690783165   4.600537314913833e-05   0.0002546362460072206
-0.00030832551286068244   4.609587617161737e-05   2.862212326237498e-07
-0.00030832551286068244   4.609587617161737e-05   2.862212326237498e-07
-0.00030832551286068244   4.609587617161737e-05   2.862212326237498e-07
-0.00030832551286068244   4.609587617161737e-05   2.862212326237498e-07
-0.0003167917453189219   4.352620699732759e-05   0.00026652336707557595
-0.0003167917453189219   4.352620699732759e-05   0.00026652336707557595
-0.0003167917453189219   4.352620699732759e-05   0.00026652336707557595
-0.0003167917453189219   4.352620699732759e-05   0.00026652336707557595
-0.00016262686845650866   4.314480707806427e-05   9.81074558977879e-06
-0.00016262686845650866   4.314480707806427e-05   9.81074558977879e-06
-0.00016262686845650866   4.314480707806427e-05   9.81074558977879e-06
-0.00016262686845650866   4.314480707806427e-05   9.81074558977879e-06
-0.00023297508803769504   4.560993797552218e-05   0.00012557869968661366
-0.00023297508803769504   4.560993797552218e-05   0.00012557869968661366
-0.00023297508803769504   4.560993797552218e-05   0.00012557869968661366
-0.00023297508803769504   4.560993797552218e-05   0.00012557869968661366
-0.00016262686845650866   4.352620699732759e-05   0.0002667522070271353
-0.00016262686845650866   4.352620699732759e-05   0.0002667522070271353
-0.00016262686845650866   4.352620699732759e-05   0.0002667522070271353
-0.00016262686845650866   4.352620699732759e-05   0.0002667522070271353
-0.00031679174531892146   4.314480707806427e-05   9.58190563822136e-06
-0.00031679174531892146   4.314480707806427e-05   9.58190563822136e-06
-0.00031679174531892146   4.314480707806427e-05   9.58190563822136e-06
-0.00031679174531892146   4.314480707806427e-05   9.58190563822136e-06
-0.00032486527104369565   4.020639851822633e-05   0.00027512203362037475
-0.00032486527104369565   4.020639851822633e-05   0.00027512203362037475
-0.00032486527104369565   4.020639851822633e-05   0.00027512203362037475
-0.00032486527104369565   4.020639851822633e-05   0.00027512203362037475
-0.00016979491625401105   3.955233523029143e-05   1.7063880276994414e-05
-0.00016979491625401105   3.955233523029143e-05   1.7063880276994414e-05
-0.00016979491625401105   3.955233523029143e-05   1.7063880276994414e-05
-0.00016979491625401105   3.955233523029143e-05   1.7063880276994414e-05
-0.00024173587663834924   4.3257288497283025e-05   0.00013474250895737297
-0.00024173587663834924   4.3257288497283025e-05   0.00013474250895737297
-0.00024173587663834924   4.3257288497283025e-05   0.00013474250895737297
-0.00024173587663834924   4.3257288497283025e-05   0.00013474250895737297
-0.00030069399335172107   7.919863982362024e-05   0.00012011030997995283
-0.00030069399335172107   7.919863982362024e-05   0.00012011030997995283
-0.00030069399335172107   7.919863982362024e-05   0.00012011030997995283
-0.00030069399335172107   7.919863982362024e-05   0.00012011030997995283
-0.0004444311230302684   7.085060920926194e-05   -0.00012446039118623863
-0.0004444311230302684   7.085060920926194e-05   -0.00012446039118623863
-0.0004444311230302684   7.085060920926194e-05   -0.00012446039118623863
-0.0004444311230302684   7.085060920926194e-05   -0.00012446039118623863
-0.00045644552361739465   8.066054926146073e-05   0.00016618455398613452
-0.00045644552361739465   8.066054926146073e-05   0.00016618455398613452
-0.00045644552361739465   8.066054926146073e-05   0.00016618455398613452
-0.00045644552361739465   8.066054926146073e-05   0.00016618455398613452
-0.0003083255128606831   7.155528936720473e-05   -7.521897467183342e-05
-0.0003083255128606831   7.155528936720473e-05   -7.521897467183342e-05
-0.0003083255128606831   7.155528936720473e-05   -7.521897467183342e-05
-0.0003083255128606831   7.155528936720473e-05   -7.521897467183342e-05
-0.0003630278720883805   7.515289122497423e-05   1.3793062926334941e-05
-0.0003630278720883805   7.515289122497423e-05   1.3793062926334941e-05
-0.0003630278720883805   7.515289122497423e-05   1.3793062926334941e-05
-0.0003630278720883805   7.515289122497423e-05   1.3793062926334941e-05
-0.00030832551286068244   8.066054926146073e-05   0.00017164770992268708
-0.00030832551286068244   8.066054926146073e-05   0.00017164770992268708
-0.00030832551286068244   8.066054926146073e-05   0.00017164770992268708
-0.00030832551286068244   8.066054926146073e-05   0.00017164770992268708
-0.0004564455236173964   7.155528936720473e-05   -8.068213060838728e-05
-0.0004564455236173964   7.155528936720473e-05   -8.068213060838728e-05
-0.0004564455236173964   7.155528936720473e-05   -8.068213060838728e-05
-0.0004564455236173964   7.155528936720473e-05   -8.068213060838728e-05
-0.00046818901512026933   8.006061767268195e-05   0.00020219723194821355
-0.00046818901512026933   8.006061767268195e-05   0.00020219723194821355
-0.00046818901512026933   8.006061767268195e-05   0.00020219723194821355
-0.00046818901512026933   8.006061767268195e-05   0.00020219723194821355
-0.0003167917453189219   7.075461546052556e-05   -4.4547949726739776e-05
-0.0003167917453189219   7.075461546052556e-05   -4.4547949726739776e-05
-0.0003167917453189219   7.075461546052556e-05   -4.4547949726739776e-05
-0.0003167917453189219   7.075461546052556e-05   -4.4547949726739776e-05
-0.00037770492968540806   7.650647875204544e-05   5.352290624249757e-05
-0.00037770492968540806   7.650647875204544e-05   5.352290624249757e-05
-0.00037770492968540806   7.650647875204544e-05   5.352290624249757e-05
-0.00037770492968540806   7.650647875204544e-05   5.352290624249757e-05
-0.0003167917453189219   8.006061767268542e-05   0.00020778083327551052
-0.0003167917453189219   8.006061767268542e-05   0.00020778083327551052
-0.0003167917453189219   8.006061767268542e-05   0.00020778083327551052
-0.0003167917453189219   8.006061767268542e-05   0.00020778083327551052
-0.0004681890151202713   7.075461546052556e-05   -5.0131551054035e-05
-0.0004681890151202713   7.075461546052556e-05   -5.0131551054035e-05
-0.0004681890151202713   7.075461546052556e-05   -5.0131551054035e-05
-0.0004681890151202713   7.075461546052556e-05   -5.0131551054035e-05
-0.0004819161234842753   7.364393082559019e-05   0.0002639695285495437
-0.0004819161234842753   7.364393082559019e-05   0.0002639695285495437
-0.0004819161234842753   7.364393082559019e-05   0.0002639695285495437
-0.0004819161234842753   7.364393082559019e-05   0.0002639695285495437
-0.00032486527104369565   6.526552421282604e-05   7.245151782900392e-06
-0.00032486527104369565   6.526552421282604e-05   7.245151782900392e-06
-0.00032486527104369565   6.526552421282604e-05   7.245151782900392e-06
-0.00032486527104369565   6.526552421282604e-05   7.245151782900392e-06
-0.00038155861948077727   7.424475664189085e-05   9.63465263872699e-05
-0.00038155861948077727   7.424475664189085e-05   9.63465263872699e-05
-0.00038155861948077727   7.424475664189085e-05   9.63465263872699e-05
-0.00038155861948077727   7.424475664189085e-05   9.63465263872699e-05
0.00025775438828512553   -3.486244766949011e-05   0.0002196960892450351
0.00025775438828512553   -3.486244766949011e-05   0.0002196960892450351
0.00025775438828512553   -3.486244766949011e-05   0.0002196960892450351
0.00025775438828512553   -3.486244766949011e-05   0.0002196960892450351
0.00012144531285260797   -2.2901046364848243e-05   -3.0886235971062936e-07
0.00012144531285260797   -2.2901046364848243e-05   -3.0886235971062936e-07
0.00012144531285260797   -2.2901046364848243e-05   -3.0886235971062936e-07
0.00012144531285260797   -2.2901046364848243e-05   -3.0886235971062936e-07
0.00011559501484453225   -4.049817483445933e-05   0.00019315818068836588
0.00011559501484453225   -4.049817483445933e-05   0.00019315818068836588
0.00011559501484453225   -4.049817483445933e-05   0.00019315818068836588
0.00011559501484453225   -4.049817483445933e-05   0.00019315818068836588
0.00024644319028680676   -2.7846706492598572e-05   -3.251299272054005e-05
0.00024644319028680676   -2.7846706492598572e-05   -3.251299272054005e-05
0.00024644319028680676   -2.7846706492598572e-05   -3.251299272054005e-05
0.00024644319028680676   -2.7846706492598572e-05   -3.251299272054005e-05
0.00017658818584357028   -3.1777135823479394e-05   8.627027228338101e-05
0.00017658818584357028   -3.1777135823479394e-05   8.627027228338101e-05
0.00017658818584357028   -3.1777135823479394e-05   8.627027228338101e-05
0.00017658818584357028   -3.1777135823479394e-05   8.627027228338101e-05
0.00024644319028680676   -4.049817483445933e-05   0.0001855672996832515
0.00024644319028680676   -4.049817483445933e-05   0.0001855672996832515
0.00024644319028680676   -4.049817483445933e-05   0.0001855672996832515
0.00024644319028680676   -4.049817483445933e-05   0.0001855672996832515
0.00011559501484453242   -2.7846706492598572e-05   -2.4922111715425244e-05
0.00011559501484453242   -2.7846706492598572e-05   -2.4922111715425244e-05
0.00011559501484453242   -2.7846706492598572e-05   -2.4922111715425244e-05
0.00011559501484453242   -2.7846706492598572e-05   -2.4922111715425244e-05
0.00010914547641663322   -4.163920216662155e-05   0.00017449160861871156
0.00010914547641663322   -4.163920216662155e-05   0.00017449160861871156
0.00010914547641663322   -4.163920216662155e-05   0.00017449160861871156
0.00010914547641663322   -4.163920216662155e-05   0.00017449160861871156
0.00023653997836449277   -2.9175556376118128e-05   -4.5310748768686714e-05
0.00023653997836449277   -2.9175556376118128e-05   -4.5310748768686714e-05
0.00023653997836449277   -2.9175556376118128e-05   -4.5310748768686714e-05
0.00023653997836449277   -2.9175556376118128e-05   -4.5310748768686714e-05
0.0001718475003781766   -3.377945057224732e-05   6.527238439285512e-05
0.0001718475003781766   -3.377945057224732e-05   6.527238439285512e-05
0.0001718475003781766   -3.377945057224732e-05   6.527238439285512e-05
0.0001718475003781766   -3.377945057224732e-05   6.527238439285512e-05
0.00023653997836449236   -4.163920216662155e-05   0.00016701342114441332
0.00023653997836449236   -4.163920216662155e-05   0.00016701342114441332
0.00023653997836449236   -4.163920216662155e-05   0.00016701342114441332
0.00023653997836449236   -4.163920216662155e-05   0.00016701342114441332
0.00010914547641663341   -2.9175556376118128e-05   -3.7832561294385766e-05
0.00010914547641663341   -2.9175556376118128e-05   -3.7832561294385766e-05
0.00010914547641663341   -2.9175556376118128e-05   -3.7832561294385766e-05
0.00010914547641663341   -2.9175556376118128e-05   -3.7832561294385766e-05
0.00010319457466766795   -4.214544286128101e-05   0.0001492819985092625
0.00010319457466766795   -4.214544286128101e-05   0.0001492819985092625
0.00010319457466766795   -4.214544286128101e-05   0.0001492819985092625
0.00010319457466766795   -4.214544286128101e-05   0.0001492819985092625
0.00022548957280725513   -3.0452802988654992e-05   -6.155858231362687e-05
0.00022548957280725513   -3.0452802988654992e-05   -6.155858231362687e-05
0.00022548957280725513   -3.0452802988654992e-05   -6.155858231362687e-05
0.00022548957280725513   -3.0452802988654992e-05   -6.155858231362687e-05
0.00016156410917981336   -3.360415433138579e-05   4.6874667871084526e-05
0.00016156410917981336   -3.360415433138579e-05   4.6874667871084526e-05
0.00016156410917981336   -3.360415433138579e-05   4.6874667871084526e-05
0.00016156410917981336   -3.360415433138579e-05   4.6874667871084526e-05
0.00012144531285260756   -6.6503301648594e-06   0.0002506997501247159
0.00012144531285260756   -6.6503301648594e-06   0.0002506997501247159
0.00012144531285260756   -6.6503301648594e-06   0.0002506997501247159
0.00012144531285260756   -6.6503301648594e-06   0.0002506997501247159
-7.631103292332284e-06   -4.42166307648012e-08   3.9536058003606864e-05
-7.631103292332284e-06   -4.42166307648012e-08   3.9536058003606864e-05
-7.631103292332284e-06   -4.42166307648012e-08   3.9536058003606864e-05
-7.631103292332284e-06   -4.42166307648012e-08   3.9536058003606864e-05
-1.312685635955122e-05   -1.0657858079663601e-05   0.0002511782598218961
-1.312685635955122e-05   -1.0657858079663601e-05   0.0002511782598218961
-1.312685635955122e-05   -1.0657858079663601e-05   0.0002511782598218961
-1.312685635955122e-05   -1.0657858079663601e-05   0.0002511782598218961
0.00011559501484453242   -4.359484581559561e-06   3.286278371622916e-05
0.00011559501484453242   -4.359484581559561e-06   3.286278371622916e-05
0.00011559501484453242   -4.359484581559561e-06   3.286278371622916e-05
0.00011559501484453242   -4.359484581559561e-06   3.286278371622916e-05
5.319698300659996e-05   -5.582432597033352e-06   0.00013759327225539974
5.319698300659996e-05   -5.582432597033352e-06   0.00013759327225539974
5.319698300659996e-05   -5.582432597033352e-06   0.00013759327225539974
5.319698300659996e-05   -5.582432597033352e-06   0.00013759327225539974
0.00011559501484453212   -1.0657858079663601e-05   0.0002473992357230354
0.00011559501484453212   -1.0657858079663601e-05   0.0002473992357230354
0.00011559501484453212   -1.0657858079663601e-05   0.0002473992357230354
0.00011559501484453212   -1.0657858079663601e-05   0.0002473992357230354
-1.312685635955122e-05   -4.359484581559561e-06   3.6641807815090445e-05
-1.312685635955122e-05   -4.359484581559561e-06   3.6641807815090445e-05
-1.312685635955122e-05   -4.359484581559561e-06   3.6641807815090445e-05
-1.312685635955122e-05   -4.359484581559561e-06   3.6641807815090445e-05
-1.8737761384144866e-05   -1.3649090074417669e-05   0.00024746662796241645
-1.8737761384144866e-05   -1.3649090074417669e-05   0.00024746662796241645
-1.8737761384144866e-05   -1.3649090074417669e-05   0.00024746662796241645
-1.8737761384144866e-05   -1.3649090074417669e-05   0.00024746662796241645
0.00010914547641663341   -7.773908223186743e-06   3.08027891837146e-05
0.00010914547641663341   -7.773908223186743e-06   3.08027891837146e-05
0.00010914547641663341   -7.773908223186743e-06   3.08027891837146e-05
0.00010914547641663341   -7.773908223186743e-06   3.08027891837146e-05
4.7044450316139946e-05   -8.252379394065035e-06   0.00013459158205373842
4.7044450316139946e-05   -8.252379394065035e-06   0.00013459158205373842
4.7044450316139946e-05   -8.252379394065035e-06   0.00013459158205373842
4.7044450316139946e-05   -8.252379394065035e-06   0.00013459158205373842
0.00010914547641663322   -1.3649090074417669e-05   0.0002439415188516779
0.00010914547641663322   -1.3649090074417669e-05   0.0002439415188516779
0.00010914547641663322   -1.3649090074417669e-05   0.0002439415188516779
0.00010914547641663322   -1.3649090074417669e-05   0.0002439415188516779
-1.8737761384144866e-05   -7.773908223186743e-06   3.4327898294452507e-05
-1.8737761384144866e-05   -7.773908223186743e-06   3.4327898294452507e-05
-1.8737761384144866e-05   -7.773908223186743e-06   3.4327898294452507e-05
-1.8737761384144866e-05   -7.773908223186743e-06   3.4327898294452507e-05
-2.4378018698523445e-05   -1.602586434846197e-05   0.0002492633653248498
-2.4378018698523445e-05   -1.602586434846197e-05   0.0002492633653248498
-2.4378018698523445e-05   -1.602586434846197e-05   0.0002492633653248498
-2.4378018698523445e-05   -1.602586434846197e-05   0.0002492633653248498
0.00010319457466766805   -1.0952156768368956e-05   3.359815183314092e-05
0.00010319457466766805   -1.0952156768368956e-05   3.359815183314092e-05
0.00010319457466766805   -1.0952156768368956e-05   3.359815183314092e-05
0.00010319457466766805   -1.0952156768368956e-05   3.359815183314092e-05
4.232673113315807e-05   -1.02442781340778e-05   0.00013461983054341951
4.232673113315807e-05   -1.02442781340778e-05   0.00013461983054341951
4.232673113315807e-05   -1.02442781340778e-05   0.00013461983054341951
4.232673113315807e-05   -1.02442781340778e-05   0.00013461983054341951
-7.631103292332284e-06   2.172597267122156e-05   0.00026557941835079167
-7.631103292332284e-06   2.172597267122156e-05   0.00026557941835079167
-7.631103292332284e-06   2.172597267122156e-05   0.00026557941835079167
-7.631103292332284e-06   2.172597267122156e-05   0.00026557941835079167
-0.00013400120681248155   2.2333591507300854e-05   5.5327150452191484e-05
-0.00013400120681248155   2.2333591507300854e-05   5.5327150452191484e-05
-0.00013400120681248155   2.2333591507300854e-05   5.5327150452191484e-05
-0.00013400120681248155   2.2333591507300854e-05   5.5327150452191484e-05
-0.0001395221788088334   1.8374782052700198e-05   0.00026477469127642733
-0.0001395221788088334   1.8374782052700198e-05   0.00026477469127642733
-0.0001395221788088334   1.8374782052700198e-05   0.00026477469127642733
-0.0001395221788088334   1.8374782052700198e-05   0.00026477469127642733
-1.3126856359551328e-05   1.852735803601832e-05   5.4024274937632295e-05
-1.3126856359551328e-05   1.852735803601832e-05   5.4024274937632295e-05
-1.3126856359551328e-05   1.852735803601832e-05   5.4024274937632295e-05
-1.3126856359551328e-05   1.852735803601832e-05   5.4024274937632295e-05
-7.376222056283433e-05   1.9895270111799923e-05   0.00015426246803096908
-7.376222056283433e-05   1.9895270111799923e-05   0.00015426246803096908
-7.376222056283433e-05   1.9895270111799923e-05   0.00015426246803096908
-7.376222056283433e-05   1.9895270111799923e-05   0.00015426246803096908
-1.3126856359551328e-05   1.8374782052700198e-05   0.0002646831456864368
-1.3126856359551328e-05   1.8374782052700198e-05   0.0002646831456864368
-1.3126856359551328e-05   1.8374782052700198e-05   0.0002646831456864368
-1.3126856359551328e-05   1.8374782052700198e-05   0.0002646831456864368
-0.0001395221788088334   1.852735803601832e-05   5.411582052762456e-05
-0.0001395221788088334   1.852735803601832e-05   5.411582052762456e-05
-0.0001395221788088334   1.852735803601832e-05   5.411582052762456e-05
-0.0001395221788088334   1.852735803601832e-05   5.411582052762456e-05
-0.0001451833942599011   1.5120035688112599e-05   0.0002662582225213834
-0.0001451833942599011   1.5120035688112599e-05   0.0002662582225213834
-0.0001451833942599011   1.5120035688112599e-05   0.0002662582225213834
-0.0001451833942599011   1.5120035688112599e-05   0.0002662582225213834
-1.8737761384144758e-05   1.4780857787843188e-05   5.5719007801951874e-05
-1.8737761384144758e-05   1.4780857787843188e-05   5.5719007801951874e-05
-1.8737761384144758e-05   1.4780857787843188e-05   5.5719007801951874e-05
-1.8737761384144758e-05   1.4780857787843188e-05   5.5719007801951874e-05
-7.889223709340389e-05   1.7329727854195273e-05   0.0001544471452775767
-7.889223709340389e-05   1.7329727854195273e-05   0.0001544471452775767
-7.889223709340389e-05   1.7329727854195273e-05   0.0001544471452775767
-7.889223709340389e-05   1.7329727854195273e-05   0.0001544471452775767
-1.8737761384144758e-05   1.5120035688112599e-05   0.00026646172926154607
-1.8737761384144758e-05   1.5120035688112599e-05   0.00026646172926154607
-1.8737761384144758e-05   1.5120035688112599e-05   0.00026646172926154607
-1.8737761384144758e-05   1.5120035688112599e-05   0.00026646172926154607
-0.0001451833942599011   1.4780857787843188e-05   5.551550106179092e-05
-0.0001451833942599011   1.4780857787843188e-05   5.551550106179092e-05
-0.0001451833942599011   1.4780857787843188e-05   5.551550106179092e-05
-0.0001451833942599011   1.4780857787843188e-05   5.551550106179092e-05
-0.00015084452731240166   1.2221890142213171e-05   0.0002696176034591557
-0.00015084452731240166   1.2221890142213171e-05   0.0002696176034591557
-0.00015084452731240166   1.2221890142213171e-05   0.0002696176034591557
-0.00015084452731240166   1.2221890142213171e-05   0.0002696176034591557
-2.4378018698523554e-05   1.122462335385356e-05   5.9438449175708546e-05
-2.4378018698523554e-05   1.122462335385356e-05   5.9438449175708546e-05
-2.4378018698523554e-05   1.122462335385356e-05   5.9438449175708546e-05
-2.4378018698523554e-05   1.122462335385356e-05   5.9438449175708546e-05
-8.426089300171203e-05   1.4827937672729635e-05   0.00015708125108970187
-8.426089300171203e-05   1.4827937672729635e-05   0.00015708125108970187
-8.426089300171203e-05   1.4827937672729635e-05   0.00015708125108970187
-8.426089300171203e-05   1.4827937672729635e-05   0.00015708125108970187
-0.00013400120681248111   4.9310702238937465e-05   0.0002334287978215839
-0.00013400120681248111   4.9310702238937465e-05   0.0002334287978215839
-0.00013400120681248111   4.9310702238937465e-05   0.0002334287978215839
-0.00013400120681248111   4.9310702238937465e-05   0.0002334287978215839
-0.0002574564268417192   4.384782817646975e-05   2.4392373335373717e-05
-0.0002574564268417192   4.384782817646975e-05   2.4392373335373717e-05
-0.0002574564268417192   4.384782817646975e-05   2.4392373335373717e-05
-0.0002574564268417192   4.384782817646975e-05   2.4392373335373717e-05
-0.0002633934069455402   4.609587617161737e-05   0.0002318570659785562
-0.0002633934069455402   4.609587617161737e-05   0.0002318570659785562
-0.0002633934069455402   4.609587617161737e-05   0.0002318570659785562
-0.0002633934069455402   4.609587617161737e-05   0.0002318570659785562
-0.00013952217880883362   4.0190015511502516e-05   2.8948535480112936e-05
-0.00013952217880883362   4.0190015511502516e-05   2.8948535480112936e-05
-0.00013952217880883362   4.0190015511502516e-05   2.8948535480112936e-05
-0.00013952217880883362   4.0190015511502516e-05   2.8948535480112936e-05
-0.00019794056151254617   4.429144220702112e-05   0.00012385165063565897
-0.00019794056151254617   4.429144220702112e-05   0.00012385165063565897
-0.00019794056151254617   4.429144220702112e-05   0.00012385165063565897
-0.00019794056151254617   4.429144220702112e-05   0.00012385165063565897
-0.0001395221788088334   4.609587617161563e-05   0.00023540058237462615
-0.0001395221788088334   4.609587617161563e-05   0.00023540058237462615
-0.0001395221788088334   4.609587617161563e-05   0.00023540058237462615
-0.0001395221788088334   4.609587617161563e-05   0.00023540058237462615
-0.0002633934069455402   4.0190015511502516e-05   2.5405019084045154e-05
-0.0002633934069455402   4.0190015511502516e-05   2.5405019084045154e-05
-0.0002633934069455402   4.0190015511502516e-05   2.5405019084045154e-05
-0.0002633934069455402   4.0190015511502516e-05   2.5405019084045154e-05
-0.00026993507558134957   4.314480707806427e-05   0.00024053413053551527
-0.00026993507558134957   4.314480707806427e-05   0.00024053413053551527
-0.00026993507558134957   4.314480707806427e-05   0.00024053413053551527
-0.00026993507558134957   4.314480707806427e-05   0.00024053413053551527
-0.00014518339425990132   3.6793644134738845e-05   3.642535943243095e-05
-0.00014518339425990132   3.6793644134738845e-05   3.642535943243095e-05
-0.00014518339425990132   3.6793644134738845e-05   3.642535943243095e-05
-0.00014518339425990132   3.6793644134738845e-05   3.642535943243095e-05
-0.00020222752457419043   4.195079114530792e-05   0.00012840462174990887
-0.00020222752457419043   4.195079114530792e-05   0.00012840462174990887
-0.00020222752457419043   4.195079114530792e-05   0.00012840462174990887
-0.00020222752457419043   4.195079114530792e-05   0.00012840462174990887
-0.0001451833942599011   4.314480707806427e-05   0.0002443448283015095
-0.0001451833942599011   4.314480707806427e-05   0.0002443448283015095
-0.0001451833942599011   4.314480707806427e-05   0.0002443448283015095
-0.0001451833942599011   4.314480707806427e-05   0.0002443448283015095
-0.00026993507558134957   3.6793644134738845e-05   3.26146616664337e-05
-0.00026993507558134957   3.6793644134738845e-05   3.26146616664337e-05
-0.00026993507558134957   3.6793644134738845e-05   3.26146616664337e-05
-0.00026993507558134957   3.6793644134738845e-05   3.26146616664337e-05
-0.0002759235721556568   3.955233523029143e-05   0.00024710645127512705
-0.0002759235721556568   3.955233523029143e-05   0.00024710645127512705
-0.0002759235721556568   3.955233523029143e-05   0.00024710645127512705
-0.0002759235721556568   3.955233523029143e-05   0.00024710645127512705
-0.00015084452731240188   3.284938972583813e-05   4.266314383904188e-05
-0.00015084452731240188   3.284938972583813e-05   4.266314383904188e-05
-0.00015084452731240188   3.284938972583813e-05   4.266314383904188e-05
-0.00015084452731240188   3.284938972583813e-05   4.266314383904188e-05
-0.00020899602905966128   3.932366210965439e-05   0.0001356977499875284
-0.00020899602905966128   3.932366210965439e-05   0.0001356977499875284
-0.00020899602905966128   3.932366210965439e-05   0.0001356977499875284
-0.00020899602905966128   3.932366210965439e-05   0.0001356977499875284
-0.0002574564268417192   7.085060920926194e-05   0.00011266687584421224
-0.0002574564268417192   7.085060920926194e-05   0.00011266687584421224
-0.0002574564268417192   7.085060920926194e-05   0.00011266687584421224
-0.0002574564268417192   7.085060920926194e-05   0.00011266687584421224
-0.00037440411985109785   6.0273853788197704e-05   -8.859199909072666e-05
-0.00037440411985109785   6.0273853788197704e-05   -8.859199909072666e-05
-0.00037440411985109785   6.0273853788197704e-05   -8.859199909072666e-05
-0.00037440411985109785   6.0273853788197704e-05   -8.859199909072666e-05
-0.00038505979532871054   7.155528936720647e-05   0.00014937468832398014
-0.00038505979532871054   7.155528936720647e-05   0.00014937468832398014
-0.00038505979532871054   7.155528936720647e-05   0.00014937468832398014
-0.00038505979532871054   7.155528936720647e-05   0.00014937468832398014
-0.0002633934069455402   5.9926653117006734e-05   -4.6425443897852615e-05
-0.0002633934069455402   5.9926653117006734e-05   -4.6425443897852615e-05
-0.0002633934069455402   5.9926653117006734e-05   -4.6425443897852615e-05
-0.0002633934069455402   5.9926653117006734e-05   -4.6425443897852615e-05
-0.00030790766522812037   6.470822119611017e-05   2.489604572565151e-05
-0.00030790766522812037   6.470822119611017e-05   2.489604572565151e-05
-0.00030790766522812037   6.470822119611017e-05   2.489604572565151e-05
-0.00030790766522812037   6.470822119611017e-05   2.489604572565151e-05
-0.0002633934069455402   7.155528936720473e-05   0.00015635187007410033
-0.0002633934069455402   7.155528936720473e-05   0.00015635187007410033
-0.0002633934069455402   7.155528936720473e-05   0.00015635187007410033
-0.0002633934069455402   7.155528936720473e-05   0.00015635187007410033
-0.0003850597953287114   5.9926653117005e-05   -5.34026256479728e-05
-0.0003850597953287114   5.9926653117005e-05   -5.34026256479728e-05
-0.0003850597953287114   5.9926653117005e-05   -5.34026256479728e-05
-0.0003850597953287114   5.9926653117005e-05   -5.34026256479728e-05
-0.00039461355586154585   7.075461546052556e-05   0.00017916564181185216
-0.00039461355586154585   7.075461546052556e-05   0.00017916564181185216
-0.00039461355586154585   7.075461546052556e-05   0.00017916564181185216
-0.00039461355586154585   7.075461546052556e-05   0.00017916564181185216
-0.00026993507558134957   5.869022652935617e-05   -2.1393191963109664e-05
-0.00026993507558134957   5.869022652935617e-05   -2.1393191963109664e-05
-0.00026993507558134957   5.869022652935617e-05   -2.1393191963109664e-05
-0.00026993507558134957   5.869022652935617e-05   -2.1393191963109664e-05
-0.00032008977662079227   6.540613779880411e-05   5.816842967430562e-05
-0.00032008977662079227   6.540613779880411e-05   5.816842967430562e-05
-0.00032008977662079227   6.540613779880411e-05   5.816842967430562e-05
-0.00032008977662079227   6.540613779880411e-05   5.816842967430562e-05
-0.00026993507558134957   7.075461546052556e-05   0.0001864042751705524
-0.00026993507558134957   7.075461546052556e-05   0.0001864042751705524
-0.00026993507558134957   7.075461546052556e-05   0.0001864042751705524
-0.00026993507558134957   7.075461546052556e-05   0.0001864042751705524
-0.00039461355586154585   5.869022652935617e-05   -2.8631825321810342e-05
-0.00039461355586154585   5.869022652935617e-05   -2.8631825321810342e-05
-0.00039461355586154585   5.869022652935617e-05   -2.8631825321810342e-05
-0.00039461355586154585   5.869022652935617e-05   -2.8631825321810342e-05
-0.0004056039309143942   6.526552421282604e-05   0.00023048448141306868
-0.0004056039309143942   6.526552421282604e-05   0.00023048448141306868
-0.0004056039309143942   6.526552421282604e-05   0.00023048448141306868
-0.0004056039309143942   6.526552421282604e-05   0.00023048448141306868
-0.0002759235721556568   5.3272725311619834e-05   2.154622948923133e-05
-0.0002759235721556568   5.3272725311619834e-05   2.154622948923133e-05
-0.0002759235721556568   5.3272725311619834e-05   2.154622948923133e-05
-0.0002759235721556568   5.3272725311619834e-05   2.154622948923133e-05
-0.0003228009796466673   6.316434281321281e-05   9.374027147329798e-05
-0.0003228009796466673   6.316434281321281e-05   9.374027147329798e-05
-0.0003228009796466673   6.316434281321281e-05   9.374027147329798e-05
-0.0003228009796466673   6.316434281321281e-05   9.374027147329798e-05
0.00017651579199221262   -2.2901046364848243e-05   0.0001781185334344326
0.00017651579199221262   -2.2901046364848243e-05   0.0001781185334344326
0.00017651579199221262   -2.2901046364848243e-05   0.0001781185334344326
0.00017651579199221262   -2.2901046364848243e-05   0.0001781185334344326
7.317615285420452e-05   -1.1103992588374495e-05   1.2964033803637698e-05
7.317615285420452e-05   -1.1103992588374495e-05   1.2964033803637698e-05
7.317615285420452e-05   -1.1103992588374495e-05   1.2964033803637698e-05
7.317615285420452e-05   -1.1103992588374495e-05   1.2964033803637698e-05
6.848450965548657e-05   -2.7846706492598572e-05   0.00016026845479517882
6.848450965548657e-05   -2.7846706492598572e-05   0.00016026845479517882
6.848450965548657e-05   -2.7846706492598572e-05   0.00016026845479517882
6.848450965548657e-05   -2.7846706492598572e-05   0.00016026845479517882
0.00016654676869655422   -1.551041631854197e-05   -1.0570417711033516e-05
0.00016654676869655422   -1.551041631854197e-05   -1.0570417711033516e-05
0.00016654676869655422   -1.551041631854197e-05   -1.0570417711033516e-05
0.00016654676869655422   -1.551041631854197e-05   -1.0570417711033516e-05
0.00011514408509771262   -1.9815426055492386e-05   7.768372746254186e-05
0.00011514408509771262   -1.9815426055492386e-05   7.768372746254186e-05
0.00011514408509771262   -1.9815426055492386e-05   7.768372746254186e-05
0.00011514408509771262   -1.9815426055492386e-05   7.768372746254186e-05
0.0001665467686965545   -2.7846706492596837e-05   0.0001528666806907466
0.0001665467686965545   -2.7846706492596837e-05   0.0001528666806907466
0.0001665467686965545   -2.7846706492596837e-05   0.0001528666806907466
0.0001665467686965545   -2.7846706492596837e-05   0.0001528666806907466
6.848450965548633e-05   -1.551041631854197e-05   -3.16864360659988e-06
6.848450965548633e-05   -1.551041631854197e-05   -3.16864360659988e-06
6.848450965548633e-05   -1.551041631854197e-05   -3.16864360659988e-06
6.848450965548633e-05   -1.551041631854197e-05   -3.16864360659988e-06
6.32239482223706e-05   -2.9175556376119863e-05   0.0001469960142366413
6.32239482223706e-05   -2.9175556376119863e-05   0.0001469960142366413
6.32239482223706e-05   -2.9175556376119863e-05   0.0001469960142366413
6.32239482223706e-05   -2.9175556376119863e-05   0.0001469960142366413
0.00015799810833929447   -1.7036686096554357e-05   -1.8244241459303015e-05
0.00015799810833929447   -1.7036686096554357e-05   -1.8244241459303015e-05
0.00015799810833929447   -1.7036686096554357e-05   -1.8244241459303015e-05
0.00015799810833929447   -1.7036686096554357e-05   -1.8244241459303015e-05
0.00011066536223312682   -2.168114173961913e-05   6.343034210348373e-05
0.00011066536223312682   -2.168114173961913e-05   6.343034210348373e-05
0.00011066536223312682   -2.168114173961913e-05   6.343034210348373e-05
0.00011066536223312682   -2.168114173961913e-05   6.343034210348373e-05
0.00015799810833929474   -2.9175556376119863e-05   0.00013971269206890236
0.00015799810833929474   -2.9175556376119863e-05   0.00013971269206890236
0.00015799810833929474   -2.9175556376119863e-05   0.00013971269206890236
0.00015799810833929474   -2.9175556376119863e-05   0.00013971269206890236
6.32239482223705e-05   -1.7036686096554357e-05   -1.096091929156471e-05
6.32239482223705e-05   -1.7036686096554357e-05   -1.096091929156471e-05
6.32239482223705e-05   -1.7036686096554357e-05   -1.096091929156471e-05
6.32239482223705e-05   -1.7036686096554357e-05   -1.096091929156471e-05
5.851213732760091e-05   -3.0452802988654992e-05   0.00012983082115174908
5.851213732760091e-05   -3.0452802988654992e-05   0.00012983082115174908
5.851213732760091e-05   -3.0452802988654992e-05   0.00012983082115174908
5.851213732760091e-05   -3.0452802988654992e-05   0.00012983082115174908
0.00014831753140136114   -1.908438326400294e-05   -2.666588747264251e-05
0.00014831753140136114   -1.908438326400294e-05   -2.666588747264251e-05
0.00014831753140136114   -1.908438326400294e-05   -2.666588747264251e-05
0.00014831753140136114   -1.908438326400294e-05   -2.666588747264251e-05
0.00010250170740131716   -2.206736257965268e-05   5.148360678348734e-05
0.00010250170740131716   -2.206736257965268e-05   5.148360678348734e-05
0.00010250170740131716   -2.206736257965268e-05   5.148360678348734e-05
0.00010250170740131716   -2.206736257965268e-05   5.148360678348734e-05
7.317615285420479e-05   -4.4216630766535925e-08   0.00022107801794318035
7.317615285420479e-05   -4.4216630766535925e-08   0.00022107801794318035
7.317615285420479e-05   -4.4216630766535925e-08   0.00022107801794318035
7.317615285420479e-05   -4.4216630766535925e-08   0.00022107801794318035
-2.3878535111920124e-05   5.919174530924498e-06   6.289823936332043e-05
-2.3878535111920124e-05   5.919174530924498e-06   6.289823936332043e-05
-2.3878535111920124e-05   5.919174530924498e-06   6.289823936332043e-05
-2.3878535111920124e-05   5.919174530924498e-06   6.289823936332043e-05
-2.8185639906585852e-05   -4.359484581559561e-06   0.0002215340632951788
-2.8185639906585852e-05   -4.359484581559561e-06   0.0002215340632951788
-2.8185639906585852e-05   -4.359484581559561e-06   0.0002215340632951788
-2.8185639906585852e-05   -4.359484581559561e-06   0.0002215340632951788
6.848450965548633e-05   1.4417038656858172e-06   5.693643429004484e-05
6.848450965548633e-05   1.4417038656858172e-06   5.693643429004484e-05
6.848450965548633e-05   1.4417038656858172e-06   5.693643429004484e-05
6.848450965548633e-05   1.4417038656858172e-06   5.693643429004484e-05
2.171028370430943e-05   3.586671024520538e-07   0.00013554329959995
2.171028370430943e-05   3.586671024520538e-07   0.00013554329959995
2.171028370430943e-05   3.586671024520538e-07   0.00013554329959995
2.171028370430943e-05   3.586671024520538e-07   0.00013554329959995
6.848450965548649e-05   -4.359484581559561e-06   0.00021805335022683035
6.848450965548649e-05   -4.359484581559561e-06   0.00021805335022683035
6.848450965548649e-05   -4.359484581559561e-06   0.00021805335022683035
6.848450965548649e-05   -4.359484581559561e-06   0.00021805335022683035
-2.8185639906585852e-05   1.4417038656858172e-06   6.041714735839296e-05
-2.8185639906585852e-05   1.4417038656858172e-06   6.041714735839296e-05
-2.8185639906585852e-05   1.4417038656858172e-06   6.041714735839296e-05
-2.8185639906585852e-05   1.4417038656858172e-06   6.041714735839296e-05
-3.258734548175837e-05   -7.773908223186743e-06   0.00021895505582167699
-3.258734548175837e-05   -7.773908223186743e-06   0.00021895505582167699
-3.258734548175837e-05   -7.773908223186743e-06   0.00021895505582167699
-3.258734548175837e-05   -7.773908223186743e-06   0.00021895505582167699
6.32239482223705e-05   -2.2344230449587027e-06   5.594587520786035e-05
6.32239482223705e-05   -2.2344230449587027e-06   5.594587520786035e-05
6.32239482223705e-05   -2.2344230449587027e-06   5.594587520786035e-05
6.32239482223705e-05   -2.2344230449587027e-06   5.594587520786035e-05
1.6983722374463032e-05   -2.635109205548214e-06   0.0001332533299840664
1.6983722374463032e-05   -2.635109205548214e-06   0.0001332533299840664
1.6983722374463032e-05   -2.635109205548214e-06   0.0001332533299840664
1.6983722374463032e-05   -2.635109205548214e-06   0.0001332533299840664
6.322394822237069e-05   -7.773908223186743e-06   0.00021563136471474103
6.322394822237069e-05   -7.773908223186743e-06   0.00021563136471474103
6.322394822237069e-05   -7.773908223186743e-06   0.00021563136471474103
6.322394822237069e-05   -7.773908223186743e-06   0.00021563136471474103
-3.258734548175848e-05   -2.2344230449604374e-06   5.926956631479782e-05
-3.258734548175848e-05   -2.2344230449604374e-06   5.926956631479782e-05
-3.258734548175848e-05   -2.2344230449604374e-06   5.926956631479782e-05
-3.258734548175848e-05   -2.2344230449604374e-06   5.926956631479782e-05
-3.695055163691638e-05   -1.0952156768368956e-05   0.00022101960998643054
-3.695055163691638e-05   -1.0952156768368956e-05   0.00022101960998643054
-3.695055163691638e-05   -1.0952156768368956e-05   0.00022101960998643054
-3.695055163691638e-05   -1.0952156768368956e-05   0.00022101960998643054
5.8512137327600665e-05   -5.872759082550805e-06   5.886748976741108e-05
5.8512137327600665e-05   -5.872759082550805e-06   5.886748976741108e-05
5.8512137327600665e-05   -5.872759082550805e-06   5.886748976741108e-05
5.8512137327600665e-05   -5.872759082550805e-06   5.886748976741108e-05
1.3235022784123578e-05   -5.145951689917647e-06   0.0001338932629042916
1.3235022784123578e-05   -5.145951689917647e-06   0.0001338932629042916
1.3235022784123578e-05   -5.145951689917647e-06   0.0001338932629042916
1.3235022784123578e-05   -5.145951689917647e-06   0.0001338932629042916
-2.3878535111920016e-05   2.233359150729912e-05   0.00024008257378713063
-2.3878535111920016e-05   2.233359150729912e-05   0.00024008257378713063
-2.3878535111920016e-05   2.233359150729912e-05   0.00024008257378713063
-2.3878535111920016e-05   2.233359150729912e-05   0.00024008257378713063
-0.00011936552949354663   2.1936061709368695e-05   8.069906527232839e-05
-0.00011936552949354663   2.1936061709368695e-05   8.069906527232839e-05
-0.00011936552949354663   2.1936061709368695e-05   8.069906527232839e-05
-0.00011936552949354663   2.1936061709368695e-05   8.069906527232839e-05
-0.00012361048126504704   1.852735803601832e-05   0.00023851229579009876
-0.00012361048126504704   1.852735803601832e-05   0.00023851229579009876
-0.00012361048126504704   1.852735803601832e-05   0.00023851229579009876
-0.00012361048126504704   1.852735803601832e-05   0.00023851229579009876
-2.8185639906585743e-05   1.7853633656647952e-05   7.987512815361931e-05
-2.8185639906585743e-05   1.7853633656647952e-05   7.987512815361931e-05
-2.8185639906585743e-05   1.7853633656647952e-05   7.987512815361931e-05
-2.8185639906585743e-05   1.7853633656647952e-05   7.987512815361931e-05
-7.394269716530158e-05   1.9672434709745723e-05   0.0001550456096196251
-7.394269716530158e-05   1.9672434709745723e-05   0.0001550456096196251
-7.394269716530158e-05   1.9672434709745723e-05   0.0001550456096196251
-7.394269716530158e-05   1.9672434709745723e-05   0.0001550456096196251
-2.8185639906585852e-05   1.8527358036020056e-05   0.00023891653041772237
-2.8185639906585852e-05   1.8527358036020056e-05   0.00023891653041772237
-2.8185639906585852e-05   1.8527358036020056e-05   0.00023891653041772237
-2.8185639906585852e-05   1.8527358036020056e-05   0.00023891653041772237
-0.00012361048126504704   1.7853633656646217e-05   7.947089352599787e-05
-0.00012361048126504704   1.7853633656646217e-05   7.947089352599787e-05
-0.00012361048126504704   1.7853633656646217e-05   7.947089352599787e-05
-0.00012361048126504704   1.7853633656646217e-05   7.947089352599787e-05
-0.00012795930534386952   1.4780857787843188e-05   0.00023976821024283834
-0.00012795930534386952   1.4780857787843188e-05   0.00023976821024283834
-0.00012795930534386952   1.4780857787843188e-05   0.00023976821024283834
-0.00012795930534386952   1.4780857787843188e-05   0.00023976821024283834
-3.258734548175837e-05   1.3817599310610856e-05   8.139289889232495e-05
-3.258734548175837e-05   1.3817599310610856e-05   8.139289889232495e-05
-3.258734548175837e-05   1.3817599310610856e-05   8.139289889232495e-05
-3.258734548175837e-05   1.3817599310610856e-05   8.139289889232495e-05
-7.783473962214233e-05   1.6703471646518572e-05   0.00015507369905809216
-7.783473962214233e-05   1.6703471646518572e-05   0.00015507369905809216
-7.783473962214233e-05   1.6703471646518572e-05   0.00015507369905809216
-7.783473962214233e-05   1.6703471646518572e-05   0.00015507369905809216
-3.258734548175848e-05   1.4780857787843188e-05   0.00024034616532917722
-3.258734548175848e-05   1.4780857787843188e-05   0.00024034616532917722
-3.258734548175848e-05   1.4780857787843188e-05   0.00024034616532917722
-3.258734548175848e-05   1.4780857787843188e-05   0.00024034616532917722
-0.00012795930534386952   1.3817599310612591e-05   8.081494380598585e-05
-0.00012795930534386952   1.3817599310612591e-05   8.081494380598585e-05
-0.00012795930534386952   1.3817599310612591e-05   8.081494380598585e-05
-0.00012795930534386952   1.3817599310612591e-05   8.081494380598585e-05
-0.00013225927801058636   1.122462335385356e-05   0.00024303890572531517
-0.00013225927801058636   1.122462335385356e-05   0.00024303890572531517
-0.00013225927801058636   1.122462335385356e-05   0.00024303890572531517
-0.00013225927801058636   1.122462335385356e-05   0.00024303890572531517
-3.695055163691616e-05   9.929994927809077e-06   8.496780549149233e-05
-3.695055163691616e-05   9.929994927809077e-06   8.496780549149233e-05
-3.695055163691616e-05   9.929994927809077e-06   8.496780549149233e-05
-3.695055163691616e-05   9.929994927809077e-06   8.496780549149233e-05
-8.19034982686718e-05   1.3802764574575785e-05   0.00015756572142302605
-8.19034982686718e-05   1.3802764574575785e-05   0.00015756572142302605
-8.19034982686718e-05   1.3802764574575785e-05   0.00015756572142302605
-8.19034982686718e-05   1.3802764574575785e-05   0.00015756572142302605
-0.00011936552949354663   4.384782817647148e-05   0.00021218700322903506
-0.00011936552949354663   4.384782817647148e-05   0.00021218700322903506
-0.00011936552949354663   4.384782817647148e-05   0.00021218700322903506
-0.00011936552949354663   4.384782817647148e-05   0.00021218700322903506
-0.00021315521126045512   3.750727766424315e-05   5.2066536643517736e-05
-0.00021315521126045512   3.750727766424315e-05   5.2066536643517736e-05
-0.00021315521126045512   3.750727766424315e-05   5.2066536643517736e-05
-0.00021315521126045512   3.750727766424315e-05   5.2066536643517736e-05
-0.00021770344436684679   4.0190015511502516e-05   0.00020933667670848706
-0.00021770344436684679   4.0190015511502516e-05   0.00020933667670848706
-0.00021770344436684679   4.0190015511502516e-05   0.00020933667670848706
-0.00021770344436684679   4.0190015511502516e-05   0.00020933667670848706
-0.0001236104812650466   3.3509458788001656e-05   5.652340557292263e-05
-0.0001236104812650466   3.3509458788001656e-05   5.652340557292263e-05
-0.0001236104812650466   3.3509458788001656e-05   5.652340557292263e-05
-0.0001236104812650466   3.3509458788001656e-05   5.652340557292263e-05
-0.00016798574561746648   3.811936831928618e-05   0.00012771623377485662
-0.00016798574561746648   3.811936831928618e-05   0.00012771623377485662
-0.00016798574561746648   3.811936831928618e-05   0.00012771623377485662
-0.00016798574561746648   3.811936831928618e-05   0.00012771623377485662
-0.00012361048126504704   4.0190015511502516e-05   0.00021334501074259018
-0.00012361048126504704   4.0190015511502516e-05   0.00021334501074259018
-0.00012361048126504704   4.0190015511502516e-05   0.00021334501074259018
-0.00012361048126504704   4.0190015511502516e-05   0.00021334501074259018
-0.00021770344436684657   3.3509458788001656e-05   5.2515071538822115e-05
-0.00021770344436684657   3.3509458788001656e-05   5.2515071538822115e-05
-0.00021770344436684657   3.3509458788001656e-05   5.2515071538822115e-05
-0.00021770344436684657   3.3509458788001656e-05   5.2515071538822115e-05
-0.00022282699324258884   3.6793644134738845e-05   0.00021649428779022158
-0.00022282699324258884   3.6793644134738845e-05   0.00021649428779022158
-0.00022282699324258884   3.6793644134738845e-05   0.00021649428779022158
-0.00022282699324258884   3.6793644134738845e-05   0.00021649428779022158
-0.00012795930534386908   2.982067609597766e-05   6.256525544894422e-05
-0.00012795930534386908   2.982067609597766e-05   6.256525544894422e-05
-0.00012795930534386908   2.982067609597766e-05   6.256525544894422e-05
-0.00012795930534386908   2.982067609597766e-05   6.256525544894422e-05
-0.00017115786122528771   3.5391571728014826e-05   0.00013122031120542518
-0.00017115786122528771   3.5391571728014826e-05   0.00013122031120542518
-0.00017115786122528771   3.5391571728014826e-05   0.00013122031120542518
-0.00017115786122528771   3.5391571728014826e-05   0.00013122031120542518
-0.0001279593053438693   3.6793644134738845e-05   0.00022067806861347534
-0.0001279593053438693   3.6793644134738845e-05   0.00022067806861347534
-0.0001279593053438693   3.6793644134738845e-05   0.00022067806861347534
-0.0001279593053438693   3.6793644134738845e-05   0.00022067806861347534
-0.00022282699324258862   2.9820676095979395e-05   5.838147462568829e-05
-0.00022282699324258862   2.9820676095979395e-05   5.838147462568829e-05
-0.00022282699324258862   2.9820676095979395e-05   5.838147462568829e-05
-0.00022282699324258862   2.9820676095979395e-05   5.838147462568829e-05
-0.0002273900188401346   3.284938972583813e-05   0.00022257673077924998
-0.0002273900188401346   3.284938972583813e-05   0.00022257673077924998
-0.0002273900188401346   3.284938972583813e-05   0.00022257673077924998
-0.0002273900188401346   3.284938972583813e-05   0.00022257673077924998
-0.00013225927801058593   2.5707340255148523e-05   6.83107257457502e-05
-0.00013225927801058593   2.5707340255148523e-05   6.83107257457502e-05
-0.00013225927801058593   2.5707340255148523e-05   6.83107257457502e-05
-0.00013225927801058593   2.5707340255148523e-05   6.83107257457502e-05
-0.00017628088970478772   3.2532145437285526e-05   0.00013758519546014196
-0.00017628088970478772   3.2532145437285526e-05   0.00013758519546014196
-0.00017628088970478772   3.2532145437285526e-05   0.00013758519546014196
-0.00017628088970478772   3.2532145437285526e-05   0.00013758519546014196
-0.00021315521126045512   6.0273853788197704e-05   0.00010174435374823813
-0.00021315521126045512   6.0273853788197704e-05   0.00010174435374823813
-0.00021315521126045512   6.0273853788197704e-05   0.00010174435374823813
-0.00021315521126045512   6.0273853788197704e-05   0.00010174435374823813
-0.0003008196514011534   4.904609814299771e-05   -5.1099699873379065e-05
-0.0003008196514011534   4.904609814299771e-05   -5.1099699873379065e-05
-0.0003008196514011534   4.904609814299771e-05   -5.1099699873379065e-05
-0.0003008196514011534   4.904609814299771e-05   -5.1099699873379065e-05
-0.00031030925431589987   5.9926653117005e-05   0.00013019233658278888
-0.00031030925431589987   5.9926653117005e-05   0.00013019233658278888
-0.00031030925431589987   5.9926653117005e-05   0.00013019233658278888
-0.00031030925431589987   5.9926653117005e-05   0.00013019233658278888
-0.00021770344436684635   4.773685787733649e-05   -1.6836802855166137e-05
-0.00021770344436684635   4.773685787733649e-05   -1.6836802855166137e-05
-0.00021770344436684635   4.773685787733649e-05   -1.6836802855166137e-05
-0.00021770344436684635   4.773685787733649e-05   -1.6836802855166137e-05
-0.00025074113461797927   5.327607756418218e-05   3.490248241795526e-05
-0.00025074113461797927   5.327607756418218e-05   3.490248241795526e-05
-0.00025074113461797927   5.327607756418218e-05   3.490248241795526e-05
-0.00025074113461797927   5.327607756418218e-05   3.490248241795526e-05
-0.00021770344436684657   5.9926653117006734e-05   0.0001375062137265893
-0.00021770344436684657   5.9926653117006734e-05   0.0001375062137265893
-0.00021770344436684657   5.9926653117006734e-05   0.0001375062137265893
-0.00021770344436684657   5.9926653117006734e-05   0.0001375062137265893
-0.0003103092543159003   4.7736857877338223e-05   -2.415067999896655e-05
-0.0003103092543159003   4.7736857877338223e-05   -2.415067999896655e-05
-0.0003103092543159003   4.7736857877338223e-05   -2.415067999896655e-05
-0.0003103092543159003   4.7736857877338223e-05   -2.415067999896655e-05
-0.0003186021626541092   5.869022652935617e-05   0.00015497752696501214
-0.0003186021626541092   5.869022652935617e-05   0.00015497752696501214
-0.0003186021626541092   5.869022652935617e-05   0.00015497752696501214
-0.0003186021626541092   5.869022652935617e-05   0.00015497752696501214
-0.0002228269932425884   4.617538120324505e-05   2.86115180814445e-06
-0.0002228269932425884   4.617538120324505e-05   2.86115180814445e-06
-0.0002228269932425884   4.617538120324505e-05   2.86115180814445e-06
-0.0002228269932425884   4.617538120324505e-05   2.86115180814445e-06
-0.0002607451446762401   5.3291037426766996e-05   6.17886771301238e-05
-0.0002607451446762401   5.3291037426766996e-05   6.17886771301238e-05
-0.0002607451446762401   5.3291037426766996e-05   6.17886771301238e-05
-0.0002607451446762401   5.3291037426766996e-05   6.17886771301238e-05
-0.00022282699324258884   5.869022652935617e-05   0.00016248643416067778
-0.00022282699324258884   5.869022652935617e-05   0.00016248643416067778
-0.00022282699324258884   5.869022652935617e-05   0.00016248643416067778
-0.00022282699324258884   5.869022652935617e-05   0.00016248643416067778
-0.0003186021626541092   4.617538120324505e-05   -4.6477553875229165e-06
-0.0003186021626541092   4.617538120324505e-05   -4.6477553875229165e-06
-0.0003186021626541092   4.617538120324505e-05   -4.6477553875229165e-06
-0.0003186021626541092   4.617538120324505e-05   -4.6477553875229165e-06
-0.0003282336044964627   5.32727253116181e-05   0.00019809738858974843
-0.0003282336044964627   5.32727253116181e-05   0.00019809738858974843
-0.0003282336044964627   5.32727253116181e-05   0.00019809738858974843
-0.0003282336044964627   5.32727253116181e-05   0.00019809738858974843
-0.00022739001884013415   4.096573340768399e-05   3.740894097156245e-05
-0.00022739001884013415   4.096573340768399e-05   3.740894097156245e-05
-0.00022739001884013415   4.096573340768399e-05   3.740894097156245e-05
-0.00022739001884013415   4.096573340768399e-05   3.740894097156245e-05
-0.0002630627145075921   5.102509249489684e-05   9.082781829833006e-05
-0.0002630627145075921   5.102509249489684e-05   9.082781829833006e-05
-0.0002630627145075921   5.102509249489684e-05   9.082781829833006e-05
-0.0002630627145075921   5.102509249489684e-05   9.082781829833006e-05
9.686064843403557e-05   -1.1103992588374495e-05   0.00013948522769254706
9.686064843403557e-05   -1.1103992588374495e-05   0.00013948522769254706
9.686064843403557e-05   -1.1103992588374495e-05   0.00013948522769254706
9.686064843403557e-05   -1.1103992588374495e-05   0.00013948522769254706
2.4874182874557246e-05   5.198093736558107e-07   2.6482066270633493e-05
2.4874182874557246e-05   5.198093736558107e-07   2.6482066270633493e-05
2.4874182874557246e-05   5.198093736558107e-07   2.6482066270633493e-05
2.4874182874557246e-05   5.198093736558107e-07   2.6482066270633493e-05
2.1383628245436964e-05   -1.5510416318543704e-05   0.00013020655119883647
2.1383628245436964e-05   -1.5510416318543704e-05   0.00013020655119883647
2.1383628245436964e-05   -1.5510416318543704e-05   0.00013020655119883647
2.1383628245436964e-05   -1.5510416318543704e-05   0.00013020655119883647
8.824608188326237e-05   -3.417390536716164e-06   1.1513313000033332e-05
8.824608188326237e-05   -3.417390536716164e-06   1.1513313000033332e-05
8.824608188326237e-05   -3.417390536716164e-06   1.1513313000033332e-05
8.824608188326237e-05   -3.417390536716164e-06   1.1513313000033332e-05
5.4404762662069365e-05   -7.935613538019581e-06   7.062644550280854e-05
5.4404762662069365e-05   -7.935613538019581e-06   7.062644550280854e-05
5.4404762662069365e-05   -7.935613538019581e-06   7.062644550280854e-05
5.4404762662069365e-05   -7.935613538019581e-06   7.062644550280854e-05
8.824608188326248e-05   -1.551041631854197e-05   0.00012295073572974203
8.824608188326248e-05   -1.551041631854197e-05   0.00012295073572974203
8.824608188326248e-05   -1.551041631854197e-05   0.00012295073572974203
8.824608188326248e-05   -1.551041631854197e-05   0.00012295073572974203
2.1383628245436937e-05   -3.417390536716164e-06   1.876912846912951e-05
2.1383628245436937e-05   -3.417390536716164e-06   1.876912846912951e-05
2.1383628245436937e-05   -3.417390536716164e-06   1.876912846912951e-05
2.1383628245436937e-05   -3.417390536716164e-06   1.876912846912951e-05
1.7324245051845093e-05   -1.7036686096556092e-05   0.00012230902745917135
1.7324245051845093e-05   -1.7036686096556092e-05   0.00012230902745917135
1.7324245051845093e-05   -1.7036686096556092e-05   0.00012230902745917135
1.7324245051845093e-05   -1.7036686096556092e-05   0.00012230902745917135
8.096212372075355e-05   -5.128331421860519e-06   9.100883539506807e-06
8.096212372075355e-05   -5.128331421860519e-06   9.100883539506807e-06
8.096212372075355e-05   -5.128331421860519e-06   9.100883539506807e-06
8.096212372075355e-05   -5.128331421860519e-06   9.100883539506807e-06
5.020921670328999e-05   -9.652900421182678e-06   6.307046996820468e-05
5.020921670328999e-05   -9.652900421182678e-06   6.307046996820468e-05
5.020921670328999e-05   -9.652900421182678e-06   6.307046996820468e-05
5.020921670328999e-05   -9.652900421182678e-06   6.307046996820468e-05
8.096212372075366e-05   -1.7036686096554357e-05   0.00011516401465435332
8.096212372075366e-05   -1.7036686096554357e-05   0.00011516401465435332
8.096212372075366e-05   -1.7036686096554357e-05   0.00011516401465435332
8.096212372075366e-05   -1.7036686096554357e-05   0.00011516401465435332
1.7324245051845012e-05   -5.128331421860519e-06   1.6245896344324953e-05
1.7324245051845012e-05   -5.128331421860519e-06   1.6245896344324953e-05
1.7324245051845012e-05   -5.128331421860519e-06   1.6245896344324953e-05
1.7324245051845012e-05   -5.128331421860519e-06   1.6245896344324953e-05
1.381160738204854e-05   -1.9084383264001206e-05   0.00011326396258969865
1.381160738204854e-05   -1.9084383264001206e-05   0.00011326396258969865
1.381160738204854e-05   -1.9084383264001206e-05   0.00011326396258969865
1.381160738204854e-05   -1.9084383264001206e-05   0.00011326396258969865
7.244681876963693e-05   -8.003589676619516e-06   8.890134124622871e-06
7.244681876963693e-05   -8.003589676619516e-06   8.890134124622871e-06
7.244681876963693e-05   -8.003589676619516e-06   8.890134124622871e-06
7.244681876963693e-05   -8.003589676619516e-06   8.890134124622871e-06
4.4117833140852245e-05   -1.0563265815961148e-05   5.7640915856204105e-05
4.4117833140852245e-05   -1.0563265815961148e-05   5.7640915856204105e-05
4.4117833140852245e-05   -1.0563265815961148e-05   5.7640915856204105e-05
4.4117833140852245e-05   -1.0563265815961148e-05   5.7640915856204105e-05
2.48741828745573e-05   5.919174530924498e-06   0.0001928156797324325
2.48741828745573e-05   5.919174530924498e-06   0.0001928156797324325
2.48741828745573e-05   5.919174530924498e-06   0.0001928156797324325
2.48741828745573e-05   5.919174530924498e-06   0.0001928156797324325
-4.078503359415252e-05   1.115501917954044e-05   8.652515907375032e-05
-4.078503359415252e-05   1.115501917954044e-05   8.652515907375032e-05
-4.078503359415252e-05   1.115501917954044e-05   8.652515907375032e-05
-4.078503359415252e-05   1.115501917954044e-05   8.652515907375032e-05
-4.38466832736351e-05   1.4417038656858172e-06   0.00019345949970618961
-4.38466832736351e-05   1.4417038656858172e-06   0.00019345949970618961
-4.38466832736351e-05   1.4417038656858172e-06   0.00019345949970618961
-4.38466832736351e-05   1.4417038656858172e-06   0.00019345949970618961
2.1383628245436937e-05   6.6881548835308335e-06   8.159444323036413e-05
2.1383628245436937e-05   6.6881548835308335e-06   8.159444323036413e-05
2.1383628245436937e-05   6.6881548835308335e-06   8.159444323036413e-05
2.1383628245436937e-05   6.6881548835308335e-06   8.159444323036413e-05
-1.0078953767012628e-05   5.863354641651164e-06   0.00013452696006291268
-1.0078953767012628e-05   5.863354641651164e-06   0.00013452696006291268
-1.0078953767012628e-05   5.863354641651164e-06   0.00013452696006291268
-1.0078953767012628e-05   5.863354641651164e-06   0.00013452696006291268
2.1383628245436937e-05   1.4417038656858172e-06   0.00019031162909548174
2.1383628245436937e-05   1.4417038656858172e-06   0.00019031162909548174
2.1383628245436937e-05   1.4417038656858172e-06   0.00019031162909548174
2.1383628245436937e-05   1.4417038656858172e-06   0.00019031162909548174
-4.38466832736351e-05   6.6881548835308335e-06   8.474231384107168e-05
-4.38466832736351e-05   6.6881548835308335e-06   8.474231384107168e-05
-4.38466832736351e-05   6.6881548835308335e-06   8.474231384107168e-05
-4.38466832736351e-05   6.6881548835308335e-06   8.474231384107168e-05
-4.699575519401321e-05   -2.2344230449604374e-06   0.00019229007276229827
-4.699575519401321e-05   -2.2344230449604374e-06   0.00019229007276229827
-4.699575519401321e-05   -2.2344230449604374e-06   0.00019229007276229827
-4.699575519401321e-05   -2.2344230449604374e-06   0.00019229007276229827
1.7324245051845012e-05   2.8893282945450377e-06   8.201582154883326e-05
1.7324245051845012e-05   2.8893282945450377e-06   8.201582154883326e-05
1.7324245051845012e-05   2.8893282945450377e-06   8.201582154883326e-05
1.7324245051845012e-05   2.8893282945450377e-06   8.201582154883326e-05
-1.3341495257717466e-05   2.7396539755697447e-06   0.00013321519332282466
-1.3341495257717466e-05   2.7396539755697447e-06   0.00013321519332282466
-1.3341495257717466e-05   2.7396539755697447e-06   0.00013321519332282466
-1.3341495257717466e-05   2.7396539755697447e-06   0.00013321519332282466
1.7324245051845093e-05   -2.2344230449587027e-06   0.00018921582195859706
1.7324245051845093e-05   -2.2344230449587027e-06   0.00018921582195859706
1.7324245051845093e-05   -2.2344230449587027e-06   0.00018921582195859706
1.7324245051845093e-05   -2.2344230449587027e-06   0.00018921582195859706
-4.6995755194013315e-05   2.889328294543303e-06   8.509007235253576e-05
-4.6995755194013315e-05   2.889328294543303e-06   8.509007235253576e-05
-4.6995755194013315e-05   2.889328294543303e-06   8.509007235253576e-05
-4.6995755194013315e-05   2.889328294543303e-06   8.509007235253576e-05
-5.009558228661183e-05   -5.872759082552539e-06   0.00019489461179940468
-5.009558228661183e-05   -5.872759082552539e-06   0.00019489461179940468
-5.009558228661183e-05   -5.872759082552539e-06   0.00019489461179940468
-5.009558228661183e-05   -5.872759082552539e-06   0.00019489461179940468
1.3811607382048486e-05   -1.008886075144072e-06   8.546430521386221e-05
1.3811607382048486e-05   -1.008886075144072e-06   8.546430521386221e-05
1.3811607382048486e-05   -1.008886075144072e-06   8.546430521386221e-05
1.3811607382048486e-05   -1.008886075144072e-06   8.546430521386221e-05
-1.6113041756181086e-05   -7.856303308254042e-08   0.00013478052661900983
-1.6113041756181086e-05   -7.856303308254042e-08   0.00013478052661900983
-1.6113041756181086e-05   -7.856303308254042e-08   0.00013478052661900983
-1.6113041756181086e-05   -7.856303308254042e-08   0.00013478052661900983
-4.078503359415252e-05   2.1936061709368695e-05   0.00021399653030936775
-4.078503359415252e-05   2.1936061709368695e-05   0.00021399653030936775
-4.078503359415252e-05   2.1936061709368695e-05   0.00021399653030936775
-4.078503359415252e-05   2.1936061709368695e-05   0.00021399653030936775
-0.0001053833777916592   2.063660688741975e-05   0.00010555295042035274
-0.0001053833777916592   2.063660688741975e-05   0.00010555295042035274
-0.0001053833777916592   2.063660688741975e-05   0.00010555295042035274
-0.0001053833777916592   2.063660688741975e-05   0.00010555295042035274
-0.00010831677608277661   1.7853633656646217e-05   0.00021210831345840325
-0.00010831677608277661   1.7853633656646217e-05   0.00021210831345840325
-0.00010831677608277661   1.7853633656646217e-05   0.00021210831345840325
-0.00010831677608277661   1.7853633656646217e-05   0.00021210831345840325
-4.384668327363488e-05   1.650502191829009e-05   0.00010546732581951735
-4.384668327363488e-05   1.650502191829009e-05   0.00010546732581951735
-4.384668327363488e-05   1.650502191829009e-05   0.00010546732581951735
-4.384668327363488e-05   1.650502191829009e-05   0.00010546732581951735
-7.471801730369969e-05   1.8785534932869163e-05   0.00015555124139421742
-7.471801730369969e-05   1.8785534932869163e-05   0.00015555124139421742
-7.471801730369969e-05   1.8785534932869163e-05   0.00015555124139421742
-7.471801730369969e-05   1.8785534932869163e-05   0.00015555124139421742
-4.38466832736351e-05   1.7853633656647952e-05   0.000212917480501419
-4.38466832736351e-05   1.7853633656647952e-05   0.000212917480501419
-4.38466832736351e-05   1.7853633656647952e-05   0.000212917480501419
-4.38466832736351e-05   1.7853633656647952e-05   0.000212917480501419
-0.00010831677608277618   1.6505021918288357e-05   0.00010465815877650376
-0.00010831677608277618   1.6505021918288357e-05   0.00010465815877650376
-0.00010831677608277618   1.6505021918288357e-05   0.00010465815877650376
-0.00010831677608277618   1.6505021918288357e-05   0.00010465815877650376
-0.00011134798564800953   1.3817599310610856e-05   0.00021355936309992805
-0.00011134798564800953   1.3817599310610856e-05   0.00021355936309992805
-0.00011134798564800953   1.3817599310610856e-05   0.00021355936309992805
-0.00011134798564800953   1.3817599310610856e-05   0.00021355936309992805
-4.69957551940131e-05   1.239419557744724e-05   0.00010715968791650101
-4.69957551940131e-05   1.239419557744724e-05   0.00010715968791650101
-4.69957551940131e-05   1.239419557744724e-05   0.00010715968791650101
-4.69957551940131e-05   1.239419557744724e-05   0.00010715968791650101
-7.733316070956177e-05   1.5636702673332142e-05   0.00015577652618488456
-7.733316070956177e-05   1.5636702673332142e-05   0.00015577652618488456
-7.733316070956177e-05   1.5636702673332142e-05   0.00015577652618488456
-7.733316070956177e-05   1.5636702673332142e-05   0.00015577652618488456
-4.6995755194013315e-05   1.3817599310610856e-05   0.00021441340533982604
-4.6995755194013315e-05   1.3817599310610856e-05   0.00021441340533982604
-4.6995755194013315e-05   1.3817599310610856e-05   0.00021441340533982604
-4.6995755194013315e-05   1.3817599310610856e-05   0.00021441340533982604
-0.0001113479856480091   1.239419557744724e-05   0.00010630564567660258
-0.0001113479856480091   1.239419557744724e-05   0.00010630564567660258
-0.0001113479856480091   1.239419557744724e-05   0.00010630564567660258
-0.0001113479856480091   1.239419557744724e-05   0.00010630564567660258
-0.00011433296626494065   9.929994927810812e-06   0.00021706195281592702
-0.00011433296626494065   9.929994927810812e-06   0.00021706195281592702
-0.00011433296626494065   9.929994927810812e-06   0.00021706195281592702
-0.00011433296626494065   9.929994927810812e-06   0.00021706195281592702
-5.009558228661183e-05   8.454434767695557e-06   0.00011088498228144922
-5.009558228661183e-05   8.454434767695557e-06   0.00011088498228144922
-5.009558228661183e-05   8.454434767695557e-06   0.00011088498228144922
-5.009558228661183e-05   8.454434767695557e-06   0.00011088498228144922
-8.011293050775594e-05   1.2549169400074417e-05   0.00015845705520393114
-8.011293050775594e-05   1.2549169400074417e-05   0.00015845705520393114
-8.011293050775594e-05   1.2549169400074417e-05   0.00015845705520393114
-8.011293050775594e-05   1.2549169400074417e-05   0.00015845705520393114
-0.0001053833777916592   3.750727766424315e-05   0.00018838865909472351
-0.0001053833777916592   3.750727766424315e-05   0.00018838865909472351
-0.0001053833777916592   3.750727766424315e-05   0.00018838865909472351
-0.0001053833777916592   3.750727766424315e-05   0.00018838865909472351
-0.0001687332326114942   3.056079122181268e-05   7.863767586287294e-05
-0.0001687332326114942   3.056079122181268e-05   7.863767586287294e-05
-0.0001687332326114942   3.056079122181268e-05   7.863767586287294e-05
-0.0001687332326114942   3.056079122181268e-05   7.863767586287294e-05
-0.00017192588510993442   3.350945878800339e-05   0.00018488790185746014
-0.00017192588510993442   3.350945878800339e-05   0.00018488790185746014
-0.00017192588510993442   3.350945878800339e-05   0.00018488790185746014
-0.00017192588510993442   3.350945878800339e-05   0.00018488790185746014
-0.00010831677608277618   2.6387919374887964e-05   8.314564379340115e-05
-0.00010831677608277618   2.6387919374887964e-05   8.314564379340115e-05
-0.00010831677608277618   2.6387919374887964e-05   8.314564379340115e-05
-0.00010831677608277618   2.6387919374887964e-05   8.314564379340115e-05
-0.0001382575308055121   3.148801318040087e-05   0.0001299868453813269
-0.0001382575308055121   3.148801318040087e-05   0.0001299868453813269
-0.0001382575308055121   3.148801318040087e-05   0.0001299868453813269
-0.0001382575308055121   3.148801318040087e-05   0.0001299868453813269
-0.00010831677608277661   3.3509458788001656e-05   0.00018916082550532887
-0.00010831677608277661   3.3509458788001656e-05   0.00018916082550532887
-0.00010831677608277661   3.3509458788001656e-05   0.00018916082550532887
-0.00010831677608277661   3.3509458788001656e-05   0.00018916082550532887
-0.00017192588510993399   2.6387919374887964e-05   7.887272014553155e-05
-0.00017192588510993399   2.6387919374887964e-05   7.887272014553155e-05
-0.00017192588510993399   2.6387919374887964e-05   7.887272014553155e-05
-0.00017192588510993399   2.6387919374887964e-05   7.887272014553155e-05
-0.000175712516055037   2.982067609597766e-05   0.00019097913336721742
-0.000175712516055037   2.982067609597766e-05   0.00019097913336721742
-0.000175712516055037   2.982067609597766e-05   0.00019097913336721742
-0.000175712516055037   2.982067609597766e-05   0.00019097913336721742
-0.0001113479856480091   2.2603107136528328e-05   8.803545739784202e-05
-0.0001113479856480091   2.2603107136528328e-05   8.803545739784202e-05
-0.0001113479856480091   2.2603107136528328e-05   8.803545739784202e-05
-0.0001113479856480091   2.2603107136528328e-05   8.803545739784202e-05
-0.00014034113243883615   2.8531675021144925e-05   0.00013280022798511622
-0.00014034113243883615   2.8531675021144925e-05   0.00013280022798511622
-0.00014034113243883615   2.8531675021144925e-05   0.00013280022798511622
-0.00014034113243883615   2.8531675021144925e-05   0.00013280022798511622
-0.00011134798564800953   2.982067609597766e-05   0.0001953096747428851
-0.00011134798564800953   2.982067609597766e-05   0.0001953096747428851
-0.00011134798564800953   2.982067609597766e-05   0.0001953096747428851
-0.00011134798564800953   2.982067609597766e-05   0.0001953096747428851
-0.00017571251605503612   2.2603107136528328e-05   8.370491602217216e-05
-0.00017571251605503612   2.2603107136528328e-05   8.370491602217216e-05
-0.00017571251605503612   2.2603107136528328e-05   8.370491602217216e-05
-0.00017571251605503612   2.2603107136528328e-05   8.370491602217216e-05
-0.00017896902025092394   2.5707340255148523e-05   0.0001968980265397418
-0.00017896902025092394   2.5707340255148523e-05   0.0001968980265397418
-0.00017896902025092394   2.5707340255148523e-05   0.0001968980265397418
-0.00017896902025092394   2.5707340255148523e-05   0.0001968980265397418
-0.00011433296626494022   1.8567967611696212e-05   9.345489348250953e-05
-0.00011433296626494022   1.8567967611696212e-05   9.345489348250953e-05
-0.00011433296626494022   1.8567967611696212e-05   9.345489348250953e-05
-0.00011433296626494022   1.8567967611696212e-05   9.345489348250953e-05
-0.00014389625702766653   2.5581396001282328e-05   0.00013851898771997375
-0.00014389625702766653   2.5581396001282328e-05   0.00013851898771997375
-0.00014389625702766653   2.5581396001282328e-05   0.00013851898771997375
-0.00014389625702766653   2.5581396001282328e-05   0.00013851898771997375
-0.00016873323261149464   4.904609814299771e-05   8.779118409948938e-05
-0.00016873323261149464   4.904609814299771e-05   8.779118409948938e-05
-0.00016873323261149464   4.904609814299771e-05   8.779118409948938e-05
-0.00016873323261149464   4.904609814299771e-05   8.779118409948938e-05
-0.00022557570995128135   3.745081276681009e-05   -1.3903449359202198e-05
-0.00022557570995128135   3.745081276681009e-05   -1.3903449359202198e-05
-0.00022557570995128135   3.745081276681009e-05   -1.3903449359202198e-05
-0.00022557570995128135   3.745081276681009e-05   -1.3903449359202198e-05
-0.00023374776834061278   4.7736857877338223e-05   0.00010807192074007745
-0.00023374776834061278   4.7736857877338223e-05   0.00010807192074007745
-0.00023374776834061278   4.7736857877338223e-05   0.00010807192074007745
-0.00023374776834061278   4.7736857877338223e-05   0.00010807192074007745
-0.00017192588510993355   3.529668000501647e-05   1.2499555412339835e-05
-0.00017192588510993355   3.529668000501647e-05   1.2499555412339835e-05
-0.00017192588510993355   3.529668000501647e-05   1.2499555412339835e-05
-0.00017192588510993355   3.529668000501647e-05   1.2499555412339835e-05
-0.00019272008721003277   4.162427724949992e-05   4.336000056582353e-05
-0.00019272008721003277   4.162427724949992e-05   4.336000056582353e-05
-0.00019272008721003277   4.162427724949992e-05   4.336000056582353e-05
-0.00019272008721003277   4.162427724949992e-05   4.336000056582353e-05
-0.00017192588510993399   4.773685787733649e-05   0.00011553602746347102
-0.00017192588510993399   4.773685787733649e-05   0.00011553602746347102
-0.00017192588510993399   4.773685787733649e-05   0.00011553602746347102
-0.00017192588510993399   4.773685787733649e-05   0.00011553602746347102
-0.00023374776834061365   3.529668000501647e-05   5.035448688948214e-06
-0.00023374776834061365   3.529668000501647e-05   5.035448688948214e-06
-0.00023374776834061365   3.529668000501647e-05   5.035448688948214e-06
-0.00023374776834061365   3.529668000501647e-05   5.035448688948214e-06
-0.00024079657398033867   4.617538120324505e-05   0.00012786282514093417
-0.00024079657398033867   4.617538120324505e-05   0.00012786282514093417
-0.00024079657398033867   4.617538120324505e-05   0.00012786282514093417
-0.00024079657398033867   4.617538120324505e-05   0.00012786282514093417
-0.00017571251605503612   3.351540552201833e-05   2.698538067416774e-05
-0.00017571251605503612   3.351540552201833e-05   2.698538067416774e-05
-0.00017571251605503612   3.351540552201833e-05   2.698538067416774e-05
-0.00017571251605503612   3.351540552201833e-05   2.698538067416774e-05
-0.0002005382504421322   4.105350898539126e-05   6.383874257464076e-05
-0.0002005382504421322   4.105350898539126e-05   6.383874257464076e-05
-0.0002005382504421322   4.105350898539126e-05   6.383874257464076e-05
-0.0002005382504421322   4.105350898539126e-05   6.383874257464076e-05
-0.00017571251605503655   4.617538120324505e-05   0.00013545881054967054
-0.00017571251605503655   4.617538120324505e-05   0.00013545881054967054
-0.00017571251605503655   4.617538120324505e-05   0.00013545881054967054
-0.00017571251605503655   4.617538120324505e-05   0.00013545881054967054
-0.00024079657398033954   3.351540552201833e-05   1.9389395265431795e-05
-0.00024079657398033954   3.351540552201833e-05   1.9389395265431795e-05
-0.00024079657398033954   3.351540552201833e-05   1.9389395265431795e-05
-0.00024079657398033954   3.351540552201833e-05   1.9389395265431795e-05
-0.0002492470558836668   4.096573340768225e-05   0.0001629224667769949
-0.0002492470558836668   4.096573340768225e-05   0.0001629224667769949
-0.0002492470558836668   4.096573340768225e-05   0.0001629224667769949
-0.0002492470558836668   4.096573340768225e-05   0.0001629224667769949
-0.00017896902025092308   2.87007256227316e-05   5.3151412060060965e-05
-0.00017896902025092308   2.87007256227316e-05   5.3151412060060965e-05
-0.00017896902025092308   2.87007256227316e-05   5.3151412060060965e-05
-0.00017896902025092308   2.87007256227316e-05   5.3151412060060965e-05
-0.00020254640972982175   3.886422571843136e-05   8.6348961134141e-05
-0.00020254640972982175   3.886422571843136e-05   8.6348961134141e-05
-0.00020254640972982175   3.886422571843136e-05   8.6348961134141e-05
-0.00020254640972982175   3.886422571843136e-05   8.6348961134141e-05
1.7603045707835778e-05   5.198093736558107e-07   0.00010345748460931052
1.7603045707835778e-05   5.198093736558107e-07   0.00010345748460931052
1.7603045707835778e-05   5.198093736558107e-07   0.00010345748460931052
1.7603045707835778e-05   5.198093736558107e-07   0.00010345748460931052
-2.3048076032066046e-05   1.1634640332242041e-05   4.2374513617958465e-05
-2.3048076032066046e-05   1.1634640332242041e-05   4.2374513617958465e-05
-2.3048076032066046e-05   1.1634640332242041e-05   4.2374513617958465e-05
-2.3048076032066046e-05   1.1634640332242041e-05   4.2374513617958465e-05
-2.5492528882628453e-05   -3.417390536716164e-06   0.00010227559946552559
-2.5492528882628453e-05   -3.417390536716164e-06   0.00010227559946552559
-2.5492528882628453e-05   -3.417390536716164e-06   0.00010227559946552559
-2.5492528882628453e-05   -3.417390536716164e-06   0.00010227559946552559
1.0140911643964482e-05   7.963620157414725e-06   3.605792550472617e-05
1.0140911643964482e-05   7.963620157414725e-06   3.605792550472617e-05
1.0140911643964482e-05   7.963620157414725e-06   3.605792550472617e-05
1.0140911643964482e-05   7.963620157414725e-06   3.605792550472617e-05
-6.100111304236863e-06   3.553443234317194e-06   6.577240323891922e-05
-6.100111304236863e-06   3.553443234317194e-06   6.577240323891922e-05
-6.100111304236863e-06   3.553443234317194e-06   6.577240323891922e-05
-6.100111304236863e-06   3.553443234317194e-06   6.577240323891922e-05
1.0140911643964482e-05   -3.417390536716164e-06   9.54469930490474e-05
1.0140911643964482e-05   -3.417390536716164e-06   9.54469930490474e-05
1.0140911643964482e-05   -3.417390536716164e-06   9.54469930490474e-05
1.0140911643964482e-05   -3.417390536716164e-06   9.54469930490474e-05
-2.5492528882628453e-05   7.963620157414725e-06   4.288653192120479e-05
-2.5492528882628453e-05   7.963620157414725e-06   4.288653192120479e-05
-2.5492528882628453e-05   7.963620157414725e-06   4.288653192120479e-05
-2.5492528882628453e-05   7.963620157414725e-06   4.288653192120479e-05
-2.850756800143616e-05   -5.128331421858784e-06   9.97475386463921e-05
-2.850756800143616e-05   -5.128331421858784e-06   9.97475386463921e-05
-2.850756800143616e-05   -5.128331421858784e-06   9.97475386463921e-05
-2.850756800143616e-05   -5.128331421858784e-06   9.97475386463921e-05
3.6778174915647836e-06   5.9237951520801566e-06   3.94739535470273e-05
3.6778174915647836e-06   5.9237951520801566e-06   3.94739535470273e-05
3.6778174915647836e-06   5.9237951520801566e-06   3.94739535470273e-05
3.6778174915647836e-06   5.9237951520801566e-06   3.94739535470273e-05
-1.014698745854113e-05   1.9877583512916547e-06   6.487691721101e-05
-1.014698745854113e-05   1.9877583512916547e-06   6.487691721101e-05
-1.014698745854113e-05   1.9877583512916547e-06   6.487691721101e-05
-1.014698745854113e-05   1.9877583512916547e-06   6.487691721101e-05
3.6778174915647836e-06   -5.128331421860519e-06   9.311626270202752e-05
3.6778174915647836e-06   -5.128331421860519e-06   9.311626270202752e-05
3.6778174915647836e-06   -5.128331421860519e-06   9.311626270202752e-05
3.6778174915647836e-06   -5.128331421860519e-06   9.311626270202752e-05
-2.8507568001436104e-05   5.9237951520801566e-06   4.610522949138971e-05
-2.8507568001436104e-05   5.9237951520801566e-06   4.610522949138971e-05
-2.8507568001436104e-05   5.9237951520801566e-06   4.610522949138971e-05
-2.8507568001436104e-05   5.9237951520801566e-06   4.610522949138971e-05
-3.101956522872981e-05   -8.003589676619516e-06   9.906596915250018e-05
-3.101956522872981e-05   -8.003589676619516e-06   9.906596915250018e-05
-3.101956522872981e-05   -8.003589676619516e-06   9.906596915250018e-05
-3.101956522872981e-05   -8.003589676619516e-06   9.906596915250018e-05
-4.420988381706329e-06   1.5789565706164632e-06   4.898547999245386e-05
-4.420988381706329e-06   1.5789565706164632e-06   4.898547999245386e-05
-4.420988381706329e-06   1.5789565706164632e-06   4.898547999245386e-05
-4.420988381706329e-06   1.5789565706164632e-06   4.898547999245386e-05
-1.443857263847135e-05   5.246247425129413e-07   6.63140528505907e-05
-1.443857263847135e-05   5.246247425129413e-07   6.63140528505907e-05
-1.443857263847135e-05   5.246247425129413e-07   6.63140528505907e-05
-1.443857263847135e-05   5.246247425129413e-07   6.63140528505907e-05
-2.3048076032066046e-05   1.1155019179538705e-05   0.00016702796919841004
-2.3048076032066046e-05   1.1155019179538705e-05   0.00016702796919841004
-2.3048076032066046e-05   1.1155019179538705e-05   0.00016702796919841004
-2.3048076032066046e-05   1.1155019179538705e-05   0.00016702796919841004
-5.711131031117269e-05   1.3311604934300794e-05   0.00011154986351942335
-5.711131031117269e-05   1.3311604934300794e-05   0.00011154986351942335
-5.711131031117269e-05   1.3311604934300794e-05   0.00011154986351942335
-5.711131031117269e-05   1.3311604934300794e-05   0.00011154986351942335
-5.8945057709904915e-05   6.6881548835308335e-06   0.00016660905937834584
-5.8945057709904915e-05   6.6881548835308335e-06   0.00016660905937834584
-5.8945057709904915e-05   6.6881548835308335e-06   0.00016660905937834584
-5.8945057709904915e-05   6.6881548835308335e-06   0.00016660905937834584
-2.5492528882628453e-05   9.201730136172356e-06   0.00010934669951463287
-2.5492528882628453e-05   9.201730136172356e-06   0.00010934669951463287
-2.5492528882628453e-05   9.201730136172356e-06   0.00010934669951463287
-2.5492528882628453e-05   9.201730136172356e-06   0.00010934669951463287
-4.137481796364033e-05   9.623192994410654e-06   0.00013556430360137637
-4.137481796364033e-05   9.623192994410654e-06   0.00013556430360137637
-4.137481796364033e-05   9.623192994410654e-06   0.00013556430360137637
-4.137481796364033e-05   9.623192994410654e-06   0.00013556430360137637
-2.5492528882628453e-05   6.6881548835308335e-06   0.00016510091422675902
-2.5492528882628453e-05   6.6881548835308335e-06   0.00016510091422675902
-2.5492528882628453e-05   6.6881548835308335e-06   0.00016510091422675902
-2.5492528882628453e-05   6.6881548835308335e-06   0.00016510091422675902
-5.8945057709904915e-05   9.201730136172356e-06   0.00011085484466621769
-5.8945057709904915e-05   9.201730136172356e-06   0.00011085484466621769
-5.8945057709904915e-05   9.201730136172356e-06   0.00011085484466621769
-5.8945057709904915e-05   9.201730136172356e-06   0.00011085484466621769
-6.083506604426627e-05   2.8893282945450377e-06   0.00016701827351582339
-6.083506604426627e-05   2.8893282945450377e-06   0.00016701827351582339
-6.083506604426627e-05   2.8893282945450377e-06   0.00016701827351582339
-6.083506604426627e-05   2.8893282945450377e-06   0.00016701827351582339
-2.8507568001436104e-05   5.39067773608088e-06   0.00011163830044618416
-2.8507568001436104e-05   5.39067773608088e-06   0.00011163830044618416
-2.8507568001436104e-05   5.39067773608088e-06   0.00011163830044618416
-2.8507568001436104e-05   5.39067773608088e-06   0.00011163830044618416
-4.32440736102698e-05   6.6095302933191075e-06   0.00013546783159323287
-4.32440736102698e-05   6.6095302933191075e-06   0.00013546783159323287
-4.32440736102698e-05   6.6095302933191075e-06   0.00013546783159323287
-4.32440736102698e-05   6.6095302933191075e-06   0.00013546783159323287
-2.850756800143616e-05   2.8893282945450377e-06   0.00016551746385090084
-2.850756800143616e-05   2.8893282945450377e-06   0.00016551746385090084
-2.850756800143616e-05   2.8893282945450377e-06   0.00016551746385090084
-2.850756800143616e-05   2.8893282945450377e-06   0.00016551746385090084
-6.083506604426627e-05   5.39067773608088e-06   0.00011313911011110638
-6.083506604426627e-05   5.39067773608088e-06   0.00011313911011110638
-6.083506604426627e-05   5.39067773608088e-06   0.00011313911011110638
-6.083506604426627e-05   5.39067773608088e-06   0.00011313911011110638
-6.26853710676454e-05   -1.008886075144072e-06   0.0001703431087459713
-6.26853710676454e-05   -1.008886075144072e-06   0.0001703431087459713
-6.26853710676454e-05   -1.008886075144072e-06   0.0001703431087459713
-6.26853710676454e-05   -1.008886075144072e-06   0.0001703431087459713
-3.101956522872981e-05   1.243521685956317e-06   0.00011621532102445151
-3.101956522872981e-05   1.243521685956317e-06   0.00011621532102445151
-3.101956522872981e-05   1.243521685956317e-06   0.00011621532102445151
-3.101956522872981e-05   1.243521685956317e-06   0.00011621532102445151
-4.511743738473952e-05   3.6309469950319972e-06   0.00013827931943235518
-4.511743738473952e-05   3.6309469950319972e-06   0.00013827931943235518
-4.511743738473952e-05   3.6309469950319972e-06   0.00013827931943235518
-4.511743738473952e-05   3.6309469950319972e-06   0.00013827931943235518
-5.711131031117258e-05   2.063660688741975e-05   0.0001881293848910396
-5.711131031117258e-05   2.063660688741975e-05   0.0001881293848910396
-5.711131031117258e-05   2.063660688741975e-05   0.0001881293848910396
-5.711131031117258e-05   2.063660688741975e-05   0.0001881293848910396
-9.115420496092039e-05   1.58491812577103e-05   0.00012851877176363498
-9.115420496092039e-05   1.58491812577103e-05   0.00012851877176363498
-9.115420496092039e-05   1.58491812577103e-05   0.00012851877176363498
-9.115420496092039e-05   1.58491812577103e-05   0.00012851877176363498
-9.269975338382355e-05   1.650502191829009e-05   0.00018464719341473868
-9.269975338382355e-05   1.650502191829009e-05   0.00018464719341473868
-9.269975338382355e-05   1.650502191829009e-05   0.00018464719341473868
-9.269975338382355e-05   1.650502191829009e-05   0.00018464719341473868
-5.8945057709904915e-05   1.2026892014869138e-05   0.00013107624523359313
-5.8945057709904915e-05   1.2026892014869138e-05   0.00013107624523359313
-5.8945057709904915e-05   1.2026892014869138e-05   0.00013107624523359313
-5.8945057709904915e-05   1.2026892014869138e-05   0.00013107624523359313
-7.500851861855072e-05   1.595506253663885e-05   0.00015549177776827405
-7.500851861855072e-05   1.595506253663885e-05   0.00015549177776827405
-7.500851861855072e-05   1.595506253663885e-05   0.00015549177776827405
-7.500851861855072e-05   1.595506253663885e-05   0.00015549177776827405
-5.8945057709904915e-05   1.650502191829009e-05   0.0001873340713567902
-5.8945057709904915e-05   1.650502191829009e-05   0.0001873340713567902
-5.8945057709904915e-05   1.650502191829009e-05   0.0001873340713567902
-5.8945057709904915e-05   1.650502191829009e-05   0.0001873340713567902
-9.269975338382355e-05   1.2026892014869138e-05   0.00012838936729154095
-9.269975338382355e-05   1.2026892014869138e-05   0.00012838936729154095
-9.269975338382355e-05   1.2026892014869138e-05   0.00012838936729154095
-9.269975338382355e-05   1.2026892014869138e-05   0.00012838936729154095
-9.435840659672342e-05   1.239419557744724e-05   0.00018653578636670595
-9.435840659672342e-05   1.239419557744724e-05   0.00018653578636670595
-9.435840659672342e-05   1.239419557744724e-05   0.00018653578636670595
-9.435840659672342e-05   1.239419557744724e-05   0.00018653578636670595
-6.083506604426627e-05   8.140691055643495e-06   0.00013321565482569335
-6.083506604426627e-05   8.140691055643495e-06   0.00013321565482569335
-6.083506604426627e-05   8.140691055643495e-06   0.00013321565482569335
-6.083506604426627e-05   8.140691055643495e-06   0.00013321565482569335
-7.632862722448125e-05   1.2886857564927204e-05   0.00015619055688714757
-7.632862722448125e-05   1.2886857564927204e-05   0.00015619055688714757
-7.632862722448125e-05   1.2886857564927204e-05   0.00015619055688714757
-7.632862722448125e-05   1.2886857564927204e-05   0.00015619055688714757
-6.083506604426627e-05   1.2394195577448974e-05   0.0001890878890797882
-6.083506604426627e-05   1.2394195577448974e-05   0.0001890878890797882
-6.083506604426627e-05   1.2394195577448974e-05   0.0001890878890797882
-6.083506604426627e-05   1.2394195577448974e-05   0.0001890878890797882
-9.43584065967232e-05   8.140691055644363e-06   0.00013066355211261088
-9.43584065967232e-05   8.140691055644363e-06   0.00013066355211261088
-9.43584065967232e-05   8.140691055644363e-06   0.00013066355211261088
-9.43584065967232e-05   8.140691055644363e-06   0.00013066355211261088
-9.598265764553904e-05   8.454434767695557e-06   0.00019044265165664691
-9.598265764553904e-05   8.454434767695557e-06   0.00019044265165664691
-9.598265764553904e-05   8.454434767695557e-06   0.00019044265165664691
-9.598265764553904e-05   8.454434767695557e-06   0.00019044265165664691
-6.26853710676454e-05   4.449750846916012e-06   0.00013734998437929242
-6.26853710676454e-05   4.449750846916012e-06   0.00013734998437929242
-6.26853710676454e-05   4.449750846916012e-06   0.00013734998437929242
-6.26853710676454e-05   4.449750846916012e-06   0.00013734998437929242
-7.780000838534802e-05   9.862024376748255e-06   0.00015929368245756487
-7.780000838534802e-05   9.862024376748255e-06   0.00015929368245756487
-7.780000838534802e-05   9.862024376748255e-06   0.00015929368245756487
-7.780000838534802e-05   9.862024376748255e-06   0.00015929368245756487
-9.11542049609206e-05   3.056079122181095e-05   0.00016250954682119328
-9.11542049609206e-05   3.056079122181095e-05   0.00016250954682119328
-9.11542049609206e-05   3.056079122181095e-05   0.00016250954682119328
-9.11542049609206e-05   3.056079122181095e-05   0.00016250954682119328
-0.00012459110166320418   2.1352591647641993e-05   0.00010125646590621864
-0.00012459110166320418   2.1352591647641993e-05   0.00010125646590621864
-0.00012459110166320418   2.1352591647641993e-05   0.00010125646590621864
-0.00012459110166320418   2.1352591647641993e-05   0.00010125646590621864
-0.00012628711628712283   2.6387919374887964e-05   0.00015769966063114947
-0.00012628711628712283   2.6387919374887964e-05   0.00015769966063114947
-0.00012628711628712283   2.6387919374887964e-05   0.00015769966063114947
-0.00012628711628712283   2.6387919374887964e-05   0.00015769966063114947
-9.269975338382355e-05   1.732955637407437e-05   0.00010715574025947248
-9.269975338382355e-05   1.732955637407437e-05   0.00010715574025947248
-9.269975338382355e-05   1.732955637407437e-05   0.00010715574025947248
-9.269975338382355e-05   1.732955637407437e-05   0.00010715574025947248
-0.00010845318708239829   2.3723134746581748e-05   0.0001295753160669255
-0.00010845318708239829   2.3723134746581748e-05   0.0001295753160669255
-0.00010845318708239829   2.3723134746581748e-05   0.0001295753160669255
-0.00010845318708239829   2.3723134746581748e-05   0.0001295753160669255
-9.269975338382355e-05   2.638791937488623e-05   0.00016313467843163693
-9.269975338382355e-05   2.638791937488623e-05   0.00016313467843163693
-9.269975338382355e-05   2.638791937488623e-05   0.00016313467843163693
-9.269975338382355e-05   2.638791937488623e-05   0.00016313467843163693
-0.0001262871162871224   1.732955637407524e-05   0.0001017207224589848
-0.0001262871162871224   1.732955637407524e-05   0.0001017207224589848
-0.0001262871162871224   1.732955637407524e-05   0.0001017207224589848
-0.0001262871162871224   1.732955637407524e-05   0.0001017207224589848
-0.00012864406227649757   2.2603107136528328e-05   0.0001629582390144796
-0.00012864406227649757   2.2603107136528328e-05   0.0001629582390144796
-0.00012864406227649757   2.2603107136528328e-05   0.0001629582390144796
-0.00012864406227649757   2.2603107136528328e-05   0.0001629582390144796
-9.435840659672342e-05   1.3757508680749958e-05   0.00011112283862165558
-9.435840659672342e-05   1.3757508680749958e-05   0.00011112283862165558
-9.435840659672342e-05   1.3757508680749958e-05   0.00011112283862165558
-9.435840659672342e-05   1.3757508680749958e-05   0.00011112283862165558
-0.00010937610489002527   2.0749027796590144e-05   0.0001319574243076548
-0.00010937610489002527   2.0749027796590144e-05   0.0001319574243076548
-0.00010937610489002527   2.0749027796590144e-05   0.0001319574243076548
-0.00010937610489002527   2.0749027796590144e-05   0.0001319574243076548
-9.435840659672342e-05   2.2603107136526593e-05   0.00016826559808794366
-9.435840659672342e-05   2.2603107136526593e-05   0.00016826559808794366
-9.435840659672342e-05   2.2603107136526593e-05   0.00016826559808794366
-9.435840659672342e-05   2.2603107136526593e-05   0.00016826559808794366
-0.00012864406227649713   1.3757508680749958e-05   0.00010581547954818956
-0.00012864406227649713   1.3757508680749958e-05   0.00010581547954818956
-0.00012864406227649713   1.3757508680749958e-05   0.00010581547954818956
-0.00012864406227649713   1.3757508680749958e-05   0.00010581547954818956
-0.00013053661385773428   1.8567967611697947e-05   0.00016883278094976736
-0.00013053661385773428   1.8567967611697947e-05   0.00016883278094976736
-0.00013053661385773428   1.8567967611697947e-05   0.00016883278094976736
-0.00013053661385773428   1.8567967611697947e-05   0.00016883278094976736
-9.598265764553882e-05   1.012610427168683e-05   0.00011630797193344861
-9.598265764553882e-05   1.012610427168683e-05   0.00011630797193344861
-9.598265764553882e-05   1.012610427168683e-05   0.00011630797193344861
-9.598265764553882e-05   1.012610427168683e-05   0.00011630797193344861
-0.000111321026094907   1.792906716918327e-05   0.00013719014161056716
-0.000111321026094907   1.792906716918327e-05   0.00013719014161056716
-0.000111321026094907   1.792906716918327e-05   0.00013719014161056716
-0.000111321026094907   1.792906716918327e-05   0.00013719014161056716
-0.00012459110166320418   3.745081276681182e-05   7.140067308032856e-05
-0.00012459110166320418   3.745081276681182e-05   7.140067308032856e-05
-0.00012459110166320418   3.745081276681182e-05   7.140067308032856e-05
-0.00012459110166320418   3.745081276681182e-05   7.140067308032856e-05
-0.00015049758613029955   2.5099086226179623e-05   2.081216304412497e-05
-0.00015049758613029955   2.5099086226179623e-05   2.081216304412497e-05
-0.00015049758613029955   2.5099086226179623e-05   2.081216304412497e-05
-0.00015049758613029955   2.5099086226179623e-05   2.081216304412497e-05
-0.00015697727758354207   3.529668000501647e-05   8.360055376877007e-05
-0.00015697727758354207   3.529668000501647e-05   8.360055376877007e-05
-0.00015697727758354207   3.529668000501647e-05   8.360055376877007e-05
-0.00015697727758354207   3.529668000501647e-05   8.360055376877007e-05
-0.0001262871162871224   2.242010978970206e-05   4.017622707059177e-05
-0.0001262871162871224   2.242010978970206e-05   4.017622707059177e-05
-0.0001262871162871224   2.242010978970206e-05   4.017622707059177e-05
-0.0001262871162871224   2.242010978970206e-05   4.017622707059177e-05
-0.00013475347930279845   2.9788340513573278e-05   4.986589366239545e-05
-0.00013475347930279845   2.9788340513573278e-05   4.986589366239545e-05
-0.00013475347930279845   2.9788340513573278e-05   4.986589366239545e-05
-0.00013475347930279845   2.9788340513573278e-05   4.986589366239545e-05
-0.00012628711628712196   3.5296680005018205e-05   9.132649589795733e-05
-0.00012628711628712196   3.5296680005018205e-05   9.132649589795733e-05
-0.00012628711628712196   3.5296680005018205e-05   9.132649589795733e-05
-0.00012628711628712196   3.5296680005018205e-05   9.132649589795733e-05
-0.0001569772775835425   2.242010978970206e-05   3.2450284941403564e-05
-0.0001569772775835425   2.242010978970206e-05   3.2450284941403564e-05
-0.0001569772775835425   2.242010978970206e-05   3.2450284941403564e-05
-0.0001569772775835425   2.242010978970206e-05   3.2450284941403564e-05
-0.0001625502953312096   3.351540552201833e-05   9.848160245297562e-05
-0.0001625502953312096   3.351540552201833e-05   9.848160245297562e-05
-0.0001625502953312096   3.351540552201833e-05   9.848160245297562e-05
-0.0001625502953312096   3.351540552201833e-05   9.848160245297562e-05
-0.00012864406227649757   2.0586903499517778e-05   4.972831524195382e-05
-0.00012864406227649757   2.0586903499517778e-05   4.972831524195382e-05
-0.00012864406227649757   2.0586903499517778e-05   4.972831524195382e-05
-0.00012864406227649757   2.0586903499517778e-05   4.972831524195382e-05
-0.00014022681405347352   2.8724487793554618e-05   6.41503509604957e-05
-0.00014022681405347352   2.8724487793554618e-05   6.41503509604957e-05
-0.00014022681405347352   2.8724487793554618e-05   6.41503509604957e-05
-0.00014022681405347352   2.8724487793554618e-05   6.41503509604957e-05
-0.00012864406227649757   3.3515405522020064e-05   0.00010623870366647387
-0.00012864406227649757   3.3515405522020064e-05   0.00010623870366647387
-0.00012864406227649757   3.3515405522020064e-05   0.00010623870366647387
-0.00012864406227649757   3.3515405522020064e-05   0.00010623870366647387
-0.00016255029533121046   2.0586903499517778e-05   4.197121402845438e-05
-0.00016255029533121046   2.0586903499517778e-05   4.197121402845438e-05
-0.00016255029533121046   2.0586903499517778e-05   4.197121402845438e-05
-0.00016255029533121046   2.0586903499517778e-05   4.197121402845438e-05
-0.00016966854809403152   2.8700725622729864e-05   0.0001254385278133003
-0.00016966854809403152   2.8700725622729864e-05   0.0001254385278133003
-0.00016966854809403152   2.8700725622729864e-05   0.0001254385278133003
-0.00016966854809403152   2.8700725622729864e-05   0.0001254385278133003
-0.00013053661385773385   1.6410066789246565e-05   6.759303271956351e-05
-0.00013053661385773385   1.6410066789246565e-05   6.759303271956351e-05
-0.00013053661385773385   1.6410066789246565e-05   6.759303271956351e-05
-0.00013053661385773385   1.6410066789246565e-05   6.759303271956351e-05
-0.00014181991779945542   2.6729065178591332e-05   8.020714025548919e-05
-0.00014181991779945542   2.6729065178591332e-05   8.020714025548919e-05
-0.00014181991779945542   2.6729065178591332e-05   8.020714025548919e-05
-0.00014181991779945542   2.6729065178591332e-05   8.020714025548919e-05
-6.476983967977938e-05   1.1634640332242041e-05   7.320376367894732e-05
-6.476983967977938e-05   1.1634640332242041e-05   7.320376367894732e-05
-6.476983967977938e-05   1.1634640332242041e-05   7.320376367894732e-05
-6.476983967977938e-05   1.1634640332242041e-05   7.320376367894732e-05
-6.945268429040853e-05   2.172424910144681e-05   7.145278792275488e-05
-6.945268429040853e-05   2.172424910144681e-05   7.145278792275488e-05
-6.945268429040853e-05   2.172424910144681e-05   7.145278792275488e-05
-6.945268429040853e-05   2.172424910144681e-05   7.145278792275488e-05
-7.116953573517754e-05   7.963620157414725e-06   7.901451852701264e-05
-7.116953573517754e-05   7.963620157414725e-06   7.901451852701264e-05
-7.116953573517754e-05   7.963620157414725e-06   7.901451852701264e-05
-7.116953573517754e-05   7.963620157414725e-06   7.901451852701264e-05
-7.213148098588742e-05   1.7022495956604995e-05   7.51824351320153e-05
-7.213148098588742e-05   1.7022495956604995e-05   7.51824351320153e-05
-7.213148098588742e-05   1.7022495956604995e-05   7.51824351320153e-05
-7.213148098588742e-05   1.7022495956604995e-05   7.51824351320153e-05
-6.761621681766454e-05   1.3659562368734113e-05   6.9674755004367e-05
-6.761621681766454e-05   1.3659562368734113e-05   6.9674755004367e-05
-6.761621681766454e-05   1.3659562368734113e-05   6.9674755004367e-05
-6.761621681766454e-05   1.3659562368734113e-05   6.9674755004367e-05
-7.213148098588753e-05   7.963620157414725e-06   7.357919304749796e-05
-7.213148098588753e-05   7.963620157414725e-06   7.357919304749796e-05
-7.213148098588753e-05   7.963620157414725e-06   7.357919304749796e-05
-7.213148098588753e-05   7.963620157414725e-06   7.357919304749796e-05
-7.116953573517754e-05   1.7022495956604995e-05   8.061776061152933e-05
-7.116953573517754e-05   1.7022495956604995e-05   8.061776061152933e-05
-7.116953573517754e-05   1.7022495956604995e-05   8.061776061152933e-05
-7.116953573517754e-05   1.7022495956604995e-05   8.061776061152933e-05
-7.340050333911051e-05   5.923795152079289e-06   8.17321325926176e-05
-7.340050333911051e-05   5.923795152079289e-06   8.17321325926176e-05
-7.340050333911051e-05   5.923795152079289e-06   8.17321325926176e-05
-7.340050333911051e-05   5.923795152079289e-06   8.17321325926176e-05
-7.927534689156936e-05   1.3752433085540208e-05   8.68263557533039e-05
-7.927534689156936e-05   1.3752433085540208e-05   8.68263557533039e-05
-7.927534689156936e-05   1.3752433085540208e-05   8.68263557533039e-05
-7.927534689156936e-05   1.3752433085540208e-05   8.68263557533039e-05
-7.200562392550838e-05   1.1625689950699354e-05   7.598619669077142e-05
-7.200562392550838e-05   1.1625689950699354e-05   7.598619669077142e-05
-7.200562392550838e-05   1.1625689950699354e-05   7.598619669077142e-05
-7.200562392550838e-05   1.1625689950699354e-05   7.598619669077142e-05
-7.927534689156947e-05   5.923795152079289e-06   7.703494983253827e-05
-7.927534689156947e-05   5.923795152079289e-06   7.703494983253827e-05
-7.927534689156947e-05   5.923795152079289e-06   7.703494983253827e-05
-7.927534689156947e-05   5.923795152079289e-06   7.703494983253827e-05
-7.340050333911051e-05   1.3752433085540208e-05   9.152353851338063e-05
-7.340050333911051e-05   1.3752433085540208e-05   9.152353851338063e-05
-7.340050333911051e-05   1.3752433085540208e-05   9.152353851338063e-05
-7.340050333911051e-05   1.3752433085540208e-05   9.152353851338063e-05
-7.479527768169126e-05   1.5789565706164632e-06   9.021127317689103e-05
-7.479527768169126e-05   1.5789565706164632e-06   9.021127317689103e-05
-7.479527768169126e-05   1.5789565706164632e-06   9.021127317689103e-05
-7.479527768169126e-05   1.5789565706164632e-06   9.021127317689103e-05
-8.687147609829965e-05   5.698488885382859e-06   0.00010786655114904337
-8.687147609829965e-05   5.698488885382859e-06   0.00010786655114904337
-8.687147609829965e-05   5.698488885382859e-06   0.00010786655114904337
-8.687147609829965e-05   5.698488885382859e-06   0.00010786655114904337
-7.50096067335304e-05   9.104685445246799e-06   8.605305093850732e-05
-7.50096067335304e-05   9.104685445246799e-06   8.605305093850732e-05
-7.50096067335304e-05   9.104685445246799e-06   8.605305093850732e-05
-7.50096067335304e-05   9.104685445246799e-06   8.605305093850732e-05
-6.945268429040842e-05   1.3311604934300794e-05   0.00014713892738907764
-6.945268429040842e-05   1.3311604934300794e-05   0.00014713892738907764
-6.945268429040842e-05   1.3311604934300794e-05   0.00014713892738907764
-6.945268429040842e-05   1.3311604934300794e-05   0.00014713892738907764
-6.955618040022419e-05   5.61032794694008e-06   0.00014234566768030156
-6.955618040022419e-05   5.61032794694008e-06   0.00014234566768030156
-6.955618040022419e-05   5.61032794694008e-06   0.00014234566768030156
-6.955618040022419e-05   5.61032794694008e-06   0.00014234566768030156
-7.004962200883016e-05   9.201730136172356e-06   0.00014158972283547996
-7.004962200883016e-05   9.201730136172356e-06   0.00014158972283547996
-7.004962200883016e-05   9.201730136172356e-06   0.00014158972283547996
-7.004962200883016e-05   9.201730136172356e-06   0.00014158972283547996
-7.116953573517754e-05   2.7267913279014136e-06   0.00014734120899768802
-7.116953573517754e-05   2.7267913279014136e-06   0.00014734120899768802
-7.116953573517754e-05   2.7267913279014136e-06   0.00014734120899768802
-7.116953573517754e-05   2.7267913279014136e-06   0.00014734120899768802
-6.98240515163591e-05   6.8348258704040155e-06   0.00014263391457415564
-6.98240515163591e-05   6.8348258704040155e-06   0.00014263391457415564
-6.98240515163591e-05   6.8348258704040155e-06   0.00014263391457415564
-6.98240515163591e-05   6.8348258704040155e-06   0.00014263391457415564
-7.116953573517749e-05   9.201730136172356e-06   0.00014547468612043958
-7.116953573517749e-05   9.201730136172356e-06   0.00014547468612043958
-7.116953573517749e-05   9.201730136172356e-06   0.00014547468612043958
-7.116953573517749e-05   9.201730136172356e-06   0.00014547468612043958
-7.004962200882995e-05   2.7267913279014136e-06   0.00014345624571272505
-7.004962200882995e-05   2.7267913279014136e-06   0.00014345624571272505
-7.004962200882995e-05   2.7267913279014136e-06   0.00014345624571272505
-7.004962200882995e-05   2.7267913279014136e-06   0.00014345624571272505
-7.066828264848575e-05   5.39067773608088e-06   0.00014364063484321576
-7.066828264848575e-05   5.39067773608088e-06   0.00014364063484321576
-7.066828264848575e-05   5.39067773608088e-06   0.00014364063484321576
-7.066828264848575e-05   5.39067773608088e-06   0.00014364063484321576
-7.340050333911051e-05   -6.502701042450029e-07   0.0001518189046984517
-7.340050333911051e-05   -6.502701042450029e-07   0.0001518189046984517
-7.340050333911051e-05   -6.502701042450029e-07   0.0001518189046984517
-7.340050333911051e-05   -6.502701042450029e-07   0.0001518189046984517
-7.043666994643082e-05   4.428274412320021e-06   0.00014383205566737716
-7.043666994643082e-05   4.428274412320021e-06   0.00014383205566737716
-7.043666994643082e-05   4.428274412320021e-06   0.00014383205566737716
-7.043666994643082e-05   4.428274412320021e-06   0.00014383205566737716
-7.340050333911051e-05   5.39067773608088e-06   0.00014726520354740869
-7.340050333911051e-05   5.39067773608088e-06   0.00014726520354740869
-7.340050333911051e-05   5.39067773608088e-06   0.00014726520354740869
-7.340050333911051e-05   5.39067773608088e-06   0.00014726520354740869
-7.066828264848542e-05   -6.502701042458703e-07   0.00014819433599425535
-7.066828264848542e-05   -6.502701042458703e-07   0.00014819433599425535
-7.066828264848542e-05   -6.502701042458703e-07   0.00014819433599425535
-7.066828264848542e-05   -6.502701042458703e-07   0.00014819433599425535
-7.109718915594958e-05   1.243521685956317e-06   0.00014788033744169652
-7.109718915594958e-05   1.243521685956317e-06   0.00014788033744169652
-7.109718915594958e-05   1.243521685956317e-06   0.00014788033744169652
-7.109718915594958e-05   1.243521685956317e-06   0.00014788033744169652
-7.479527768169115e-05   -5.108560012127145e-06   0.00015785506733678213
-7.479527768169115e-05   -5.108560012127145e-06   0.00015785506733678213
-7.479527768169115e-05   -5.108560012127145e-06   0.00015785506733678213
-7.479527768169115e-05   -5.108560012127145e-06   0.00015785506733678213
-7.143896799577157e-05   1.5800494791457648e-06   0.00014824805216548192
-7.143896799577157e-05   1.5800494791457648e-06   0.00014824805216548192
-7.143896799577157e-05   1.5800494791457648e-06   0.00014824805216548192
-7.143896799577157e-05   1.5800494791457648e-06   0.00014824805216548192
-6.955618040022451e-05   1.584918125771117e-05   0.00016235952481869886
-6.955618040022451e-05   1.584918125771117e-05   0.00016235952481869886
-6.955618040022451e-05   1.584918125771117e-05   0.00016235952481869886
-6.955618040022451e-05   1.584918125771117e-05   0.00016235952481869886
-7.42255783245725e-05   1.5427237278365508e-06   0.00014599332042686025
-7.42255783245725e-05   1.5427237278365508e-06   0.00014599332042686025
-7.42255783245725e-05   1.5427237278365508e-06   0.00014599332042686025
-7.42255783245725e-05   1.5427237278365508e-06   0.00014599332042686025
-7.435401629949366e-05   1.2026892014869138e-05   0.00015404677173186995
-7.435401629949366e-05   1.2026892014869138e-05   0.00015404677173186995
-7.435401629949366e-05   1.2026892014869138e-05   0.00015404677173186995
-7.435401629949366e-05   1.2026892014869138e-05   0.00015404677173186995
-7.004962200882995e-05   -9.136941034396107e-07   0.00015463713291841564
-7.004962200882995e-05   -9.136941034396107e-07   0.00015463713291841564
-7.004962200882995e-05   -9.136941034396107e-07   0.00015463713291841564
-7.004962200882995e-05   -9.136941034396107e-07   0.00015463713291841564
-7.19139856329971e-05   6.8965404059831426e-06   0.00015305826491970789
-7.19139856329971e-05   6.8965404059831426e-06   0.00015305826491970789
-7.19139856329971e-05   6.8965404059831426e-06   0.00015305826491970789
-7.19139856329971e-05   6.8965404059831426e-06   0.00015305826491970789
-7.004962200882995e-05   1.202689201486827e-05   0.00016181112340285346
-7.004962200882995e-05   1.202689201486827e-05   0.00016181112340285346
-7.004962200882995e-05   1.202689201486827e-05   0.00016181112340285346
-7.004962200882995e-05   1.202689201486827e-05   0.00016181112340285346
-7.435401629949344e-05   -9.136941034387433e-07   0.0001468727812474304
-7.435401629949344e-05   -9.136941034387433e-07   0.0001468727812474304
-7.435401629949344e-05   -9.136941034387433e-07   0.0001468727812474304
-7.435401629949344e-05   -9.136941034387433e-07   0.0001468727812474304
-7.463056913867695e-05   8.140691055643495e-06   0.00015651872120487405
-7.463056913867695e-05   8.140691055643495e-06   0.00015651872120487405
-7.463056913867695e-05   8.140691055643495e-06   0.00015651872120487405
-7.463056913867695e-05   8.140691055643495e-06   0.00015651872120487405
-7.066828264848553e-05   -3.856739532570597e-06   0.00015711336874081497
-7.066828264848553e-05   -3.856739532570597e-06   0.00015711336874081497
-7.066828264848553e-05   -3.856739532570597e-06   0.00015711336874081497
-7.066828264848553e-05   -3.856739532570597e-06   0.00015711336874081497
-7.19013130841899e-05   4.454616121479446e-06   0.00015418160607455446
-7.19013130841899e-05   4.454616121479446e-06   0.00015418160607455446
-7.19013130841899e-05   4.454616121479446e-06   0.00015418160607455446
-7.19013130841899e-05   4.454616121479446e-06   0.00015418160607455446
-7.066828264848575e-05   8.140691055644363e-06   0.0001637171795577999
-7.066828264848575e-05   8.140691055644363e-06   0.0001637171795577999
-7.066828264848575e-05   8.140691055644363e-06   0.0001637171795577999
-7.066828264848575e-05   8.140691055644363e-06   0.0001637171795577999
-7.463056913867695e-05   -3.856739532570597e-06   0.00014991491038788608
-7.463056913867695e-05   -3.856739532570597e-06   0.00014991491038788608
-7.463056913867695e-05   -3.856739532570597e-06   0.00014991491038788608
-7.463056913867695e-05   -3.856739532570597e-06   0.00014991491038788608
-7.478600166718643e-05   4.449750846916012e-06   0.00016089871479895487
-7.478600166718643e-05   4.449750846916012e-06   0.00016089871479895487
-7.478600166718643e-05   4.449750846916012e-06   0.00016089871479895487
-7.478600166718643e-05   4.449750846916012e-06   0.00016089871479895487
-7.109718915594948e-05   -6.8249847212879106e-06   0.0001615155352878146
-7.109718915594948e-05   -6.8249847212879106e-06   0.0001615155352878146
-7.109718915594948e-05   -6.8249847212879106e-06   0.0001615155352878146
-7.109718915594948e-05   -6.8249847212879106e-06   0.0001615155352878146
-7.200526171099959e-05   1.9412768554683338e-06   0.00015776923260017294
-7.200526171099959e-05   1.9412768554683338e-06   0.00015776923260017294
-7.200526171099959e-05   1.9412768554683338e-06   0.00015776923260017294
-7.200526171099959e-05   1.9412768554683338e-06   0.00015776923260017294
-7.42255783245725e-05   2.1352591647641993e-05   0.0001320382641878592
-7.42255783245725e-05   2.1352591647641993e-05   0.0001320382641878592
-7.42255783245725e-05   2.1352591647641993e-05   0.0001320382641878592
-7.42255783245725e-05   2.1352591647641993e-05   0.0001320382641878592
-8.12706226858361e-05   6.97627382175315e-06   0.00011167073289022013
-8.12706226858361e-05   6.97627382175315e-06   0.00011167073289022013
-8.12706226858361e-05   6.97627382175315e-06   0.00011167073289022013
-8.12706226858361e-05   6.97627382175315e-06   0.00011167073289022013
-8.13481220890669e-05   1.732955637407437e-05   0.00012466365011400918
-8.13481220890669e-05   1.732955637407437e-05   0.00012466365011400918
-8.13481220890669e-05   1.732955637407437e-05   0.00012466365011400918
-8.13481220890669e-05   1.732955637407437e-05   0.00012466365011400918
-7.435401629949366e-05   3.747065397755045e-06   0.00012115630171717889
-7.435401629949366e-05   3.747065397755045e-06   0.00012115630171717889
-7.435401629949366e-05   3.747065397755045e-06   0.00012115630171717889
-7.435401629949366e-05   3.747065397755045e-06   0.00012115630171717889
-7.759460976570413e-05   1.2661561057328817e-05   0.0001212085934317853
-7.759460976570413e-05   1.2661561057328817e-05   0.0001212085934317853
-7.759460976570413e-05   1.2661561057328817e-05   0.0001212085934317853
-7.759460976570413e-05   1.2661561057328817e-05   0.0001212085934317853
-7.435401629949366e-05   1.732955637407524e-05   0.00013281314469979974
-7.435401629949366e-05   1.732955637407524e-05   0.00013281314469979974
-7.435401629949366e-05   1.732955637407524e-05   0.00013281314469979974
-7.435401629949366e-05   1.732955637407524e-05   0.00013281314469979974
-8.13481220890669e-05   3.747065397755045e-06   0.00011300680713138676
-8.13481220890669e-05   3.747065397755045e-06   0.00011300680713138676
-8.13481220890669e-05   3.747065397755045e-06   0.00011300680713138676
-8.13481220890669e-05   3.747065397755045e-06   0.00011300680713138676
-8.218480388252295e-05   1.3757508680749958e-05   0.00012931507506300406
-8.218480388252295e-05   1.3757508680749958e-05   0.00012931507506300406
-8.218480388252295e-05   1.3757508680749958e-05   0.00012931507506300406
-8.218480388252295e-05   1.3757508680749958e-05   0.00012931507506300406
-7.463056913867717e-05   9.859542625598183e-07   0.00012438761647417433
-7.463056913867717e-05   9.859542625598183e-07   0.00012438761647417433
-7.463056913867717e-05   9.859542625598183e-07   0.00012438761647417433
-7.463056913867717e-05   9.859542625598183e-07   0.00012438761647417433
-7.732275353911034e-05   9.998872963694165e-06   0.00012346683925421086
-7.732275353911034e-05   9.998872963694165e-06   0.00012346683925421086
-7.732275353911034e-05   9.998872963694165e-06   0.00012346683925421086
-7.732275353911034e-05   9.998872963694165e-06   0.00012346683925421086
-7.463056913867695e-05   1.3757508680749958e-05   0.00013697800771391485
-7.463056913867695e-05   1.3757508680749958e-05   0.00013697800771391485
-7.463056913867695e-05   1.3757508680749958e-05   0.00013697800771391485
-7.463056913867695e-05   1.3757508680749958e-05   0.00013697800771391485
-8.218480388252295e-05   9.859542625606857e-07   0.00011672468382326051
-8.218480388252295e-05   9.859542625606857e-07   0.00011672468382326051
-8.218480388252295e-05   9.859542625606857e-07   0.00011672468382326051
-8.218480388252295e-05   9.859542625606857e-07   0.00011672468382326051
-8.266829145406026e-05   1.012610427168683e-05   0.0001351069686007537
-8.266829145406026e-05   1.012610427168683e-05   0.0001351069686007537
-8.266829145406026e-05   1.012610427168683e-05   0.0001351069686007537
-8.266829145406026e-05   1.012610427168683e-05   0.0001351069686007537
-7.478600166718643e-05   -1.7948025696906678e-06   0.0001291223630607882
-7.478600166718643e-05   -1.7948025696906678e-06   0.0001291223630607882
-7.478600166718643e-05   -1.7948025696906678e-06   0.0001291223630607882
-7.478600166718643e-05   -1.7948025696906678e-06   0.0001291223630607882
-7.765709643025752e-05   7.626124253826139e-06   0.00012825496490512754
-7.765709643025752e-05   7.626124253826139e-06   0.00012825496490512754
-7.765709643025752e-05   7.626124253826139e-06   0.00012825496490512754
-7.765709643025752e-05   7.626124253826139e-06   0.00012825496490512754
-8.127062268583566e-05   2.5099086226179623e-05   5.037920655461079e-05
-8.127062268583566e-05   2.5099086226179623e-05   5.037920655461079e-05
-8.127062268583566e-05   2.5099086226179623e-05   5.037920655461079e-05
-8.127062268583566e-05   2.5099086226179623e-05   5.037920655461079e-05
-7.947609444899223e-05   1.1404885286262281e-05   4.515356638539977e-05
-7.947609444899223e-05   1.1404885286262281e-05   4.515356638539977e-05
-7.947609444899223e-05   1.1404885286262281e-05   4.515356638539977e-05
-7.947609444899223e-05   1.1404885286262281e-05   4.515356638539977e-05
-8.355902020998687e-05   2.242010978970206e-05   5.514592472567227e-05
-8.355902020998687e-05   2.242010978970206e-05   5.514592472567227e-05
-8.355902020998687e-05   2.242010978970206e-05   5.514592472567227e-05
-8.355902020998687e-05   2.242010978970206e-05   5.514592472567227e-05
-8.13481220890669e-05   9.131393123127697e-06   5.943432452408179e-05
-8.13481220890669e-05   9.131393123127697e-06   5.943432452408179e-05
-8.13481220890669e-05   9.131393123127697e-06   5.943432452408179e-05
-8.13481220890669e-05   9.131393123127697e-06   5.943432452408179e-05
-7.877594954199896e-05   1.7623885634068283e-05   5.0051874772405296e-05
-7.877594954199896e-05   1.7623885634068283e-05   5.0051874772405296e-05
-7.877594954199896e-05   1.7623885634068283e-05   5.0051874772405296e-05
-7.877594954199896e-05   1.7623885634068283e-05   5.0051874772405296e-05
-8.134812208906647e-05   2.242010978970206e-05   6.311915472561463e-05
-8.134812208906647e-05   2.242010978970206e-05   6.311915472561463e-05
-8.134812208906647e-05   2.242010978970206e-05   6.311915472561463e-05
-8.134812208906647e-05   2.242010978970206e-05   6.311915472561463e-05
-8.35590202099873e-05   9.131393123127697e-06   5.146109452413856e-05
-8.35590202099873e-05   9.131393123127697e-06   5.146109452413856e-05
-8.35590202099873e-05   9.131393123127697e-06   5.146109452413856e-05
-8.35590202099873e-05   9.131393123127697e-06   5.146109452413856e-05
-8.715019045770671e-05   2.0586903499517778e-05   6.546087178089556e-05
-8.715019045770671e-05   2.0586903499517778e-05   6.546087178089556e-05
-8.715019045770671e-05   2.0586903499517778e-05   6.546087178089556e-05
-8.715019045770671e-05   2.0586903499517778e-05   6.546087178089556e-05
-8.218480388252252e-05   7.641838539728177e-06   6.495226646479474e-05
-8.218480388252252e-05   7.641838539728177e-06   6.495226646479474e-05
-8.218480388252252e-05   7.641838539728177e-06   6.495226646479474e-05
-8.218480388252252e-05   7.641838539728177e-06   6.495226646479474e-05
-8.16653003968403e-05   1.6277560089156783e-05   5.890499439233001e-05
-8.16653003968403e-05   1.6277560089156783e-05   5.890499439233001e-05
-8.16653003968403e-05   1.6277560089156783e-05   5.890499439233001e-05
-8.16653003968403e-05   1.6277560089156783e-05   5.890499439233001e-05
-8.218480388252252e-05   2.0586903499517778e-05   7.322791075676724e-05
-8.218480388252252e-05   2.0586903499517778e-05   7.322791075676724e-05
-8.218480388252252e-05   2.0586903499517778e-05   7.322791075676724e-05
-8.218480388252252e-05   2.0586903499517778e-05   7.322791075676724e-05
-8.715019045770671e-05   7.641838539728177e-06   5.718522748892176e-05
-8.715019045770671e-05   7.641838539728177e-06   5.718522748892176e-05
-8.715019045770671e-05   7.641838539728177e-06   5.718522748892176e-05
-8.715019045770671e-05   7.641838539728177e-06   5.718522748892176e-05
-9.253725136945667e-05   1.6410066789246565e-05   8.441934057845657e-05
-9.253725136945667e-05   1.6410066789246565e-05   8.441934057845657e-05
-9.253725136945667e-05   1.6410066789246565e-05   8.441934057845657e-05
-9.253725136945667e-05   1.6410066789246565e-05   8.441934057845657e-05
-8.266829145406069e-05   4.6803887685529025e-06   7.50088808652103e-05
-8.266829145406069e-05   4.6803887685529025e-06   7.50088808652103e-05
-8.266829145406069e-05   4.6803887685529025e-06   7.50088808652103e-05
-8.266829145406069e-05   4.6803887685529025e-06   7.50088808652103e-05
-8.263749083097286e-05   1.470374112073642e-05   6.89435350820812e-05
-8.263749083097286e-05   1.470374112073642e-05   6.89435350820812e-05
-8.263749083097286e-05   1.470374112073642e-05   6.89435350820812e-05
-8.263749083097286e-05   1.470374112073642e-05   6.89435350820812e-05
-0.00016418750432370605   2.172424910144681e-05   6.0724354941143165e-05
-0.00016418750432370605   2.172424910144681e-05   6.0724354941143165e-05
-0.00016418750432370605   2.172424910144681e-05   6.0724354941143165e-05
-0.00016418750432370605   2.172424910144681e-05   6.0724354941143165e-05
-0.00011018353853853348   3.0162468655159196e-05   0.0001557938963153249
-0.00011018353853853348   3.0162468655159196e-05   0.0001557938963153249
-0.00011018353853853348   3.0162468655159196e-05   0.0001557938963153249
-0.00011018353853853348   3.0162468655159196e-05   0.0001557938963153249
-0.00011008462631687118   1.7022495956604995e-05   6.960388083556736e-05
-0.00011008462631687118   1.7022495956604995e-05   6.960388083556736e-05
-0.00011008462631687118   1.7022495956604995e-05   6.960388083556736e-05
-0.00011008462631687118   1.7022495956604995e-05   6.960388083556736e-05
-0.00018048172377787907   1.2552040252999594e-05   0.00018961465002607816
-0.00018048172377787907   1.2552040252999594e-05   0.00018961465002607816
-0.00018048172377787907   1.2552040252999594e-05   0.00018961465002607816
-0.00018048172377787907   1.2552040252999594e-05   0.00018961465002607816
-0.0001339601994998054   1.7951127939705262e-05   0.00010883932361726526
-0.0001339601994998054   1.7951127939705262e-05   0.00010883932361726526
-0.0001339601994998054   1.7951127939705262e-05   0.00010883932361726526
-0.0001339601994998054   1.7951127939705262e-05   0.00010883932361726526
-0.00018048172377787945   1.7022495956604128e-05   7.228615425773069e-05
-0.00018048172377787945   1.7022495956604128e-05   7.228615425773069e-05
-0.00018048172377787945   1.7022495956604128e-05   7.228615425773069e-05
-0.00018048172377787945   1.7022495956604128e-05   7.228615425773069e-05
-0.00011008462631687118   1.2552040252999594e-05   0.00018693237660391527
-0.00011008462631687118   1.2552040252999594e-05   0.00018693237660391527
-0.00011008462631687118   1.2552040252999594e-05   0.00018693237660391527
-0.00011008462631687118   1.2552040252999594e-05   0.00018693237660391527
-0.00011146892432527537   1.3752433085540208e-05   7.814879564025886e-05
-0.00011146892432527537   1.3752433085540208e-05   7.814879564025886e-05
-0.00011146892432527537   1.3752433085540208e-05   7.814879564025886e-05
-0.00011146892432527537   1.3752433085540208e-05   7.814879564025886e-05
-0.0001810104714248833   9.125306875629093e-06   0.00019682764986555168
-0.0001810104714248833   9.125306875629093e-06   0.00019682764986555168
-0.0001810104714248833   9.125306875629093e-06   0.00019682764986555168
-0.0001810104714248833   9.125306875629093e-06   0.00019682764986555168
-0.00014275850666371222   1.133739515132761e-05   0.00013174712229817873
-0.00014275850666371222   1.133739515132761e-05   0.00013174712229817873
-0.00014275850666371222   1.133739515132761e-05   0.00013174712229817873
-0.00014275850666371222   1.133739515132761e-05   0.00013174712229817873
-0.00018101047142488362   1.3752433085540208e-05   8.09250713662054e-05
-0.00018101047142488362   1.3752433085540208e-05   8.09250713662054e-05
-0.00018101047142488362   1.3752433085540208e-05   8.09250713662054e-05
-0.00018101047142488362   1.3752433085540208e-05   8.09250713662054e-05
-0.00011146892432527521   9.125306875629093e-06   0.0001940513741396047
-0.00011146892432527521   9.125306875629093e-06   0.0001940513741396047
-0.00011146892432527521   9.125306875629093e-06   0.0001940513741396047
-0.00011146892432527521   9.125306875629093e-06   0.0001940513741396047
-0.00011016335857203522   5.698488885382859e-06   9.311745179936071e-05
-0.00011016335857203522   5.698488885382859e-06   9.311745179936071e-05
-0.00011016335857203522   5.698488885382859e-06   9.311745179936071e-05
-0.00011016335857203522   5.698488885382859e-06   9.311745179936071e-05
-0.0001827858759689516   -5.377441136400832e-06   0.00022080053880729072
-0.0001827858759689516   -5.377441136400832e-06   0.00022080053880729072
-0.0001827858759689516   -5.377441136400832e-06   0.00022080053880729072
-0.0001827858759689516   -5.377441136400832e-06   0.00022080053880729072
-0.00014046053201328474   5.6458252764950145e-06   0.00014364433903344244
-0.00014046053201328474   5.6458252764950145e-06   0.00014364433903344244
-0.00014046053201328474   5.6458252764950145e-06   0.00014364433903344244
-0.00014046053201328474   5.6458252764950145e-06   0.00014364433903344244
-0.00011018353853853367   5.61032794694008e-06   0.00014130093262333318
-0.00011018353853853367   5.61032794694008e-06   0.00014130093262333318
-0.00011018353853853367   5.61032794694008e-06   0.00014130093262333318
-0.00011018353853853367   5.61032794694008e-06   0.00014130093262333318
-6.72893972197702e-05   -3.2989022841364846e-05   0.00018963155768162278
-6.72893972197702e-05   -3.2989022841364846e-05   0.00018963155768162278
-6.72893972197702e-05   -3.2989022841364846e-05   0.00018963155768162278
-6.72893972197702e-05   -3.2989022841364846e-05   0.00018963155768162278
-6.73510278301091e-05   2.7267913279014136e-06   0.00011854335209475876
-6.73510278301091e-05   2.7267913279014136e-06   0.00011854335209475876
-6.73510278301091e-05   2.7267913279014136e-06   0.00011854335209475876
-6.73510278301091e-05   2.7267913279014136e-06   0.00011854335209475876
-0.00011008462631687118   -2.6913170550377143e-05   0.00020754999336633018
-0.00011008462631687118   -2.6913170550377143e-05   0.00020754999336633018
-0.00011008462631687118   -2.6913170550377143e-05   0.00020754999336633018
-0.00011008462631687118   -2.6913170550377143e-05   0.00020754999336633018
-8.82284766329794e-05   -1.6292775667894714e-05   0.00016475084029702225
-8.82284766329794e-05   -1.6292775667894714e-05   0.00016475084029702225
-8.82284766329794e-05   -1.6292775667894714e-05   0.00016475084029702225
-8.82284766329794e-05   -1.6292775667894714e-05   0.00016475084029702225
-0.00011008462631687129   2.7267913279014136e-06   0.00013632732922172486
-0.00011008462631687129   2.7267913279014136e-06   0.00013632732922172486
-0.00011008462631687129   2.7267913279014136e-06   0.00013632732922172486
-0.00011008462631687129   2.7267913279014136e-06   0.00013632732922172486
-6.735102783010888e-05   -2.6913170550377143e-05   0.00018976601623936333
-6.735102783010888e-05   -2.6913170550377143e-05   0.00018976601623936333
-6.735102783010888e-05   -2.6913170550377143e-05   0.00018976601623936333
-6.735102783010888e-05   -2.6913170550377143e-05   0.00018976601623936333
-6.750932309451565e-05   -6.502701042450029e-07   0.00012230029286858192
-6.750932309451565e-05   -6.502701042450029e-07   0.00012230029286858192
-6.750932309451565e-05   -6.502701042450029e-07   0.00012230029286858192
-6.750932309451565e-05   -6.502701042450029e-07   0.00012230029286858192
-0.00011146892432527521   -2.755671836549142e-05   0.0002117101638765942
-0.00011146892432527521   -2.755671836549142e-05   0.0002117101638765942
-0.00011146892432527521   -2.755671836549142e-05   0.0002117101638765942
-0.00011146892432527521   -2.755671836549142e-05   0.0002117101638765942
-8.75085819781541e-05   -1.4229805036737077e-05   0.0001637801119674725
-8.75085819781541e-05   -1.4229805036737077e-05   0.0001637801119674725
-8.75085819781541e-05   -1.4229805036737077e-05   0.0001637801119674725
-8.75085819781541e-05   -1.4229805036737077e-05   0.0001637801119674725
-0.00011146892432527537   -6.502701042450029e-07   0.00013844416182532933
-0.00011146892432527537   -6.502701042450029e-07   0.00013844416182532933
-0.00011146892432527537   -6.502701042450029e-07   0.00013844416182532933
-0.00011146892432527537   -6.502701042450029e-07   0.00013844416182532933
-6.750932309451565e-05   -2.755671836549142e-05   0.0001955662949198471
-6.750932309451565e-05   -2.755671836549142e-05   0.0001955662949198471
-6.750932309451565e-05   -2.755671836549142e-05   0.0001955662949198471
-6.750932309451565e-05   -2.755671836549142e-05   0.0001955662949198471
-6.672287173501486e-05   -5.108560012127145e-06   0.00012695951571170235
-6.672287173501486e-05   -5.108560012127145e-06   0.00012695951571170235
-6.672287173501486e-05   -5.108560012127145e-06   0.00012695951571170235
-6.672287173501486e-05   -5.108560012127145e-06   0.00012695951571170235
-0.0001101633585720349   -2.7899781489688132e-05   0.00021303505999327118
-0.0001101633585720349   -2.7899781489688132e-05   0.00021303505999327118
-0.0001101633585720349   -2.7899781489688132e-05   0.00021303505999327118
-0.0001101633585720349   -2.7899781489688132e-05   0.00021303505999327118
-8.780308586082814e-05   -1.6041098400978396e-05   0.00016865272895470154
-8.780308586082814e-05   -1.6041098400978396e-05   0.00016865272895470154
-8.780308586082814e-05   -1.6041098400978396e-05   0.00016865272895470154
-8.780308586082814e-05   -1.6041098400978396e-05   0.00016865272895470154
-6.72893972197702e-05   1.5427237278365508e-06   0.0001303728494148333
-6.72893972197702e-05   1.5427237278365508e-06   0.0001303728494148333
-6.72893972197702e-05   1.5427237278365508e-06   0.0001303728494148333
-6.72893972197702e-05   1.5427237278365508e-06   0.0001303728494148333
-4.9145027529186834e-05   -2.5759992736686024e-05   0.00014423183568709223
-4.9145027529186834e-05   -2.5759992736686024e-05   0.00014423183568709223
-4.9145027529186834e-05   -2.5759992736686024e-05   0.00014423183568709223
-4.9145027529186834e-05   -2.5759992736686024e-05   0.00014423183568709223
-4.86224587888794e-05   -9.136941034396107e-07   0.00011509313998176243
-4.86224587888794e-05   -9.136941034396107e-07   0.00011509313998176243
-4.86224587888794e-05   -9.136941034396107e-07   0.00011509313998176243
-4.86224587888794e-05   -9.136941034396107e-07   0.00011509313998176243
-6.735102783010888e-05   -2.529885963458399e-05   0.00016093852103583254
-6.735102783010888e-05   -2.529885963458399e-05   0.00016093852103583254
-6.735102783010888e-05   -2.529885963458399e-05   0.00016093852103583254
-6.735102783010888e-05   -2.529885963458399e-05   0.00016093852103583254
-5.773231347062067e-05   -1.3039727864537151e-05   0.00013755185137465835
-5.773231347062067e-05   -1.3039727864537151e-05   0.00013755185137465835
-5.773231347062067e-05   -1.3039727864537151e-05   0.00013755185137465835
-5.773231347062067e-05   -1.3039727864537151e-05   0.00013755185137465835
-6.735102783010888e-05   -9.136941034396107e-07   0.00012972423930044915
-6.735102783010888e-05   -9.136941034396107e-07   0.00012972423930044915
-6.735102783010888e-05   -9.136941034396107e-07   0.00012972423930044915
-6.735102783010888e-05   -9.136941034396107e-07   0.00012972423930044915
-4.86224587888794e-05   -2.529885963458399e-05   0.00014630742171714597
-4.86224587888794e-05   -2.529885963458399e-05   0.00014630742171714597
-4.86224587888794e-05   -2.529885963458399e-05   0.00014630742171714597
-4.86224587888794e-05   -2.529885963458399e-05   0.00014630742171714597
-4.814608069233042e-05   -3.856739532570597e-06   0.00011787907139809966
-4.814608069233042e-05   -3.856739532570597e-06   0.00011787907139809966
-4.814608069233042e-05   -3.856739532570597e-06   0.00011787907139809966
-4.814608069233042e-05   -3.856739532570597e-06   0.00011787907139809966
-6.750932309451565e-05   -2.609049656097538e-05   0.00016349139628544888
-6.750932309451565e-05   -2.609049656097538e-05   0.00016349139628544888
-6.750932309451565e-05   -2.609049656097538e-05   0.00016349139628544888
-6.750932309451565e-05   -2.609049656097538e-05   0.00016349139628544888
-5.713871787142006e-05   -1.3950180041632197e-05   0.00013892286433534774
-5.713871787142006e-05   -1.3950180041632197e-05   0.00013892286433534774
-5.713871787142006e-05   -1.3950180041632197e-05   0.00013892286433534774
-5.713871787142006e-05   -1.3950180041632197e-05   0.00013892286433534774
-6.750932309451565e-05   -3.856739532570597e-06   0.00013121932561514175
-6.750932309451565e-05   -3.856739532570597e-06   0.00013121932561514175
-6.750932309451565e-05   -3.856739532570597e-06   0.00013121932561514175
-6.750932309451565e-05   -3.856739532570597e-06   0.00013121932561514175
-4.814608069233085e-05   -2.6090496560974945e-05   0.00015015114206840696
-4.814608069233085e-05   -2.6090496560974945e-05   0.00015015114206840696
-4.814608069233085e-05   -2.6090496560974945e-05   0.00015015114206840696
-4.814608069233085e-05   -2.6090496560974945e-05   0.00015015114206840696
-4.708486794659326e-05   -6.8249847212879106e-06   0.0001221802568491335
-4.708486794659326e-05   -6.8249847212879106e-06   0.0001221802568491335
-4.708486794659326e-05   -6.8249847212879106e-06   0.0001221802568491335
-4.708486794659326e-05   -6.8249847212879106e-06   0.0001221802568491335
-6.672287173501486e-05   -2.724327777537316e-05   0.0001671612389956196
-6.672287173501486e-05   -2.724327777537316e-05   0.0001671612389956196
-6.672287173501486e-05   -2.724327777537316e-05   0.0001671612389956196
-6.672287173501486e-05   -2.724327777537316e-05   0.0001671612389956196
-5.643847808424083e-05   -1.5258467866140994e-05   0.00014282969696545727
-5.643847808424083e-05   -1.5258467866140994e-05   0.00014282969696545727
-5.643847808424083e-05   -1.5258467866140994e-05   0.00014282969696545727
-5.643847808424083e-05   -1.5258467866140994e-05   0.00014282969696545727
-4.9145027529186834e-05   6.976273821754017e-06   8.829442269501315e-05
-4.9145027529186834e-05   6.976273821754017e-06   8.829442269501315e-05
-4.9145027529186834e-05   6.976273821754017e-06   8.829442269501315e-05
-4.9145027529186834e-05   6.976273821754017e-06   8.829442269501315e-05
-4.0551685015809916e-05   -1.0533922223071417e-05   9.211054259041234e-05
-4.0551685015809916e-05   -1.0533922223071417e-05   9.211054259041234e-05
-4.0551685015809916e-05   -1.0533922223071417e-05   9.211054259041234e-05
-4.0551685015809916e-05   -1.0533922223071417e-05   9.211054259041234e-05
-3.958459256316266e-05   3.747065397755045e-06   7.970947239710306e-05
-3.958459256316266e-05   3.747065397755045e-06   7.970947239710306e-05
-3.958459256316266e-05   3.747065397755045e-06   7.970947239710306e-05
-3.958459256316266e-05   3.747065397755045e-06   7.970947239710306e-05
-4.86224587888794e-05   -1.2364914692922918e-05   0.00010443977082770593
-4.86224587888794e-05   -1.2364914692922918e-05   0.00010443977082770593
-4.86224587888794e-05   -1.2364914692922918e-05   0.00010443977082770593
-4.86224587888794e-05   -1.2364914692922918e-05   0.00010443977082770593
-4.414710031921422e-05   -2.3972048800590014e-06   9.10002141572136e-05
-4.414710031921422e-05   -2.3972048800590014e-06   9.10002141572136e-05
-4.414710031921422e-05   -2.3972048800590014e-06   9.10002141572136e-05
-4.414710031921422e-05   -2.3972048800590014e-06   9.10002141572136e-05
-4.86224587888794e-05   3.747065397755045e-06   8.937666045150984e-05
-4.86224587888794e-05   3.747065397755045e-06   8.937666045150984e-05
-4.86224587888794e-05   3.747065397755045e-06   8.937666045150984e-05
-4.86224587888794e-05   3.747065397755045e-06   8.937666045150984e-05
-3.958459256316266e-05   -1.2364914692922918e-05   9.477258277329893e-05
-3.958459256316266e-05   -1.2364914692922918e-05   9.477258277329893e-05
-3.958459256316266e-05   -1.2364914692922918e-05   9.477258277329893e-05
-3.958459256316266e-05   -1.2364914692922918e-05   9.477258277329893e-05
-3.909326489743084e-05   9.859542625606857e-07   8.350469023429234e-05
-3.909326489743084e-05   9.859542625606857e-07   8.350469023429234e-05
-3.909326489743084e-05   9.859542625606857e-07   8.350469023429234e-05
-3.909326489743084e-05   9.859542625606857e-07   8.350469023429234e-05
-4.814608069233042e-05   -1.3759191154263765e-05   0.00010743980380921838
-4.814608069233042e-05   -1.3759191154263765e-05   0.00010743980380921838
-4.814608069233042e-05   -1.3759191154263765e-05   0.00010743980380921838
-4.814608069233042e-05   -1.3759191154263765e-05   0.00010743980380921838
-4.319126976839343e-05   -4.378443336309698e-06   9.355333691188046e-05
-4.319126976839343e-05   -4.378443336309698e-06   9.355333691188046e-05
-4.319126976839343e-05   -4.378443336309698e-06   9.355333691188046e-05
-4.319126976839343e-05   -4.378443336309698e-06   9.355333691188046e-05
-4.814608069233042e-05   9.859542625606857e-07   9.235177748438596e-05
-4.814608069233042e-05   9.859542625606857e-07   9.235177748438596e-05
-4.814608069233042e-05   9.859542625606857e-07   9.235177748438596e-05
-4.814608069233042e-05   9.859542625606857e-07   9.235177748438596e-05
-3.909326489743084e-05   -1.3759191154264199e-05   9.85927165591241e-05
-3.909326489743084e-05   -1.3759191154264199e-05   9.85927165591241e-05
-3.909326489743084e-05   -1.3759191154264199e-05   9.85927165591241e-05
-3.909326489743084e-05   -1.3759191154264199e-05   9.85927165591241e-05
-3.834267165699545e-05   -1.7948025696906678e-06   8.827101257771058e-05
-3.834267165699545e-05   -1.7948025696906678e-06   8.827101257771058e-05
-3.834267165699545e-05   -1.7948025696906678e-06   8.827101257771058e-05
-3.834267165699545e-05   -1.7948025696906678e-06   8.827101257771058e-05
-4.708486794659326e-05   -1.559632487855558e-05   0.00011112225311235785
-4.708486794659326e-05   -1.559632487855558e-05   0.00011112225311235785
-4.708486794659326e-05   -1.559632487855558e-05   0.00011112225311235785
-4.708486794659326e-05   -1.559632487855558e-05   0.00011112225311235785
-4.2416069830065756e-05   -6.10591253300723e-06   9.764667551081943e-05
-4.2416069830065756e-05   -6.10591253300723e-06   9.764667551081943e-05
-4.2416069830065756e-05   -6.10591253300723e-06   9.764667551081943e-05
-4.2416069830065756e-05   -6.10591253300723e-06   9.764667551081943e-05
-4.0551685015809916e-05   1.1404885286262281e-05   1.948765912724833e-05
-4.0551685015809916e-05   1.1404885286262281e-05   1.948765912724833e-05
-4.0551685015809916e-05   1.1404885286262281e-05   1.948765912724833e-05
-4.0551685015809916e-05   1.1404885286262281e-05   1.948765912724833e-05
-2.2798351546848145e-05   -1.237768583232067e-06   4.149095592048896e-05
-2.2798351546848145e-05   -1.237768583232067e-06   4.149095592048896e-05
-2.2798351546848145e-05   -1.237768583232067e-06   4.149095592048896e-05
-2.2798351546848145e-05   -1.237768583232067e-06   4.149095592048896e-05
-2.4017836308772977e-05   9.131393123127697e-06   1.9637523064564184e-05
-2.4017836308772977e-05   9.131393123127697e-06   1.9637523064564184e-05
-2.4017836308772977e-05   9.131393123127697e-06   1.9637523064564184e-05
-2.4017836308772977e-05   9.131393123127697e-06   1.9637523064564184e-05
-3.958459256316266e-05   -1.7010514189305312e-06   5.2081583547117574e-05
-3.958459256316266e-05   -1.7010514189305312e-06   5.2081583547117574e-05
-3.958459256316266e-05   -1.7010514189305312e-06   5.2081583547117574e-05
-3.958459256316266e-05   -1.7010514189305312e-06   5.2081583547117574e-05
-3.0648601935261274e-05   5.848140466264626e-06   3.265875070283374e-05
-3.0648601935261274e-05   5.848140466264626e-06   3.265875070283374e-05
-3.0648601935261274e-05   5.848140466264626e-06   3.265875070283374e-05
-3.0648601935261274e-05   5.848140466264626e-06   3.265875070283374e-05
-3.958459256316266e-05   9.131393123127697e-06   2.613698978979782e-05
-3.958459256316266e-05   9.131393123127697e-06   2.613698978979782e-05
-3.958459256316266e-05   9.131393123127697e-06   2.613698978979782e-05
-3.958459256316266e-05   9.131393123127697e-06   2.613698978979782e-05
-2.4017836308772977e-05   -1.7010514189309649e-06   4.558211682188177e-05
-2.4017836308772977e-05   -1.7010514189309649e-06   4.558211682188177e-05
-2.4017836308772977e-05   -1.7010514189309649e-06   4.558211682188177e-05
-2.4017836308772977e-05   -1.7010514189309649e-06   4.558211682188177e-05
-2.5006356916042454e-05   7.641838539728177e-06   2.574531710988412e-05
-2.5006356916042454e-05   7.641838539728177e-06   2.574531710988412e-05
-2.5006356916042454e-05   7.641838539728177e-06   2.574531710988412e-05
-2.5006356916042454e-05   7.641838539728177e-06   2.574531710988412e-05
-3.909326489743084e-05   -2.3364210701760403e-06   5.521045284480677e-05
-3.909326489743084e-05   -2.3364210701760403e-06   5.521045284480677e-05
-3.909326489743084e-05   -2.3364210701760403e-06   5.521045284480677e-05
-3.909326489743084e-05   -2.3364210701760403e-06   5.521045284480677e-05
-3.108886309018794e-05   4.70852290534703e-06   3.76428167807516e-05
-3.108886309018794e-05   4.70852290534703e-06   3.76428167807516e-05
-3.108886309018794e-05   4.70852290534703e-06   3.76428167807516e-05
-3.108886309018794e-05   4.70852290534703e-06   3.76428167807516e-05
-3.909326489743084e-05   7.641838539728177e-06   3.1732272875826997e-05
-3.909326489743084e-05   7.641838539728177e-06   3.1732272875826997e-05
-3.909326489743084e-05   7.641838539728177e-06   3.1732272875826997e-05
-3.909326489743084e-05   7.641838539728177e-06   3.1732272875826997e-05
-2.5006356916042454e-05   -2.3364210701756066e-06   4.9223497078863896e-05
-2.5006356916042454e-05   -2.3364210701756066e-06   4.9223497078863896e-05
-2.5006356916042454e-05   -2.3364210701756066e-06   4.9223497078863896e-05
-2.5006356916042454e-05   -2.3364210701756066e-06   4.9223497078863896e-05
-2.760357108050164e-05   4.6803887685529025e-06   3.66540861070257e-05
-2.760357108050164e-05   4.6803887685529025e-06   3.66540861070257e-05
-2.760357108050164e-05   4.6803887685529025e-06   3.66540861070257e-05
-2.760357108050164e-05   4.6803887685529025e-06   3.66540861070257e-05
-3.834267165699545e-05   -3.079591864670571e-06   5.920857544778214e-05
-3.834267165699545e-05   -3.079591864670571e-06   5.920857544778214e-05
-3.834267165699545e-05   -3.079591864670571e-06   5.920857544778214e-05
-3.834267165699545e-05   -3.079591864670571e-06   5.920857544778214e-05
-3.10766678640554e-05   3.9522076664987894e-06   4.287948940751452e-05
-3.10766678640554e-05   3.9522076664987894e-06   4.287948940751452e-05
-3.10766678640554e-05   3.9522076664987894e-06   4.287948940751452e-05
-3.10766678640554e-05   3.9522076664987894e-06   4.287948940751452e-05
-0.00038089858706416075   3.0162468655158762e-05   0.00015882178549465474
-0.00038089858706416075   3.0162468655158762e-05   0.00015882178549465474
-0.00038089858706416075   3.0162468655158762e-05   0.00015882178549465474
-0.00038089858706416075   3.0162468655158762e-05   0.00015882178549465474
-9.005247588692554e-05   -0.0001807275251961608   0.0005170313078125887
-9.005247588692554e-05   -0.0001807275251961608   0.0005170313078125887
-9.005247588692554e-05   -0.0001807275251961608   0.0005170313078125887
-9.005247588692554e-05   -0.0001807275251961608   0.0005170313078125887
-0.00010535154420788552   1.255204025299916e-05   8.762523349636724e-05
-0.00010535154420788552   1.255204025299916e-05   8.762523349636724e-05
-0.00010535154420788552   1.255204025299916e-05   8.762523349636724e-05
-0.00010535154420788552   1.255204025299916e-05   8.762523349636724e-05
-0.0003473869732404065   -0.00013965476809200424   0.0005823417002242369
-0.0003473869732404065   -0.00013965476809200424   0.0005823417002242369
-0.0003473869732404065   -0.00013965476809200424   0.0005823417002242369
-0.0003473869732404065   -0.00013965476809200424   0.0005823417002242369
-0.00023175263397762165   -6.956329348449747e-05   0.00034756291668842476
-0.00023175263397762165   -6.956329348449747e-05   0.00034756291668842476
-0.00023175263397762165   -6.956329348449747e-05   0.00034756291668842476
-0.00023175263397762165   -6.956329348449747e-05   0.00034756291668842476
-0.0003473869732404059   1.255204025299916e-05   0.00017894931850336916
-0.0003473869732404059   1.255204025299916e-05   0.00017894931850336916
-0.0003473869732404059   1.255204025299916e-05   0.00017894931850336916
-0.0003473869732404059   1.255204025299916e-05   0.00017894931850336916
-0.00010535154420788568   -0.00013965476809200424   0.0004910176152172347
-0.00010535154420788568   -0.00013965476809200424   0.0004910176152172347
-0.00010535154420788568   -0.00013965476809200424   0.0004910176152172347
-0.00010535154420788568   -0.00013965476809200424   0.0004910176152172347
-0.00010756026996360955   9.125306875629527e-06   9.625858267408628e-05
-0.00010756026996360955   9.125306875629527e-06   9.625858267408628e-05
-0.00010756026996360955   9.125306875629527e-06   9.625858267408628e-05
-0.00010756026996360955   9.125306875629527e-06   9.625858267408628e-05
-0.0003277309847384855   -0.00011975484479567599   0.0005405378649683284
-0.0003277309847384855   -0.00011975484479567599   0.0005405378649683284
-0.0003277309847384855   -0.00011975484479567599   0.0005405378649683284
-0.0003277309847384855   -0.00011975484479567599   0.0005405378649683284
-0.00022468457939484247   -6.581761242443617e-05   0.00033643151663951306
-0.00022468457939484247   -6.581761242443617e-05   0.00033643151663951306
-0.00022468457939484247   -6.581761242443617e-05   0.00033643151663951306
-0.00022468457939484247   -6.581761242443617e-05   0.00033643151663951306
-0.0003277309847384849   9.125306875629527e-06   0.00017358667367686916
-0.0003277309847384849   9.125306875629527e-06   0.00017358667367686916
-0.0003277309847384849   9.125306875629527e-06   0.00017358667367686916
-0.0003277309847384849   9.125306875629527e-06   0.00017358667367686916
-0.00010756026996360977   -0.00011975484479567599   0.00046320977396554526
-0.00010756026996360977   -0.00011975484479567599   0.00046320977396554526
-0.00010756026996360977   -0.00011975484479567599   0.00046320977396554526
-0.00010756026996360977   -0.00011975484479567599   0.00046320977396554526
-0.00011746630616882466   -5.377441136400832e-06   0.00012070034411743047
-0.00011746630616882466   -5.377441136400832e-06   0.00012070034411743047
-0.00011746630616882466   -5.377441136400832e-06   0.00012070034411743047
-0.00011746630616882466   -5.377441136400832e-06   0.00012070034411743047
-0.000302593231931678   -9.339765137254462e-05   0.000482057346530538
-0.000302593231931678   -9.339765137254462e-05   0.000482057346530538
-0.000302593231931678   -9.339765137254462e-05   0.000482057346530538
-0.000302593231931678   -9.339765137254462e-05   0.000482057346530538
-0.00021593177731982587   -6.0717086579442896e-05   0.00031801324996825716
-0.00021593177731982587   -6.0717086579442896e-05   0.00031801324996825716
-0.00021593177731982587   -6.0717086579442896e-05   0.00031801324996825716
-0.00021593177731982587   -6.0717086579442896e-05   0.00031801324996825716
-9.005247588692538e-05   -3.2989022841364846e-05   8.928506102314393e-05
-9.005247588692538e-05   -3.2989022841364846e-05   8.928506102314393e-05
-9.005247588692538e-05   -3.2989022841364846e-05   8.928506102314393e-05
-9.005247588692538e-05   -3.2989022841364846e-05   8.928506102314393e-05
-3.151739996326173e-05   -5.453355035453137e-05   0.00017391680438801765
-3.151739996326173e-05   -5.453355035453137e-05   0.00017391680438801765
-3.151739996326173e-05   -5.453355035453137e-05   0.00017391680438801765
-3.151739996326173e-05   -5.453355035453137e-05   0.00017391680438801765
-3.500412801942291e-05   -2.6913170550377143e-05   8.063547929755056e-05
-3.500412801942291e-05   -2.6913170550377143e-05   8.063547929755056e-05
-3.500412801942291e-05   -2.6913170550377143e-05   8.063547929755056e-05
-3.500412801942291e-05   -2.6913170550377143e-05   8.063547929755056e-05
-0.00010535154420788568   -7.29254554857642e-05   0.00022548854390621968
-0.00010535154420788568   -7.29254554857642e-05   0.00022548854390621968
-0.00010535154420788568   -7.29254554857642e-05   0.00022548854390621968
-0.00010535154420788568   -7.29254554857642e-05   0.00022548854390621968
-6.206976681783277e-05   -3.8432790176481674e-05   0.0001326566490705615
-6.206976681783277e-05   -3.8432790176481674e-05   0.0001326566490705615
-6.206976681783277e-05   -3.8432790176481674e-05   0.0001326566490705615
-6.206976681783277e-05   -3.8432790176481674e-05   0.0001326566490705615
-0.00010535154420788541   -2.6913170550377143e-05   0.0001082428502587815
-0.00010535154420788541   -2.6913170550377143e-05   0.0001082428502587815
-0.00010535154420788541   -2.6913170550377143e-05   0.0001082428502587815
-0.00010535154420788541   -2.6913170550377143e-05   0.0001082428502587815
-3.5004128019423125e-05   -7.29254554857642e-05   0.0001978811729449875
-3.5004128019423125e-05   -7.29254554857642e-05   0.0001978811729449875
-3.5004128019423125e-05   -7.29254554857642e-05   0.0001978811729449875
-3.5004128019423125e-05   -7.29254554857642e-05   0.0001978811729449875
-3.797571724074812e-05   -2.7556718365491853e-05   9.064135825343975e-05
-3.797571724074812e-05   -2.7556718365491853e-05   9.064135825343975e-05
-3.797571724074812e-05   -2.7556718365491853e-05   9.064135825343975e-05
-3.797571724074812e-05   -2.7556718365491853e-05   9.064135825343975e-05
-0.00010756026996360977   -6.635007529488564e-05   0.00022989162694917852
-0.00010756026996360977   -6.635007529488564e-05   0.00022989162694917852
-0.00010756026996360977   -6.635007529488564e-05   0.00022989162694917852
-0.00010756026996360977   -6.635007529488564e-05   0.00022989162694917852
-6.976223662477857e-05   -4.718450473888006e-05   0.00015539556238419088
-6.976223662477857e-05   -4.718450473888006e-05   0.00015539556238419088
-6.976223662477857e-05   -4.718450473888006e-05   0.00015539556238419088
-6.976223662477857e-05   -4.718450473888006e-05   0.00015539556238419088
-0.00010756026996360955   -2.7556718365491853e-05   0.00011391737241107621
-0.00010756026996360955   -2.7556718365491853e-05   0.00011391737241107621
-0.00010756026996360955   -2.7556718365491853e-05   0.00011391737241107621
-0.00010756026996360955   -2.7556718365491853e-05   0.00011391737241107621
-3.79757172407479e-05   -6.635007529488564e-05   0.0002066156127915419
-3.79757172407479e-05   -6.635007529488564e-05   0.0002066156127915419
-3.79757172407479e-05   -6.635007529488564e-05   0.0002066156127915419
-3.79757172407479e-05   -6.635007529488564e-05   0.0002066156127915419
-4.277538298933631e-05   -2.7899781489688132e-05   9.897662708070157e-05
-4.277538298933631e-05   -2.7899781489688132e-05   9.897662708070157e-05
-4.277538298933631e-05   -2.7899781489688132e-05   9.897662708070157e-05
-4.277538298933631e-05   -2.7899781489688132e-05   9.897662708070157e-05
-0.00011746630616882487   -6.223944188265465e-05   0.00024406529528229494
-0.00011746630616882487   -6.223944188265465e-05   0.00024406529528229494
-0.00011746630616882487   -6.223944188265465e-05   0.00024406529528229494
-0.00011746630616882487   -6.223944188265465e-05   0.00024406529528229494
-7.413457150402572e-05   -4.3049023737477344e-05   0.00016033148662052393
-7.413457150402572e-05   -4.3049023737477344e-05   0.00016033148662052393
-7.413457150402572e-05   -4.3049023737477344e-05   0.00016033148662052393
-7.413457150402572e-05   -4.3049023737477344e-05   0.00016033148662052393
-3.1517399963261515e-05   -2.5759992736686024e-05   4.734025239942698e-05
-3.1517399963261515e-05   -2.5759992736686024e-05   4.734025239942698e-05
-3.1517399963261515e-05   -2.5759992736686024e-05   4.734025239942698e-05
-3.1517399963261515e-05   -2.5759992736686024e-05   4.734025239942698e-05
-1.7492532633097595e-05   -1.4392169976644366e-05   7.753572493905919e-05
-1.7492532633097595e-05   -1.4392169976644366e-05   7.753572493905919e-05
-1.7492532633097595e-05   -1.4392169976644366e-05   7.753572493905919e-05
-1.7492532633097595e-05   -1.4392169976644366e-05   7.753572493905919e-05
-1.6708131778738573e-05   -2.529885963458399e-05   5.551783531959273e-05
-1.6708131778738573e-05   -2.529885963458399e-05   5.551783531959273e-05
-1.6708131778738573e-05   -2.529885963458399e-05   5.551783531959273e-05
-1.6708131778738573e-05   -2.529885963458399e-05   5.551783531959273e-05
-3.5004128019423125e-05   -1.911577425862791e-05   8.230131116182624e-05
-3.5004128019423125e-05   -1.911577425862791e-05   8.230131116182624e-05
-3.5004128019423125e-05   -1.911577425862791e-05   8.230131116182624e-05
-3.5004128019423125e-05   -1.911577425862791e-05   8.230131116182624e-05
-2.3597051661972753e-05   -2.0147313221684357e-05   6.390844061057548e-05
-2.3597051661972753e-05   -2.0147313221684357e-05   6.390844061057548e-05
-2.3597051661972753e-05   -2.0147313221684357e-05   6.390844061057548e-05
-2.3597051661972753e-05   -2.0147313221684357e-05   6.390844061057548e-05
-3.500412801942291e-05   -2.529885963458399e-05   5.180798409401967e-05
-3.500412801942291e-05   -2.529885963458399e-05   5.180798409401967e-05
-3.500412801942291e-05   -2.529885963458399e-05   5.180798409401967e-05
-3.500412801942291e-05   -2.529885963458399e-05   5.180798409401967e-05
-1.6708131778738573e-05   -1.911577425862791e-05   8.601116238739995e-05
-1.6708131778738573e-05   -1.911577425862791e-05   8.601116238739995e-05
-1.6708131778738573e-05   -1.911577425862791e-05   8.601116238739995e-05
-1.6708131778738573e-05   -1.911577425862791e-05   8.601116238739995e-05
-1.663064352373897e-05   -2.609049656097538e-05   5.929037398382528e-05
-1.663064352373897e-05   -2.609049656097538e-05   5.929037398382528e-05
-1.663064352373897e-05   -2.609049656097538e-05   5.929037398382528e-05
-1.663064352373897e-05   -2.609049656097538e-05   5.929037398382528e-05
-3.79757172407479e-05   -2.4883972619670118e-05   9.414158248072235e-05
-3.79757172407479e-05   -2.4883972619670118e-05   9.414158248072235e-05
-3.79757172407479e-05   -2.4883972619670118e-05   9.414158248072235e-05
-3.79757172407479e-05   -2.4883972619670118e-05   9.414158248072235e-05
-2.489021270130347e-05   -2.203483394037941e-05   7.062292504074041e-05
-2.489021270130347e-05   -2.203483394037941e-05   7.062292504074041e-05
-2.489021270130347e-05   -2.203483394037941e-05   7.062292504074041e-05
-2.489021270130347e-05   -2.203483394037941e-05   7.062292504074041e-05
-3.79757172407479e-05   -2.6090496560974945e-05   5.856645961904196e-05
-3.79757172407479e-05   -2.6090496560974945e-05   5.856645961904196e-05
-3.79757172407479e-05   -2.6090496560974945e-05   5.856645961904196e-05
-3.79757172407479e-05   -2.6090496560974945e-05   5.856645961904196e-05
-1.663064352373897e-05   -2.4883972619670118e-05   9.486549684550546e-05
-1.663064352373897e-05   -2.4883972619670118e-05   9.486549684550546e-05
-1.663064352373897e-05   -2.4883972619670118e-05   9.486549684550546e-05
-1.663064352373897e-05   -2.4883972619670118e-05   9.486549684550546e-05
-1.669273970674595e-05   -2.724327777537316e-05   6.489441597761283e-05
-1.669273970674595e-05   -2.724327777537316e-05   6.489441597761283e-05
-1.669273970674595e-05   -2.724327777537316e-05   6.489441597761283e-05
-1.669273970674595e-05   -2.724327777537316e-05   6.489441597761283e-05
-4.277538298933653e-05   -3.0381816095328664e-05   0.00011024861110723607
-4.277538298933653e-05   -3.0381816095328664e-05   0.00011024861110723607
-4.277538298933653e-05   -3.0381816095328664e-05   0.00011024861110723607
-4.277538298933653e-05   -3.0381816095328664e-05   0.00011024861110723607
-2.6338230344315227e-05   -2.4160251673342606e-05   7.9120418045676e-05
-2.6338230344315227e-05   -2.4160251673342606e-05   7.9120418045676e-05
-2.6338230344315227e-05   -2.4160251673342606e-05   7.9120418045676e-05
-2.6338230344315227e-05   -2.4160251673342606e-05   7.9120418045676e-05
-1.7492532633097595e-05   -1.0533922223071417e-05   1.2545770585667198e-05
-1.7492532633097595e-05   -1.0533922223071417e-05   1.2545770585667198e-05
-1.7492532633097595e-05   -1.0533922223071417e-05   1.2545770585667198e-05
-1.7492532633097595e-05   -1.0533922223071417e-05   1.2545770585667198e-05
-1.2788547475996084e-05   3.4397041556901288e-06   2.8769921674760054e-05
-1.2788547475996084e-05   3.4397041556901288e-06   2.8769921674760054e-05
-1.2788547475996084e-05   3.4397041556901288e-06   2.8769921674760054e-05
-1.2788547475996084e-05   3.4397041556901288e-06   2.8769921674760054e-05
-1.0261424075470177e-05   -1.2364914692922918e-05   2.2161963457154044e-05
-1.0261424075470177e-05   -1.2364914692922918e-05   2.2161963457154044e-05
-1.0261424075470177e-05   -1.2364914692922918e-05   2.2161963457154044e-05
-1.0261424075470177e-05   -1.2364914692922918e-05   2.2161963457154044e-05
-1.6708131778738573e-05   1.821383685413297e-06   2.4394697268932328e-05
-1.6708131778738573e-05   1.821383685413297e-06   2.4394697268932328e-05
-1.6708131778738573e-05   1.821383685413297e-06   2.4394697268932328e-05
-1.6708131778738573e-05   1.821383685413297e-06   2.4394697268932328e-05
-1.3437006771153124e-05   -4.658067684899401e-06   2.283049307847708e-05
-1.3437006771153124e-05   -4.658067684899401e-06   2.283049307847708e-05
-1.3437006771153124e-05   -4.658067684899401e-06   2.283049307847708e-05
-1.3437006771153124e-05   -4.658067684899401e-06   2.283049307847708e-05
-1.6708131778738573e-05   -1.2364914692922918e-05   1.3650184430153041e-05
-1.6708131778738573e-05   -1.2364914692922918e-05   1.3650184430153041e-05
-1.6708131778738573e-05   -1.2364914692922918e-05   1.3650184430153041e-05
-1.6708131778738573e-05   -1.2364914692922918e-05   1.3650184430153041e-05
-1.0261424075470177e-05   1.821383685413297e-06   3.29064762959342e-05
-1.0261424075470177e-05   1.821383685413297e-06   3.29064762959342e-05
-1.0261424075470177e-05   1.821383685413297e-06   3.29064762959342e-05
-1.0261424075470177e-05   1.821383685413297e-06   3.29064762959342e-05
-8.837765942907878e-06   -1.3759191154263765e-05   2.4336716459658764e-05
-8.837765942907878e-06   -1.3759191154263765e-05   2.4336716459658764e-05
-8.837765942907878e-06   -1.3759191154263765e-05   2.4336716459658764e-05
-8.837765942907878e-06   -1.3759191154263765e-05   2.4336716459658764e-05
-1.663064352373897e-05   -8.297232625603451e-07   2.956716502602137e-05
-1.663064352373897e-05   -8.297232625603451e-07   2.956716502602137e-05
-1.663064352373897e-05   -8.297232625603451e-07   2.956716502602137e-05
-1.663064352373897e-05   -8.297232625603451e-07   2.956716502602137e-05
-1.2098882001470115e-05   -6.0290175083192905e-06   2.5133805703029134e-05
-1.2098882001470115e-05   -6.0290175083192905e-06   2.5133805703029134e-05
-1.2098882001470115e-05   -6.0290175083192905e-06   2.5133805703029134e-05
-1.2098882001470115e-05   -6.0290175083192905e-06   2.5133805703029134e-05
-1.6630643523739188e-05   -1.3759191154263765e-05   1.657903572463578e-05
-1.6630643523739188e-05   -1.3759191154263765e-05   1.657903572463578e-05
-1.6630643523739188e-05   -1.3759191154263765e-05   1.657903572463578e-05
-1.6630643523739188e-05   -1.3759191154263765e-05   1.657903572463578e-05
-8.837765942907878e-06   -8.297232625603451e-07   3.7324845761044136e-05
-8.837765942907878e-06   -8.297232625603451e-07   3.7324845761044136e-05
-8.837765942907878e-06   -8.297232625603451e-07   3.7324845761044136e-05
-8.837765942907878e-06   -8.297232625603451e-07   3.7324845761044136e-05
-6.648712781828943e-06   -1.5596324878556014e-05   2.6634995629179134e-05
-6.648712781828943e-06   -1.5596324878556014e-05   2.6634995629179134e-05
-6.648712781828943e-06   -1.5596324878556014e-05   2.6634995629179134e-05
-6.648712781828943e-06   -1.5596324878556014e-05   2.6634995629179134e-05
-1.669273970674595e-05   -6.382008707927968e-06   3.784645080166446e-05
-1.669273970674595e-05   -6.382008707927968e-06   3.784645080166446e-05
-1.669273970674595e-05   -6.382008707927968e-06   3.784645080166446e-05
-1.669273970674595e-05   -6.382008707927968e-06   3.784645080166446e-05
-1.0966681560837556e-05   -8.167226406916766e-06   2.9374151177879223e-05
-1.0966681560837556e-05   -8.167226406916766e-06   2.9374151177879223e-05
-1.0966681560837556e-05   -8.167226406916766e-06   2.9374151177879223e-05
-1.0966681560837556e-05   -8.167226406916766e-06   2.9374151177879223e-05
-1.2788547475996084e-05   -1.237768583232067e-06   -2.2104047935302866e-05
-1.2788547475996084e-05   -1.237768583232067e-06   -2.2104047935302866e-05
-1.2788547475996084e-05   -1.237768583232067e-06   -2.2104047935302866e-05
-1.2788547475996084e-05   -1.237768583232067e-06   -2.2104047935302866e-05
-2.16593668104538e-06   1.9167631955028077e-06   -2.5069775431438637e-06
-2.16593668104538e-06   1.9167631955028077e-06   -2.5069775431438637e-06
-2.16593668104538e-06   1.9167631955028077e-06   -2.5069775431438637e-06
-2.16593668104538e-06   1.9167631955028077e-06   -2.5069775431438637e-06
3.2347766426620364e-07   -1.7010514189309649e-06   -1.7498470766293475e-05
3.2347766426620364e-07   -1.7010514189309649e-06   -1.7498470766293475e-05
3.2347766426620364e-07   -1.7010514189309649e-06   -1.7498470766293475e-05
3.2347766426620364e-07   -1.7010514189309649e-06   -1.7498470766293475e-05
-1.0261424075470177e-05   3.349890252291629e-06   -2.887532869468197e-06
-1.0261424075470177e-05   3.349890252291629e-06   -2.887532869468197e-06
-1.0261424075470177e-05   3.349890252291629e-06   -2.887532869468197e-06
-1.0261424075470177e-05   3.349890252291629e-06   -2.887532869468197e-06
-5.689664786120811e-06   8.605984182466931e-07   -9.013556584626034e-06
-5.689664786120811e-06   8.605984182466931e-07   -9.013556584626034e-06
-5.689664786120811e-06   8.605984182466931e-07   -9.013556584626034e-06
-5.689664786120811e-06   8.605984182466931e-07   -9.013556584626034e-06
-1.0261424075470177e-05   -1.7010514189309649e-06   -2.0529035769028398e-05
-1.0261424075470177e-05   -1.7010514189309649e-06   -2.0529035769028398e-05
-1.0261424075470177e-05   -1.7010514189309649e-06   -2.0529035769028398e-05
-1.0261424075470177e-05   -1.7010514189309649e-06   -2.0529035769028398e-05
3.2347766426620364e-07   3.349890252291629e-06   1.4303213326585795e-07
3.2347766426620364e-07   3.349890252291629e-06   1.4303213326585795e-07
3.2347766426620364e-07   3.349890252291629e-06   1.4303213326585795e-07
3.2347766426620364e-07   3.349890252291629e-06   1.4303213326585795e-07
1.6661471281681495e-06   -2.3364210701760403e-06   -1.5867443437888977e-05
1.6661471281681495e-06   -2.3364210701760403e-06   -1.5867443437888977e-05
1.6661471281681495e-06   -2.3364210701760403e-06   -1.5867443437888977e-05
1.6661471281681495e-06   -2.3364210701760403e-06   -1.5867443437888977e-05
-8.837765942907878e-06   2.960418624438539e-06   -1.5390254695336544e-06
-8.837765942907878e-06   2.960418624438539e-06   -1.5390254695336544e-06
-8.837765942907878e-06   2.960418624438539e-06   -1.5390254695336544e-06
-8.837765942907878e-06   2.960418624438539e-06   -1.5390254695336544e-06
-3.830950960737045e-06   5.695698288598391e-07   -8.449207829133894e-06
-3.830950960737045e-06   5.695698288598391e-07   -8.449207829133894e-06
-3.830950960737045e-06   5.695698288598391e-07   -8.449207829133894e-06
-3.830950960737045e-06   5.695698288598391e-07   -8.449207829133894e-06
-8.837765942907878e-06   -2.3364210701760403e-06   -1.9045547254658993e-05
-8.837765942907878e-06   -2.3364210701760403e-06   -1.9045547254658993e-05
-8.837765942907878e-06   -2.3364210701760403e-06   -1.9045547254658993e-05
-8.837765942907878e-06   -2.3364210701760403e-06   -1.9045547254658993e-05
1.6661471281681495e-06   2.960418624438539e-06   1.6390783472352774e-06
1.6661471281681495e-06   2.960418624438539e-06   1.6390783472352774e-06
1.6661471281681495e-06   2.960418624438539e-06   1.6390783472352774e-06
1.6661471281681495e-06   2.960418624438539e-06   1.6390783472352774e-06
3.362418883131116e-06   -3.079591864670571e-06   -1.3520982081973408e-05
3.362418883131116e-06   -3.079591864670571e-06   -1.3520982081973408e-05
3.362418883131116e-06   -3.079591864670571e-06   -1.3520982081973408e-05
3.362418883131116e-06   -3.079591864670571e-06   -1.3520982081973408e-05
-6.648712781828943e-06   2.7150524155014405e-06   -3.125492084787504e-07
-6.648712781828943e-06   2.7150524155014405e-06   -3.125492084787504e-07
-6.648712781828943e-06   2.7150524155014405e-06   -3.125492084787504e-07
-6.648712781828943e-06   2.7150524155014405e-06   -3.125492084787504e-07
-2.139827107424828e-06   2.3511333630378897e-07   -6.339395218300098e-06
-2.139827107424828e-06   2.3511333630378897e-07   -6.339395218300098e-06
-2.139827107424828e-06   2.3511333630378897e-07   -6.339395218300098e-06
-2.139827107424828e-06   2.3511333630378897e-07   -6.339395218300098e-06
              </DataArray>   
             <DataArray type="Float64" NumberOfComponents="3" Name="Stress" format="ascii">   
-19.695349478073062   -4.923837369518266   -4.923837369518266
-19.695349478073062   -4.923837369518266   -4.923837369518266
-19.695349478073062   -4.923837369518266   -4.923837369518266
-19.695349478073062   -4.923837369518266   -4.923837369518266
-11.39993503540069   -0.35608628399709596   -0.22656628570368909
-11.39993503540069   -0.35608628399709596   -0.22656628570368909
-11.39993503540069   -0.35608628399709596   -0.22656628570368909
-11.39993503540069   -0.35608628399709596   -0.22656628570368909
-12.292379616890901   -3.0730949042227254   -3.0730949042227254
-12.292379616890901   -3.0730949042227254   -3.0730949042227254
-12.292379616890901   -3.0730949042227254   -3.0730949042227254
-12.292379616890901   -3.0730949042227254   -3.0730949042227254
-18.984156525426414   -1.5549982142046805   -0.5934189574850307
-18.984156525426414   -1.5549982142046805   -0.5934189574850307
-18.984156525426414   -1.5549982142046805   -0.5934189574850307
-18.984156525426414   -1.5549982142046805   -0.5934189574850307
-14.890409346155852   -2.4388171813985884   -0.040839085711873196
-14.890409346155852   -2.4388171813985884   -0.040839085711873196
-14.890409346155852   -2.4388171813985884   -0.040839085711873196
-14.890409346155852   -2.4388171813985884   -0.040839085711873196
-20.61608121232056   -5.15402030308014   -5.15402030308014
-20.61608121232056   -5.15402030308014   -5.15402030308014
-20.61608121232056   -5.15402030308014   -5.15402030308014
-20.61608121232056   -5.15402030308014   -5.15402030308014
-11.047056877367174   0.13932523728234836   -0.0589013481091587
-11.047056877367174   0.13932523728234836   -0.0589013481091587
-11.047056877367174   0.13932523728234836   -0.0589013481091587
-11.047056877367174   0.13932523728234836   -0.0589013481091587
-12.330514194581163   -3.0826285486452907   -3.0826285486452907
-12.330514194581163   -3.0826285486452907   -3.0826285486452907
-12.330514194581163   -3.0826285486452907   -3.0826285486452907
-12.330514194581163   -3.0826285486452907   -3.0826285486452907
-19.626072454236738   -1.5710028319687215   -0.8700358632253806
-19.626072454236738   -1.5710028319687215   -0.8700358632253806
-19.626072454236738   -1.5710028319687215   -0.8700358632253806
-19.626072454236738   -1.5710028319687215   -0.8700358632253806
-15.449508274018193   -2.2974356369090856   -0.8202660676531343
-15.449508274018193   -2.2974356369090856   -0.8202660676531343
-15.449508274018193   -2.2974356369090856   -0.8202660676531343
-15.449508274018193   -2.2974356369090856   -0.8202660676531343
-21.264294127997726   -5.3160735319994314   -5.3160735319994314
-21.264294127997726   -5.3160735319994314   -5.3160735319994314
-21.264294127997726   -5.3160735319994314   -5.3160735319994314
-21.264294127997726   -5.3160735319994314   -5.3160735319994314
-11.018182819736133   0.3365518524694959   0.05984792446507192
-11.018182819736133   0.3365518524694959   0.05984792446507192
-11.018182819736133   0.3365518524694959   0.05984792446507192
-11.018182819736133   0.3365518524694959   0.05984792446507192
-12.327942286804177   -3.0819855717010443   -3.0819855717010443
-12.327942286804177   -3.0819855717010443   -3.0819855717010443
-12.327942286804177   -3.0819855717010443   -3.0819855717010443
-12.327942286804177   -3.0819855717010443   -3.0819855717010443
-20.771673247882156   -1.3804506691707505   -0.5201473695812189
-20.771673247882156   -1.3804506691707505   -0.5201473695812189
-20.771673247882156   -1.3804506691707505   -0.5201473695812189
-20.771673247882156   -1.3804506691707505   -0.5201473695812189
-15.865688297315423   -2.262743391911287   -1.4831661613616791
-15.865688297315423   -2.262743391911287   -1.4831661613616791
-15.865688297315423   -2.262743391911287   -1.4831661613616791
-15.865688297315423   -2.262743391911287   -1.4831661613616791
-12.537116134956168   -3.134279033739042   -3.134279033739042
-12.537116134956168   -3.134279033739042   -3.134279033739042
-12.537116134956168   -3.134279033739042   -3.134279033739042
-12.537116134956168   -3.134279033739042   -3.134279033739042
-5.226240358463389   -0.34439698981637   -0.11223426642492809
-5.226240358463389   -0.34439698981637   -0.11223426642492809
-5.226240358463389   -0.34439698981637   -0.11223426642492809
-5.226240358463389   -0.34439698981637   -0.11223426642492809
-5.490810766490297   -1.3727026916225742   -1.3727026916225742
-5.490810766490297   -1.3727026916225742   -1.3727026916225742
-5.490810766490297   -1.3727026916225742   -1.3727026916225742
-5.490810766490297   -1.3727026916225742   -1.3727026916225742
-11.416666490648652   -1.3407740477336136   -0.42685012950058165
-11.416666490648652   -1.3407740477336136   -0.42685012950058165
-11.416666490648652   -1.3407740477336136   -0.42685012950058165
-11.416666490648652   -1.3407740477336136   -0.42685012950058165
-8.418002922986046   -1.5935385407676486   0.06635945409189466
-8.418002922986046   -1.5935385407676486   0.06635945409189466
-8.418002922986046   -1.5935385407676486   0.06635945409189466
-8.418002922986046   -1.5935385407676486   0.06635945409189466
-12.292379616890893   -3.073094904222723   -3.073094904222723
-12.292379616890893   -3.073094904222723   -3.073094904222723
-12.292379616890893   -3.073094904222723   -3.073094904222723
-12.292379616890893   -3.073094904222723   -3.073094904222723
-4.933946834143896   0.04076897097068666   -0.001854692483833742
-4.933946834143896   0.04076897097068666   -0.001854692483833742
-4.933946834143896   0.04076897097068666   -0.001854692483833742
-4.933946834143896   0.04076897097068666   -0.001854692483833742
-5.3716746680914405   -1.3429186670228601   -1.3429186670228601
-5.3716746680914405   -1.3429186670228601   -1.3429186670228601
-5.3716746680914405   -1.3429186670228601   -1.3429186670228601
-5.3716746680914405   -1.3429186670228601   -1.3429186670228601
-11.39131691479885   -1.094710246105877   -0.37456045227313906
-11.39131691479885   -1.094710246105877   -0.37456045227313906
-11.39131691479885   -1.094710246105877   -0.37456045227313906
-11.39131691479885   -1.094710246105877   -0.37456045227313906
-8.30418475312428   -1.3422532263470544   -0.4345483980641618
-8.30418475312428   -1.3422532263470544   -0.4345483980641618
-8.30418475312428   -1.3422532263470544   -0.4345483980641618
-8.30418475312428   -1.3422532263470544   -0.4345483980641618
-12.330514194581163   -3.0826285486452907   -3.0826285486452907
-12.330514194581163   -3.0826285486452907   -3.0826285486452907
-12.330514194581163   -3.0826285486452907   -3.0826285486452907
-12.330514194581163   -3.0826285486452907   -3.0826285486452907
-4.741292391550906   0.3361846322747746   0.12988941638217588
-4.741292391550906   0.3361846322747746   0.12988941638217588
-4.741292391550906   0.3361846322747746   0.12988941638217588
-4.741292391550906   0.3361846322747746   0.12988941638217588
-5.26376479503493   -1.3159411987587326   -1.3159411987587326
-5.26376479503493   -1.3159411987587326   -1.3159411987587326
-5.26376479503493   -1.3159411987587326   -1.3159411987587326
-5.26376479503493   -1.3159411987587326   -1.3159411987587326
-11.311329796773524   -0.8456807098438801   -0.23522798340508627
-11.311329796773524   -0.8456807098438801   -0.23522798340508627
-11.311329796773524   -0.8456807098438801   -0.23522798340508627
-11.311329796773524   -0.8456807098438801   -0.23522798340508627
-8.348915689487734   -1.188783145749864   -0.9686675750526135
-8.348915689487734   -1.188783145749864   -0.9686675750526135
-8.348915689487734   -1.188783145749864   -0.9686675750526135
-8.348915689487734   -1.188783145749864   -0.9686675750526135
-5.705460119127931   -1.4263650297819828   -1.4263650297819828
-5.705460119127931   -1.4263650297819828   -1.4263650297819828
-5.705460119127931   -1.4263650297819828   -1.4263650297819828
-5.705460119127931   -1.4263650297819828   -1.4263650297819828
0.687359192677637   0.04670651946256875   0.005480925973142436
0.687359192677637   0.04670651946256875   0.005480925973142436
0.687359192677637   0.04670651946256875   0.005480925973142436
0.687359192677637   0.04670651946256875   0.005480925973142436
0.8875379921502469   0.22188449803756172   0.22188449803756172
0.8875379921502469   0.22188449803756172   0.22188449803756172
0.8875379921502469   0.22188449803756172   0.22188449803756172
0.8875379921502469   0.22188449803756172   0.22188449803756172
-5.161983634411238   -0.8923051659988945   -0.20896455685100152
-5.161983634411238   -0.8923051659988945   -0.20896455685100152
-5.161983634411238   -0.8923051659988945   -0.20896455685100152
-5.161983634411238   -0.8923051659988945   -0.20896455685100152
-2.204598040979295   -0.5594743920649096   0.37680897286818016
-2.204598040979295   -0.5594743920649096   0.37680897286818016
-2.204598040979295   -0.5594743920649096   0.37680897286818016
-2.204598040979295   -0.5594743920649096   0.37680897286818016
-5.490810766490297   -1.3727026916225742   -1.3727026916225742
-5.490810766490297   -1.3727026916225742   -1.3727026916225742
-5.490810766490297   -1.3727026916225742   -1.3727026916225742
-5.490810766490297   -1.3727026916225742   -1.3727026916225742
0.9028510030784225   0.38876790251036397   0.13156614820563078
0.9028510030784225   0.38876790251036397   0.13156614820563078
0.9028510030784225   0.38876790251036397   0.13156614820563078
0.9028510030784225   0.38876790251036397   0.13156614820563078
0.9939480715462815   0.24848701788657038   0.24848701788657038
0.9939480715462815   0.24848701788657038   0.24848701788657038
0.9939480715462815   0.24848701788657038   0.24848701788657038
0.9939480715462815   0.24848701788657038   0.24848701788657038
-4.98291055337479   -0.6018462749486648   -0.14017048551388422
-4.98291055337479   -0.6018462749486648   -0.14017048551388422
-4.98291055337479   -0.6018462749486648   -0.14017048551388422
-4.98291055337479   -0.6018462749486648   -0.14017048551388422
-2.11837252148242   -0.34628756741420497   -0.12763397637387816
-2.11837252148242   -0.34628756741420497   -0.12763397637387816
-2.11837252148242   -0.34628756741420497   -0.12763397637387816
-2.11837252148242   -0.34628756741420497   -0.12763397637387816
-5.3716746680914405   -1.3429186670228601   -1.3429186670228601
-5.3716746680914405   -1.3429186670228601   -1.3429186670228601
-5.3716746680914405   -1.3429186670228601   -1.3429186670228601
-5.3716746680914405   -1.3429186670228601   -1.3429186670228601
1.0755002940523621   0.6823475177502079   0.22238763055332744
1.0755002940523621   0.6823475177502079   0.22238763055332744
1.0755002940523621   0.6823475177502079   0.22238763055332744
1.0755002940523621   0.6823475177502079   0.22238763055332744
1.1382745296878767   0.28456863242196917   0.28456863242196917
1.1382745296878767   0.28456863242196917   0.28456863242196917
1.1382745296878767   0.28456863242196917   0.28456863242196917
1.1382745296878767   0.28456863242196917   0.28456863242196917
-4.787966676621404   -0.25517453196918094   0.0022827265192836843
-4.787966676621404   -0.25517453196918094   0.0022827265192836843
-4.787966676621404   -0.25517453196918094   0.0022827265192836843
-4.787966676621404   -0.25517453196918094   0.0022827265192836843
-2.058700441991773   -0.1407737046491358   -0.6275781939017316
-2.058700441991773   -0.1407737046491358   -0.6275781939017316
-2.058700441991773   -0.1407737046491358   -0.6275781939017316
-2.058700441991773   -0.1407737046491358   -0.6275781939017316
0.7521352262116622   0.18803380655291554   0.18803380655291554
0.7521352262116622   0.18803380655291554   0.18803380655291554
0.7521352262116622   0.18803380655291554   0.18803380655291554
0.7521352262116622   0.18803380655291554   0.18803380655291554
7.157921978831535   0.6563089342276025   0.21867005160760694
7.157921978831535   0.6563089342276025   0.21867005160760694
7.157921978831535   0.6563089342276025   0.21867005160760694
7.157921978831535   0.6563089342276025   0.21867005160760694
7.768128424615537   1.9420321061538843   1.9420321061538843
7.768128424615537   1.9420321061538843   1.9420321061538843
7.768128424615537   1.9420321061538843   1.9420321061538843
7.768128424615537   1.9420321061538843   1.9420321061538843
0.6765277907081915   -0.5043794606849235   -0.10690255045024358
0.6765277907081915   -0.5043794606849235   -0.10690255045024358
0.6765277907081915   -0.5043794606849235   -0.10690255045024358
0.6765277907081915   -0.5043794606849235   -0.10690255045024358
4.084335541184555   0.5082882715600627   0.7427962200015141
4.084335541184555   0.5082882715600627   0.7427962200015141
4.084335541184555   0.5082882715600627   0.7427962200015141
4.084335541184555   0.5082882715600627   0.7427962200015141
0.8875379921502499   0.22188449803756247   0.22188449803756247
0.8875379921502499   0.22188449803756247   0.22188449803756247
0.8875379921502499   0.22188449803756247   0.22188449803756247
0.8875379921502499   0.22188449803756247   0.22188449803756247
7.238530631853355   0.8971805561112746   0.3388946923855831
7.238530631853355   0.8971805561112746   0.3388946923855831
7.238530631853355   0.8971805561112746   0.3388946923855831
7.238530631853355   0.8971805561112746   0.3388946923855831
7.731002266563336   1.932750566640834   1.932750566640834
7.731002266563336   1.932750566640834   1.932750566640834
7.731002266563336   1.932750566640834   1.932750566640834
7.731002266563336   1.932750566640834   1.932750566640834
0.8502923025802782   -0.22050469721734262   -0.0008001118395409013
0.8502923025802782   -0.22050469721734262   -0.0008001118395409013
0.8502923025802782   -0.22050469721734262   -0.0008001118395409013
0.8502923025802782   -0.22050469721734262   -0.0008001118395409013
4.050265607530099   0.6656212841354463   0.1939911714094758
4.050265607530099   0.6656212841354463   0.1939911714094758
4.050265607530099   0.6656212841354463   0.1939911714094758
4.050265607530099   0.6656212841354463   0.1939911714094758
0.9939480715462824   0.2484870178865706   0.2484870178865706
0.9939480715462824   0.2484870178865706   0.2484870178865706
0.9939480715462824   0.2484870178865706   0.2484870178865706
0.9939480715462824   0.2484870178865706   0.2484870178865706
7.271798760895397   1.1482111148349865   0.4212724901069862
7.271798760895397   1.1482111148349865   0.4212724901069862
7.271798760895397   1.1482111148349865   0.4212724901069862
7.271798760895397   1.1482111148349865   0.4212724901069862
7.877023038281354   1.9692557595703386   1.9692557595703386
7.877023038281354   1.9692557595703386   1.9692557595703386
7.877023038281354   1.9692557595703386   1.9692557595703386
7.877023038281354   1.9692557595703386   1.9692557595703386
1.079073139312704   0.15541468076059434   0.11771563220747319
1.079073139312704   0.15541468076059434   0.11771563220747319
1.079073139312704   0.15541468076059434   0.11771563220747319
1.079073139312704   0.15541468076059434   0.11771563220747319
4.109361495568314   0.9020185955023785   -0.3148961147729774
4.109361495568314   0.9020185955023785   -0.3148961147729774
4.109361495568314   0.9020185955023785   -0.3148961147729774
4.109361495568314   0.9020185955023785   -0.3148961147729774
7.758806868516104   1.939701717129026   1.939701717129026
7.758806868516104   1.939701717129026   1.939701717129026
7.758806868516104   1.939701717129026   1.939701717129026
7.758806868516104   1.939701717129026   1.939701717129026
16.071445032414925   1.2238331029682565   0.41509964587192105
16.071445032414925   1.2238331029682565   0.41509964587192105
16.071445032414925   1.2238331029682565   0.41509964587192105
16.071445032414925   1.2238331029682565   0.41509964587192105
16.422894090877552   4.105723522719388   4.105723522719388
16.422894090877552   4.105723522719388   4.105723522719388
16.422894090877552   4.105723522719388   4.105723522719388
16.422894090877552   4.105723522719388   4.105723522719388
6.90410028691658   -0.3939336688050945   -0.042142807381925274
6.90410028691658   -0.3939336688050945   -0.042142807381925274
6.90410028691658   -0.3939336688050945   -0.042142807381925274
6.90410028691658   -0.3939336688050945   -0.042142807381925274
11.465191401717629   1.6213902693591324   1.2957395805932856
11.465191401717629   1.6213902693591324   1.2957395805932856
11.465191401717629   1.6213902693591324   1.2957395805932856
11.465191401717629   1.6213902693591324   1.2957395805932856
7.768128424615531   1.9420321061538828   1.9420321061538828
7.768128424615531   1.9420321061538828   1.9420321061538828
7.768128424615531   1.9420321061538828   1.9420321061538828
7.768128424615531   1.9420321061538828   1.9420321061538828
15.217506618904626   1.4283984134864898   0.7561112720879049
15.217506618904626   1.4283984134864898   0.7561112720879049
15.217506618904626   1.4283984134864898   0.7561112720879049
15.217506618904626   1.4283984134864898   0.7561112720879049
15.927704848406583   3.9819262121016457   3.9819262121016457
15.927704848406583   3.9819262121016457   3.9819262121016457
15.927704848406583   3.9819262121016457   3.9819262121016457
15.927704848406583   3.9819262121016457   3.9819262121016457
6.92460623917708   -0.21929392189807317   0.0528149182484568
6.92460623917708   -0.21929392189807317   0.0528149182484568
6.92460623917708   -0.21929392189807317   0.0528149182484568
6.92460623917708   -0.21929392189807317   0.0528149182484568
11.120835956152462   1.6670094004560054   0.621545516006575
11.120835956152462   1.6670094004560054   0.621545516006575
11.120835956152462   1.6670094004560054   0.621545516006575
11.120835956152462   1.6670094004560054   0.621545516006575
7.731002266563336   1.932750566640834   1.932750566640834
7.731002266563336   1.932750566640834   1.932750566640834
7.731002266563336   1.932750566640834   1.932750566640834
7.731002266563336   1.932750566640834   1.932750566640834
14.723407647420165   1.4319805499626246   0.5103858693088301
14.723407647420165   1.4319805499626246   0.5103858693088301
14.723407647420165   1.4319805499626246   0.5103858693088301
14.723407647420165   1.4319805499626246   0.5103858693088301
15.193202752602666   3.7983006881506665   3.7983006881506665
15.193202752602666   3.7983006881506665   3.7983006881506665
15.193202752602666   3.7983006881506665   3.7983006881506665
15.193202752602666   3.7983006881506665   3.7983006881506665
7.17694685415526   0.22122559393187102   0.21690500457833434
7.17694685415526   0.22122559393187102   0.21690500457833434
7.17694685415526   0.22122559393187102   0.21690500457833434
7.17694685415526   0.22122559393187102   0.21690500457833434
10.644688351339493   1.806073717584425   -0.16209325401053037
10.644688351339493   1.806073717584425   -0.16209325401053037
10.644688351339493   1.806073717584425   -0.16209325401053037
10.644688351339493   1.806073717584425   -0.16209325401053037
-15.599589195354543   -1.1164635714302888   0.17120143708421598
-15.599589195354543   -1.1164635714302888   0.17120143708421598
-15.599589195354543   -1.1164635714302888   0.17120143708421598
-15.599589195354543   -1.1164635714302888   0.17120143708421598
-9.925032068173598   -0.2247849744817052   -0.06264066150009406
-9.925032068173598   -0.2247849744817052   -0.06264066150009406
-9.925032068173598   -0.2247849744817052   -0.06264066150009406
-9.925032068173598   -0.2247849744817052   -0.06264066150009406
-9.995836141807574   0.40254562914475445   0.20597987564330145
-9.995836141807574   0.40254562914475445   0.20597987564330145
-9.995836141807574   0.40254562914475445   0.20597987564330145
-9.995836141807574   0.40254562914475445   0.20597987564330145
-15.833639802039924   -1.07783416775553   -0.18553899467968604
-15.833639802039924   -1.07783416775553   -0.18553899467968604
-15.833639802039924   -1.07783416775553   -0.18553899467968604
-15.833639802039924   -1.07783416775553   -0.18553899467968604
-12.332872999979159   -0.4198501940330308   -0.046623345440075736
-12.332872999979159   -0.4198501940330308   -0.046623345440075736
-12.332872999979159   -0.4198501940330308   -0.046623345440075736
-12.332872999979159   -0.4198501940330308   -0.046623345440075736
-15.720545722727282   -0.769310679451872   0.07140791357987497
-15.720545722727282   -0.769310679451872   0.07140791357987497
-15.720545722727282   -0.769310679451872   0.07140791357987497
-15.720545722727282   -0.769310679451872   0.07140791357987497
-10.125756070613798   0.07719629134755479   -0.11827043059044917
-10.125756070613798   0.07719629134755479   -0.11827043059044917
-10.125756070613798   0.07719629134755479   -0.11827043059044917
-10.125756070613798   0.07719629134755479   -0.11827043059044917
-10.010021784165552   0.5732735409432599   0.23529533126334323
-10.010021784165552   0.5732735409432599   0.23529533126334323
-10.010021784165552   0.5732735409432599   0.23529533126334323
-10.010021784165552   0.5732735409432599   0.23529533126334323
-15.932809948621982   -0.9502257925448334   -0.24515963289005216
-15.932809948621982   -0.9502257925448334   -0.24515963289005216
-15.932809948621982   -0.9502257925448334   -0.24515963289005216
-15.932809948621982   -0.9502257925448334   -0.24515963289005216
-12.68204783733315   -0.2819906862867758   -0.11917294045001126
-12.68204783733315   -0.2819906862867758   -0.11917294045001126
-12.68204783733315   -0.2819906862867758   -0.11917294045001126
-12.68204783733315   -0.2819906862867758   -0.11917294045001126
-15.649009780218567   -0.4640500343363363   0.6876654509183759
-15.649009780218567   -0.4640500343363363   0.6876654509183759
-15.649009780218567   -0.4640500343363363   0.6876654509183759
-15.649009780218567   -0.4640500343363363   0.6876654509183759
-10.175054632713051   0.20586510259066992   -0.22246047312146688
-10.175054632713051   0.20586510259066992   -0.22246047312146688
-10.175054632713051   0.20586510259066992   -0.22246047312146688
-10.175054632713051   0.20586510259066992   -0.22246047312146688
-9.830499241940004   0.9977379789999961   0.4296218653303908
-9.830499241940004   0.9977379789999961   0.4296218653303908
-9.830499241940004   0.9977379789999961   0.4296218653303908
-9.830499241940004   0.9977379789999961   0.4296218653303908
-15.49725288007462   -0.7686921527663548   -0.40210293399629915
-15.49725288007462   -0.7686921527663548   -0.40210293399629915
-15.49725288007462   -0.7686921527663548   -0.40210293399629915
-15.49725288007462   -0.7686921527663548   -0.40210293399629915
-12.2005892097239   0.1116724452755018   0.2696325871249229
-12.2005892097239   0.1116724452755018   0.2696325871249229
-12.2005892097239   0.1116724452755018   0.2696325871249229
-12.2005892097239   0.1116724452755018   0.2696325871249229
-10.172847736269942   -1.3471436728211699   -0.17936030364235742
-10.172847736269942   -1.3471436728211699   -0.17936030364235742
-10.172847736269942   -1.3471436728211699   -0.17936030364235742
-10.172847736269942   -1.3471436728211699   -0.17936030364235742
-4.6810428470991035   -0.10131116481260438   0.0503419209947773
-4.6810428470991035   -0.10131116481260438   0.0503419209947773
-4.6810428470991035   -0.10131116481260438   0.0503419209947773
-4.6810428470991035   -0.10131116481260438   0.0503419209947773
-4.752026510961982   0.091480785741207   0.06978405818686867
-4.752026510961982   0.091480785741207   0.06978405818686867
-4.752026510961982   0.091480785741207   0.06978405818686867
-4.752026510961982   0.091480785741207   0.06978405818686867
-10.375870838204516   -0.9864971304889365   -0.3051508467077241
-10.375870838204516   -0.9864971304889365   -0.3051508467077241
-10.375870838204516   -0.9864971304889365   -0.3051508467077241
-10.375870838204516   -0.9864971304889365   -0.3051508467077241
-7.495034310533803   -0.6072252657273405   -0.17068411291735697
-7.495034310533803   -0.6072252657273405   -0.17068411291735697
-7.495034310533803   -0.6072252657273405   -0.17068411291735697
-7.495034310533803   -0.6072252657273405   -0.17068411291735697
-10.366552976349073   -1.0786608771312374   -0.1663977907882604
-10.366552976349073   -1.0786608771312374   -0.1663977907882604
-10.366552976349073   -1.0786608771312374   -0.1663977907882604
-10.366552976349073   -1.0786608771312374   -0.1663977907882604
-4.742805075438092   0.20218382976283866   0.00518819178472818
-4.742805075438092   0.20218382976283866   0.00518819178472818
-4.742805075438092   0.20218382976283866   0.00518819178472818
-4.742805075438092   0.20218382976283866   0.00518819178472818
-4.736179075778263   0.33035252619988853   0.09561557023513179
-4.736179075778263   0.33035252619988853   0.09561557023513179
-4.736179075778263   0.33035252619988853   0.09561557023513179
-4.736179075778263   0.33035252619988853   0.09561557023513179
-10.382525284065412   -0.724070913118668   -0.32987771417402245
-10.382525284065412   -0.724070913118668   -0.32987771417402245
-10.382525284065412   -0.724070913118668   -0.32987771417402245
-10.382525284065412   -0.724070913118668   -0.32987771417402245
-7.482580383876759   -0.33841546404203826   -0.08106063196609498
-7.482580383876759   -0.33841546404203826   -0.08106063196609498
-7.482580383876759   -0.33841546404203826   -0.08106063196609498
-7.482580383876759   -0.33841546404203826   -0.08106063196609498
-10.342306358111275   -0.8171390365151177   -0.035714961006886314
-10.342306358111275   -0.8171390365151177   -0.035714961006886314
-10.342306358111275   -0.8171390365151177   -0.035714961006886314
-10.342306358111275   -0.8171390365151177   -0.035714961006886314
-4.7420010627483915   0.4578175885803657   -0.060959426995904786
-4.7420010627483915   0.4578175885803657   -0.060959426995904786
-4.7420010627483915   0.4578175885803657   -0.060959426995904786
-4.7420010627483915   0.4578175885803657   -0.060959426995904786
-4.658825142865165   0.5705156307830022   0.19324906582096807
-4.658825142865165   0.5705156307830022   0.19324906582096807
-4.658825142865165   0.5705156307830022   0.19324906582096807
-4.658825142865165   0.5705156307830022   0.19324906582096807
-10.27365616426348   -0.4208924727811292   -0.3675322945059156
-10.27365616426348   -0.4208924727811292   -0.3675322945059156
-10.27365616426348   -0.4208924727811292   -0.3675322945059156
-10.27365616426348   -0.4208924727811292   -0.3675322945059156
-7.453566031221516   -0.08408024795748847   0.03752377195310869
-7.453566031221516   -0.08408024795748847   0.03752377195310869
-7.453566031221516   -0.08408024795748847   0.03752377195310869
-7.453566031221516   -0.08408024795748847   0.03752377195310869
-4.937045637327411   -1.1212227256041234   -0.20976046935528483
-4.937045637327411   -1.1212227256041234   -0.20976046935528483
-4.937045637327411   -1.1212227256041234   -0.20976046935528483
-4.937045637327411   -1.1212227256041234   -0.20976046935528483
0.5228739712254139   0.11897009889181982   0.19234663751699296
0.5228739712254139   0.11897009889181982   0.19234663751699296
0.5228739712254139   0.11897009889181982   0.19234663751699296
0.5228739712254139   0.11897009889181982   0.19234663751699296
0.4975081720628945   0.2843958231850714   0.01504858259469602
0.4975081720628945   0.2843958231850714   0.01504858259469602
0.4975081720628945   0.2843958231850714   0.01504858259469602
0.4975081720628945   0.2843958231850714   0.01504858259469602
-4.95976289956746   -0.7435643688024544   -0.13385273029686098
-4.95976289956746   -0.7435643688024544   -0.13385273029686098
-4.95976289956746   -0.7435643688024544   -0.13385273029686098
-4.95976289956746   -0.7435643688024544   -0.13385273029686098
-2.240531124164304   -0.37097802850520634   -0.0702985036719842
-2.240531124164304   -0.37097802850520634   -0.0702985036719842
-2.240531124164304   -0.37097802850520634   -0.0702985036719842
-2.240531124164304   -0.37097802850520634   -0.0702985036719842
-4.994014601829453   -0.8555446418284935   -0.19313096858078255
-4.994014601829453   -0.8555446418284935   -0.19313096858078255
-4.994014601829453   -0.8555446418284935   -0.19313096858078255
-4.994014601829453   -0.8555446418284935   -0.19313096858078255
0.5509547466137601   0.4155709684999842   0.1511063100341112
0.5509547466137601   0.4155709684999842   0.1511063100341112
0.5509547466137601   0.4155709684999842   0.1511063100341112
0.5509547466137601   0.4155709684999842   0.1511063100341112
0.534267923084163   0.5475444872779619   0.08960484916029696
0.534267923084163   0.5475444872779619   0.08960484916029696
0.534267923084163   0.5475444872779619   0.08960484916029696
0.534267923084163   0.5475444872779619   0.08960484916029696
-4.945752836761124   -0.45505215170569546   -0.16684855677358826
-4.945752836761124   -0.45505215170569546   -0.16684855677358826
-4.945752836761124   -0.45505215170569546   -0.16684855677358826
-4.945752836761124   -0.45505215170569546   -0.16684855677358826
-2.207314656464568   -0.09118945448145971   0.026853274792686066
-2.207314656464568   -0.09118945448145971   0.026853274792686066
-2.207314656464568   -0.09118945448145971   0.026853274792686066
-2.207314656464568   -0.09118945448145971   0.026853274792686066
-4.958836077554055   -0.5887172209754412   -0.09859969146849999
-4.958836077554055   -0.5887172209754412   -0.09859969146849999
-4.958836077554055   -0.5887172209754412   -0.09859969146849999
-4.958836077554055   -0.5887172209754412   -0.09859969146849999
0.5679854617930253   0.7018438544636428   0.10389317551892444
0.5679854617930253   0.7018438544636428   0.10389317551892444
0.5679854617930253   0.7018438544636428   0.10389317551892444
0.5679854617930253   0.7018438544636428   0.10389317551892444
0.5446917191182384   0.840470712789771   0.14785055457441537
0.5446917191182384   0.840470712789771   0.14785055457441537
0.5446917191182384   0.840470712789771   0.14785055457441537
0.5446917191182384   0.840470712789771   0.14785055457441537
-4.882870612980917   -0.14647149934690007   -0.20999115462786316
-4.882870612980917   -0.14647149934690007   -0.20999115462786316
-4.882870612980917   -0.14647149934690007   -0.20999115462786316
-4.882870612980917   -0.14647149934690007   -0.20999115462786316
-2.153861511505108   0.20141222387761049   0.13320597570506254
-2.153861511505108   0.20141222387761049   0.13320597570506254
-2.153861511505108   0.20141222387761049   0.13320597570506254
-2.153861511505108   0.20141222387761049   0.13320597570506254
0.2450280020720783   -0.8213220777644862   -0.2565910315933787
0.2450280020720783   -0.8213220777644862   -0.2565910315933787
0.2450280020720783   -0.8213220777644862   -0.2565910315933787
0.2450280020720783   -0.8213220777644862   -0.2565910315933787
5.900909469457899   0.4084730550843966   0.3523437671709274
5.900909469457899   0.4084730550843966   0.3523437671709274
5.900909469457899   0.4084730550843966   0.3523437671709274
5.900909469457899   0.4084730550843966   0.3523437671709274
5.892198568734203   0.5489457516238071   -0.05594726693261845
5.892198568734203   0.5489457516238071   -0.05594726693261845
5.892198568734203   0.5489457516238071   -0.05594726693261845
5.892198568734203   0.5489457516238071   -0.05594726693261845
0.34550602394389085   -0.4947044692479794   0.034138134432728506
0.34550602394389085   -0.4947044692479794   0.034138134432728506
0.34550602394389085   -0.4947044692479794   0.034138134432728506
0.34550602394389085   -0.4947044692479794   0.034138134432728506
3.057882731474261   -0.06953969975103025   0.007112339911361981
3.057882731474261   -0.06953969975103025   0.007112339911361981
3.057882731474261   -0.06953969975103025   0.007112339911361981
3.057882731474261   -0.06953969975103025   0.007112339911361981
0.2792819505497557   -0.6006545491531222   -0.19103215263280135
0.2792819505497557   -0.6006545491531222   -0.19103215263280135
0.2792819505497557   -0.6006545491531222   -0.19103215263280135
0.2792819505497557   -0.6006545491531222   -0.19103215263280135
5.9928027897610905   0.6892759791616963   0.3067436106638771
5.9928027897610905   0.6892759791616963   0.3067436106638771
5.9928027897610905   0.6892759791616963   0.3067436106638771
5.9928027897610905   0.6892759791616963   0.3067436106638771
5.936570468344849   0.809087779162297   0.060884104294086416
5.936570468344849   0.809087779162297   0.060884104294086416
5.936570468344849   0.809087779162297   0.060884104294086416
5.936570468344849   0.809087779162297   0.060884104294086416
0.35575628521336256   -0.23696773080815126   -0.018441122107592328
0.35575628521336256   -0.23696773080815126   -0.018441122107592328
0.35575628521336256   -0.23696773080815126   -0.018441122107592328
0.35575628521336256   -0.23696773080815126   -0.018441122107592328
3.09664566049726   0.17919937411534914   0.12649700622817092
3.09664566049726   0.17919937411534914   0.12649700622817092
3.09664566049726   0.17919937411534914   0.12649700622817092
3.09664566049726   0.17919937411534914   0.12649700622817092
0.3077130988926019   -0.3566545604090655   -0.1389702241104792
0.3077130988926019   -0.3566545604090655   -0.1389702241104792
0.3077130988926019   -0.3566545604090655   -0.1389702241104792
0.3077130988926019   -0.3566545604090655   -0.1389702241104792
6.0094731241697135   0.9536340782672923   0.2808510843133044
6.0094731241697135   0.9536340782672923   0.2808510843133044
6.0094731241697135   0.9536340782672923   0.2808510843133044
6.0094731241697135   0.9536340782672923   0.2808510843133044
5.839577799327542   1.1093851055076605   0.1270630959279515
5.839577799327542   1.1093851055076605   0.1270630959279515
5.839577799327542   1.1093851055076605   0.1270630959279515
5.839577799327542   1.1093851055076605   0.1270630959279515
0.3508695162907189   0.08259086475071173   -0.06338061152412307
0.3508695162907189   0.08259086475071173   -0.06338061152412307
0.3508695162907189   0.08259086475071173   -0.06338061152412307
0.3508695162907189   0.08259086475071173   -0.06338061152412307
3.140430653125489   0.46363695662503934   0.23688856636310274
3.140430653125489   0.46363695662503934   0.23688856636310274
3.140430653125489   0.46363695662503934   0.23688856636310274
3.140430653125489   0.46363695662503934   0.23688856636310274
5.438147904537224   -1.080370376876065   -0.47262062547198747
5.438147904537224   -1.080370376876065   -0.47262062547198747
5.438147904537224   -1.080370376876065   -0.47262062547198747
5.438147904537224   -1.080370376876065   -0.47262062547198747
11.187918488519623   0.7388648641681672   0.34129380354032124
11.187918488519623   0.7388648641681672   0.34129380354032124
11.187918488519623   0.7388648641681672   0.34129380354032124
11.187918488519623   0.7388648641681672   0.34129380354032124
11.312221943937427   0.3539759433250198   -0.7107164037522309
11.312221943937427   0.3539759433250198   -0.7107164037522309
11.312221943937427   0.3539759433250198   -0.7107164037522309
11.312221943937427   0.3539759433250198   -0.7107164037522309
5.789348751659388   -0.2246563443977836   0.20340574371478926
5.789348751659388   -0.2246563443977836   0.20340574371478926
5.789348751659388   -0.2246563443977836   0.20340574371478926
5.789348751659388   -0.2246563443977836   0.20340574371478926
8.0131192240467   -0.13777716883797786   -0.1988090601362012
8.0131192240467   -0.13777716883797786   -0.1988090601362012
8.0131192240467   -0.13777716883797786   -0.1988090601362012
8.0131192240467   -0.13777716883797786   -0.1988090601362012
5.588839660351258   -0.7110970367387319   -0.3126990204848363
5.588839660351258   -0.7110970367387319   -0.3126990204848363
5.588839660351258   -0.7110970367387319   -0.3126990204848363
5.588839660351258   -0.7110970367387319   -0.3126990204848363
11.615010990156833   0.9426965905772584   0.21450818009255535
11.615010990156833   0.9426965905772584   0.21450818009255535
11.615010990156833   0.9426965905772584   0.21450818009255535
11.615010990156833   0.9426965905772584   0.21450818009255535
11.433553626062343   0.6402716354101228   -0.158304682095828
11.433553626062343   0.6402716354101228   -0.158304682095828
11.433553626062343   0.6402716354101228   -0.158304682095828
11.433553626062343   0.6402716354101228   -0.158304682095828
5.764073029927006   -0.09638147624804705   0.10386616761510875
5.764073029927006   -0.09638147624804705   0.10386616761510875
5.764073029927006   -0.09638147624804705   0.10386616761510875
5.764073029927006   -0.09638147624804705   0.10386616761510875
8.428936924661086   0.21034580222036303   0.13808299303866944
8.428936924661086   0.21034580222036303   0.13808299303866944
8.428936924661086   0.21034580222036303   0.13808299303866944
8.428936924661086   0.21034580222036303   0.13808299303866944
5.603554646720019   -0.5442405574772782   -0.25086666719053907
5.603554646720019   -0.5442405574772782   -0.25086666719053907
5.603554646720019   -0.5442405574772782   -0.25086666719053907
5.603554646720019   -0.5442405574772782   -0.25086666719053907
11.580294918486388   1.0743536258564264   0.14131978957809427
11.580294918486388   1.0743536258564264   0.14131978957809427
11.580294918486388   1.0743536258564264   0.14131978957809427
11.580294918486388   1.0743536258564264   0.14131978957809427
11.410698854922481   0.9759214513885432   -0.24336770890552722
11.410698854922481   0.9759214513885432   -0.24336770890552722
11.410698854922481   0.9759214513885432   -0.24336770890552722
11.410698854922481   0.9759214513885432   -0.24336770890552722
5.6437014180438405   0.2000803063186125   0.056985988698393886
5.6437014180438405   0.2000803063186125   0.056985988698393886
5.6437014180438405   0.2000803063186125   0.056985988698393886
5.6437014180438405   0.2000803063186125   0.056985988698393886
8.210821468299944   0.3673177669268717   0.10105553129846451
8.210821468299944   0.3673177669268717   0.10105553129846451
8.210821468299944   0.3673177669268717   0.10105553129846451
8.210821468299944   0.3673177669268717   0.10105553129846451
-12.287675663421409   -0.559313987408566   0.6273578691134134
-12.287675663421409   -0.559313987408566   0.6273578691134134
-12.287675663421409   -0.559313987408566   0.6273578691134134
-12.287675663421409   -0.559313987408566   0.6273578691134134
-8.15240548472378   -0.3063697019020659   -0.16324360842394336
-8.15240548472378   -0.3063697019020659   -0.16324360842394336
-8.15240548472378   -0.3063697019020659   -0.16324360842394336
-8.15240548472378   -0.3063697019020659   -0.16324360842394336
-7.861311626692533   0.6591159901962262   0.5268836197317052
-7.861311626692533   0.6591159901962262   0.5268836197317052
-7.861311626692533   0.6591159901962262   0.5268836197317052
-7.861311626692533   0.6591159901962262   0.5268836197317052
-12.345279966295925   -0.8801789545518977   -0.2561104961079605
-12.345279966295925   -0.8801789545518977   -0.2561104961079605
-12.345279966295925   -0.8801789545518977   -0.2561104961079605
-12.345279966295925   -0.8801789545518977   -0.2561104961079605
-9.74850881646457   -0.15080023000807774   -0.015642697116160953
-9.74850881646457   -0.15080023000807774   -0.015642697116160953
-9.74850881646457   -0.15080023000807774   -0.015642697116160953
-9.74850881646457   -0.15080023000807774   -0.015642697116160953
-12.004066443812254   -0.1340467206852991   0.7038248824438001
-12.004066443812254   -0.1340467206852991   0.7038248824438001
-12.004066443812254   -0.1340467206852991   0.7038248824438001
-12.004066443812254   -0.1340467206852991   0.7038248824438001
-8.148732046197932   -0.033223140692099085   -0.21787934690696303
-8.148732046197932   -0.033223140692099085   -0.21787934690696303
-8.148732046197932   -0.033223140692099085   -0.21787934690696303
-8.148732046197932   -0.033223140692099085   -0.21787934690696303
-7.83027177473193   0.8170741696609052   0.48880200424858866
-7.83027177473193   0.8170741696609052   0.48880200424858866
-7.83027177473193   0.8170741696609052   0.48880200424858866
-7.83027177473193   0.8170741696609052   0.48880200424858866
-12.156419067154932   -0.7371098965032588   -0.3510286773752928
-12.156419067154932   -0.7371098965032588   -0.3510286773752928
-12.156419067154932   -0.7371098965032588   -0.3510286773752928
-12.156419067154932   -0.7371098965032588   -0.3510286773752928
-9.771194881277953   0.03481740058290539   0.11377120140024799
-9.771194881277953   0.03481740058290539   0.11377120140024799
-9.771194881277953   0.03481740058290539   0.11377120140024799
-9.771194881277953   0.03481740058290539   0.11377120140024799
-11.838530892552061   0.01493533756193477   0.4863669615738683
-11.838530892552061   0.01493533756193477   0.4863669615738683
-11.838530892552061   0.01493533756193477   0.4863669615738683
-11.838530892552061   0.01493533756193477   0.4863669615738683
-8.130417622057465   0.0827712628730688   -0.27762432559118333
-8.130417622057465   0.0827712628730688   -0.27762432559118333
-8.130417622057465   0.0827712628730688   -0.27762432559118333
-8.130417622057465   0.0827712628730688   -0.27762432559118333
-7.838772740015216   0.920988582317477   0.3878206013634553
-7.838772740015216   0.920988582317477   0.3878206013634553
-7.838772740015216   0.920988582317477   0.3878206013634553
-7.838772740015216   0.920988582317477   0.3878206013634553
-11.910636136444772   -0.5856893674256276   -0.44796162809565965
-11.910636136444772   -0.5856893674256276   -0.44796162809565965
-11.910636136444772   -0.5856893674256276   -0.44796162809565965
-11.910636136444772   -0.5856893674256276   -0.44796162809565965
-9.492001680280804   0.20075116544807603   0.23473278367193529
-9.492001680280804   0.20075116544807603   0.23473278367193529
-9.492001680280804   0.20075116544807603   0.23473278367193529
-9.492001680280804   0.20075116544807603   0.23473278367193529
-8.178272089776414   -0.7755122205540466   0.17656588496487458
-8.178272089776414   -0.7755122205540466   0.17656588496487458
-8.178272089776414   -0.7755122205540466   0.17656588496487458
-8.178272089776414   -0.7755122205540466   0.17656588496487458
-4.122594858994195   -0.14717505219113103   0.008264640269682821
-4.122594858994195   -0.14717505219113103   0.008264640269682821
-4.122594858994195   -0.14717505219113103   0.008264640269682821
-4.122594858994195   -0.14717505219113103   0.008264640269682821
-4.007012794905875   0.40561112540783884   0.2865323894775117
-4.007012794905875   0.40561112540783884   0.2865323894775117
-4.007012794905875   0.40561112540783884   0.2865323894775117
-4.007012794905875   0.40561112540783884   0.2865323894775117
-8.308710892626129   -0.7648049750967525   -0.2861917446433536
-8.308710892626129   -0.7648049750967525   -0.2861917446433536
-8.308710892626129   -0.7648049750967525   -0.2861917446433536
-8.308710892626129   -0.7648049750967525   -0.2861917446433536
-6.132024585313167   -0.3008821024314372   -0.12314345150811906
-6.132024585313167   -0.3008821024314372   -0.12314345150811906
-6.132024585313167   -0.3008821024314372   -0.12314345150811906
-6.132024585313167   -0.3008821024314372   -0.12314345150811906
-8.15358262859893   -0.44673366595590913   0.17137826635182585
-8.15358262859893   -0.44673366595590913   0.17137826635182585
-8.15358262859893   -0.44673366595590913   0.17137826635182585
-8.15358262859893   -0.44673366595590913   0.17137826635182585
-4.130617048118091   0.11906382708198993   -0.04494157825767997
-4.130617048118091   0.11906382708198993   -0.04494157825767997
-4.130617048118091   0.11906382708198993   -0.04494157825767997
-4.130617048118091   0.11906382708198993   -0.04494157825767997
-3.9951678501890693   0.6689915527789562   0.24807718143775614
-3.9951678501890693   0.6689915527789562   0.24807718143775614
-3.9951678501890693   0.6689915527789562   0.24807718143775614
-3.9951678501890693   0.6689915527789562   0.24807718143775614
-8.262764392931198   -0.5187881074763758   -0.33779880961047165
-8.262764392931198   -0.5187881074763758   -0.33779880961047165
-8.262764392931198   -0.5187881074763758   -0.33779880961047165
-8.262764392931198   -0.5187881074763758   -0.33779880961047165
-6.066008720118568   -0.03408489192596931   0.00016238309888588764
-6.066008720118568   -0.03408489192596931   0.00016238309888588764
-6.066008720118568   -0.03408489192596931   0.00016238309888588764
-6.066008720118568   -0.03408489192596931   0.00016238309888588764
-8.104444699617524   -0.17956411958164598   0.11457566906316924
-8.104444699617524   -0.17956411958164598   0.11457566906316924
-8.104444699617524   -0.17956411958164598   0.11457566906316924
-8.104444699617524   -0.17956411958164598   0.11457566906316924
-4.127811499964725   0.35544360842225986   -0.10159312308376595
-4.127811499964725   0.35544360842225986   -0.10159312308376595
-4.127811499964725   0.35544360842225986   -0.10159312308376595
-4.127811499964725   0.35544360842225986   -0.10159312308376595
-3.994807938057035   0.9455903827152161   0.1860337567693366
-3.994807938057035   0.9455903827152161   0.1860337567693366
-3.994807938057035   0.9455903827152161   0.1860337567693366
-3.994807938057035   0.9455903827152161   0.1860337567693366
-8.223966809033266   -0.2535606215403228   -0.3636005398690219
-8.223966809033266   -0.2535606215403228   -0.3636005398690219
-8.223966809033266   -0.2535606215403228   -0.3636005398690219
-8.223966809033266   -0.2535606215403228   -0.3636005398690219
-6.070968282908305   0.21026467688173156   0.09425726267093282
-6.070968282908305   0.21026467688173156   0.09425726267093282
-6.070968282908305   0.21026467688173156   0.09425726267093282
-6.070968282908305   0.21026467688173156   0.09425726267093282
-4.276809001644201   -0.8845267068498334   -0.0254544183216881
-4.276809001644201   -0.8845267068498334   -0.0254544183216881
-4.276809001644201   -0.8845267068498334   -0.0254544183216881
-4.276809001644201   -0.8845267068498334   -0.0254544183216881
-0.1306535180982913   0.0462236773990566   0.1827179323462665
-0.1306535180982913   0.0462236773990566   0.1827179323462665
-0.1306535180982913   0.0462236773990566   0.1827179323462665
-0.1306535180982913   0.0462236773990566   0.1827179323462665
-0.14710389755536762   0.2631764442248175   0.08719233282743621
-0.14710389755536762   0.2631764442248175   0.08719233282743621
-0.14710389755536762   0.2631764442248175   0.08719233282743621
-0.14710389755536762   0.2631764442248175   0.08719233282743621
-4.280513374952131   -0.5678961107185403   -0.10746327462738609
-4.280513374952131   -0.5678961107185403   -0.10746327462738609
-4.280513374952131   -0.5678961107185403   -0.10746327462738609
-4.280513374952131   -0.5678961107185403   -0.10746327462738609
-2.215489376601936   -0.2765713693566815   -0.06869249057924134
-2.215489376601936   -0.2765713693566815   -0.06869249057924134
-2.215489376601936   -0.2765713693566815   -0.06869249057924134
-2.215489376601936   -0.2765713693566815   -0.06869249057924134
-4.275915220400442   -0.5920816745226463   -0.060286938064838896
-4.275915220400442   -0.5920816745226463   -0.060286938064838896
-4.275915220400442   -0.5920816745226463   -0.060286938064838896
-4.275915220400442   -0.5920816745226463   -0.060286938064838896
-0.1281836386454192   0.3108804214905554   0.1340896501114423
-0.1281836386454192   0.3108804214905554   0.1340896501114423
-0.1281836386454192   0.3108804214905554   0.1340896501114423
-0.1281836386454192   0.3108804214905554   0.1340896501114423
-0.12845174612179341   0.5502082722232182   0.04215247223165036
-0.12845174612179341   0.5502082722232182   0.04215247223165036
-0.12845174612179341   0.5502082722232182   0.04215247223165036
-0.12845174612179341   0.5502082722232182   0.04215247223165036
-4.270614009831215   -0.3028402733144089   -0.15732179067958457
-4.270614009831215   -0.3028402733144089   -0.15732179067958457
-4.270614009831215   -0.3028402733144089   -0.15732179067958457
-4.270614009831215   -0.3028402733144089   -0.15732179067958457
-2.194782299645758   -0.011033972221283772   0.030889548470023565
-2.194782299645758   -0.011033972221283772   0.030889548470023565
-2.194782299645758   -0.011033972221283772   0.030889548470023565
-2.194782299645758   -0.011033972221283772   0.030889548470023565
-4.264161387025198   -0.3091199503304741   -0.11877899963343708
-4.264161387025198   -0.3091199503304741   -0.11877899963343708
-4.264161387025198   -0.3091199503304741   -0.11877899963343708
-4.264161387025198   -0.3091199503304741   -0.11877899963343708
-0.11547719950740537   0.5759151186596934   0.08131835886711744
-0.11547719950740537   0.5759151186596934   0.08131835886711744
-0.11547719950740537   0.5759151186596934   0.08131835886711744
-0.11547719950740537   0.5759151186596934   0.08131835886711744
-0.1251606245401614   0.8458830903528496   -0.005928194569871564
-0.1251606245401614   0.8458830903528496   -0.005928194569871564
-0.1251606245401614   0.8458830903528496   -0.005928194569871564
-0.1251606245401614   0.8458830903528496   -0.005928194569871564
-4.269300591258379   -0.03321621957936782   -0.20762290694282223
-4.269300591258379   -0.03321621957936782   -0.20762290694282223
-4.269300591258379   -0.03321621957936782   -0.20762290694282223
-4.269300591258379   -0.03321621957936782   -0.20762290694282223
-2.1788930383633143   0.2547503341778691   0.12219316696307014
-2.1788930383633143   0.2547503341778691   0.12219316696307014
-2.1788930383633143   0.2547503341778691   0.12219316696307014
-2.1788930383633143   0.2547503341778691   0.12219316696307014
-0.41221309137145923   -0.9669928848664749   -0.2118633717540406
-0.41221309137145923   -0.9669928848664749   -0.2118633717540406
-0.41221309137145923   -0.9669928848664749   -0.2118633717540406
-0.41221309137145923   -0.9669928848664749   -0.2118633717540406
3.8478190663209477   0.2728928614194631   0.34723475111037105
3.8478190663209477   0.2728928614194631   0.34723475111037105
3.8478190663209477   0.2728928614194631   0.34723475111037105
3.8478190663209477   0.2728928614194631   0.34723475111037105
3.722228275743507   0.14666139344545015   -0.13575480389974007
3.722228275743507   0.14666139344545015   -0.13575480389974007
3.722228275743507   0.14666139344545015   -0.13575480389974007
3.722228275743507   0.14666139344545015   -0.13575480389974007
-0.2734745050056157   -0.3553277164033127   0.07384345620432776
-0.2734745050056157   -0.3553277164033127   0.07384345620432776
-0.2734745050056157   -0.3553277164033127   0.07384345620432776
-0.2734745050056157   -0.3553277164033127   0.07384345620432776
1.6968161610229537   -0.22234832697822848   -0.038511189801050894
1.6968161610229537   -0.22234832697822848   -0.038511189801050894
1.6968161610229537   -0.22234832697822848   -0.038511189801050894
1.6968161610229537   -0.22234832697822848   -0.038511189801050894
-0.41153965160422495   -0.7060860249021237   -0.2657239682899074
-0.41153965160422495   -0.7060860249021237   -0.2657239682899074
-0.41153965160422495   -0.7060860249021237   -0.2657239682899074
-0.41153965160422495   -0.7060860249021237   -0.2657239682899074
3.8870344927604092   0.5241607723625592   0.3107769022676615
3.8870344927604092   0.5241607723625592   0.3107769022676615
3.8870344927604092   0.5241607723625592   0.3107769022676615
3.8870344927604092   0.5241607723625592   0.3107769022676615
3.7808873348944125   0.41359142533459553   -0.19077639107487843
3.7808873348944125   0.41359142533459553   -0.19077639107487843
3.7808873348944125   0.41359142533459553   -0.19077639107487843
3.7808873348944125   0.41359142533459553   -0.19077639107487843
-0.2663605782325292   -0.11788466166226294   0.020701245563456656
-0.2663605782325292   -0.11788466166226294   0.020701245563456656
-0.2663605782325292   -0.11788466166226294   0.020701245563456656
-0.2663605782325292   -0.11788466166226294   0.020701245563456656
1.7104561276983792   0.01762829329676202   0.0603460543419579
1.7104561276983792   0.01762829329676202   0.0603460543419579
1.7104561276983792   0.01762829329676202   0.0603460543419579
1.7104561276983792   0.01762829329676202   0.0603460543419579
-0.40061084200355296   -0.4485332323506729   -0.31990150260325434
-0.40061084200355296   -0.4485332323506729   -0.31990150260325434
-0.40061084200355296   -0.4485332323506729   -0.31990150260325434
-0.40061084200355296   -0.4485332323506729   -0.31990150260325434
3.944271266239864   0.7733736635974328   0.26636102738954165
3.944271266239864   0.7733736635974328   0.26636102738954165
3.944271266239864   0.7733736635974328   0.26636102738954165
3.944271266239864   0.7733736635974328   0.26636102738954165
3.8166147366056085   0.7486734889040763   -0.19871271107215968
3.8166147366056085   0.7486734889040763   -0.19871271107215968
3.8166147366056085   0.7486734889040763   -0.19871271107215968
3.8166147366056085   0.7486734889040763   -0.19871271107215968
-0.2676218534913339   0.15995195557393777   -0.03230320454681938
-0.2676218534913339   0.15995195557393777   -0.03230320454681938
-0.2676218534913339   0.15995195557393777   -0.03230320454681938
-0.2676218534913339   0.15995195557393777   -0.03230320454681938
1.7680782675544413   0.2856169566887283   0.1779088166255311
1.7680782675544413   0.2856169566887283   0.1779088166255311
1.7680782675544413   0.2856169566887283   0.1779088166255311
1.7680782675544413   0.2856169566887283   0.1779088166255311
3.449628845355153   -0.9593471030271786   -0.41147638927193664
3.449628845355153   -0.9593471030271786   -0.41147638927193664
3.449628845355153   -0.9593471030271786   -0.41147638927193664
3.449628845355153   -0.9593471030271786   -0.41147638927193664
7.571779924143313   0.5623741349805405   0.38453874466114807
7.571779924143313   0.5623741349805405   0.38453874466114807
7.571779924143313   0.5623741349805405   0.38453874466114807
7.571779924143313   0.5623741349805405   0.38453874466114807
7.512407666760225   -0.030252059218344174   -0.5476317454888516
7.512407666760225   -0.030252059218344174   -0.5476317454888516
7.512407666760225   -0.030252059218344174   -0.5476317454888516
7.512407666760225   -0.030252059218344174   -0.5476317454888516
3.755094380642443   -0.08239510637530012   0.25763222041571743
3.755094380642443   -0.08239510637530012   0.25763222041571743
3.755094380642443   -0.08239510637530012   0.25763222041571743
3.755094380642443   -0.08239510637530012   0.25763222041571743
5.3018294716583405   -0.18581667197151264   -0.17294918080127797
5.3018294716583405   -0.18581667197151264   -0.17294918080127797
5.3018294716583405   -0.18581667197151264   -0.17294918080127797
5.3018294716583405   -0.18581667197151264   -0.17294918080127797
3.4520301235400352   -0.8340150442157774   -0.5060691272558285
3.4520301235400352   -0.8340150442157774   -0.5060691272558285
3.4520301235400352   -0.8340150442157774   -0.5060691272558285
3.4520301235400352   -0.8340150442157774   -0.5060691272558285
7.837281678532392   0.7431776332918938   0.3033086208617394
7.837281678532392   0.7431776332918938   0.3033086208617394
7.837281678532392   0.7431776332918938   0.3033086208617394
7.837281678532392   0.7431776332918938   0.3033086208617394
7.6937391616867465   0.12200147483072632   -0.733885208750765
7.6937391616867465   0.12200147483072632   -0.733885208750765
7.6937391616867465   0.12200147483072632   -0.733885208750765
7.6937391616867465   0.12200147483072632   -0.733885208750765
3.78137664208666   0.03370699380051889   0.19155457642050364
3.78137664208666   0.03370699380051889   0.19155457642050364
3.78137664208666   0.03370699380051889   0.19155457642050364
3.78137664208666   0.03370699380051889   0.19155457642050364
5.539301306277622   -0.02146435179362438   -0.05332679143627056
5.539301306277622   -0.02146435179362438   -0.05332679143627056
5.539301306277622   -0.02146435179362438   -0.05332679143627056
5.539301306277622   -0.02146435179362438   -0.05332679143627056
3.489877122288692   -0.6820342475437529   -0.5502017812251059
3.489877122288692   -0.6820342475437529   -0.5502017812251059
3.489877122288692   -0.6820342475437529   -0.5502017812251059
3.489877122288692   -0.6820342475437529   -0.5502017812251059
8.033370892015975   0.8858749267062751   0.2003999910199073
8.033370892015975   0.8858749267062751   0.2003999910199073
8.033370892015975   0.8858749267062751   0.2003999910199073
8.033370892015975   0.8858749267062751   0.2003999910199073
7.981824856732156   0.5183945903414475   -0.6895660298757453
7.981824856732156   0.5183945903414475   -0.6895660298757453
7.981824856732156   0.5183945903414475   -0.6895660298757453
7.981824856732156   0.5183945903414475   -0.6895660298757453
3.792762067952539   0.291094149628378   0.13960328493826563
3.792762067952539   0.291094149628378   0.13960328493826563
3.792762067952539   0.291094149628378   0.13960328493826563
3.792762067952539   0.291094149628378   0.13960328493826563
5.577715684691937   0.16684979251651355   0.07865689206489318
5.577715684691937   0.16684979251651355   0.07865689206489318
5.577715684691937   0.16684979251651355   0.07865689206489318
5.577715684691937   0.16684979251651355   0.07865689206489318
-8.80532927313831   -0.2903360950139535   0.5698482144311511
-8.80532927313831   -0.2903360950139535   0.5698482144311511
-8.80532927313831   -0.2903360950139535   0.5698482144311511
-8.80532927313831   -0.2903360950139535   0.5698482144311511
-6.1501292615432845   -0.4080768795775921   -0.2158756493232553
-6.1501292615432845   -0.4080768795775921   -0.2158756493232553
-6.1501292615432845   -0.4080768795775921   -0.2158756493232553
-6.1501292615432845   -0.4080768795775921   -0.2158756493232553
-5.790462157334039   0.5792609436968288   0.4862711861737839
-5.790462157334039   0.5792609436968288   0.4862711861737839
-5.790462157334039   0.5792609436968288   0.4862711861737839
-5.790462157334039   0.5792609436968288   0.4862711861737839
-8.806137978738722   -0.7242392292265329   -0.3156368703273969
-8.806137978738722   -0.7242392292265329   -0.3156368703273969
-8.806137978738722   -0.7242392292265329   -0.3156368703273969
-8.806137978738722   -0.7242392292265329   -0.3156368703273969
-7.08475805600784   -0.11353438006700989   -0.013416291005220349
-7.08475805600784   -0.11353438006700989   -0.013416291005220349
-7.08475805600784   -0.11353438006700989   -0.013416291005220349
-7.08475805600784   -0.11353438006700989   -0.013416291005220349
-8.479131883896253   0.05275303006775833   0.5424013445906462
-8.479131883896253   0.05275303006775833   0.5424013445906462
-8.479131883896253   0.05275303006775833   0.5424013445906462
-8.479131883896253   0.05275303006775833   0.5424013445906462
-6.0909145421153505   -0.1711776055362766   -0.2655521884996085
-6.0909145421153505   -0.1711776055362766   -0.2655521884996085
-6.0909145421153505   -0.1711776055362766   -0.2655521884996085
-6.0909145421153505   -0.1711776055362766   -0.2655521884996085
-5.7360286198151025   0.6994115851472607   0.4111882835374748
-5.7360286198151025   0.6994115851472607   0.4111882835374748
-5.7360286198151025   0.6994115851472607   0.4111882835374748
-5.7360286198151025   0.6994115851472607   0.4111882835374748
-8.599111607189386   -0.5903677918993664   -0.3993574952764936
-8.599111607189386   -0.5903677918993664   -0.3993574952764936
-8.599111607189386   -0.5903677918993664   -0.3993574952764936
-8.599111607189386   -0.5903677918993664   -0.3993574952764936
-7.036238978704145   0.045081803816534816   0.0758074393423217
-7.036238978704145   0.045081803816534816   0.0758074393423217
-7.036238978704145   0.045081803816534816   0.0758074393423217
-7.036238978704145   0.045081803816534816   0.0758074393423217
-8.274717520537683   0.19657098125981798   0.43567416482284155
-8.274717520537683   0.19657098125981798   0.43567416482284155
-8.274717520537683   0.19657098125981798   0.43567416482284155
-8.274717520537683   0.19657098125981798   0.43567416482284155
-6.036369682882465   -0.06347416442755183   -0.32763128222446536
-6.036369682882465   -0.06347416442755183   -0.32763128222446536
-6.036369682882465   -0.06347416442755183   -0.32763128222446536
-6.036369682882465   -0.06347416442755183   -0.32763128222446536
-5.705841870831842   0.8156345059707995   0.353863473273484
-5.705841870831842   0.8156345059707995   0.353863473273484
-5.705841870831842   0.8156345059707995   0.353863473273484
-5.705841870831842   0.8156345059707995   0.353863473273484
-8.3214281380218   -0.4137277039835774   -0.4783518490959089
-8.3214281380218   -0.4137277039835774   -0.4783518490959089
-8.3214281380218   -0.4137277039835774   -0.4783518490959089
-8.3214281380218   -0.4137277039835774   -0.4783518490959089
-6.772920022933692   0.19335799801842746   0.20142191178861224
-6.772920022933692   0.19335799801842746   0.20142191178861224
-6.772920022933692   0.19335799801842746   0.20142191178861224
-6.772920022933692   0.19335799801842746   0.20142191178861224
-6.082542389610396   -0.49835093351301074   0.2123327642765448
-6.082542389610396   -0.49835093351301074   0.2123327642765448
-6.082542389610396   -0.49835093351301074   0.2123327642765448
-6.082542389610396   -0.49835093351301074   0.2123327642765448
-3.517287395549869   -0.2644941529343758   -0.03480072551017878
-3.517287395549869   -0.2644941529343758   -0.03480072551017878
-3.517287395549869   -0.2644941529343758   -0.03480072551017878
-3.517287395549869   -0.2644941529343758   -0.03480072551017878
-3.338810871360876   0.3388590288873785   0.2622282540120485
-3.338810871360876   0.3388590288873785   0.2622282540120485
-3.338810871360876   0.3388590288873785   0.2622282540120485
-3.338810871360876   0.3388590288873785   0.2622282540120485
-6.17352475545783   -0.5923679071314093   -0.25741295361693084
-6.17352475545783   -0.5923679071314093   -0.25741295361693084
-6.17352475545783   -0.5923679071314093   -0.25741295361693084
-6.17352475545783   -0.5923679071314093   -0.25741295361693084
-4.758523993084104   -0.23270312981312213   -0.0962125669414679
-4.758523993084104   -0.23270312981312213   -0.0962125669414679
-4.758523993084104   -0.23270312981312213   -0.0962125669414679
-4.758523993084104   -0.23270312981312213   -0.0962125669414679
-6.011551969556791   -0.21343185650238494   0.17351492525920809
-6.011551969556791   -0.21343185650238494   0.17351492525920809
-6.011551969556791   -0.21343185650238494   0.17351492525920809
-6.011551969556791   -0.21343185650238494   0.17351492525920809
-3.4800234707045266   -0.01931683518427285   -0.08565887863455199
-3.4800234707045266   -0.01931683518427285   -0.08565887863455199
-3.4800234707045266   -0.01931683518427285   -0.08565887863455199
-3.4800234707045266   -0.01931683518427285   -0.08565887863455199
-3.296306425165741   0.5850883376896746   0.21512544845432374
-3.296306425165741   0.5850883376896746   0.21512544845432374
-3.296306425165741   0.5850883376896746   0.21512544845432374
-3.296306425165741   0.5850883376896746   0.21512544845432374
-6.090727169607303   -0.3596780728212712   -0.30321480745499796
-6.090727169607303   -0.3596780728212712   -0.30321480745499796
-6.090727169607303   -0.3596780728212712   -0.30321480745499796
-6.090727169607303   -0.3596780728212712   -0.30321480745499796
-4.667219678865239   0.00969882128012256   0.007897021924243963
-4.667219678865239   0.00969882128012256   0.007897021924243963
-4.667219678865239   0.00969882128012256   0.007897021924243963
-4.667219678865239   0.00969882128012256   0.007897021924243963
-5.916490248591819   0.04973735689485426   0.15855436790629968
-5.916490248591819   0.04973735689485426   0.15855436790629968
-5.916490248591819   0.04973735689485426   0.15855436790629968
-5.916490248591819   0.04973735689485426   0.15855436790629968
-3.4447615707164254   0.2014546834383515   -0.1435166250477623
-3.4447615707164254   0.2014546834383515   -0.1435166250477623
-3.4447615707164254   0.2014546834383515   -0.1435166250477623
-3.4447615707164254   0.2014546834383515   -0.1435166250477623
-3.255250897796592   0.8471549206394771   0.17126125979330414
-3.255250897796592   0.8471549206394771   0.17126125979330414
-3.255250897796592   0.8471549206394771   0.17126125979330414
-3.255250897796592   0.8471549206394771   0.17126125979330414
-6.02863559981109   -0.10923419410603552   -0.3352364715458871
-6.02863559981109   -0.10923419410603552   -0.3352364715458871
-6.02863559981109   -0.10923419410603552   -0.3352364715458871
-6.02863559981109   -0.10923419410603552   -0.3352364715458871
-4.632000975414509   0.2373888891292193   0.10688597202085504
-4.632000975414509   0.2373888891292193   0.10688597202085504
-4.632000975414509   0.2373888891292193   0.10688597202085504
-4.632000975414509   0.2373888891292193   0.10688597202085504
-3.592134517329887   -0.6811018386545429   0.007571351309865124
-3.592134517329887   -0.6811018386545429   0.007571351309865124
-3.592134517329887   -0.6811018386545429   0.007571351309865124
-3.592134517329887   -0.6811018386545429   0.007571351309865124
-0.9125525601760542   -0.07724309186814449   0.14667669559470775
-0.9125525601760542   -0.07724309186814449   0.14667669559470775
-0.9125525601760542   -0.07724309186814449   0.14667669559470775
-0.9125525601760542   -0.07724309186814449   0.14667669559470775
-0.8897089656718857   0.141760257847222   0.05001415892118069
-0.8897089656718857   0.141760257847222   0.05001415892118069
-0.8897089656718857   0.141760257847222   0.05001415892118069
-0.8897089656718857   0.141760257847222   0.05001415892118069
-3.5526875713827715   -0.3994285726001632   -0.06886764460991676
-3.5526875713827715   -0.3994285726001632   -0.06886764460991676
-3.5526875713827715   -0.3994285726001632   -0.06886764460991676
-3.5526875713827715   -0.3994285726001632   -0.06886764460991676
-2.2405368352270467   -0.24321819102591663   -0.06826063464502106
-2.2405368352270467   -0.24321819102591663   -0.06826063464502106
-2.2405368352270467   -0.24321819102591663   -0.06826063464502106
-2.2405368352270467   -0.24321819102591663   -0.06826063464502106
-3.5469569518378115   -0.40635066255604624   -0.033292456929234604
-3.5469569518378115   -0.40635066255604624   -0.033292456929234604
-3.5469569518378115   -0.40635066255604624   -0.033292456929234604
-3.5469569518378115   -0.40635066255604624   -0.033292456929234604
-0.8746290275763547   0.1694929054435958   0.09768120180246162
-0.8746290275763547   0.1694929054435958   0.09768120180246162
-0.8746290275763547   0.1694929054435958   0.09768120180246162
-0.8746290275763547   0.1694929054435958   0.09768120180246162
-0.8384093504013455   0.417748647291574   0.013418152920460807
-0.8384093504013455   0.417748647291574   0.013418152920460807
-0.8384093504013455   0.417748647291574   0.013418152920460807
-0.8384093504013455   0.417748647291574   0.013418152920460807
-3.5101565018305583   -0.15101206613098717   -0.11802453104910118
-3.5101565018305583   -0.15101206613098717   -0.11802453104910118
-3.5101565018305583   -0.15101206613098717   -0.11802453104910118
-3.5101565018305583   -0.15101206613098717   -0.11802453104910118
-2.1857596981567764   0.00495884994352519   0.029789204715807857
-2.1857596981567764   0.00495884994352519   0.029789204715807857
-2.1857596981567764   0.00495884994352519   0.029789204715807857
-2.1857596981567764   0.00495884994352519   0.029789204715807857
-3.4971581632126867   -0.13124477222743347   -0.07280013186329692
-3.4971581632126867   -0.13124477222743347   -0.07280013186329692
-3.4971581632126867   -0.13124477222743347   -0.07280013186329692
-3.4971581632126867   -0.13124477222743347   -0.07280013186329692
-0.8321951627523878   0.4171938796548611   0.045043858801969955
-0.8321951627523878   0.4171938796548611   0.045043858801969955
-0.8321951627523878   0.4171938796548611   0.045043858801969955
-0.8321951627523878   0.4171938796548611   0.045043858801969955
-0.7924408221456206   0.697738372659641   -0.029709714860536057
-0.7924408221456206   0.697738372659641   -0.029709714860536057
-0.7924408221456206   0.697738372659641   -0.029709714860536057
-0.7924408221456206   0.697738372659641   -0.029709714860536057
-3.472738700725944   0.10031679460278675   -0.16933962881678205
-3.472738700725944   0.10031679460278675   -0.16933962881678205
-3.472738700725944   0.10031679460278675   -0.16933962881678205
-3.472738700725944   0.10031679460278675   -0.16933962881678205
-2.135737001375547   0.2543223771244306   0.124248996788523
-2.135737001375547   0.2543223771244306   0.124248996788523
-2.135737001375547   0.2543223771244306   0.124248996788523
-2.135737001375547   0.2543223771244306   0.124248996788523
-1.1311864236850413   -0.8309186079729041   -0.19281710584547562
-1.1311864236850413   -0.8309186079729041   -0.19281710584547562
-1.1311864236850413   -0.8309186079729041   -0.19281710584547562
-1.1311864236850413   -0.8309186079729041   -0.19281710584547562
1.6598480189923894   0.132931748597087   0.3181978851365271
1.6598480189923894   0.132931748597087   0.3181978851365271
1.6598480189923894   0.132931748597087   0.3181978851365271
1.6598480189923894   0.132931748597087   0.3181978851365271
1.546659377580232   -0.04123414886598026   -0.17582258869485784
1.546659377580232   -0.04123414886598026   -0.17582258869485784
1.546659377580232   -0.04123414886598026   -0.17582258869485784
1.546659377580232   -0.04123414886598026   -0.17582258869485784
-0.9433625097312981   -0.19371385632162255   0.11722055279296335
-0.9433625097312981   -0.19371385632162255   0.11722055279296335
-0.9433625097312981   -0.19371385632162255   0.11722055279296335
-0.9433625097312981   -0.19371385632162255   0.11722055279296335
0.27243794493530565   -0.2267886148266844   -0.048500865695540935
0.27243794493530565   -0.2267886148266844   -0.048500865695540935
0.27243794493530565   -0.2267886148266844   -0.048500865695540935
0.27243794493530565   -0.2267886148266844   -0.048500865695540935
-1.0916962803341403   -0.5811443283487143   -0.23701782819415584
-1.0916962803341403   -0.5811443283487143   -0.23701782819415584
-1.0916962803341403   -0.5811443283487143   -0.23701782819415584
-1.0916962803341403   -0.5811443283487143   -0.23701782819415584
1.7197696040311408   0.37097277900917025   0.27752161568448896
1.7197696040311408   0.37097277900917025   0.27752161568448896
1.7197696040311408   0.37097277900917025   0.27752161568448896
1.7197696040311408   0.37097277900917025   0.27752161568448896
1.641926045001368   0.21980940158384735   -0.19911506143988916
1.641926045001368   0.21980940158384735   -0.19911506143988916
1.641926045001368   0.21980940158384735   -0.19911506143988916
1.641926045001368   0.21980940158384735   -0.19911506143988916
-0.906326247893404   0.028449280084514306   0.06313303266723547
-0.906326247893404   0.028449280084514306   0.06313303266723547
-0.906326247893404   0.028449280084514306   0.06313303266723547
-0.906326247893404   0.028449280084514306   0.06313303266723547
0.32299831386794536   -0.001984946591515796   0.05116956226452354
0.32299831386794536   -0.001984946591515796   0.05116956226452354
0.32299831386794536   -0.001984946591515796   0.05116956226452354
0.32299831386794536   -0.001984946591515796   0.05116956226452354
-1.0494702394074449   -0.3362286433113575   -0.28790900150710064
-1.0494702394074449   -0.3362286433113575   -0.28790900150710064
-1.0494702394074449   -0.3362286433113575   -0.28790900150710064
-1.0494702394074449   -0.3362286433113575   -0.28790900150710064
1.8065500633322342   0.6059673517965393   0.23784708000172167
1.8065500633322342   0.6059673517965393   0.23784708000172167
1.8065500633322342   0.6059673517965393   0.23784708000172167
1.8065500633322342   0.6059673517965393   0.23784708000172167
1.7185680077394245   0.5176663513786032   -0.2299210867543122
1.7185680077394245   0.5176663513786032   -0.2299210867543122
1.7185680077394245   0.5176663513786032   -0.2299210867543122
1.7185680077394245   0.5176663513786032   -0.2299210867543122
-0.8667251630882833   0.28492322523497127   0.011683727850812897
-0.8667251630882833   0.28492322523497127   0.011683727850812897
-0.8667251630882833   0.28492322523497127   0.011683727850812897
-0.8667251630882833   0.28492322523497127   0.011683727850812897
0.40148429307277705   0.24301608762426838   0.15453101321891793
0.40148429307277705   0.24301608762426838   0.15453101321891793
0.40148429307277705   0.24301608762426838   0.15453101321891793
0.40148429307277705   0.24301608762426838   0.15453101321891793
1.3257475377123866   -0.8396788714759595   -0.3796939011904258
1.3257475377123866   -0.8396788714759595   -0.3796939011904258
1.3257475377123866   -0.8396788714759595   -0.3796939011904258
1.3257475377123866   -0.8396788714759595   -0.3796939011904258
3.953420841144016   0.38845032255651546   0.4106914021121699
3.953420841144016   0.38845032255651546   0.4106914021121699
3.953420841144016   0.38845032255651546   0.4106914021121699
3.953420841144016   0.38845032255651546   0.4106914021121699
3.914892694306062   -0.20190061811062776   -0.4996936519245391
3.914892694306062   -0.20190061811062776   -0.4996936519245391
3.914892694306062   -0.20190061811062776   -0.4996936519245391
3.914892694306062   -0.20190061811062776   -0.4996936519245391
1.6649430562125251   0.06810926061621758   0.3062523949843803
1.6649430562125251   0.06810926061621758   0.3062523949843803
1.6649430562125251   0.06810926061621758   0.3062523949843803
1.6649430562125251   0.06810926061621758   0.3062523949843803
2.5733909478468755   -0.1722953729098946   -0.13463643519378254
2.5733909478468755   -0.1722953729098946   -0.13463643519378254
2.5733909478468755   -0.1722953729098946   -0.13463643519378254
2.5733909478468755   -0.1722953729098946   -0.13463643519378254
1.362188978618267   -0.7003203144478479   -0.4390884179228453
1.362188978618267   -0.7003203144478479   -0.4390884179228453
1.362188978618267   -0.7003203144478479   -0.4390884179228453
1.362188978618267   -0.7003203144478479   -0.4390884179228453
4.242909094466447   0.5917912795195753   0.3466964512472469
4.242909094466447   0.5917912795195753   0.3466964512472469
4.242909094466447   0.5917912795195753   0.3466964512472469
4.242909094466447   0.5917912795195753   0.3466964512472469
4.125405449271767   -0.05556103164198034   -0.5988143579771603
4.125405449271767   -0.05556103164198034   -0.5988143579771603
4.125405449271767   -0.05556103164198034   -0.5988143579771603
4.125405449271767   -0.05556103164198034   -0.5988143579771603
1.7205491678916782   0.17527248495059775   0.238537469644882
1.7205491678916782   0.17527248495059775   0.238537469644882
1.7205491678916782   0.17527248495059775   0.238537469644882
1.7205491678916782   0.17527248495059775   0.238537469644882
2.7868882602392544   -0.024964081055888765   -0.01699853372545196
2.7868882602392544   -0.024964081055888765   -0.01699853372545196
2.7868882602392544   -0.024964081055888765   -0.01699853372545196
2.7868882602392544   -0.024964081055888765   -0.01699853372545196
1.4203059720587419   -0.5785827170025001   -0.5088233075666724
1.4203059720587419   -0.5785827170025001   -0.5088233075666724
1.4203059720587419   -0.5785827170025001   -0.5088233075666724
1.4203059720587419   -0.5785827170025001   -0.5088233075666724
4.451930297540236   0.7245758227466557   0.25367302897661353
4.451930297540236   0.7245758227466557   0.25367302897661353
4.451930297540236   0.7245758227466557   0.25367302897661353
4.451930297540236   0.7245758227466557   0.25367302897661353
4.448170640814501   0.26613770656332025   -0.640587503248985
4.448170640814501   0.26613770656332025   -0.640587503248985
4.448170640814501   0.26613770656332025   -0.640587503248985
4.448170640814501   0.26613770656332025   -0.640587503248985
1.7774849255352814   0.3929077262671271   0.18942212733644867
1.7774849255352814   0.3929077262671271   0.18942212733644867
1.7774849255352814   0.3929077262671271   0.18942212733644867
1.7774849255352814   0.3929077262671271   0.18942212733644867
2.89200657923868   0.13780251467490856   0.08388542360459375
2.89200657923868   0.13780251467490856   0.08388542360459375
2.89200657923868   0.13780251467490856   0.08388542360459375
2.89200657923868   0.13780251467490856   0.08388542360459375
-5.298420634702524   -0.09209284945808316   0.5123358744335292
-5.298420634702524   -0.09209284945808316   0.5123358744335292
-5.298420634702524   -0.09209284945808316   0.5123358744335292
-5.298420634702524   -0.09209284945808316   0.5123358744335292
-4.118722719966785   -0.5204108814059891   -0.2545674249793435
-4.118722719966785   -0.5204108814059891   -0.2545674249793435
-4.118722719966785   -0.5204108814059891   -0.2545674249793435
-4.118722719966785   -0.5204108814059891   -0.2545674249793435
-3.7287463573818473   0.4420518027033953   0.4384266679652479
-3.7287463573818473   0.4420518027033953   0.4384266679652479
-3.7287463573818473   0.4420518027033953   0.4384266679652479
-3.7287463573818473   0.4420518027033953   0.4384266679652479
-5.275340537239825   -0.5741165068834474   -0.34605601178167966
-5.275340537239825   -0.5741165068834474   -0.34605601178167966
-5.275340537239825   -0.5741165068834474   -0.34605601178167966
-5.275340537239825   -0.5741165068834474   -0.34605601178167966
-4.428386649590537   -0.12260805688511522   -0.06296114054516097
-4.428386649590537   -0.12260805688511522   -0.06296114054516097
-4.428386649590537   -0.12260805688511522   -0.06296114054516097
-4.428386649590537   -0.12260805688511522   -0.06296114054516097
-4.951825002472009   0.20769314260592076   0.4897120125680364
-4.951825002472009   0.20769314260592076   0.4897120125680364
-4.951825002472009   0.20769314260592076   0.4897120125680364
-4.951825002472009   0.20769314260592076   0.4897120125680364
-4.0299135424316725   -0.3174094970679553   -0.3079479575124947
-4.0299135424316725   -0.3174094970679553   -0.3079479575124947
-4.0299135424316725   -0.3174094970679553   -0.3079479575124947
-4.0299135424316725   -0.3174094970679553   -0.3079479575124947
-3.635479411301071   0.5564418938413793   0.3710587375387969
-3.635479411301071   0.5564418938413793   0.3710587375387969
-3.635479411301071   0.5564418938413793   0.3710587375387969
-3.635479411301071   0.5564418938413793   0.3710587375387969
-5.033984854946087   -0.44452526663073466   -0.432748246302781
-5.033984854946087   -0.44452526663073466   -0.432748246302781
-5.033984854946087   -0.44452526663073466   -0.432748246302781
-5.033984854946087   -0.44452526663073466   -0.432748246302781
-4.3022392673288925   0.02728909859359585   0.03247479649530505
-4.3022392673288925   0.02728909859359585   0.03247479649530505
-4.3022392673288925   0.02728909859359585   0.03247479649530505
-4.3022392673288925   0.02728909859359585   0.03247479649530505
-4.71003201709403   0.34651480036697935   0.39597587595975636
-4.71003201709403   0.34651480036697935   0.39597587595975636
-4.71003201709403   0.34651480036697935   0.39597587595975636
-4.71003201709403   0.34651480036697935   0.39597587595975636
-3.9382294092786094   -0.2133953332818166   -0.3728540252256691
-3.9382294092786094   -0.2133953332818166   -0.3728540252256691
-3.9382294092786094   -0.2133953332818166   -0.3728540252256691
-3.9382294092786094   -0.2133953332818166   -0.3728540252256691
-3.5597018274737313   0.698299325306021   0.3200569868040144
-3.5597018274737313   0.698299325306021   0.3200569868040144
-3.5597018274737313   0.698299325306021   0.3200569868040144
-3.5597018274737313   0.698299325306021   0.3200569868040144
-4.709621635283672   -0.23717581215808792   -0.500956067783383
-4.709621635283672   -0.23717581215808792   -0.500956067783383
-4.709621635283672   -0.23717581215808792   -0.500956067783383
-4.709621635283672   -0.23717581215808792   -0.500956067783383
-4.047065465367648   0.17474325161435245   0.1511654992658481
-4.047065465367648   0.17474325161435245   0.1511654992658481
-4.047065465367648   0.17474325161435245   0.1511654992658481
-4.047065465367648   0.17474325161435245   0.1511654992658481
-3.9758942179389787   -0.30118544296618516   0.24034964671988424
-3.9758942179389787   -0.30118544296618516   0.24034964671988424
-3.9758942179389787   -0.30118544296618516   0.24034964671988424
-3.9758942179389787   -0.30118544296618516   0.24034964671988424
-2.9063093603689114   -0.394741647527436   -0.07544999091045054
-2.9063093603689114   -0.394741647527436   -0.07544999091045054
-2.9063093603689114   -0.394741647527436   -0.07544999091045054
-2.9063093603689114   -0.394741647527436   -0.07544999091045054
-2.6882981856270156   0.20097831976082614   0.22409161101343225
-2.6882981856270156   0.20097831976082614   0.22409161101343225
-2.6882981856270156   0.20097831976082614   0.22409161101343225
-2.6882981856270156   0.20097831976082614   0.22409161101343225
-4.033341685980394   -0.4242409420193263   -0.21825723030473285
-4.033341685980394   -0.4242409420193263   -0.21825723030473285
-4.033341685980394   -0.4242409420193263   -0.21825723030473285
-4.033341685980394   -0.4242409420193263   -0.21825723030473285
-3.391256872746577   -0.21188755549733185   -0.09058697131347268
-3.391256872746577   -0.21188755549733185   -0.09058697131347268
-3.391256872746577   -0.21188755549733185   -0.09058697131347268
-3.391256872746577   -0.21188755549733185   -0.09058697131347268
-3.8718562028744503   -0.03963813104185687   0.20456737424745222
-3.8718562028744503   -0.03963813104185687   0.20456737424745222
-3.8718562028744503   -0.03963813104185687   0.20456737424745222
-3.8718562028744503   -0.03963813104185687   0.20456737424745222
-2.831754523893131   -0.1655953463768462   -0.12661641417947278
-2.831754523893131   -0.1655953463768462   -0.12661641417947278
-2.831754523893131   -0.1655953463768462   -0.12661641417947278
-2.831754523893131   -0.1655953463768462   -0.12661641417947278
-2.6077898887546995   0.43341936020698213   0.17933507683366445
-2.6077898887546995   0.43341936020698213   0.17933507683366445
-2.6077898887546995   0.43341936020698213   0.17933507683366445
-2.6077898887546995   0.43341936020698213   0.17933507683366445
-3.913299305869582   -0.20037969222985963   -0.2612191492324575
-3.913299305869582   -0.20037969222985963   -0.2612191492324575
-3.913299305869582   -0.20037969222985963   -0.2612191492324575
-3.913299305869582   -0.20037969222985963   -0.2612191492324575
-3.2752231760024006   0.012619485946718467   0.00997363703585638
-3.2752231760024006   0.012619485946718467   0.00997363703585638
-3.2752231760024006   0.012619485946718467   0.00997363703585638
-3.2752231760024006   0.012619485946718467   0.00997363703585638
-3.7423528723554793   0.20772201111807953   0.18541131499005498
-3.7423528723554793   0.20772201111807953   0.18541131499005498
-3.7423528723554793   0.20772201111807953   0.18541131499005498
-3.7423528723554793   0.20772201111807953   0.18541131499005498
-2.757920417149723   0.04613356197808571   -0.18403176691258918
-2.757920417149723   0.04613356197808571   -0.18403176691258918
-2.757920417149723   0.04613356197808571   -0.18403176691258918
-2.757920417149723   0.04613356197808571   -0.18403176691258918
-2.527552533737405   0.6853714193228424   0.13670852952493995
-2.527552533737405   0.6853714193228424   0.13670852952493995
-2.527552533737405   0.6853714193228424   0.13670852952493995
-2.527552533737405   0.6853714193228424   0.13670852952493995
-3.813930168876324   0.043774762988318394   -0.29656015789118495
-3.813930168876324   0.043774762988318394   -0.29656015789118495
-3.813930168876324   0.043774762988318394   -0.29656015789118495
-3.813930168876324   0.043774762988318394   -0.29656015789118495
-3.191190448211868   0.2322884271386888   0.10818260004667421
-3.191190448211868   0.2322884271386888   0.10818260004667421
-3.191190448211868   0.2322884271386888   0.10818260004667421
-3.191190448211868   0.2322884271386888   0.10818260004667421
-2.903221240414029   -0.4963853123061543   0.04163427364263349
-2.903221240414029   -0.4963853123061543   0.04163427364263349
-2.903221240414029   -0.4963853123061543   0.04163427364263349
-2.903221240414029   -0.4963853123061543   0.04163427364263349
-1.7112117428070333   -0.20645915085181366   0.10704569624520727
-1.7112117428070333   -0.20645915085181366   0.10704569624520727
-1.7112117428070333   -0.20645915085181366   0.10704569624520727
-1.7112117428070333   -0.20645915085181366   0.10704569624520727
-1.6509832677757044   -0.0025274463198802777   0.013933683184430584
-1.6509832677757044   -0.0025274463198802777   0.013933683184430584
-1.6509832677757044   -0.0025274463198802777   0.013933683184430584
-1.6509832677757044   -0.0025274463198802777   0.013933683184430584
-2.82383282169509   -0.22716407991326454   -0.025439169652848995
-2.82383282169509   -0.22716407991326454   -0.025439169652848995
-2.82383282169509   -0.22716407991326454   -0.025439169652848995
-2.82383282169509   -0.22716407991326454   -0.025439169652848995
-2.2759002061969555   -0.22227310295718694   -0.06585273014372524
-2.2759002061969555   -0.22227310295718694   -0.06585273014372524
-2.2759002061969555   -0.22227310295718694   -0.06585273014372524
-2.2759002061969555   -0.22227310295718694   -0.06585273014372524
-2.8205991761071947   -0.2387703074570166   0.002335285830362452
-2.8205991761071947   -0.2387703074570166   0.002335285830362452
-2.8205991761071947   -0.2387703074570166   0.002335285830362452
-2.8205991761071947   -0.2387703074570166   0.002335285830362452
-1.636297246124432   0.026998448463036284   0.05783789665787456
-1.636297246124432   0.026998448463036284   0.05783789665787456
-1.636297246124432   0.026998448463036284   0.05783789665787456
-1.636297246124432   0.026998448463036284   0.05783789665787456
-1.5636437938935133   0.25738678662115083   -0.02254297522545598
-1.5636437938935133   0.25738678662115083   -0.02254297522545598
-1.5636437938935133   0.25738678662115083   -0.02254297522545598
-1.5636437938935133   0.25738678662115083   -0.02254297522545598
-2.743191294746626   0.00961008846315281   -0.07386268138217203
-2.743191294746626   0.00961008846315281   -0.07386268138217203
-2.743191294746626   0.00961008846315281   -0.07386268138217203
-2.743191294746626   0.00961008846315281   -0.07386268138217203
-2.183832446593489   0.011577258677417823   0.03158629513438353
-2.183832446593489   0.011577258677417823   0.03158629513438353
-2.183832446593489   0.011577258677417823   0.03158629513438353
-2.183832446593489   0.011577258677417823   0.03158629513438353
-2.73377616994402   0.02036126056244758   -0.037538229468465106
-2.73377616994402   0.02036126056244758   -0.037538229468465106
-2.73377616994402   0.02036126056244758   -0.037538229468465106
-2.73377616994402   0.02036126056244758   -0.037538229468465106
-1.5568594629404995   0.26283507027747355   0.005930395883304657
-1.5568594629404995   0.26283507027747355   0.005930395883304657
-1.5568594629404995   0.26283507027747355   0.005930395883304657
-1.5568594629404995   0.26283507027747355   0.005930395883304657
-1.4811654116131616   0.5196474841755134   -0.06425947006605431
-1.4811654116131616   0.5196474841755134   -0.06425947006605431
-1.4811654116131616   0.5196474841755134   -0.06425947006605431
-1.4811654116131616   0.5196474841755134   -0.06425947006605431
-2.667427054559439   0.24822262627314573   -0.12551528153552038
-2.667427054559439   0.24822262627314573   -0.12551528153552038
-2.667427054559439   0.24822262627314573   -0.12551528153552038
-2.667427054559439   0.24822262627314573   -0.12551528153552038
-2.096679761065136   0.2462621168981367   0.12511282424430786
-2.096679761065136   0.2462621168981367   0.12511282424430786
-2.096679761065136   0.2462621168981367   0.12511282424430786
-2.096679761065136   0.2462621168981367   0.12511282424430786
-1.8564882816022215   -0.6659452652214004   -0.15985088336117687
-1.8564882816022215   -0.6659452652214004   -0.15985088336117687
-1.8564882816022215   -0.6659452652214004   -0.15985088336117687
-1.8564882816022215   -0.6659452652214004   -0.15985088336117687
-0.5472304435188369   -0.006492371963825412   0.28086162892704664
-0.5472304435188369   -0.006492371963825412   0.28086162892704664
-0.5472304435188369   -0.006492371963825412   0.28086162892704664
-0.5472304435188369   -0.006492371963825412   0.28086162892704664
-0.6253968941350982   -0.19442951375278894   -0.20432334995894566
-0.6253968941350982   -0.19442951375278894   -0.20432334995894566
-0.6253968941350982   -0.19442951375278894   -0.20432334995894566
-0.6253968941350982   -0.19442951375278894   -0.20432334995894566
-1.6263261713309007   -0.025519101351866635   0.16021082044042018
-1.6263261713309007   -0.025519101351866635   0.16021082044042018
-1.6263261713309007   -0.025519101351866635   0.16021082044042018
-1.6263261713309007   -0.025519101351866635   0.16021082044042018
-1.1639336724972171   -0.21332245975575356   -0.04749106668269232
-1.1639336724972171   -0.21332245975575356   -0.04749106668269232
-1.1639336724972171   -0.21332245975575356   -0.04749106668269232
-1.1639336724972171   -0.21332245975575356   -0.04749106668269232
-1.7785653053609385   -0.42458276351539465   -0.2019211875462563
-1.7785653053609385   -0.42458276351539465   -0.2019211875462563
-1.7785653053609385   -0.42458276351539465   -0.2019211875462563
-1.7785653053609385   -0.42458276351539465   -0.2019211875462563
-0.4530627649031234   0.22472914361269386   0.23818863883544555
-0.4530627649031234   0.22472914361269386   0.23818863883544555
-0.4530627649031234   0.22472914361269386   0.23818863883544555
-0.4530627649031234   0.22472914361269386   0.23818863883544555
-0.4982021393626269   0.051452122393753075   -0.22997686431734798
-0.4982021393626269   0.051452122393753075   -0.22997686431734798
-0.4982021393626269   0.051452122393753075   -0.22997686431734798
-0.4982021393626269   0.051452122393753075   -0.22997686431734798
-1.551840279906958   0.1871098175997582   0.1067515637287138
-1.551840279906958   0.1871098175997582   0.1067515637287138
-1.551840279906958   0.1871098175997582   0.1067515637287138
-1.551840279906958   0.1871098175997582   0.1067515637287138
-1.0662256722128542   0.004294142098445891   0.05174484510849147
-1.0662256722128542   0.004294142098445891   0.05174484510849147
-1.0662256722128542   0.004294142098445891   0.05174484510849147
-1.0662256722128542   0.004294142098445891   0.05174484510849147
-1.6992550517053804   -0.19283798562005017   -0.2503744920436108
-1.6992550517053804   -0.19283798562005017   -0.2503744920436108
-1.6992550517053804   -0.19283798562005017   -0.2503744920436108
-1.6992550517053804   -0.19283798562005017   -0.2503744920436108
-0.33208676938805615   0.4501005237897089   0.20195158415956554
-0.33208676938805615   0.4501005237897089   0.20195158415956554
-0.33208676938805615   0.4501005237897089   0.20195158415956554
-0.33208676938805615   0.4501005237897089   0.20195158415956554
-0.3905658580093949   0.3263171101618536   -0.25750615259354137
-0.3905658580093949   0.3263171101618536   -0.25750615259354137
-0.3905658580093949   0.3263171101618536   -0.25750615259354137
-0.3905658580093949   0.3263171101618536   -0.25750615259354137
-1.4755931368913036   0.4280272839009156   0.05522210381783224
-1.4755931368913036   0.4280272839009156   0.05522210381783224
-1.4755931368913036   0.4280272839009156   0.05522210381783224
-1.4755931368913036   0.4280272839009156   0.05522210381783224
-0.964826999854399   0.23155573394738607   0.15113797466703388
-0.964826999854399   0.23155573394738607   0.15113797466703388
-0.964826999854399   0.23155573394738607   0.15113797466703388
-0.964826999854399   0.23155573394738607   0.15113797466703388
-0.8147631594783306   -0.7166530187976773   -0.3466413040365698
-0.8147631594783306   -0.7166530187976773   -0.3466413040365698
-0.8147631594783306   -0.7166530187976773   -0.3466413040365698
-0.8147631594783306   -0.7166530187976773   -0.3466413040365698
0.34079231926218156   0.21605311799648813   0.4268893272965795
0.34079231926218156   0.21605311799648813   0.4268893272965795
0.34079231926218156   0.21605311799648813   0.4268893272965795
0.34079231926218156   0.21605311799648813   0.4268893272965795
0.34419419550514707   -0.34902061336199597   -0.4586481141993093
0.34419419550514707   -0.34902061336199597   -0.4586481141993093
0.34419419550514707   -0.34902061336199597   -0.4586481141993093
0.34419419550514707   -0.34902061336199597   -0.4586481141993093
-0.4317073022670779   0.22035863671516973   0.3493364589131974
-0.4317073022670779   0.22035863671516973   0.3493364589131974
-0.4317073022670779   0.22035863671516973   0.3493364589131974
-0.4317073022670779   0.22035863671516973   0.3493364589131974
-0.15183480837264876   -0.15076202266735672   -0.08219962854201679
-0.15183480837264876   -0.15076202266735672   -0.08219962854201679
-0.15183480837264876   -0.15076202266735672   -0.08219962854201679
-0.15183480837264876   -0.15076202266735672   -0.08219962854201679
-0.7359283266993625   -0.5529979168913548   -0.3984121096417166
-0.7359283266993625   -0.5529979168913548   -0.3984121096417166
-0.7359283266993625   -0.5529979168913548   -0.3984121096417166
-0.7359283266993625   -0.5529979168913548   -0.3984121096417166
0.6699194279926686   0.4458401482997883   0.37511728657654386
0.6699194279926686   0.4458401482997883   0.37511728657654386
0.6699194279926686   0.4458401482997883   0.37511728657654386
0.6699194279926686   0.4458401482997883   0.37511728657654386
0.5868835604982238   -0.2080640757782626   -0.5444797266059654
0.5868835604982238   -0.2080640757782626   -0.5444797266059654
0.5868835604982238   -0.2080640757782626   -0.5444797266059654
0.5868835604982238   -0.2080640757782626   -0.5444797266059654
-0.34197492462235035   0.32262579467393876   0.27998553710384916
-0.34197492462235035   0.32262579467393876   0.27998553710384916
-0.34197492462235035   0.32262579467393876   0.27998553710384916
-0.34197492462235035   0.32262579467393876   0.27998553710384916
0.04857952121092781   -0.005931426726814536   0.025556931062223752
0.04857952121092781   -0.005931426726814536   0.025556931062223752
0.04857952121092781   -0.005931426726814536   0.025556931062223752
0.04857952121092781   -0.005931426726814536   0.025556931062223752
-0.6419972248589941   -0.4370369345079995   -0.46046323489743185
-0.6419972248589941   -0.4370369345079995   -0.46046323489743185
-0.6419972248589941   -0.4370369345079995   -0.46046323489743185
-0.6419972248589941   -0.4370369345079995   -0.46046323489743185
0.9083955246345611   0.5730883173033742   0.2819277009941148
0.9083955246345611   0.5730883173033742   0.2819277009941148
0.9083955246345611   0.5730883173033742   0.2819277009941148
0.9083955246345611   0.5730883173033742   0.2819277009941148
0.9261789893260954   0.06821211886967814   -0.5827499734416101
0.9261789893260954   0.06821211886967814   -0.5827499734416101
0.9261789893260954   0.06821211886967814   -0.5827499734416101
0.9261789893260954   0.06821211886967814   -0.5827499734416101
-0.25807856618676206   0.5037619138663284   0.22748550281514826
-0.25807856618676206   0.5037619138663284   0.22748550281514826
-0.25807856618676206   0.5037619138663284   0.22748550281514826
-0.25807856618676206   0.5037619138663284   0.22748550281514826
0.22774897012185955   0.1465972277959613   0.13057794676842874
0.22774897012185955   0.1465972277959613   0.13057794676842874
0.22774897012185955   0.1465972277959613   0.13057794676842874
0.22774897012185955   0.1465972277959613   0.13057794676842874
-1.777756907716391   0.09620059285406007   0.48752413407050865
-1.777756907716391   0.09620059285406007   0.48752413407050865
-1.777756907716391   0.09620059285406007   0.48752413407050865
-1.777756907716391   0.09620059285406007   0.48752413407050865
-2.086423091815236   -0.6369225777159035   -0.28858768472275276
-2.086423091815236   -0.6369225777159035   -0.28858768472275276
-2.086423091815236   -0.6369225777159035   -0.28858768472275276
-2.086423091815236   -0.6369225777159035   -0.28858768472275276
-1.6657179324439957   0.29691912311808477   0.3994995334300291
-1.6657179324439957   0.29691912311808477   0.3994995334300291
-1.6657179324439957   0.29691912311808477   0.3994995334300291
-1.6657179324439957   0.29691912311808477   0.3994995334300291
-1.725569845730906   -0.42244045541501124   -0.37130374739197286
-1.725569845730906   -0.42244045541501124   -0.37130374739197286
-1.725569845730906   -0.42244045541501124   -0.37130374739197286
-1.725569845730906   -0.42244045541501124   -0.37130374739197286
-1.7671473234290216   -0.13607836314506871   -0.1321181418316621
-1.7671473234290216   -0.13607836314506871   -0.1321181418316621
-1.7671473234290216   -0.13607836314506871   -0.1321181418316621
-1.7671473234290216   -0.13607836314506871   -0.1321181418316621
-1.4039353999290487   0.3602177734796074   0.454210252722695
-1.4039353999290487   0.3602177734796074   0.454210252722695
-1.4039353999290487   0.3602177734796074   0.454210252722695
-1.4039353999290487   0.3602177734796074   0.454210252722695
-1.9673827692857178   -0.4657694968163985   -0.34613603084409755
-1.9673827692857178   -0.4657694968163985   -0.34613603084409755
-1.9673827692857178   -0.4657694968163985   -0.34613603084409755
-1.9673827692857178   -0.4657694968163985   -0.34613603084409755
-1.5346010914722747   0.4091879393158111   0.33643401995613503
-1.5346010914722747   0.4091879393158111   0.33643401995613503
-1.5346010914722747   0.4091879393158111   0.33643401995613503
-1.5346010914722747   0.4091879393158111   0.33643401995613503
-1.4469232943516237   -0.29556213329659087   -0.4629784304036601
-1.4469232943516237   -0.29556213329659087   -0.4629784304036601
-1.4469232943516237   -0.29556213329659087   -0.4629784304036601
-1.4469232943516237   -0.29556213329659087   -0.4629784304036601
-1.5615337630608233   0.007551324152528016   -0.026324196170261063
-1.5615337630608233   0.007551324152528016   -0.026324196170261063
-1.5615337630608233   0.007551324152528016   -0.026324196170261063
-1.5615337630608233   0.007551324152528016   -0.026324196170261063
-1.1232322086450797   0.496798237380431   0.36311662745203943
-1.1232322086450797   0.496798237380431   0.36311662745203943
-1.1232322086450797   0.496798237380431   0.36311662745203943
-1.1232322086450797   0.496798237380431   0.36311662745203943
-1.8394012614681752   -0.36428151565060773   -0.4140973750569479
-1.8394012614681752   -0.36428151565060773   -0.4140973750569479
-1.8394012614681752   -0.36428151565060773   -0.4140973750569479
-1.8394012614681752   -0.36428151565060773   -0.4140973750569479
-1.4144546837122882   0.5801716552308931   0.290614317590137
-1.4144546837122882   0.5801716552308931   0.290614317590137
-1.4144546837122882   0.5801716552308931   0.290614317590137
-1.4144546837122882   0.5801716552308931   0.290614317590137
-1.0750768676663556   -0.05433583422980098   -0.5216981516895021
-1.0750768676663556   -0.05433583422980098   -0.5216981516895021
-1.0750768676663556   -0.05433583422980098   -0.5216981516895021
-1.0750768676663556   -0.05433583422980098   -0.5216981516895021
-1.3137816398063014   0.15728243691382393   0.08717609931208298
-1.3137816398063014   0.15728243691382393   0.08717609931208298
-1.3137816398063014   0.15728243691382393   0.08717609931208298
-1.3137816398063014   0.15728243691382393   0.08717609931208298
-1.8695596220239923   -0.11711690364406663   0.2759239901615995
-1.8695596220239923   -0.11711690364406663   0.2759239901615995
-1.8695596220239923   -0.11711690364406663   0.2759239901615995
-1.8695596220239923   -0.11711690364406663   0.2759239901615995
-2.3027078351993975   -0.5194102060265151   -0.11279040816860945
-2.3027078351993975   -0.5194102060265151   -0.11279040816860945
-2.3027078351993975   -0.5194102060265151   -0.11279040816860945
-2.3027078351993975   -0.5194102060265151   -0.11279040816860945
-2.050355906545129   0.053068193542300135   0.18530266806825624
-2.050355906545129   0.053068193542300135   0.18530266806825624
-2.050355906545129   0.053068193542300135   0.18530266806825624
-2.050355906545129   0.053068193542300135   0.18530266806825624
-1.88890210089932   -0.24816934561007176   -0.17133284011840633
-1.88890210089932   -0.24816934561007176   -0.17133284011840633
-1.88890210089932   -0.24816934561007176   -0.17133284011840633
-1.88890210089932   -0.24816934561007176   -0.17133284011840633
-2.029032839696454   -0.19213412578390565   -0.09362515078169731
-2.029032839696454   -0.19213412578390565   -0.09362515078169731
-2.029032839696454   -0.19213412578390565   -0.09362515078169731
-2.029032839696454   -0.19213412578390565   -0.09362515078169731
-1.7312253231637142   0.12800843099569664   0.24087327195382424
-1.7312253231637142   0.12800843099569664   0.24087327195382424
-1.7312253231637142   0.12800843099569664   0.24087327195382424
-1.7312253231637142   0.12800843099569664   0.24087327195382424
-2.1924133367150054   -0.307490235497785   -0.1644260537410416
-2.1924133367150054   -0.307490235497785   -0.1644260537410416
-2.1924133367150054   -0.307490235497785   -0.1644260537410416
-2.1924133367150054   -0.307490235497785   -0.1644260537410416
-1.9331683312025167   0.2761815742467173   0.14145620848336274
-1.9331683312025167   0.2761815742467173   0.14145620848336274
-1.9331683312025167   0.2761815742467173   0.14145620848336274
-1.9331683312025167   0.2761815742467173   0.14145620848336274
-1.7327896280604427   -0.03271435036091486   -0.21260637330794896
-1.7327896280604427   -0.03271435036091486   -0.21260637330794896
-1.7327896280604427   -0.03271435036091486   -0.21260637330794896
-1.7327896280604427   -0.03271435036091486   -0.21260637330794896
-1.8893302404415528   0.016429488583611485   0.004142917561115997
-1.8893302404415528   0.016429488583611485   0.004142917561115997
-1.8893302404415528   0.016429488583611485   0.004142917561115997
-1.8893302404415528   0.016429488583611485   0.004142917561115997
-1.5674741697860253   0.3644003986449847   0.21685616905820795
-1.5674741697860253   0.3644003986449847   0.21685616905820795
-1.5674741697860253   0.3644003986449847   0.21685616905820795
-1.5674741697860253   0.3644003986449847   0.21685616905820795
-2.081842361654011   -0.10429174693622834   -0.22144062259119343
-2.081842361654011   -0.10429174693622834   -0.22144062259119343
-2.081842361654011   -0.10429174693622834   -0.22144062259119343
-2.081842361654011   -0.10429174693622834   -0.22144062259119343
-1.8154441034161326   0.5227410045273916   0.09978498434399011
-1.8154441034161326   0.5227410045273916   0.09978498434399011
-1.8154441034161326   0.5227410045273916   0.09978498434399011
-1.8154441034161326   0.5227410045273916   0.09978498434399011
-1.5977500341593736   0.20601670587555554   -0.2517074852899519
-1.5977500341593736   0.20601670587555554   -0.2517074852899519
-1.5977500341593736   0.20601670587555554   -0.2517074852899519
-1.5977500341593736   0.20601670587555554   -0.2517074852899519
-1.7572894817397595   0.23138201168852668   0.1034961440036673
-1.7572894817397595   0.23138201168852668   0.1034961440036673
-1.7572894817397595   0.23138201168852668   0.1034961440036673
-1.7572894817397595   0.23138201168852668   0.1034961440036673
-2.223871272308902   -0.3150031299581215   0.07698533021541426
-2.223871272308902   -0.3150031299581215   0.07698533021541426
-2.223871272308902   -0.3150031299581215   0.07698533021541426
-2.223871272308902   -0.3150031299581215   0.07698533021541426
-2.519235163862889   -0.3258574071770045   0.06845970541473695
-2.519235163862889   -0.3258574071770045   0.06845970541473695
-2.519235163862889   -0.3258574071770045   0.06845970541473695
-2.519235163862889   -0.3258574071770045   0.06845970541473695
-2.424946169490854   -0.14706332013131496   -0.023822022947460136
-2.424946169490854   -0.14706332013131496   -0.023822022947460136
-2.424946169490854   -0.14706332013131496   -0.023822022947460136
-2.424946169490854   -0.14706332013131496   -0.023822022947460136
-2.1026667122184883   -0.045235853657597525   0.02205268690135595
-2.1026667122184883   -0.045235853657597525   0.02205268690135595
-2.1026667122184883   -0.045235853657597525   0.02205268690135595
-2.1026667122184883   -0.045235853657597525   0.02205268690135595
-2.321150819255491   -0.19647026120274141   -0.0619196632711337
-2.321150819255491   -0.19647026120274141   -0.0619196632711337
-2.321150819255491   -0.19647026120274141   -0.0619196632711337
-2.321150819255491   -0.19647026120274141   -0.0619196632711337
-2.104604565899461   -0.07067090154647682   0.03779846638533815
-2.104604565899461   -0.07067090154647682   0.03779846638533815
-2.104604565899461   -0.07067090154647682   0.03779846638533815
-2.104604565899461   -0.07067090154647682   0.03779846638533815
-2.4083077776419772   -0.10692773407453449   0.019234350240160264
-2.4083077776419772   -0.10692773407453449   0.019234350240160264
-2.4083077776419772   -0.10692773407453449   0.019234350240160264
-2.4083077776419772   -0.10692773407453449   0.019234350240160264
-2.301959923738599   0.10051045128091685   -0.060592238301379636
-2.301959923738599   0.10051045128091685   -0.060592238301379636
-2.301959923738599   0.10051045128091685   -0.060592238301379636
-2.301959923738599   0.10051045128091685   -0.060592238301379636
-1.9858778234798318   0.17975935444829416   -0.02566903310478799
-1.9858778234798318   0.17975935444829416   -0.02566903310478799
-1.9858778234798318   0.17975935444829416   -0.02566903310478799
-1.9858778234798318   0.17975935444829416   -0.02566903310478799
-2.1927461558757964   0.02499966814872756   0.03451622397732437
-2.1927461558757964   0.02499966814872756   0.03451622397732437
-2.1927461558757964   0.02499966814872756   0.03451622397732437
-2.1927461558757964   0.02499966814872756   0.03451622397732437
-1.982065850884294   0.17603145864690517   -0.0028812743257425055
-1.982065850884294   0.17603145864690517   -0.0028812743257425055
-1.982065850884294   0.17603145864690517   -0.0028812743257425055
-1.982065850884294   0.17603145864690517   -0.0028812743257425055
-2.2929658935472195   0.11704434986921763   -0.03215598593278288
-2.2929658935472195   0.11704434986921763   -0.03215598593278288
-2.2929658935472195   0.11704434986921763   -0.03215598593278288
-2.2929658935472195   0.11704434986921763   -0.03215598593278288
-2.184210212127387   0.3495288515257522   -0.1022009977044171
-2.184210212127387   0.3495288515257522   -0.1022009977044171
-2.184210212127387   0.3495288515257522   -0.1022009977044171
-2.184210212127387   0.3495288515257522   -0.1022009977044171
-1.874406277805043   0.40567514446748726   -0.07796002754065667
-1.874406277805043   0.40567514446748726   -0.07796002754065667
-1.874406277805043   0.40567514446748726   -0.07796002754065667
-1.874406277805043   0.40567514446748726   -0.07796002754065667
-2.0701881577319994   0.24685895018065424   0.12645048502890885
-2.0701881577319994   0.24685895018065424   0.12645048502890885
-2.0701881577319994   0.24685895018065424   0.12645048502890885
-2.0701881577319994   0.24685895018065424   0.12645048502890885
-2.5926836744750563   -0.497236162420923   -0.12740409240222217
-2.5926836744750563   -0.497236162420923   -0.12740409240222217
-2.5926836744750563   -0.497236162420923   -0.12740409240222217
-2.5926836744750563   -0.497236162420923   -0.12740409240222217
-2.753060288730834   -0.13637247704634142   0.24189987017245834
-2.753060288730834   -0.13637247704634142   0.24189987017245834
-2.753060288730834   -0.13637247704634142   0.24189987017245834
-2.753060288730834   -0.13637247704634142   0.24189987017245834
-2.7960816128930586   -0.3385774790243634   -0.23532562635990534
-2.7960816128930586   -0.3385774790243634   -0.23532562635990534
-2.7960816128930586   -0.3385774790243634   -0.23532562635990534
-2.7960816128930586   -0.3385774790243634   -0.23532562635990534
-2.3201727989473975   0.14961487483772729   0.20336663480077863
-2.3201727989473975   0.14961487483772729   0.20336663480077863
-2.3201727989473975   0.14961487483772729   0.20336663480077863
-2.3201727989473975   0.14961487483772729   0.20336663480077863
-2.604821292425525   -0.19220174824078246   -0.0388303646728292
-2.604821292425525   -0.19220174824078246   -0.0388303646728292
-2.604821292425525   -0.19220174824078246   -0.0388303646728292
-2.604821292425525   -0.19220174824078246   -0.0388303646728292
-2.476576327356666   -0.2611821026055622   -0.16785402980229192
-2.476576327356666   -0.2611821026055622   -0.16785402980229192
-2.476576327356666   -0.2611821026055622   -0.16785402980229192
-2.476576327356666   -0.2611821026055622   -0.16785402980229192
-2.6242588915121776   0.08763869139049463   0.19757181012964162
-2.6242588915121776   0.08763869139049463   0.19757181012964162
-2.6242588915121776   0.08763869139049463   0.19757181012964162
-2.6242588915121776   0.08763869139049463   0.19757181012964162
-2.6355051198822412   -0.10377353678919299   -0.26400036824075845
-2.6355051198822412   -0.10377353678919299   -0.26400036824075845
-2.6355051198822412   -0.10377353678919299   -0.26400036824075845
-2.6355051198822412   -0.10377353678919299   -0.26400036824075845
-2.209233866773263   0.3525948488144848   0.15095364899170693
-2.209233866773263   0.3525948488144848   0.15095364899170693
-2.209233866773263   0.3525948488144848   0.15095364899170693
-2.209233866773263   0.3525948488144848   0.15095364899170693
-2.459349179055513   0.020928252883550713   0.060644605574956795
-2.459349179055513   0.020928252883550713   0.060644605574956795
-2.459349179055513   0.020928252883550713   0.060644605574956795
-2.459349179055513   0.020928252883550713   0.060644605574956795
-2.360808730579631   -0.03908279127137815   -0.21524302995429506
-2.360808730579631   -0.03908279127137815   -0.21524302995429506
-2.360808730579631   -0.03908279127137815   -0.21524302995429506
-2.360808730579631   -0.03908279127137815   -0.21524302995429506
-2.4683459442413547   0.30348841513114877   0.1645335580433638
-2.4683459442413547   0.30348841513114877   0.1645335580433638
-2.4683459442413547   0.30348841513114877   0.1645335580433638
-2.4683459442413547   0.30348841513114877   0.1645335580433638
-2.4948996004960757   0.15520349276291523   -0.28959038826739714
-2.4948996004960757   0.15520349276291523   -0.28959038826739714
-2.4948996004960757   0.15520349276291523   -0.28959038826739714
-2.4948996004960757   0.15520349276291523   -0.28959038826739714
-2.0979829842339224   0.5791935561105207   0.0992704371781371
-2.0979829842339224   0.5791935561105207   0.0992704371781371
-2.0979829842339224   0.5791935561105207   0.0992704371781371
-2.0979829842339224   0.5791935561105207   0.0992704371781371
-2.3352319973777522   0.23283210346124006   0.15590057332820717
-2.3352319973777522   0.23283210346124006   0.15590057332820717
-2.3352319973777522   0.23283210346124006   0.15590057332820717
-2.3352319973777522   0.23283210346124006   0.15590057332820717
-2.9562611357544104   -0.5923590057204238   -0.3181178362713878
-2.9562611357544104   -0.5923590057204238   -0.3181178362713878
-2.9562611357544104   -0.5923590057204238   -0.3181178362713878
-2.9562611357544104   -0.5923590057204238   -0.3181178362713878
-3.2508109363896276   0.05005688031497324   0.43345151772794643
-3.2508109363896276   0.05005688031497324   0.43345151772794643
-3.2508109363896276   0.05005688031497324   0.43345151772794643
-3.2508109363896276   0.05005688031497324   0.43345151772794643
-3.204252163961851   -0.48862881874575914   -0.4230559566966734
-3.204252163961851   -0.48862881874575914   -0.4230559566966734
-3.204252163961851   -0.48862881874575914   -0.4230559566966734
-3.204252163961851   -0.48862881874575914   -0.4230559566966734
-2.5290010673277328   0.3729278438166641   0.38857177862567965
-2.5290010673277328   0.3729278438166641   0.38857177862567965
-2.5290010673277328   0.3729278438166641   0.38857177862567965
-2.5290010673277328   0.3729278438166641   0.38857177862567965
-2.865860185775054   -0.1257987181043534   -0.02069360751646626
-2.865860185775054   -0.1257987181043534   -0.02069360751646626
-2.865860185775054   -0.1257987181043534   -0.02069360751646626
-2.865860185775054   -0.1257987181043534   -0.02069360751646626
-2.8345877218848035   -0.4028095575496883   -0.36362409279336694
-2.8345877218848035   -0.4028095575496883   -0.36362409279336694
-2.8345877218848035   -0.4028095575496883   -0.36362409279336694
-2.8345877218848035   -0.4028095575496883   -0.36362409279336694
-2.8823566950605386   0.3034173969648225   0.3943751720992769
-2.8823566950605386   0.3034173969648225   0.3943751720992769
-2.8823566950605386   0.3034173969648225   0.3943751720992769
-2.8823566950605386   0.3034173969648225   0.3943751720992769
-2.9281550527728393   -0.3513963189835748   -0.5039449030332303
-2.9281550527728393   -0.3513963189835748   -0.5039449030332303
-2.9281550527728393   -0.3513963189835748   -0.5039449030332303
-2.9281550527728393   -0.3513963189835748   -0.5039449030332303
-2.404450503611061   0.46957785574515665   0.31792132058079425
-2.404450503611061   0.46957785574515665   0.31792132058079425
-2.404450503611061   0.46957785574515665   0.31792132058079425
-2.404450503611061   0.46957785574515665   0.31792132058079425
-2.6776804993886087   0.01742819808280005   0.07494357881786132
-2.6776804993886087   0.01742819808280005   0.07494357881786132
-2.6776804993886087   0.01742819808280005   0.07494357881786132
-2.6776804993886087   0.01742819808280005   0.07494357881786132
-2.704008013902255   -0.2898630046906825   -0.42042537043935246
-2.704008013902255   -0.2898630046906825   -0.42042537043935246
-2.704008013902255   -0.2898630046906825   -0.42042537043935246
-2.704008013902255   -0.2898630046906825   -0.42042537043935246
-2.6115222731742165   0.4251198107596902   0.3027028652166176
-2.6115222731742165   0.4251198107596902   0.3027028652166176
-2.6115222731742165   0.4251198107596902   0.3027028652166176
-2.6115222731742165   0.4251198107596902   0.3027028652166176
-2.5666920128678714   -0.11354101044407061   -0.5504156720558606
-2.5666920128678714   -0.11354101044407061   -0.5504156720558606
-2.5666920128678714   -0.11354101044407061   -0.5504156720558606
-2.5666920128678714   -0.11354101044407061   -0.5504156720558606
-2.2927359285834017   0.6145613215917951   0.2618701424670806
-2.2927359285834017   0.6145613215917951   0.2618701424670806
-2.2927359285834017   0.6145613215917951   0.2618701424670806
-2.2927359285834017   0.6145613215917951   0.2618701424670806
-2.4229011212221474   0.16088636249728738   0.1853265720874146
-2.4229011212221474   0.16088636249728738   0.1853265720874146
-2.4229011212221474   0.16088636249728738   0.1853265720874146
-2.4229011212221474   0.16088636249728738   0.1853265720874146
1.785454175439644   0.28984191902567924   0.4733575317302813
1.785454175439644   0.28984191902567924   0.4733575317302813
1.785454175439644   0.28984191902567924   0.4733575317302813
1.785454175439644   0.28984191902567924   0.4733575317302813
-0.051025197126144894   -0.7619459957420988   -0.3136609598089921
-0.051025197126144894   -0.7619459957420988   -0.3136609598089921
-0.051025197126144894   -0.7619459957420988   -0.3136609598089921
-0.051025197126144894   -0.7619459957420988   -0.3136609598089921
0.39962199088857364   0.15006232381199713   0.3660183121235893
0.39962199088857364   0.15006232381199713   0.3660183121235893
0.39962199088857364   0.15006232381199713   0.3660183121235893
0.39962199088857364   0.15006232381199713   0.3660183121235893
1.8662978893132038   -0.27090426226356257   -0.39203220608477457
1.8662978893132038   -0.27090426226356257   -0.39203220608477457
1.8662978893132038   -0.27090426226356257   -0.39203220608477457
1.8662978893132038   -0.27090426226356257   -0.39203220608477457
0.9103190530552927   -0.14955522826099088   -0.22471487801147372
0.9103190530552927   -0.14955522826099088   -0.22471487801147372
0.9103190530552927   -0.14955522826099088   -0.22471487801147372
0.9103190530552927   -0.14955522826099088   -0.22471487801147372
2.188331569518634   0.5200391363742013   0.42719279630454987
2.188331569518634   0.5200391363742013   0.42719279630454987
2.188331569518634   0.5200391363742013   0.42719279630454987
2.188331569518634   0.5200391363742013   0.42719279630454987
0.09719463133740741   -0.6212747541715131   -0.3747814076487313
0.09719463133740741   -0.6212747541715131   -0.3747814076487313
0.09719463133740741   -0.6212747541715131   -0.3747814076487313
0.09719463133740741   -0.6212747541715131   -0.3747814076487313
0.5654516446776277   0.26065155297120945   0.30571506190609
0.5654516446776277   0.26065155297120945   0.30571506190609
0.5654516446776277   0.26065155297120945   0.30571506190609
0.5654516446776277   0.26065155297120945   0.30571506190609
2.181579637554041   -0.14592100890430393   -0.4910412632913739
2.181579637554041   -0.14592100890430393   -0.4910412632913739
2.181579637554041   -0.14592100890430393   -0.4910412632913739
2.181579637554041   -0.14592100890430393   -0.4910412632913739
1.1945860824584285   -0.011429558538406714   -0.10494496100867647
1.1945860824584285   -0.011429558538406714   -0.10494496100867647
1.1945860824584285   -0.011429558538406714   -0.10494496100867647
1.1945860824584285   -0.011429558538406714   -0.10494496100867647
2.5073586023102368   0.6552303686946548   0.3367021828907076
2.5073586023102368   0.6552303686946548   0.3367021828907076
2.5073586023102368   0.6552303686946548   0.3367021828907076
2.5073586023102368   0.6552303686946548   0.3367021828907076
0.25894166900373683   -0.5212308355454341   -0.44495242794672063
0.25894166900373683   -0.5212308355454341   -0.44495242794672063
0.25894166900373683   -0.5212308355454341   -0.44495242794672063
0.25894166900373683   -0.5212308355454341   -0.44495242794672063
0.7264819989913739   0.463231964034023   0.26458197297188807
0.7264819989913739   0.463231964034023   0.26458197297188807
0.7264819989913739   0.463231964034023   0.26458197297188807
0.7264819989913739   0.463231964034023   0.26458197297188807
2.5998527677505097   0.13396137279559722   -0.5417335119686695
2.5998527677505097   0.13396137279559722   -0.5417335119686695
2.5998527677505097   0.13396137279559722   -0.5417335119686695
2.5998527677505097   0.13396137279559722   -0.5417335119686695
1.4343931165487573   0.1430238638788803   0.008591310641018556
1.4343931165487573   0.1430238638788803   0.008591310641018556
1.4343931165487573   0.1430238638788803   0.008591310641018556
1.4343931165487573   0.1430238638788803   0.008591310641018556
0.24337657437967503   0.07637094826552437   0.320030953712515
0.24337657437967503   0.07637094826552437   0.320030953712515
0.24337657437967503   0.07637094826552437   0.320030953712515
0.24337657437967503   0.07637094826552437   0.320030953712515
-1.716087190755303   -0.6463232850818311   -0.14377967752616178
-1.716087190755303   -0.6463232850818311   -0.14377967752616178
-1.716087190755303   -0.6463232850818311   -0.14377967752616178
-1.716087190755303   -0.6463232850818311   -0.14377967752616178
-1.4308314693044708   -0.09291173960868115   0.14688455829394273
-1.4308314693044708   -0.09291173960868115   0.14688455829394273
-1.4308314693044708   -0.09291173960868115   0.14688455829394273
-1.4308314693044708   -0.09291173960868115   0.14688455829394273
0.25797404056880685   -0.07723933545138795   -0.11491978021185961
0.25797404056880685   -0.07723933545138795   -0.11491978021185961
0.25797404056880685   -0.07723933545138795   -0.11491978021185961
0.25797404056880685   -0.07723933545138795   -0.11491978021185961
-0.6753749644239602   -0.1684649388237996   -0.1083538040206813
-0.6753749644239602   -0.1684649388237996   -0.1083538040206813
-0.6753749644239602   -0.1684649388237996   -0.1083538040206813
-0.6753749644239602   -0.1684649388237996   -0.1083538040206813
0.41388764438211706   0.30344746012546475   0.2839614432778389
0.41388764438211706   0.30344746012546475   0.2839614432778389
0.41388764438211706   0.30344746012546475   0.2839614432778389
0.41388764438211706   0.30344746012546475   0.2839614432778389
-1.5725348099851344   -0.4593882720528054   -0.19515561266525122
-1.5725348099851344   -0.4593882720528054   -0.19515561266525122
-1.5725348099851344   -0.4593882720528054   -0.19515561266525122
-1.5725348099851344   -0.4593882720528054   -0.19515561266525122
-1.2795083586669869   0.12124351663858224   0.10390169229583548
-1.2795083586669869   0.12124351663858224   0.10390169229583548
-1.2795083586669869   0.12124351663858224   0.10390169229583548
-1.2795083586669869   0.12124351663858224   0.10390169229583548
0.4463820168859951   0.12642287968653976   -0.1554044037674032
0.4463820168859951   0.12642287968653976   -0.1554044037674032
0.4463820168859951   0.12642287968653976   -0.1554044037674032
0.4463820168859951   0.12642287968653976   -0.1554044037674032
-0.5150482985844855   0.020782551063016713   -0.01286049923670679
-0.5150482985844855   0.020782551063016713   -0.01286049923670679
-0.5150482985844855   0.020782551063016713   -0.01286049923670679
-0.5150482985844855   0.020782551063016713   -0.01286049923670679
0.6088103658578453   0.5289658060333418   0.2541944147450461
0.6088103658578453   0.5289658060333418   0.2541944147450461
0.6088103658578453   0.5289658060333418   0.2541944147450461
0.6088103658578453   0.5289658060333418   0.2541944147450461
-1.4282871222197253   -0.26764982428914874   -0.25109878454012535
-1.4282871222197253   -0.26764982428914874   -0.25109878454012535
-1.4282871222197253   -0.26764982428914874   -0.25109878454012535
-1.4282871222197253   -0.26764982428914874   -0.25109878454012535
-1.127338163567051   0.3630253024319784   0.06292362689983991
-1.127338163567051   0.3630253024319784   0.06292362689983991
-1.127338163567051   0.3630253024319784   0.06292362689983991
-1.127338163567051   0.3630253024319784   0.06292362689983991
0.6125898703978266   0.35694159549749205   -0.1985883014593174
0.6125898703978266   0.35694159549749205   -0.1985883014593174
0.6125898703978266   0.35694159549749205   -0.1985883014593174
0.6125898703978266   0.35694159549749205   -0.1985883014593174
-0.33816596377592956   0.2293097404250684   0.08879065935184066
-0.33816596377592956   0.2293097404250684   0.08879065935184066
-0.33816596377592956   0.2293097404250684   0.08879065935184066
-0.33816596377592956   0.2293097404250684   0.08879065935184066
-1.560093196762672   -0.12478962780739655   0.11465663516255942
-1.560093196762672   -0.12478962780739655   0.11465663516255942
-1.560093196762672   -0.12478962780739655   0.11465663516255942
-1.560093196762672   -0.12478962780739655   0.11465663516255942
-3.3512999789207054   -0.45696704722810433   0.030361154727460017
-3.3512999789207054   -0.45696704722810433   0.030361154727460017
-3.3512999789207054   -0.45696704722810433   0.030361154727460017
-3.3512999789207054   -0.45696704722810433   0.030361154727460017
-3.2183713001494163   -0.28544428823488377   -0.0632848980541473
-3.2183713001494163   -0.28544428823488377   -0.0632848980541473
-3.2183713001494163   -0.28544428823488377   -0.0632848980541473
-3.2183713001494163   -0.28544428823488377   -0.0632848980541473
-1.403504006241524   0.11884043133922129   0.07176970266080453
-1.403504006241524   0.11884043133922129   0.07176970266080453
-1.403504006241524   0.11884043133922129   0.07176970266080453
-1.403504006241524   0.11884043133922129   0.07176970266080453
-2.386816071974276   -0.17166152922444644   -0.06278876197422992
-2.386816071974276   -0.17166152922444644   -0.06278876197422992
-2.386816071974276   -0.17166152922444644   -0.06278876197422992
-2.386816071974276   -0.17166152922444644   -0.06278876197422992
-1.405572922238547   0.10485456480091832   0.07541098921399383
-1.405572922238547   0.10485456480091832   0.07541098921399383
-1.405572922238547   0.10485456480091832   0.07541098921399383
-1.405572922238547   0.10485456480091832   0.07541098921399383
-3.204169807091569   -0.2593258446357562   -0.018395876364038208
-3.204169807091569   -0.2593258446357562   -0.018395876364038208
-3.204169807091569   -0.2593258446357562   -0.018395876364038208
-3.204169807091569   -0.2593258446357562   -0.018395876364038208
-3.0593558455796015   -0.04970873610124271   -0.09953146375270308
-3.0593558455796015   -0.04970873610124271   -0.09953146375270308
-3.0593558455796015   -0.04970873610124271   -0.09953146375270308
-3.0593558455796015   -0.04970873610124271   -0.09953146375270308
-1.2536596386175125   0.3282431109691297   0.026145698212660162
-1.2536596386175125   0.3282431109691297   0.026145698212660162
-1.2536596386175125   0.3282431109691297   0.026145698212660162
-1.2536596386175125   0.3282431109691297   0.026145698212660162
-2.222712843228413   0.035543126750347986   0.0333114536793874
-2.222712843228413   0.035543126750347986   0.0333114536793874
-2.222712843228413   0.035543126750347986   0.0333114536793874
-2.222712843228413   0.035543126750347986   0.0333114536793874
-1.2500818547009471   0.3387565838149601   0.03352114494965705
-1.2500818547009471   0.3387565838149601   0.03352114494965705
-1.2500818547009471   0.3387565838149601   0.03352114494965705
-1.2500818547009471   0.3387565838149601   0.03352114494965705
-3.0532804012721293   -0.050568980723039725   -0.06829399759357033
-3.0532804012721293   -0.050568980723039725   -0.06829399759357033
-3.0532804012721293   -0.050568980723039725   -0.06829399759357033
-3.0532804012721293   -0.050568980723039725   -0.06829399759357033
-2.90678304981744   0.1865897272302136   -0.14101034171462778
-2.90678304981744   0.1865897272302136   -0.14101034171462778
-2.90678304981744   0.1865897272302136   -0.14101034171462778
-2.90678304981744   0.1865897272302136   -0.14101034171462778
-1.110132043386931   0.538264445123488   -0.02628491489103918
-1.110132043386931   0.538264445123488   -0.02628491489103918
-1.110132043386931   0.538264445123488   -0.02628491489103918
-1.110132043386931   0.538264445123488   -0.02628491489103918
-2.0670668310690066   0.24213906381987427   0.12313565432843329
-2.0670668310690066   0.24213906381987427   0.12313565432843329
-2.0670668310690066   0.24213906381987427   0.12313565432843329
-2.0670668310690066   0.24213906381987427   0.12313565432843329
-3.3501603820539665   -0.3236283761490371   -0.09727953201788801
-3.3501603820539665   -0.3236283761490371   -0.09727953201788801
-3.3501603820539665   -0.3236283761490371   -0.09727953201788801
-3.3501603820539665   -0.3236283761490371   -0.09727953201788801
-4.966356986094902   -0.27911117620070125   0.20158927027292556
-4.966356986094902   -0.27911117620070125   0.20158927027292556
-4.966356986094902   -0.27911117620070125   0.20158927027292556
-4.966356986094902   -0.27911117620070125   0.20158927027292556
-4.965318776902062   -0.473690743879026   -0.26801548082832394
-4.965318776902062   -0.473690743879026   -0.26801548082832394
-4.965318776902062   -0.473690743879026   -0.26801548082832394
-4.965318776902062   -0.473690743879026   -0.26801548082832394
-3.0385298902085545   0.3051410679164752   0.24533679549880294
-3.0385298902085545   0.3051410679164752   0.24533679549880294
-3.0385298902085545   0.3051410679164752   0.24533679549880294
-3.0385298902085545   0.3051410679164752   0.24533679549880294
-4.057405009478249   -0.17269596636430584   -0.026201071437895934
-4.057405009478249   -0.17269596636430584   -0.026201071437895934
-4.057405009478249   -0.17269596636430584   -0.026201071437895934
-4.057405009478249   -0.17269596636430584   -0.026201071437895934
-3.194234525365555   -0.09289988323337295   -0.1351454291363198
-3.194234525365555   -0.09289988323337295   -0.1351454291363198
-3.194234525365555   -0.09289988323337295   -0.1351454291363198
-3.194234525365555   -0.09289988323337295   -0.1351454291363198
-4.799659031075899   -0.06569468206004414   0.15228718648355033
-4.799659031075899   -0.06569468206004414   0.15228718648355033
-4.799659031075899   -0.06569468206004414   0.15228718648355033
-4.799659031075899   -0.06569468206004414   0.15228718648355033
-4.7666635138380045   -0.24871789679122747   -0.29818043197186805
-4.7666635138380045   -0.24871789679122747   -0.29818043197186805
-4.7666635138380045   -0.24871789679122747   -0.29818043197186805
-4.7666635138380045   -0.24871789679122747   -0.29818043197186805
-2.8913040992380257   0.49581341476675844   0.19520511708717336
-2.8913040992380257   0.49581341476675844   0.19520511708717336
-2.8913040992380257   0.49581341476675844   0.19520511708717336
-2.8913040992380257   0.49581341476675844   0.19520511708717336
-3.861235036256791   0.036095115695055635   0.07271033882281236
-3.861235036256791   0.036095115695055635   0.07271033882281236
-3.861235036256791   0.036095115695055635   0.07271033882281236
-3.861235036256791   0.036095115695055635   0.07271033882281236
-3.0418755575726872   0.11959002407694319   -0.18142878389633135
-3.0418755575726872   0.11959002407694319   -0.18142878389633135
-3.0418755575726872   0.11959002407694319   -0.18142878389633135
-3.0418755575726872   0.11959002407694319   -0.18142878389633135
-4.6048794330428215   0.13871811635906584   0.123303958853752
-4.6048794330428215   0.13871811635906584   0.123303958853752
-4.6048794330428215   0.13871811635906584   0.123303958853752
-4.6048794330428215   0.13871811635906584   0.123303958853752
-4.588861306536758   -0.003010036743815725   -0.32086920479070985
-4.588861306536758   -0.003010036743815725   -0.32086920479070985
-4.588861306536758   -0.003010036743815725   -0.32086920479070985
-4.588861306536758   -0.003010036743815725   -0.32086920479070985
-2.7455882676892616   0.7068292257407212   0.14472407041575536
-2.7455882676892616   0.7068292257407212   0.14472407041575536
-2.7455882676892616   0.7068292257407212   0.14472407041575536
-2.7455882676892616   0.7068292257407212   0.14472407041575536
-3.713422985017307   0.23121595617326107   0.16147963759530815
-3.713422985017307   0.23121595617326107   0.16147963759530815
-3.713422985017307   0.23121595617326107   0.16147963759530815
-3.713422985017307   0.23121595617326107   0.16147963759530815
-5.10280423118394   -0.46581975705339307   -0.29393837431957315
-5.10280423118394   -0.46581975705339307   -0.29393837431957315
-5.10280423118394   -0.46581975705339307   -0.29393837431957315
-5.10280423118394   -0.46581975705339307   -0.29393837431957315
-6.804543091476491   -0.11610545603057854   0.43410182255951607
-6.804543091476491   -0.11610545603057854   0.43410182255951607
-6.804543091476491   -0.11610545603057854   0.43410182255951607
-6.804543091476491   -0.11610545603057854   0.43410182255951607
-6.705888123537129   -0.6184156065658963   -0.3912584170777276
-6.705888123537129   -0.6184156065658963   -0.3912584170777276
-6.705888123537129   -0.6184156065658963   -0.3912584170777276
-6.705888123537129   -0.6184156065658963   -0.3912584170777276
-4.6284289646805705   0.5147881055034742   0.42795473089662683
-4.6284289646805705   0.5147881055034742   0.42795473089662683
-4.6284289646805705   0.5147881055034742   0.42795473089662683
-4.6284289646805705   0.5147881055034742   0.42795473089662683
-5.560222083697558   -0.0982389593142945   0.04491793383927828
-5.560222083697558   -0.0982389593142945   0.04491793383927828
-5.560222083697558   -0.0982389593142945   0.04491793383927828
-5.560222083697558   -0.0982389593142945   0.04491793383927828
-4.933889048925371   -0.25222968766064424   -0.3323278971632247
-4.933889048925371   -0.25222968766064424   -0.3323278971632247
-4.933889048925371   -0.25222968766064424   -0.3323278971632247
-4.933889048925371   -0.25222968766064424   -0.3323278971632247
-6.391445580487169   0.15758464540332495   0.4049540462027239
-6.391445580487169   0.15758464540332495   0.4049540462027239
-6.391445580487169   0.15758464540332495   0.4049540462027239
-6.391445580487169   0.15758464540332495   0.4049540462027239
-6.392957367599415   -0.48478486409267196   -0.4653854146199943
-6.392957367599415   -0.48478486409267196   -0.4653854146199943
-6.392957367599415   -0.48478486409267196   -0.4653854146199943
-6.392957367599415   -0.48478486409267196   -0.4653854146199943
-4.466233323588702   0.6026177984086603   0.3526348240747276
-4.466233323588702   0.6026177984086603   0.3526348240747276
-4.466233323588702   0.6026177984086603   0.3526348240747276
-4.466233323588702   0.6026177984086603   0.3526348240747276
-5.380819743727293   0.04179097985951974   0.12497281551736333
-5.380819743727293   0.04179097985951974   0.12497281551736333
-5.380819743727293   0.04179097985951974   0.12497281551736333
-5.380819743727293   0.04179097985951974   0.12497281551736333
-4.762429621145812   -0.14229000411531656   -0.3834388611868208
-4.762429621145812   -0.14229000411531656   -0.3834388611868208
-4.762429621145812   -0.14229000411531656   -0.3834388611868208
-4.762429621145812   -0.14229000411531656   -0.3834388611868208
-6.085723479448514   0.27116052902505383   0.31483863301675286
-6.085723479448514   0.27116052902505383   0.31483863301675286
-6.085723479448514   0.27116052902505383   0.31483863301675286
-6.085723479448514   0.27116052902505383   0.31483863301675286
-6.008354710515457   -0.2846603960091614   -0.5186196636054007
-6.008354710515457   -0.2846603960091614   -0.5186196636054007
-6.008354710515457   -0.2846603960091614   -0.5186196636054007
-6.008354710515457   -0.2846603960091614   -0.5186196636054007
-4.3234053206788055   0.7096212747504156   0.2937794130048252
-4.3234053206788055   0.7096212747504156   0.2937794130048252
-4.3234053206788055   0.7096212747504156   0.2937794130048252
-4.3234053206788055   0.7096212747504156   0.2937794130048252
-5.049955714835124   0.1733072253418384   0.23731653346110615
-5.049955714835124   0.1733072253418384   0.23731653346110615
-5.049955714835124   0.1733072253418384   0.23731653346110615
-5.049955714835124   0.1733072253418384   0.23731653346110615
5.436766606758197   0.4933260780916201   0.47490760547526056
5.436766606758197   0.4933260780916201   0.47490760547526056
5.436766606758197   0.4933260780916201   0.47490760547526056
5.436766606758197   0.4933260780916201   0.47490760547526056
1.9951509315303224   -0.9104120541522218   -0.3127698879970644
1.9951509315303224   -0.9104120541522218   -0.3127698879970644
1.9951509315303224   -0.9104120541522218   -0.3127698879970644
1.9951509315303224   -0.9104120541522218   -0.3127698879970644
2.4690552245635735   -0.0035390513136036583   0.3420365134146505
2.4690552245635735   -0.0035390513136036583   0.3420365134146505
2.4690552245635735   -0.0035390513136036583   0.3420365134146505
2.4690552245635735   -0.0035390513136036583   0.3420365134146505
5.538560582617739   -0.1312535399697663   -0.3990736695129909
5.538560582617739   -0.1312535399697663   -0.3990736695129909
5.538560582617739   -0.1312535399697663   -0.3990736695129909
5.538560582617739   -0.1312535399697663   -0.3990736695129909
3.6224041111639056   -0.16627953747144764   -0.3513008413109919
3.6224041111639056   -0.16627953747144764   -0.3513008413109919
3.6224041111639056   -0.16627953747144764   -0.3513008413109919
3.6224041111639056   -0.16627953747144764   -0.3513008413109919
5.865159363924057   0.6898398444044376   0.41282685264437174
5.865159363924057   0.6898398444044376   0.41282685264437174
5.865159363924057   0.6898398444044376   0.41282685264437174
5.865159363924057   0.6898398444044376   0.41282685264437174
2.1654228329786025   -0.8016660459664541   -0.3779984498572932
2.1654228329786025   -0.8016660459664541   -0.3779984498572932
2.1654228329786025   -0.8016660459664541   -0.3779984498572932
2.1654228329786025   -0.8016660459664541   -0.3779984498572932
2.6574283915545642   0.10391776416653753   0.28230384806231024
2.6574283915545642   0.10391776416653753   0.28230384806231024
2.6574283915545642   0.10391776416653753   0.28230384806231024
2.6574283915545642   0.10391776416653753   0.28230384806231024
5.880050489245086   -0.009008503507740517   -0.5034373120463194
5.880050489245086   -0.009008503507740517   -0.5034373120463194
5.880050489245086   -0.009008503507740517   -0.5034373120463194
5.880050489245086   -0.009008503507740517   -0.5034373120463194
3.978302064072533   -0.034040928800940895   -0.21233402749672275
3.978302064072533   -0.034040928800940895   -0.21233402749672275
3.978302064072533   -0.034040928800940895   -0.21233402749672275
3.978302064072533   -0.034040928800940895   -0.21233402749672275
6.210453773774712   0.8216468270140785   0.3179237800798671
6.210453773774712   0.8216468270140785   0.3179237800798671
6.210453773774712   0.8216468270140785   0.3179237800798671
6.210453773774712   0.8216468270140785   0.3179237800798671
2.351597621375183   -0.702165052005047   -0.44076718666294884
2.351597621375183   -0.702165052005047   -0.44076718666294884
2.351597621375183   -0.702165052005047   -0.44076718666294884
2.351597621375183   -0.702165052005047   -0.44076718666294884
2.845507777511693   0.3403754888691242   0.24468205863778225
2.845507777511693   0.3403754888691242   0.24468205863778225
2.845507777511693   0.3403754888691242   0.24468205863778225
2.845507777511693   0.3403754888691242   0.24468205863778225
6.328124941066812   0.30989849625294963   -0.5433047044942296
6.328124941066812   0.30989849625294963   -0.5433047044942296
6.328124941066812   0.30989849625294963   -0.5433047044942296
6.328124941066812   0.30989849625294963   -0.5433047044942296
4.199749436756066   0.12648050769045271   -0.09170973983132166
4.199749436756066   0.12648050769045271   -0.09170973983132166
4.199749436756066   0.12648050769045271   -0.09170973983132166
4.199749436756066   0.12648050769045271   -0.09170973983132166
2.3704812908832946   0.27536693139519147   0.37810292322035377
2.3704812908832946   0.27536693139519147   0.37810292322035377
2.3704812908832946   0.27536693139519147   0.37810292322035377
2.3704812908832946   0.27536693139519147   0.37810292322035377
-1.1475799296920377   -0.8491889815246779   -0.16358692703386268
-1.1475799296920377   -0.8491889815246779   -0.16358692703386268
-1.1475799296920377   -0.8491889815246779   -0.16358692703386268
-1.1475799296920377   -0.8491889815246779   -0.16358692703386268
-0.8207048274597661   -0.24695714852585393   0.11517002244413797
-0.8207048274597661   -0.24695714852585393   0.11517002244413797
-0.8207048274597661   -0.24695714852585393   0.11517002244413797
-0.8207048274597661   -0.24695714852585393   0.11517002244413797
2.3915783364039664   0.0020958479124694174   -0.05098282660939732
2.3915783364039664   0.0020958479124694174   -0.05098282660939732
2.3915783364039664   0.0020958479124694174   -0.05098282660939732
2.3915783364039664   0.0020958479124694174   -0.05098282660939732
0.6673060172379698   -0.18094652739817563   -0.15021893775916703
0.6673060172379698   -0.18094652739817563   -0.15021893775916703
0.6673060172379698   -0.18094652739817563   -0.15021893775916703
0.6673060172379698   -0.18094652739817563   -0.15021893775916703
2.563779821657998   0.4744415552695929   0.33767889230360804
2.563779821657998   0.4744415552695929   0.33767889230360804
2.563779821657998   0.4744415552695929   0.33767889230360804
2.563779821657998   0.4744415552695929   0.33767889230360804
-0.9791945039382484   -0.7055910471074329   -0.218644461366694
-0.9791945039382484   -0.7055910471074329   -0.218644461366694
-0.9791945039382484   -0.7055910471074329   -0.218644461366694
-0.9791945039382484   -0.7055910471074329   -0.218644461366694
-0.6451164894584012   -0.04620291631117453   0.0729651225884216
-0.6451164894584012   -0.04620291631117453   0.0729651225884216
-0.6451164894584012   -0.04620291631117453   0.0729651225884216
-0.6451164894584012   -0.04620291631117453   0.0729651225884216
2.5977425571909927   0.18249478019381327   -0.09470233978276169
2.5977425571909927   0.18249478019381327   -0.09470233978276169
2.5977425571909927   0.18249478019381327   -0.09470233978276169
2.5977425571909927   0.18249478019381327   -0.09470233978276169
0.8371394865166424   -0.022161351635303528   -0.059813952954880824
0.8371394865166424   -0.022161351635303528   -0.059813952954880824
0.8371394865166424   -0.022161351635303528   -0.059813952954880824
0.8371394865166424   -0.022161351635303528   -0.059813952954880824
2.776796955238783   0.6834996952004719   0.2995647354494699
2.776796955238783   0.6834996952004719   0.2995647354494699
2.776796955238783   0.6834996952004719   0.2995647354494699
2.776796955238783   0.6834996952004719   0.2995647354494699
-0.8104077700201405   -0.5334447138317925   -0.26624948269965737
-0.8104077700201405   -0.5334447138317925   -0.26624948269965737
-0.8104077700201405   -0.5334447138317925   -0.26624948269965737
-0.8104077700201405   -0.5334447138317925   -0.26624948269965737
-0.47182108109558313   0.18596035749909484   0.030916460042351795
-0.47182108109558313   0.18596035749909484   0.030916460042351795
-0.47182108109558313   0.18596035749909484   0.030916460042351795
-0.47182108109558313   0.18596035749909484   0.030916460042351795
2.780867466180926   0.3969468317949142   -0.13509084094180795
2.780867466180926   0.3969468317949142   -0.13509084094180795
2.780867466180926   0.3969468317949142   -0.13509084094180795
2.780867466180926   0.3969468317949142   -0.13509084094180795
1.0460861922834006   0.17222114720971618   0.04562549944234186
1.0460861922834006   0.17222114720971618   0.04562549944234186
1.0460861922834006   0.17222114720971618   0.04562549944234186
1.0460861922834006   0.17222114720971618   0.04562549944234186
-0.9011599601859787   0.05904459447308569   0.1602793444986834
-0.9011599601859787   0.05904459447308569   0.1602793444986834
-0.9011599601859787   0.05904459447308569   0.1602793444986834
-0.9011599601859787   0.05904459447308569   0.1602793444986834
-4.227754152331758   -0.7489083632707673   -0.02104495500047807
-4.227754152331758   -0.7489083632707673   -0.02104495500047807
-4.227754152331758   -0.7489083632707673   -0.02104495500047807
-4.227754152331758   -0.7489083632707673   -0.02104495500047807
-4.019150982870305   -0.4385479498354324   -0.09952522658392866
-4.019150982870305   -0.4385479498354324   -0.09952522658392866
-4.019150982870305   -0.4385479498354324   -0.09952522658392866
-4.019150982870305   -0.4385479498354324   -0.09952522658392866
-0.7514357026917606   0.10756565257265527   0.1069928451856563
-0.7514357026917606   0.10756565257265527   0.1069928451856563
-0.7514357026917606   0.10756565257265527   0.1069928451856563
-0.7514357026917606   0.10756565257265527   0.1069928451856563
-2.479278590926873   -0.23071144827164014   -0.09366078242838663
-2.479278590926873   -0.23071144827164014   -0.09366078242838663
-2.479278590926873   -0.23071144827164014   -0.09366078242838663
-2.479278590926873   -0.23071144827164014   -0.09366078242838663
-0.716937031437775   0.26600854714454847   0.12104330688369143
-0.716937031437775   0.26600854714454847   0.12104330688369143
-0.716937031437775   0.26600854714454847   0.12104330688369143
-0.716937031437775   0.26600854714454847   0.12104330688369143
-4.044606080280491   -0.5879472705635664   -0.07740139290672265
-4.044606080280491   -0.5879472705635664   -0.07740139290672265
-4.044606080280491   -0.5879472705635664   -0.07740139290672265
-4.044606080280491   -0.5879472705635664   -0.07740139290672265
-3.825701993551125   -0.21829367563107782   -0.13449587985501066
-3.825701993551125   -0.21829367563107782   -0.13449587985501066
-3.825701993551125   -0.21829367563107782   -0.13449587985501066
-3.825701993551125   -0.21829367563107782   -0.13449587985501066
-0.5804869078152122   0.2897457060115064   0.0601644084817011
-0.5804869078152122   0.2897457060115064   0.0601644084817011
-0.5804869078152122   0.2897457060115064   0.0601644084817011
-0.5804869078152122   0.2897457060115064   0.0601644084817011
-2.2842239951444308   -0.046375404226703776   -0.0015042215440462109
-2.2842239951444308   -0.046375404226703776   -0.0015042215440462109
-2.2842239951444308   -0.046375404226703776   -0.0015042215440462109
-2.2842239951444308   -0.046375404226703776   -0.0015042215440462109
-0.5389003386232394   0.4812786861800554   0.07656427427301574
-0.5389003386232394   0.4812786861800554   0.07656427427301574
-0.5389003386232394   0.4812786861800554   0.07656427427301574
-0.5389003386232394   0.4812786861800554   0.07656427427301574
-3.8588644938088374   -0.40140258686540786   -0.11719946990924432
-3.8588644938088374   -0.40140258686540786   -0.11719946990924432
-3.8588644938088374   -0.40140258686540786   -0.11719946990924432
-3.8588644938088374   -0.40140258686540786   -0.11719946990924432
-3.6456775305109996   0.0011254221016492316   -0.17643454287640972
-3.6456775305109996   0.0011254221016492316   -0.17643454287640972
-3.6456775305109996   0.0011254221016492316   -0.17643454287640972
-3.6456775305109996   0.0011254221016492316   -0.17643454287640972
-0.41715854921785905   0.4759168105857582   0.01427266634430907
-0.41715854921785905   0.4759168105857582   0.01427266634430907
-0.41715854921785905   0.4759168105857582   0.01427266634430907
-0.41715854921785905   0.4759168105857582   0.01427266634430907
-2.104950316022002   0.13724214937085016   0.08623734908164132
-2.104950316022002   0.13724214937085016   0.08623734908164132
-2.104950316022002   0.13724214937085016   0.08623734908164132
-2.104950316022002   0.13724214937085016   0.08623734908164132
-4.119221396608098   -0.1628831835737553   -0.06440635607914874
-4.119221396608098   -0.1628831835737553   -0.06440635607914874
-4.119221396608098   -0.1628831835737553   -0.06440635607914874
-4.119221396608098   -0.1628831835737553   -0.06440635607914874
-7.233703497919907   -0.605151982924481   0.14219562046243525
-7.233703497919907   -0.605151982924481   0.14219562046243525
-7.233703497919907   -0.605151982924481   0.14219562046243525
-7.233703497919907   -0.605151982924481   0.14219562046243525
-7.130198657820736   -0.6222202192418145   -0.29980087268046385
-7.130198657820736   -0.6222202192418145   -0.29980087268046385
-7.130198657820736   -0.6222202192418145   -0.29980087268046385
-7.130198657820736   -0.6222202192418145   -0.29980087268046385
-3.8016945075183304   0.2793837947701543   0.2698254055703886
-3.8016945075183304   0.2793837947701543   0.2698254055703886
-3.8016945075183304   0.2793837947701543   0.2698254055703886
-3.8016945075183304   0.2793837947701543   0.2698254055703886
-5.532646237453567   -0.24237742544540375   -0.03252610145124471
-5.532646237453567   -0.24237742544540375   -0.03252610145124471
-5.532646237453567   -0.24237742544540375   -0.03252610145124471
-5.532646237453567   -0.24237742544540375   -0.03252610145124471
-3.918906235973861   0.06052379273019248   -0.09737323466730385
-3.918906235973861   0.06052379273019248   -0.09737323466730385
-3.918906235973861   0.06052379273019248   -0.09737323466730385
-3.918906235973861   0.06052379273019248   -0.09737323466730385
-7.0128549513822716   -0.4032282392189088   0.06792567948901507
-7.0128549513822716   -0.4032282392189088   0.06792567948901507
-7.0128549513822716   -0.4032282392189088   0.06792567948901507
-7.0128549513822716   -0.4032282392189088   0.06792567948901507
-6.877829231978053   -0.406848144432975   -0.33157754617146673
-6.877829231978053   -0.406848144432975   -0.33157754617146673
-6.877829231978053   -0.406848144432975   -0.33157754617146673
-6.877829231978053   -0.406848144432975   -0.33157754617146673
-3.621388260544702   0.45328957032742934   0.21548953921863423
-3.621388260544702   0.45328957032742934   0.21548953921863423
-3.621388260544702   0.45328957032742934   0.21548953921863423
-3.621388260544702   0.45328957032742934   0.21548953921863423
-5.276351068504869   -0.03852743736159825   0.059740490324558304
-5.276351068504869   -0.03852743736159825   0.059740490324558304
-5.276351068504869   -0.03852743736159825   0.059740490324558304
-5.276351068504869   -0.03852743736159825   0.059740490324558304
-3.731407566614793   0.26040684476090703   -0.1417242655653167
-3.731407566614793   0.26040684476090703   -0.1417242655653167
-3.731407566614793   0.26040684476090703   -0.1417242655653167
-3.731407566614793   0.26040684476090703   -0.1417242655653167
-6.762331080375067   -0.20848657333356035   0.047551640744050494
-6.762331080375067   -0.20848657333356035   0.047551640744050494
-6.762331080375067   -0.20848657333356035   0.047551640744050494
-6.762331080375067   -0.20848657333356035   0.047551640744050494
-6.652121911684943   -0.17312494705298254   -0.34851314955708196
-6.652121911684943   -0.17312494705298254   -0.34851314955708196
-6.652121911684943   -0.17312494705298254   -0.34851314955708196
-6.652121911684943   -0.17312494705298254   -0.34851314955708196
-3.4467501480365934   0.6448532291491801   0.1744745624481221
-3.4467501480365934   0.6448532291491801   0.1744745624481221
-3.4467501480365934   0.6448532291491801   0.1744745624481221
-3.4467501480365934   0.6448532291491801   0.1744745624481221
-5.101751389190732   0.13601228067480697   0.13943029175387417
-5.101751389190732   0.13601228067480697   0.13943029175387417
-5.101751389190732   0.13601228067480697   0.13943029175387417
-5.101751389190732   0.13601228067480697   0.13943029175387417
-7.265495333673641   -0.34958281435671235   -0.27233272687400306
-7.265495333673641   -0.34958281435671235   -0.27233272687400306
-7.265495333673641   -0.34958281435671235   -0.27233272687400306
-7.265495333673641   -0.34958281435671235   -0.27233272687400306
-10.347223470351786   -0.3719934113569976   0.4724043816761271
-10.347223470351786   -0.3719934113569976   0.4724043816761271
-10.347223470351786   -0.3719934113569976   0.4724043816761271
-10.347223470351786   -0.3719934113569976   0.4724043816761271
-10.143045921019976   -0.7456268358045262   -0.3595030193039702
-10.143045921019976   -0.7456268358045262   -0.3595030193039702
-10.143045921019976   -0.7456268358045262   -0.3595030193039702
-10.143045921019976   -0.7456268358045262   -0.3595030193039702
-6.733600228160619   0.5814369878159296   0.4795340685623718
-6.733600228160619   0.5814369878159296   0.4795340685623718
-6.733600228160619   0.5814369878159296   0.4795340685623718
-6.733600228160619   0.5814369878159296   0.4795340685623718
-8.240208822415623   -0.101981381323061   0.09375735896488596
-8.240208822415623   -0.101981381323061   0.09375735896488596
-8.240208822415623   -0.101981381323061   0.09375735896488596
-8.240208822415623   -0.101981381323061   0.09375735896488596
-7.028593576770591   -0.11136241702346594   -0.30263326964805415
-7.028593576770591   -0.11136241702346594   -0.30263326964805415
-7.028593576770591   -0.11136241702346594   -0.30263326964805415
-7.028593576770591   -0.11136241702346594   -0.30263326964805415
-9.843466836814995   -0.04824169537012857   0.44100726128645584
-9.843466836814995   -0.04824169537012857   0.44100726128645584
-9.843466836814995   -0.04824169537012857   0.44100726128645584
-9.843466836814995   -0.04824169537012857   0.44100726128645584
-9.762517024468636   -0.6117930634553823   -0.4231357843653075
-9.762517024468636   -0.6117930634553823   -0.4231357843653075
-9.762517024468636   -0.6117930634553823   -0.4231357843653075
-9.762517024468636   -0.6117930634553823   -0.4231357843653075
-6.5214056775905   0.6640257493684769   0.37966633196484667
-6.5214056775905   0.6640257493684769   0.37966633196484667
-6.5214056775905   0.6640257493684769   0.37966633196484667
-6.5214056775905   0.6640257493684769   0.37966633196484667
-8.041219386624448   0.043984210874916   0.17100268863371065
-8.041219386624448   0.043984210874916   0.17100268863371065
-8.041219386624448   0.043984210874916   0.17100268863371065
-8.041219386624448   0.043984210874916   0.17100268863371065
-6.799639626368537   -0.0034049662280608572   -0.344072696328798
-6.799639626368537   -0.0034049662280608572   -0.344072696328798
-6.799639626368537   -0.0034049662280608572   -0.344072696328798
-6.799639626368537   -0.0034049662280608572   -0.344072696328798
-9.47977154088685   0.06014918694487559   0.31864938314319036
-9.47977154088685   0.06014918694487559   0.31864938314319036
-9.47977154088685   0.06014918694487559   0.31864938314319036
-9.47977154088685   0.06014918694487559   0.31864938314319036
-9.347409186878986   -0.4502932332765164   -0.48178926092965263
-9.347409186878986   -0.4502932332765164   -0.48178926092965263
-9.347409186878986   -0.4502932332765164   -0.48178926092965263
-9.347409186878986   -0.4502932332765164   -0.48178926092965263
-6.33453022934765   0.7429259912167938   0.32339432385960465
-6.33453022934765   0.7429259912167938   0.32339432385960465
-6.33453022934765   0.7429259912167938   0.32339432385960465
-6.33453022934765   0.7429259912167938   0.32339432385960465
-7.623617016107741   0.16565849895966123   0.2869787830006728
-7.623617016107741   0.16565849895966123   0.2869787830006728
-7.623617016107741   0.16565849895966123   0.2869787830006728
-7.623617016107741   0.16565849895966123   0.2869787830006728
9.163909013670828   0.6836905050141753   0.48898482569441526
9.163909013670828   0.6836905050141753   0.48898482569441526
9.163909013670828   0.6836905050141753   0.48898482569441526
9.163909013670828   0.6836905050141753   0.48898482569441526
4.048150906467818   -1.085858525241228   -0.2232003240493774
4.048150906467818   -1.085858525241228   -0.2232003240493774
4.048150906467818   -1.085858525241228   -0.2232003240493774
4.048150906467818   -1.085858525241228   -0.2232003240493774
4.518879947875359   -0.18808673728663217   0.3364409786450608
4.518879947875359   -0.18808673728663217   0.3364409786450608
4.518879947875359   -0.18808673728663217   0.3364409786450608
4.518879947875359   -0.18808673728663217   0.3364409786450608
9.267908236617151   -0.02368099651398925   -0.35088502666381705
9.267908236617151   -0.02368099651398925   -0.35088502666381705
9.267908236617151   -0.02368099651398925   -0.35088502666381705
9.267908236617151   -0.02368099651398925   -0.35088502666381705
6.35406073790211   -0.1953333922436118   -0.4993881094935452
6.35406073790211   -0.1953333922436118   -0.4993881094935452
6.35406073790211   -0.1953333922436118   -0.4993881094935452
6.35406073790211   -0.1953333922436118   -0.4993881094935452
9.59291364811844   0.8412700115822405   0.4091910227463417
9.59291364811844   0.8412700115822405   0.4091910227463417
9.59291364811844   0.8412700115822405   0.4091910227463417
9.59291364811844   0.8412700115822405   0.4091910227463417
4.22502386981419   -1.0218884119427407   -0.29903773700461334
4.22502386981419   -1.0218884119427407   -0.29903773700461334
4.22502386981419   -1.0218884119427407   -0.29903773700461334
4.22502386981419   -1.0218884119427407   -0.29903773700461334
4.7040858043468186   -0.08906302849604364   0.2722547479104322
4.7040858043468186   -0.08906302849604364   0.2722547479104322
4.7040858043468186   -0.08906302849604364   0.2722547479104322
4.7040858043468186   -0.08906302849604364   0.2722547479104322
9.589882227145784   0.08561889118580912   -0.4391364016045434
9.589882227145784   0.08561889118580912   -0.4391364016045434
9.589882227145784   0.08561889118580912   -0.4391364016045434
9.589882227145784   0.08561889118580912   -0.4391364016045434
6.757254973213017   -0.07827534987362483   -0.33926885376515137
6.757254973213017   -0.07827534987362483   -0.33926885376515137
6.757254973213017   -0.07827534987362483   -0.33926885376515137
6.757254973213017   -0.07827534987362483   -0.33926885376515137
9.91308399611457   0.95898660596705   0.30350472845814797
9.91308399611457   0.95898660596705   0.30350472845814797
9.91308399611457   0.95898660596705   0.30350472845814797
9.91308399611457   0.95898660596705   0.30350472845814797
4.408210838812416   -0.9351039398428593   -0.36107916841476445
4.408210838812416   -0.9351039398428593   -0.36107916841476445
4.408210838812416   -0.9351039398428593   -0.36107916841476445
4.408210838812416   -0.9351039398428593   -0.36107916841476445
4.871710990778901   0.1750149443937239   0.23869148649755195
4.871710990778901   0.1750149443937239   0.23869148649755195
4.871710990778901   0.1750149443937239   0.23869148649755195
4.871710990778901   0.1750149443937239   0.23869148649755195
9.985463932917053   0.40519321738551883   -0.46011629745016663
9.985463932917053   0.40519321738551883   -0.46011629745016663
9.985463932917053   0.40519321738551883   -0.46011629745016663
9.985463932917053   0.40519321738551883   -0.46011629745016663
6.910247061916705   0.07889421542857544   -0.2280482767821072
6.910247061916705   0.07889421542857544   -0.2280482767821072
6.910247061916705   0.07889421542857544   -0.2280482767821072
6.910247061916705   0.07889421542857544   -0.2280482767821072
4.478660397680979   0.39789515892640737   0.44559344784879285
4.478660397680979   0.39789515892640737   0.44559344784879285
4.478660397680979   0.39789515892640737   0.44559344784879285
4.478660397680979   0.39789515892640737   0.44559344784879285
-0.5420387408950285   -1.3406047379473096   -0.12670253198098608
-0.5420387408950285   -1.3406047379473096   -0.12670253198098608
-0.5420387408950285   -1.3406047379473096   -0.12670253198098608
-0.5420387408950285   -1.3406047379473096   -0.12670253198098608
-0.1354200738746516   -0.47017781326506747   0.1146472777815366
-0.1354200738746516   -0.47017781326506747   0.1146472777815366
-0.1354200738746516   -0.47017781326506747   0.1146472777815366
-0.1354200738746516   -0.47017781326506747   0.1146472777815366
4.441961968096828   -0.2574743757157507   0.021238718181522898
4.441961968096828   -0.2574743757157507   0.021238718181522898
4.441961968096828   -0.2574743757157507   0.021238718181522898
4.441961968096828   -0.2574743757157507   0.021238718181522898
2.005011113119637   -0.376656528801107   -0.23927777041033105
2.005011113119637   -0.376656528801107   -0.23927777041033105
2.005011113119637   -0.376656528801107   -0.23927777041033105
2.005011113119637   -0.376656528801107   -0.23927777041033105
4.677795371419028   0.5484350767106018   0.39449628236620304
4.677795371419028   0.5484350767106018   0.39449628236620304
4.677795371419028   0.5484350767106018   0.39449628236620304
4.677795371419028   0.5484350767106018   0.39449628236620304
-0.35496094059873656   -1.2597947290932994   -0.19344014001065613
-0.35496094059873656   -1.2597947290932994   -0.19344014001065613
-0.35496094059873656   -1.2597947290932994   -0.19344014001065613
-0.35496094059873656   -1.2597947290932994   -0.19344014001065613
0.05350376791932582   -0.29334357210281903   0.07034468800574362
0.05350376791932582   -0.29334357210281903   0.07034468800574362
0.05350376791932582   -0.29334357210281903   0.07034468800574362
0.05350376791932582   -0.29334357210281903   0.07034468800574362
4.635114280898474   -0.1241866045234381   -0.037479293303898986
4.635114280898474   -0.1241866045234381   -0.037479293303898986
4.635114280898474   -0.1241866045234381   -0.037479293303898986
4.635114280898474   -0.1241866045234381   -0.037479293303898986
2.1695653917260804   -0.26818889931950074   -0.15534682291609794
2.1695653917260804   -0.26818889931950074   -0.15534682291609794
2.1695653917260804   -0.26818889931950074   -0.15534682291609794
2.1695653917260804   -0.26818889931950074   -0.15534682291609794
4.88361746611971   0.7289835296598982   0.3518664986189456
4.88361746611971   0.7289835296598982   0.3518664986189456
4.88361746611971   0.7289835296598982   0.3518664986189456
4.88361746611971   0.7289835296598982   0.3518664986189456
-0.18541636186499977   -1.1369306508492831   -0.280668882169405
-0.18541636186499977   -1.1369306508492831   -0.280668882169405
-0.18541636186499977   -1.1369306508492831   -0.280668882169405
-0.18541636186499977   -1.1369306508492831   -0.280668882169405
0.20173172280547408   -0.08675903850572808   0.025515550930678442
0.20173172280547408   -0.08675903850572808   0.025515550930678442
0.20173172280547408   -0.08675903850572808   0.025515550930678442
0.20173172280547408   -0.08675903850572808   0.025515550930678442
4.77994167779407   0.045476732180768864   -0.09061686621370815
4.77994167779407   0.045476732180768864   -0.09061686621370815
4.77994167779407   0.045476732180768864   -0.09061686621370815
4.77994167779407   0.045476732180768864   -0.09061686621370815
2.3698604281552846   -0.1061524972737814   -0.06563103543464346
2.3698604281552846   -0.1061524972737814   -0.06563103543464346
2.3698604281552846   -0.1061524972737814   -0.06563103543464346
2.3698604281552846   -0.1061524972737814   -0.06563103543464346
-0.1826918983978659   0.10849872252300852   0.22092822003450893
-0.1826918983978659   0.10849872252300852   0.22092822003450893
-0.1826918983978659   0.10849872252300852   0.22092822003450893
-0.1826918983978659   0.10849872252300852   0.22092822003450893
-5.097325470396879   -1.685267257514027   -0.1026543481995886
-5.097325470396879   -1.685267257514027   -0.1026543481995886
-5.097325470396879   -1.685267257514027   -0.1026543481995886
-5.097325470396879   -1.685267257514027   -0.1026543481995886
-4.684527005903525   -0.7218486955405878   -0.1069875921687955
-4.684527005903525   -0.7218486955405878   -0.1069875921687955
-4.684527005903525   -0.7218486955405878   -0.1069875921687955
-4.684527005903525   -0.7218486955405878   -0.1069875921687955
-0.16282479170132397   -0.5915127750534218   0.09895865043652932
-0.16282479170132397   -0.5915127750534218   0.09895865043652932
-0.16282479170132397   -0.5915127750534218   0.09895865043652932
-0.16282479170132397   -0.5915127750534218   0.09895865043652932
-2.543606477538566   -0.6838482741837144   -0.21409802869958597
-2.543606477538566   -0.6838482741837144   -0.21409802869958597
-2.543606477538566   -0.6838482741837144   -0.21409802869958597
-2.543606477538566   -0.6838482741837144   -0.21409802869958597
0.027086390501260167   0.2777265495444448   0.17927523685158325
0.027086390501260167   0.2777265495444448   0.17927523685158325
0.027086390501260167   0.2777265495444448   0.17927523685158325
0.027086390501260167   0.2777265495444448   0.17927523685158325
-4.862719225359867   -1.5793690573922534   -0.1404283275988408
-4.862719225359867   -1.5793690573922534   -0.1404283275988408
-4.862719225359867   -1.5793690573922534   -0.1404283275988408
-4.862719225359867   -1.5793690573922534   -0.1404283275988408
-4.450309577861321   -0.5254606639125953   -0.14604477109269773
-4.450309577861321   -0.5254606639125953   -0.14604477109269773
-4.450309577861321   -0.5254606639125953   -0.14604477109269773
-4.450309577861321   -0.5254606639125953   -0.14604477109269773
0.013292751307367179   -0.46351959278839816   0.03946562563154485
0.013292751307367179   -0.46351959278839816   0.03946562563154485
0.013292751307367179   -0.46351959278839816   0.03946562563154485
0.013292751307367179   -0.46351959278839816   0.03946562563154485
-2.316240786403289   -0.5428412758564178   -0.11932935786380958
-2.316240786403289   -0.5428412758564178   -0.11932935786380958
-2.316240786403289   -0.5428412758564178   -0.11932935786380958
-2.316240786403289   -0.5428412758564178   -0.11932935786380958
0.21909594413996925   0.4655181617561948   0.13944383524996204
0.21909594413996925   0.4655181617561948   0.13944383524996204
0.21909594413996925   0.4655181617561948   0.13944383524996204
0.21909594413996925   0.4655181617561948   0.13944383524996204
-4.656456075989598   -1.4548417237528999   -0.24739620189375186
-4.656456075989598   -1.4548417237528999   -0.24739620189375186
-4.656456075989598   -1.4548417237528999   -0.24739620189375186
-4.656456075989598   -1.4548417237528999   -0.24739620189375186
-4.284858747754642   -0.3384388781827866   -0.18980557896187794
-4.284858747754642   -0.3384388781827866   -0.18980557896187794
-4.284858747754642   -0.3384388781827866   -0.18980557896187794
-4.284858747754642   -0.3384388781827866   -0.18980557896187794
0.12909789262641275   -0.3616939478075882   -0.06271869066278352
0.12909789262641275   -0.3616939478075882   -0.06271869066278352
0.12909789262641275   -0.3616939478075882   -0.06271869066278352
0.12909789262641275   -0.3616939478075882   -0.06271869066278352
-2.1494067906065824   -0.4115634667350488   -0.060324946412374326
-2.1494067906065824   -0.4115634667350488   -0.060324946412374326
-2.1494067906065824   -0.4115634667350488   -0.060324946412374326
-2.1494067906065824   -0.4115634667350488   -0.060324946412374326
-4.769868737869332   -0.14245978635173917   -0.008178156724187091
-4.769868737869332   -0.14245978635173917   -0.008178156724187091
-4.769868737869332   -0.14245978635173917   -0.008178156724187091
-4.769868737869332   -0.14245978635173917   -0.008178156724187091
-9.671026795538655   -1.8118652312976884   -0.0832851763145517
-9.671026795538655   -1.8118652312976884   -0.0832851763145517
-9.671026795538655   -1.8118652312976884   -0.0832851763145517
-9.671026795538655   -1.8118652312976884   -0.0832851763145517
-9.226218200983777   -0.9234806351563551   -0.3199730505967133
-9.226218200983777   -0.9234806351563551   -0.3199730505967133
-9.226218200983777   -0.9234806351563551   -0.3199730505967133
-9.226218200983777   -0.9234806351563551   -0.3199730505967133
-4.599336685637915   -0.6140679555303231   0.21118326914894206
-4.599336685637915   -0.6140679555303231   0.21118326914894206
-4.599336685637915   -0.6140679555303231   0.21118326914894206
-4.599336685637915   -0.6140679555303231   0.21118326914894206
-7.004320686236248   -0.820626624400865   -0.15109904622576723
-7.004320686236248   -0.820626624400865   -0.15109904622576723
-7.004320686236248   -0.820626624400865   -0.15109904622576723
-7.004320686236248   -0.820626624400865   -0.15109904622576723
-4.511158916951313   0.07593888598317222   -0.037934728931539374
-4.511158916951313   0.07593888598317222   -0.037934728931539374
-4.511158916951313   0.07593888598317222   -0.037934728931539374
-4.511158916951313   0.07593888598317222   -0.037934728931539374
-9.318555664620025   -1.6176471716194842   -0.08749383231475236
-9.318555664620025   -1.6176471716194842   -0.08749383231475236
-9.318555664620025   -1.6176471716194842   -0.08749383231475236
-9.318555664620025   -1.6176471716194842   -0.08749383231475236
-8.891828716182081   -0.7180636601762569   -0.3708361576624165
-8.891828716182081   -0.7180636601762569   -0.3708361576624165
-8.891828716182081   -0.7180636601762569   -0.3708361576624165
-8.891828716182081   -0.7180636601762569   -0.3708361576624165
-4.371569518989617   -0.45956713816700245   0.18176199752025937
-4.371569518989617   -0.45956713816700245   0.18176199752025937
-4.371569518989617   -0.45956713816700245   0.18176199752025937
-4.371569518989617   -0.45956713816700245   0.18176199752025937
-6.661360637629915   -0.6235755686784684   -0.050584276269355105
-6.661360637629915   -0.6235755686784684   -0.050584276269355105
-6.661360637629915   -0.6235755686784684   -0.050584276269355105
-6.661360637629915   -0.6235755686784684   -0.050584276269355105
-4.276308528506331   0.26575630937108785   -0.06725649760144381
-4.276308528506331   0.26575630937108785   -0.06725649760144381
-4.276308528506331   0.26575630937108785   -0.06725649760144381
-4.276308528506331   0.26575630937108785   -0.06725649760144381
-9.00357610536229   -1.4598735064112622   -0.1877632573283667
-9.00357610536229   -1.4598735064112622   -0.1877632573283667
-9.00357610536229   -1.4598735064112622   -0.1877632573283667
-9.00357610536229   -1.4598735064112622   -0.1877632573283667
-8.619812921797331   -0.5011497090284696   -0.3824773546793875
-8.619812921797331   -0.5011497090284696   -0.3824773546793875
-8.619812921797331   -0.5011497090284696   -0.3824773546793875
-8.619812921797331   -0.5011497090284696   -0.3824773546793875
-4.24058358393392   -0.361346066090822   0.05447742804979949
-4.24058358393392   -0.361346066090822   0.05447742804979949
-4.24058358393392   -0.361346066090822   0.05447742804979949
-4.24058358393392   -0.361346066090822   0.05447742804979949
-6.470266890488254   -0.5033070867018048   -0.017987348100130307
-6.470266890488254   -0.5033070867018048   -0.017987348100130307
-6.470266890488254   -0.5033070867018048   -0.017987348100130307
-6.470266890488254   -0.5033070867018048   -0.017987348100130307
-9.404180481404259   -0.3250412144089747   -0.23587762253128475
-9.404180481404259   -0.3250412144089747   -0.23587762253128475
-9.404180481404259   -0.3250412144089747   -0.23587762253128475
-9.404180481404259   -0.3250412144089747   -0.23587762253128475
-14.178755738475285   -1.2185829111168451   0.5432252282974878
-14.178755738475285   -1.2185829111168451   0.5432252282974878
-14.178755738475285   -1.2185829111168451   0.5432252282974878
-14.178755738475285   -1.2185829111168451   0.5432252282974878
-13.683683041536929   -0.9672751652392266   -0.31394388333734446
-13.683683041536929   -0.9672751652392266   -0.31394388333734446
-13.683683041536929   -0.9672751652392266   -0.31394388333734446
-13.683683041536929   -0.9672751652392266   -0.31394388333734446
-8.827939620868674   0.25019492495282347   0.4977442898695409
-8.827939620868674   0.25019492495282347   0.4977442898695409
-8.827939620868674   0.25019492495282347   0.4977442898695409
-8.827939620868674   0.25019492495282347   0.4977442898695409
-11.008844256259568   -0.38433253069487794   0.04877094408177385
-11.008844256259568   -0.38433253069487794   0.04877094408177385
-11.008844256259568   -0.38433253069487794   0.04877094408177385
-11.008844256259568   -0.38433253069487794   0.04877094408177385
-9.035199254996613   -0.027051185355988938   -0.2613077704612262
-9.035199254996613   -0.027051185355988938   -0.2613077704612262
-9.035199254996613   -0.027051185355988938   -0.2613077704612262
-9.035199254996613   -0.027051185355988938   -0.2613077704612262
-13.442967524702704   -0.6565731722241481   0.5789317078187125
-13.442967524702704   -0.6565731722241481   0.5789317078187125
-13.442967524702704   -0.6565731722241481   0.5789317078187125
-13.442967524702704   -0.6565731722241481   0.5789317078187125
-13.153084419367973   -0.8130175506354256   -0.3738714262771933
-13.153084419367973   -0.8130175506354256   -0.3738714262771933
-13.153084419367973   -0.8130175506354256   -0.3738714262771933
-13.153084419367973   -0.8130175506354256   -0.3738714262771933
-8.496911770934052   0.40443377304595707   0.48125113535552777
-8.496911770934052   0.40443377304595707   0.48125113535552777
-8.496911770934052   0.40443377304595707   0.48125113535552777
-8.496911770934052   0.40443377304595707   0.48125113535552777
-10.692131891893602   -0.1550841907454803   0.21818367381621195
-10.692131891893602   -0.1550841907454803   0.21818367381621195
-10.692131891893602   -0.1550841907454803   0.21818367381621195
-10.692131891893602   -0.1550841907454803   0.21818367381621195
-8.711696172354996   0.09365580356835501   -0.2818929022715121
-8.711696172354996   0.09365580356835501   -0.2818929022715121
-8.711696172354996   0.09365580356835501   -0.2818929022715121
-8.711696172354996   0.09365580356835501   -0.2818929022715121
-12.931768268323362   -0.49570783153411835   0.4153996098444599
-12.931768268323362   -0.49570783153411835   0.4153996098444599
-12.931768268323362   -0.49570783153411835   0.4153996098444599
-12.931768268323362   -0.49570783153411835   0.4153996098444599
-12.604707965200914   -0.6661062172369787   -0.45158898255599333
-12.604707965200914   -0.6661062172369787   -0.45158898255599333
-12.604707965200914   -0.6661062172369787   -0.45158898255599333
-12.604707965200914   -0.6661062172369787   -0.45158898255599333
-8.250288501354774   0.5909383947912876   0.3730566437136429
-8.250288501354774   0.5909383947912876   0.3730566437136429
-8.250288501354774   0.5909383947912876   0.3730566437136429
-8.250288501354774   0.5909383947912876   0.3730566437136429
-10.10447403174601   0.04132774743730172   0.3867547828048361
-10.10447403174601   0.04132774743730172   0.3867547828048361
-10.10447403174601   0.04132774743730172   0.3867547828048361
-10.10447403174601   0.04132774743730172   0.3867547828048361
12.542018109107811   0.7492600099209046   0.4585251491212936
12.542018109107811   0.7492600099209046   0.4585251491212936
12.542018109107811   0.7492600099209046   0.4585251491212936
12.542018109107811   0.7492600099209046   0.4585251491212936
5.986401394408194   -1.1256893648304296   0.10652279316644886
5.986401394408194   -1.1256893648304296   0.10652279316644886
5.986401394408194   -1.1256893648304296   0.10652279316644886
5.986401394408194   -1.1256893648304296   0.10652279316644886
6.320242471193178   -0.4722491723721678   0.3539398594695097
6.320242471193178   -0.4722491723721678   0.3539398594695097
6.320242471193178   -0.4722491723721678   0.3539398594695097
6.320242471193178   -0.4722491723721678   0.3539398594695097
12.610255592500058   0.09941316640468045   -0.09871987986369335
12.610255592500058   0.09941316640468045   -0.09871987986369335
12.610255592500058   0.09941316640468045   -0.09871987986369335
12.610255592500058   0.09941316640468045   -0.09871987986369335
8.82221676150153   -0.2440461002542842   -0.5888485172218699
8.82221676150153   -0.2440461002542842   -0.5888485172218699
8.82221676150153   -0.2440461002542842   -0.5888485172218699
8.82221676150153   -0.2440461002542842   -0.5888485172218699
12.849762632497743   0.8354271544172716   0.36280133211214094
12.849762632497743   0.8354271544172716   0.36280133211214094
12.849762632497743   0.8354271544172716   0.36280133211214094
12.849762632497743   0.8354271544172716   0.36280133211214094
6.1384663192661115   -1.1505322723141396   0.12334219977615257
6.1384663192661115   -1.1505322723141396   0.12334219977615257
6.1384663192661115   -1.1505322723141396   0.12334219977615257
6.1384663192661115   -1.1505322723141396   0.12334219977615257
6.447556889853806   -0.40109331882630994   0.26962788562659307
6.447556889853806   -0.40109331882630994   0.26962788562659307
6.447556889853806   -0.40109331882630994   0.26962788562659307
6.447556889853806   -0.40109331882630994   0.26962788562659307
12.83390155036043   0.17978282791084688   -0.026996660335403044
12.83390155036043   0.17978282791084688   -0.026996660335403044
12.83390155036043   0.17978282791084688   -0.026996660335403044
12.83390155036043   0.17978282791084688   -0.026996660335403044
9.188836516893014   -0.19355578733684653   -0.40151090503297115
9.188836516893014   -0.19355578733684653   -0.40151090503297115
9.188836516893014   -0.19355578733684653   -0.40151090503297115
9.188836516893014   -0.19355578733684653   -0.40151090503297115
13.036277573874525   0.9130487482347502   0.251617536911174
13.036277573874525   0.9130487482347502   0.251617536911174
13.036277573874525   0.9130487482347502   0.251617536911174
13.036277573874525   0.9130487482347502   0.251617536911174
6.285347693406908   -1.0941924120830153   0.15168099664880685
6.285347693406908   -1.0941924120830153   0.15168099664880685
6.285347693406908   -1.0941924120830153   0.15168099664880685
6.285347693406908   -1.0941924120830153   0.15168099664880685
6.634528181879753   -0.12367672468588875   0.2464697432300969
6.634528181879753   -0.12367672468588875   0.2464697432300969
6.634528181879753   -0.12367672468588875   0.2464697432300969
6.634528181879753   -0.12367672468588875   0.2464697432300969
13.065892543604173   0.36250917055332454   -0.0009350783191978129
13.065892543604173   0.36250917055332454   -0.0009350783191978129
13.065892543604173   0.36250917055332454   -0.0009350783191978129
13.065892543604173   0.36250917055332454   -0.0009350783191978129
9.236798703224888   -0.09086128940840243   -0.29907927945995116
9.236798703224888   -0.09086128940840243   -0.29907927945995116
9.236798703224888   -0.09086128940840243   -0.29907927945995116
9.236798703224888   -0.09086128940840243   -0.29907927945995116
6.316228764249225   0.15198610415501856   0.47798417338615645
6.316228764249225   0.15198610415501856   0.47798417338615645
6.316228764249225   0.15198610415501856   0.47798417338615645
6.316228764249225   0.15198610415501856   0.47798417338615645
0.3504844591884607   -2.252738765617072   0.2349099314968469
0.3504844591884607   -2.252738765617072   0.2349099314968469
0.3504844591884607   -2.252738765617072   0.2349099314968469
0.3504844591884607   -2.252738765617072   0.2349099314968469
0.7870126854209382   -0.9492356622009368   0.21738156843148182
0.7870126854209382   -0.9492356622009368   0.21738156843148182
0.7870126854209382   -0.9492356622009368   0.21738156843148182
0.7870126854209382   -0.9492356622009368   0.21738156843148182
6.153173819442341   -1.0988897689969053   0.14523719733998308
6.153173819442341   -1.0988897689969053   0.14523719733998308
6.153173819442341   -1.0988897689969053   0.14523719733998308
6.153173819442341   -1.0988897689969053   0.14523719733998308
3.290775093930798   -1.0154292640862503   -0.37915113162317243
3.290775093930798   -1.0154292640862503   -0.37915113162317243
3.290775093930798   -1.0154292640862503   -0.37915113162317243
3.290775093930798   -1.0154292640862503   -0.37915113162317243
6.468288331540149   0.223272625919253   0.3986473629129743
6.468288331540149   0.223272625919253   0.3986473629129743
6.468288331540149   0.223272625919253   0.3986473629129743
6.468288331540149   0.223272625919253   0.3986473629129743
0.5550522139587488   -2.188244016481417   0.2965875654010155
0.5550522139587488   -2.188244016481417   0.2965875654010155
0.5550522139587488   -2.188244016481417   0.2965875654010155
0.5550522139587488   -2.188244016481417   0.2965875654010155
0.963044298286744   -0.8194591371541502   0.15822802615426979
0.963044298286744   -0.8194591371541502   0.15822802615426979
0.963044298286744   -0.8194591371541502   0.15822802615426979
0.963044298286744   -0.8194591371541502   0.15822802615426979
6.3036151652008146   -1.0313770665754922   0.18020301011081952
6.3036151652008146   -1.0313770665754922   0.18020301011081952
6.3036151652008146   -1.0313770665754922   0.18020301011081952
6.3036151652008146   -1.0313770665754922   0.18020301011081952
3.4411759581674493   -0.9661070488753754   -0.1895292425895328
3.4411759581674493   -0.9661070488753754   -0.1895292425895328
3.4411759581674493   -0.9661070488753754   -0.1895292425895328
3.4411759581674493   -0.9661070488753754   -0.1895292425895328
6.609996043256645   0.34535972780985214   0.33537060600462676
6.609996043256645   0.34535972780985214   0.33537060600462676
6.609996043256645   0.34535972780985214   0.33537060600462676
6.609996043256645   0.34535972780985214   0.33537060600462676
0.7367097279335281   -2.1161496238369213   0.323245661070961
0.7367097279335281   -2.1161496238369213   0.323245661070961
0.7367097279335281   -2.1161496238369213   0.323245661070961
0.7367097279335281   -2.1161496238369213   0.323245661070961
1.2328775484608774   -0.6247265775313038   0.10543071455936626
1.2328775484608774   -0.6247265775313038   0.10543071455936626
1.2328775484608774   -0.6247265775313038   0.10543071455936626
1.2328775484608774   -0.6247265775313038   0.10543071455936626
6.468550141466042   -0.9285476268346233   0.22145044331031227
6.468550141466042   -0.9285476268346233   0.22145044331031227
6.468550141466042   -0.9285476268346233   0.22145044331031227
6.468550141466042   -0.9285476268346233   0.22145044331031227
3.702954763179845   -0.8460223001353767   0.03092682202567476
3.702954763179845   -0.8460223001353767   0.03092682202567476
3.702954763179845   -0.8460223001353767   0.03092682202567476
3.702954763179845   -0.8460223001353767   0.03092682202567476
0.7279877150118661   -0.4381135514942074   0.3078009964910102
0.7279877150118661   -0.4381135514942074   0.3078009964910102
0.7279877150118661   -0.4381135514942074   0.3078009964910102
0.7279877150118661   -0.4381135514942074   0.3078009964910102
-5.334667668431653   -3.877310153023673   0.3376774222278066
-5.334667668431653   -3.877310153023673   0.3376774222278066
-5.334667668431653   -3.877310153023673   0.3376774222278066
-5.334667668431653   -3.877310153023673   0.3376774222278066
-4.643140925416037   -1.5024172181497852   0.02475256866942524
-4.643140925416037   -1.5024172181497852   0.02475256866942524
-4.643140925416037   -1.5024172181497852   0.02475256866942524
-4.643140925416037   -1.5024172181497852   0.02475256866942524
0.39053449528782047   -2.83976061356265   0.1255155691276063
0.39053449528782047   -2.83976061356265   0.1255155691276063
0.39053449528782047   -2.83976061356265   0.1255155691276063
0.39053449528782047   -2.83976061356265   0.1255155691276063
-2.2858080443857323   -2.180091706557224   -0.4551057968734852
-2.2858080443857323   -2.180091706557224   -0.4551057968734852
-2.2858080443857323   -2.180091706557224   -0.4551057968734852
-2.2858080443857323   -2.180091706557224   -0.4551057968734852
0.9123070732851679   -0.34779546919424204   0.24241331474593622
0.9123070732851679   -0.34779546919424204   0.24241331474593622
0.9123070732851679   -0.34779546919424204   0.24241331474593622
0.9123070732851679   -0.34779546919424204   0.24241331474593622
-5.045002144784326   -3.8744710038891297   0.38750025756735584
-5.045002144784326   -3.8744710038891297   0.38750025756735584
-5.045002144784326   -3.8744710038891297   0.38750025756735584
-5.045002144784326   -3.8744710038891297   0.38750025756735584
-4.37648583191588   -1.3487812521309115   0.0029359121422249113
-4.37648583191588   -1.3487812521309115   0.0029359121422249113
-4.37648583191588   -1.3487812521309115   0.0029359121422249113
-4.37648583191588   -1.3487812521309115   0.0029359121422249113
0.5759669240594517   -2.779197744044818   0.1825797619084759
0.5759669240594517   -2.779197744044818   0.1825797619084759
0.5759669240594517   -2.779197744044818   0.1825797619084759
0.5759669240594517   -2.779197744044818   0.1825797619084759
-2.0161064085674596   -2.107499517811654   -0.1708065864284034
-2.0161064085674596   -2.107499517811654   -0.1708065864284034
-2.0161064085674596   -2.107499517811654   -0.1708065864284034
-2.0161064085674596   -2.107499517811654   -0.1708065864284034
1.0808031483733755   -0.22699834217904186   0.15456148161231828
1.0808031483733755   -0.22699834217904186   0.15456148161231828
1.0808031483733755   -0.22699834217904186   0.15456148161231828
1.0808031483733755   -0.22699834217904186   0.15456148161231828
-4.772698397630123   -3.7923569953969962   0.46544882683716005
-4.772698397630123   -3.7923569953969962   0.46544882683716005
-4.772698397630123   -3.7923569953969962   0.46544882683716005
-4.772698397630123   -3.7923569953969962   0.46544882683716005
-3.9365617992556885   -1.1716374462611774   -0.04677649104862851
-3.9365617992556885   -1.1716374462611774   -0.04677649104862851
-3.9365617992556885   -1.1716374462611774   -0.04677649104862851
-3.9365617992556885   -1.1716374462611774   -0.04677649104862851
0.8655417771431756   -2.6068472627006134   0.25087254314015206
0.8655417771431756   -2.6068472627006134   0.25087254314015206
0.8655417771431756   -2.6068472627006134   0.25087254314015206
0.8655417771431756   -2.6068472627006134   0.25087254314015206
-1.6656763716312792   -1.9421976469612052   0.12786238060837696
-1.6656763716312792   -1.9421976469612052   0.12786238060837696
-1.6656763716312792   -1.9421976469612052   0.12786238060837696
-1.6656763716312792   -1.9421976469612052   0.12786238060837696
-4.753917535731768   -0.7824689646105764   0.14658689731412086
-4.753917535731768   -0.7824689646105764   0.14658689731412086
-4.753917535731768   -0.7824689646105764   0.14658689731412086
-4.753917535731768   -0.7824689646105764   0.14658689731412086
-11.905513871475781   -6.046611812854219   -0.29277561991049406
-11.905513871475781   -6.046611812854219   -0.29277561991049406
-11.905513871475781   -6.046611812854219   -0.29277561991049406
-11.905513871475781   -6.046611812854219   -0.29277561991049406
-10.762814927419456   -1.9550564677111495   -0.3302810499734041
-10.762814927419456   -1.9550564677111495   -0.3302810499734041
-10.762814927419456   -1.9550564677111495   -0.3302810499734041
-10.762814927419456   -1.9550564677111495   -0.3302810499734041
-5.341743855033561   -5.068669594233446   0.09799029666546377
-5.341743855033561   -5.068669594233446   0.09799029666546377
-5.341743855033561   -5.068669594233446   0.09799029666546377
-5.341743855033561   -5.068669594233446   0.09799029666546377
-8.181443949302595   -3.5757792649338684   -0.4772325115815701
-8.181443949302595   -3.5757792649338684   -0.4772325115815701
-8.181443949302595   -3.5757792649338684   -0.4772325115815701
-8.181443949302595   -3.5757792649338684   -0.4772325115815701
-4.438577757044682   -0.5959354876385254   0.1410866800149418
-4.438577757044682   -0.5959354876385254   0.1410866800149418
-4.438577757044682   -0.5959354876385254   0.1410866800149418
-4.438577757044682   -0.5959354876385254   0.1410866800149418
-11.640560635882022   -6.402370184779756   -0.2716958752176277
-11.640560635882022   -6.402370184779756   -0.2716958752176277
-11.640560635882022   -6.402370184779756   -0.2716958752176277
-11.640560635882022   -6.402370184779756   -0.2716958752176277
-10.408780934547408   -1.7705871991436246   -0.33612689180505995
-10.408780934547408   -1.7705871991436246   -0.33612689180505995
-10.408780934547408   -1.7705871991436246   -0.33612689180505995
-10.408780934547408   -1.7705871991436246   -0.33612689180505995
-5.083873719448421   -5.031170767553096   0.14838598990173701
-5.083873719448421   -5.031170767553096   0.14838598990173701
-5.083873719448421   -5.031170767553096   0.14838598990173701
-5.083873719448421   -5.031170767553096   0.14838598990173701
-7.811393715265666   -3.4818666079383433   -0.33868323222771457
-7.811393715265666   -3.4818666079383433   -0.33868323222771457
-7.811393715265666   -3.4818666079383433   -0.33868323222771457
-7.811393715265666   -3.4818666079383433   -0.33868323222771457
-4.187780369858598   -0.44968776148775524   0.047369731785477126
-4.187780369858598   -0.44968776148775524   0.047369731785477126
-4.187780369858598   -0.44968776148775524   0.047369731785477126
-4.187780369858598   -0.44968776148775524   0.047369731785477126
-11.305753567319595   -6.352949488391319   -0.2386277664182026
-11.305753567319595   -6.352949488391319   -0.2386277664182026
-11.305753567319595   -6.352949488391319   -0.2386277664182026
-11.305753567319595   -6.352949488391319   -0.2386277664182026
-9.857365436727402   -1.571778340336727   -0.3809020903864887
-9.857365436727402   -1.571778340336727   -0.3809020903864887
-9.857365436727402   -1.571778340336727   -0.3809020903864887
-9.857365436727402   -1.571778340336727   -0.3809020903864887
-4.526113535988549   -4.5328415160157665   0.36666889504172073
-4.526113535988549   -4.5328415160157665   0.36666889504172073
-4.526113535988549   -4.5328415160157665   0.36666889504172073
-4.526113535988549   -4.5328415160157665   0.36666889504172073
-7.397332340954272   -3.1611021481032653   -0.1933007751266499
-7.397332340954272   -3.1611021481032653   -0.1933007751266499
-7.397332340954272   -3.1611021481032653   -0.1933007751266499
-7.397332340954272   -3.1611021481032653   -0.1933007751266499
-10.78575808881109   -0.6639584422764622   -0.07665007716479344
-10.78575808881109   -0.6639584422764622   -0.07665007716479344
-10.78575808881109   -0.6639584422764622   -0.07665007716479344
-10.78575808881109   -0.6639584422764622   -0.07665007716479344
-19.072207505500568   -3.775639323916433   0.19401088591840399
-19.072207505500568   -3.775639323916433   0.19401088591840399
-19.072207505500568   -3.775639323916433   0.19401088591840399
-19.072207505500568   -3.775639323916433   0.19401088591840399
-18.315788911986928   -1.8281424542510205   -0.40609331503166946
-18.315788911986928   -1.8281424542510205   -0.40609331503166946
-18.315788911986928   -1.8281424542510205   -0.40609331503166946
-18.315788911986928   -1.8281424542510205   -0.40609331503166946
-10.534816716270724   -1.9466938630352837   0.8013474010943047
-10.534816716270724   -1.9466938630352837   0.8013474010943047
-10.534816716270724   -1.9466938630352837   0.8013474010943047
-10.534816716270724   -1.9466938630352837   0.8013474010943047
-14.081718438290249   -2.193111443541732   0.20659514004674065
-14.081718438290249   -2.193111443541732   0.20659514004674065
-14.081718438290249   -2.193111443541732   0.20659514004674065
-14.081718438290249   -2.193111443541732   0.20659514004674065
-10.335280269290083   -0.1502957567607197   0.002631529722989079
-10.335280269290083   -0.1502957567607197   0.002631529722989079
-10.335280269290083   -0.1502957567607197   0.002631529722989079
-10.335280269290083   -0.1502957567607197   0.002631529722989079
-18.588445638651574   -3.6976608402096103   0.10014143760352479
-18.588445638651574   -3.6976608402096103   0.10014143760352479
-18.588445638651574   -3.6976608402096103   0.10014143760352479
-18.588445638651574   -3.6976608402096103   0.10014143760352479
-17.895844268829574   -1.6746549530380936   -0.5152599971694477
-17.895844268829574   -1.6746549530380936   -0.5152599971694477
-17.895844268829574   -1.6746549530380936   -0.5152599971694477
-17.895844268829574   -1.6746549530380936   -0.5152599971694477
-10.170239493476675   -1.847374396511933   0.9333675109170096
-10.170239493476675   -1.847374396511933   0.9333675109170096
-10.170239493476675   -1.847374396511933   0.9333675109170096
-10.170239493476675   -1.847374396511933   0.9333675109170096
-13.857298872823646   -1.8049320536751439   0.1974984276821211
-13.857298872823646   -1.8049320536751439   0.1974984276821211
-13.857298872823646   -1.8049320536751439   0.1974984276821211
-13.857298872823646   -1.8049320536751439   0.1974984276821211
-10.01034997228964   -0.014513291856806276   -0.10004598780294571
-10.01034997228964   -0.014513291856806276   -0.10004598780294571
-10.01034997228964   -0.014513291856806276   -0.10004598780294571
-10.01034997228964   -0.014513291856806276   -0.10004598780294571
-18.08353922736823   -3.5353214950448666   0.40693175214389843
-18.08353922736823   -3.5353214950448666   0.40693175214389843
-18.08353922736823   -3.5353214950448666   0.40693175214389843
-18.08353922736823   -3.5353214950448666   0.40693175214389843
-17.02412922841358   -1.3533617526422939   -0.5746033663952133
-17.02412922841358   -1.3533617526422939   -0.5746033663952133
-17.02412922841358   -1.3533617526422939   -0.5746033663952133
-17.02412922841358   -1.3533617526422939   -0.5746033663952133
-9.603945710446423   -1.7149212516274428   1.0293394523092099
-9.603945710446423   -1.7149212516274428   1.0293394523092099
-9.603945710446423   -1.7149212516274428   1.0293394523092099
-9.603945710446423   -1.7149212516274428   1.0293394523092099
-13.019422568833695   -1.378933331143414   0.4002236457534829
-13.019422568833695   -1.378933331143414   0.4002236457534829
-13.019422568833695   -1.378933331143414   0.4002236457534829
-13.019422568833695   -1.378933331143414   0.4002236457534829
13.736510611932077   0.4420391856139707   0.1950563278645684
13.736510611932077   0.4420391856139707   0.1950563278645684
13.736510611932077   0.4420391856139707   0.1950563278645684
13.736510611932077   0.4420391856139707   0.1950563278645684
7.026131810978445   -0.36499729659134705   0.14685162499292526
7.026131810978445   -0.36499729659134705   0.14685162499292526
7.026131810978445   -0.36499729659134705   0.14685162499292526
7.026131810978445   -0.36499729659134705   0.14685162499292526
6.747732221406103   -0.996418922432238   0.284643047045669
6.747732221406103   -0.996418922432238   0.284643047045669
6.747732221406103   -0.996418922432238   0.284643047045669
6.747732221406103   -0.996418922432238   0.284643047045669
13.636297421489726   0.7688879007322411   0.10748732130498972
13.636297421489726   0.7688879007322411   0.10748732130498972
13.636297421489726   0.7688879007322411   0.10748732130498972
13.636297421489726   0.7688879007322411   0.10748732130498972
9.738349843089335   -0.14041740324422358   -0.35887996076023865
9.738349843089335   -0.14041740324422358   -0.35887996076023865
9.738349843089335   -0.14041740324422358   -0.35887996076023865
9.738349843089335   -0.14041740324422358   -0.35887996076023865
13.558739443393574   0.33880914905618065   0.14977618250029245
13.558739443393574   0.33880914905618065   0.14977618250029245
13.558739443393574   0.33880914905618065   0.14977618250029245
13.558739443393574   0.33880914905618065   0.14977618250029245
6.802291322022293   -0.5893390482361398   0.1503586759305181
6.802291322022293   -0.5893390482361398   0.1503586759305181
6.802291322022293   -0.5893390482361398   0.1503586759305181
6.802291322022293   -0.5893390482361398   0.1503586759305181
6.570843784876099   -1.0202547537986906   0.23587319660123984
6.570843784876099   -1.0202547537986906   0.23587319660123984
6.570843784876099   -1.0202547537986906   0.23587319660123984
6.570843784876099   -1.0202547537986906   0.23587319660123984
13.474126546893084   0.7346260073991564   0.18386414937067985
13.474126546893084   0.7346260073991564   0.18386414937067985
13.474126546893084   0.7346260073991564   0.18386414937067985
13.474126546893084   0.7346260073991564   0.18386414937067985
9.706351950046846   -0.19385837113655002   -0.41736571241113274
9.706351950046846   -0.19385837113655002   -0.41736571241113274
9.706351950046846   -0.19385837113655002   -0.41736571241113274
9.706351950046846   -0.19385837113655002   -0.41736571241113274
13.35930569191992   0.2992834705588363   0.04510241134505377
13.35930569191992   0.2992834705588363   0.04510241134505377
13.35930569191992   0.2992834705588363   0.04510241134505377
13.35930569191992   0.2992834705588363   0.04510241134505377
6.644633646078904   -0.6259432107287504   0.21051095954532562
6.644633646078904   -0.6259432107287504   0.21051095954532562
6.644633646078904   -0.6259432107287504   0.21051095954532562
6.644633646078904   -0.6259432107287504   0.21051095954532562
6.383845776853653   -0.9329889041479047   0.2036213149251751
6.383845776853653   -0.9329889041479047   0.2036213149251751
6.383845776853653   -0.9329889041479047   0.2036213149251751
6.383845776853653   -0.9329889041479047   0.2036213149251751
13.22378604024319   0.740242501732221   0.2626977817240762
13.22378604024319   0.740242501732221   0.2626977817240762
13.22378604024319   0.740242501732221   0.2626977817240762
13.22378604024319   0.740242501732221   0.2626977817240762
9.33882085030912   -0.1963950483289274   -0.5652350565838489
9.33882085030912   -0.1963950483289274   -0.5652350565838489
9.33882085030912   -0.1963950483289274   -0.5652350565838489
9.33882085030912   -0.1963950483289274   -0.5652350565838489
6.956557367969245   -0.9097581229076401   0.3437402362632199
6.956557367969245   -0.9097581229076401   0.3437402362632199
6.956557367969245   -0.9097581229076401   0.3437402362632199
6.956557367969245   -0.9097581229076401   0.3437402362632199
1.3806900049032946   -0.8289967223373451   0.07725651961224089
1.3806900049032946   -0.8289967223373451   0.07725651961224089
1.3806900049032946   -0.8289967223373451   0.07725651961224089
1.3806900049032946   -0.8289967223373451   0.07725651961224089
0.9009300692810676   -2.1034131220514585   0.37486418222849105
0.9009300692810676   -2.1034131220514585   0.37486418222849105
0.9009300692810676   -2.1034131220514585   0.37486418222849105
0.9009300692810676   -2.1034131220514585   0.37486418222849105
6.996080000889405   0.2634352497804633   0.2665277722494795
6.996080000889405   0.2634352497804633   0.2665277722494795
6.996080000889405   0.2634352497804633   0.2665277722494795
6.996080000889405   0.2634352497804633   0.2665277722494795
3.996324136761981   -0.8982039203281669   -0.014746868119273282
3.996324136761981   -0.8982039203281669   -0.014746868119273282
3.996324136761981   -0.8982039203281669   -0.014746868119273282
3.996324136761981   -0.8982039203281669   -0.014746868119273282
6.75764805665724   -0.9495680840400849   0.2873713849091861
6.75764805665724   -0.9495680840400849   0.2873713849091861
6.75764805665724   -0.9495680840400849   0.2873713849091861
6.75764805665724   -0.9495680840400849   0.2873713849091861
1.0792133988134471   -0.9505584029306985   0.11342611076962922
1.0792133988134471   -0.9505584029306985   0.11342611076962922
1.0792133988134471   -0.9505584029306985   0.11342611076962922
1.0792133988134471   -0.9505584029306985   0.11342611076962922
0.6865335798370619   -2.12367443468314   0.33579775493633357
0.6865335798370619   -2.12367443468314   0.33579775493633357
0.6865335798370619   -2.12367443468314   0.33579775493633357
0.6865335798370619   -2.12367443468314   0.33579775493633357
6.832894357939492   0.20960351279860379   0.3162677953209066
6.832894357939492   0.20960351279860379   0.3162677953209066
6.832894357939492   0.20960351279860379   0.3162677953209066
6.832894357939492   0.20960351279860379   0.3162677953209066
3.705604901769991   -0.9578176791197098   -0.19308097333560176
3.705604901769991   -0.9578176791197098   -0.19308097333560176
3.705604901769991   -0.9578176791197098   -0.19308097333560176
3.705604901769991   -0.9578176791197098   -0.19308097333560176
6.5822748955579495   -0.9642757694032347   0.23704976561497137
6.5822748955579495   -0.9642757694032347   0.23704976561497137
6.5822748955579495   -0.9642757694032347   0.23704976561497137
6.5822748955579495   -0.9642757694032347   0.23704976561497137
0.8718448536839372   -1.0151033410159784   0.1537830305035493
0.8718448536839372   -1.0151033410159784   0.1537830305035493
0.8718448536839372   -1.0151033410159784   0.1537830305035493
0.8718448536839372   -1.0151033410159784   0.1537830305035493
0.4464947737797268   -2.124544031283783   0.26352378875082827
0.4464947737797268   -2.124544031283783   0.26352378875082827
0.4464947737797268   -2.124544031283783   0.26352378875082827
0.4464947737797268   -2.124544031283783   0.26352378875082827
6.647700014553093   0.2113256032404931   0.3785779960340091
6.647700014553093   0.2113256032404931   0.3785779960340091
6.647700014553093   0.2113256032404931   0.3785779960340091
6.647700014553093   0.2113256032404931   0.3785779960340091
3.527110996587485   -0.9520336691846806   -0.34517769174752566
3.527110996587485   -0.9520336691846806   -0.34517769174752566
3.527110996587485   -0.9520336691846806   -0.34517769174752566
3.527110996587485   -0.9520336691846806   -0.34517769174752566
1.0726669085535954   -2.6014582158057564   0.3096025313321401
1.0726669085535954   -2.6014582158057564   0.3096025313321401
1.0726669085535954   -2.6014582158057564   0.3096025313321401
1.0726669085535954   -2.6014582158057564   0.3096025313321401
-4.04439595609002   -1.2906726833834608   0.007711005200543131
-4.04439595609002   -1.2906726833834608   0.007711005200543131
-4.04439595609002   -1.2906726833834608   0.007711005200543131
-4.04439595609002   -1.2906726833834608   0.007711005200543131
-4.912389161140995   -3.8395098206414584   0.42969319016238106
-4.912389161140995   -3.8395098206414584   0.42969319016238106
-4.912389161140995   -3.8395098206414584   0.42969319016238106
-4.912389161140995   -3.8395098206414584   0.42969319016238106
1.2340877484937154   -0.23041329713128111   0.16765275337153782
1.2340877484937154   -0.23041329713128111   0.16765275337153782
1.2340877484937154   -0.23041329713128111   0.16765275337153782
1.2340877484937154   -0.23041329713128111   0.16765275337153782
-1.639679069029574   -1.9625903152413418   0.07311311733944942
-1.639679069029574   -1.9625903152413418   0.07311311733944942
-1.639679069029574   -1.9625903152413418   0.07311311733944942
-1.639679069029574   -1.9625903152413418   0.07311311733944942
0.7407818690117938   -2.7505602007310364   0.22127025956170066
0.7407818690117938   -2.7505602007310364   0.22127025956170066
0.7407818690117938   -2.7505602007310364   0.22127025956170066
0.7407818690117938   -2.7505602007310364   0.22127025956170066
-4.502971576255569   -1.4032512116382012   0.04052250558622297
-4.502971576255569   -1.4032512116382012   0.04052250558622297
-4.502971576255569   -1.4032512116382012   0.04052250558622297
-4.502971576255569   -1.4032512116382012   0.04052250558622297
-5.211532918445218   -3.9035375043800484   0.34838080273699357
-5.211532918445218   -3.9035375043800484   0.34838080273699357
-5.211532918445218   -3.9035375043800484   0.34838080273699357
-5.211532918445218   -3.9035375043800484   0.34838080273699357
1.0333228560766057   -0.2902416511312406   0.23631135258215247
1.0333228560766057   -0.2902416511312406   0.23631135258215247
1.0333228560766057   -0.2902416511312406   0.23631135258215247
1.0333228560766057   -0.2902416511312406   0.23631135258215247
-2.013216583292123   -2.083267592108862   -0.17672877116026103
-2.013216583292123   -2.083267592108862   -0.17672877116026103
-2.013216583292123   -2.083267592108862   -0.17672877116026103
-2.013216583292123   -2.083267592108862   -0.17672877116026103
0.512406172821921   -2.8001071580320986   0.1415934432096041
0.512406172821921   -2.8001071580320986   0.1415934432096041
0.512406172821921   -2.8001071580320986   0.1415934432096041
0.512406172821921   -2.8001071580320986   0.1415934432096041
-4.7899721337132535   -1.4930278960019159   0.045675118018634886
-4.7899721337132535   -1.4930278960019159   0.045675118018634886
-4.7899721337132535   -1.4930278960019159   0.045675118018634886
-4.7899721337132535   -1.4930278960019159   0.045675118018634886
-5.535122334818205   -3.8779869854428455   0.29583804139037373
-5.535122334818205   -3.8779869854428455   0.29583804139037373
-5.535122334818205   -3.8779869854428455   0.29583804139037373
-5.535122334818205   -3.8779869854428455   0.29583804139037373
0.8098029225783953   -0.32406234252104116   0.2795828439814283
0.8098029225783953   -0.32406234252104116   0.2795828439814283
0.8098029225783953   -0.32406234252104116   0.2795828439814283
0.8098029225783953   -0.32406234252104116   0.2795828439814283
-2.315825635957588   -2.129695782479904   -0.42537683710846974
-2.315825635957588   -2.129695782479904   -0.42537683710846974
-2.315825635957588   -2.129695782479904   -0.42537683710846974
-2.315825635957588   -2.129695782479904   -0.42537683710846974
-4.605026502742187   -4.4543184145117865   0.3682040030680771
-4.605026502742187   -4.4543184145117865   0.3682040030680771
-4.605026502742187   -4.4543184145117865   0.3682040030680771
-4.605026502742187   -4.4543184145117865   0.3682040030680771
-10.22760378795146   -1.6082303468361754   -0.2391168941903456
-10.22760378795146   -1.6082303468361754   -0.2391168941903456
-10.22760378795146   -1.6082303468361754   -0.2391168941903456
-10.22760378795146   -1.6082303468361754   -0.2391168941903456
-11.743213419015422   -6.436208541387944   -0.33823487512516714
-11.743213419015422   -6.436208541387944   -0.33823487512516714
-11.743213419015422   -6.436208541387944   -0.33823487512516714
-11.743213419015422   -6.436208541387944   -0.33823487512516714
-4.276104700085976   -0.37324843190171475   0.144854106697701
-4.276104700085976   -0.37324843190171475   0.144854106697701
-4.276104700085976   -0.37324843190171475   0.144854106697701
-4.276104700085976   -0.37324843190171475   0.144854106697701
-7.639888943920758   -3.0955693581849575   -0.2724574521126469
-7.639888943920758   -3.0955693581849575   -0.2724574521126469
-7.639888943920758   -3.0955693581849575   -0.2724574521126469
-7.639888943920758   -3.0955693581849575   -0.2724574521126469
-5.213952037621805   -5.038529577217344   0.12089856433421708
-5.213952037621805   -5.038529577217344   0.12089856433421708
-5.213952037621805   -5.038529577217344   0.12089856433421708
-5.213952037621805   -5.038529577217344   0.12089856433421708
-10.780301353269262   -1.7458626678619786   -0.21402041992033277
-10.780301353269262   -1.7458626678619786   -0.21402041992033277
-10.780301353269262   -1.7458626678619786   -0.21402041992033277
-10.780301353269262   -1.7458626678619786   -0.21402041992033277
-12.09846233463883   -6.542006379348055   -0.391203453882649
-12.09846233463883   -6.542006379348055   -0.391203453882649
-12.09846233463883   -6.542006379348055   -0.391203453882649
-12.09846233463883   -6.542006379348055   -0.391203453882649
-4.551179633695941   -0.4707678452687579   0.2173775673720372
-4.551179633695941   -0.4707678452687579   0.2173775673720372
-4.551179633695941   -0.4707678452687579   0.2173775673720372
-4.551179633695941   -0.4707678452687579   0.2173775673720372
-8.07337659429055   -3.4271538311887824   -0.38035536600876513
-8.07337659429055   -3.4271538311887824   -0.38035536600876513
-8.07337659429055   -3.4271538311887824   -0.38035536600876513
-8.07337659429055   -3.4271538311887824   -0.38035536600876513
-5.518783230185432   -5.13842626645807   0.04701800611388074
-5.518783230185432   -5.13842626645807   0.04701800611388074
-5.518783230185432   -5.13842626645807   0.04701800611388074
-5.518783230185432   -5.13842626645807   0.04701800611388074
-11.13064598618106   -1.8741352061904806   -0.21999288475145548
-11.13064598618106   -1.8741352061904806   -0.21999288475145548
-11.13064598618106   -1.8741352061904806   -0.21999288475145548
-11.13064598618106   -1.8741352061904806   -0.21999288475145548
-12.402156969800439   -6.269633012118447   -0.4412451516597973
-12.402156969800439   -6.269633012118447   -0.4412451516597973
-12.402156969800439   -6.269633012118447   -0.4412451516597973
-12.402156969800439   -6.269633012118447   -0.4412451516597973
-4.900212692690773   -0.6081944323657378   0.20059369895036366
-4.900212692690773   -0.6081944323657378   0.20059369895036366
-4.900212692690773   -0.6081944323657378   0.20059369895036366
-4.900212692690773   -0.6081944323657378   0.20059369895036366
-8.471245231197365   -3.541197944425818   -0.48235496249466925
-8.471245231197365   -3.541197944425818   -0.48235496249466925
-8.471245231197365   -3.541197944425818   -0.48235496249466925
-8.471245231197365   -3.541197944425818   -0.48235496249466925
-10.037468845008053   -1.822356895219618   0.9256843689099625
-10.037468845008053   -1.822356895219618   0.9256843689099625
-10.037468845008053   -1.822356895219618   0.9256843689099625
-10.037468845008053   -1.822356895219618   0.9256843689099625
-17.733778707562372   -1.3338203947770073   -0.3213388876318879
-17.733778707562372   -1.3338203947770073   -0.3213388876318879
-17.733778707562372   -1.3338203947770073   -0.3213388876318879
-17.733778707562372   -1.3338203947770073   -0.3213388876318879
-18.829171472719317   -3.7148803157211203   0.25476989411371687
-18.829171472719317   -3.7148803157211203   0.25476989411371687
-18.829171472719317   -3.7148803157211203   0.25476989411371687
-18.829171472719317   -3.7148803157211203   0.25476989411371687
-10.342003596586384   0.14329706848506962   0.08830862714691223
-10.342003596586384   0.14329706848506962   0.08830862714691223
-10.342003596586384   0.14329706848506962   0.08830862714691223
-10.342003596586384   0.14329706848506962   0.08830862714691223
-13.557545451593713   -1.3054096853740713   0.2738945312629817
-13.557545451593713   -1.3054096853740713   0.2738945312629817
-13.557545451593713   -1.3054096853740713   0.2738945312629817
-13.557545451593713   -1.3054096853740713   0.2738945312629817
-10.61566907053788   -1.958731790777236   0.8220101166517013
-10.61566907053788   -1.958731790777236   0.8220101166517013
-10.61566907053788   -1.958731790777236   0.8220101166517013
-10.61566907053788   -1.958731790777236   0.8220101166517013
-18.50644130152206   -1.5637867592130341   -0.28267280640793047
-18.50644130152206   -1.5637867592130341   -0.28267280640793047
-18.50644130152206   -1.5637867592130341   -0.28267280640793047
-18.50644130152206   -1.5637867592130341   -0.28267280640793047
-19.297858258495644   -3.8750139951706277   -0.07721171735749266
-19.297858258495644   -3.8750139951706277   -0.07721171735749266
-19.297858258495644   -3.8750139951706277   -0.07721171735749266
-19.297858258495644   -3.8750139951706277   -0.07721171735749266
-10.672144666042248   0.034662548878886756   0.16371596087324003
-10.672144666042248   0.034662548878886756   0.16371596087324003
-10.672144666042248   0.034662548878886756   0.16371596087324003
-10.672144666042248   0.034662548878886756   0.16371596087324003
-14.377738904991514   -1.7254108970800912   0.11417205328463287
-14.377738904991514   -1.7254108970800912   0.11417205328463287
-14.377738904991514   -1.7254108970800912   0.11417205328463287
-14.377738904991514   -1.7254108970800912   0.11417205328463287
-10.987269063124089   -2.0607520897968605   0.6835086141397868
-10.987269063124089   -2.0607520897968605   0.6835086141397868
-10.987269063124089   -2.0607520897968605   0.6835086141397868
-10.987269063124089   -2.0607520897968605   0.6835086141397868
-18.885425820268935   -1.6822913153499575   -0.2077722060442947
-18.885425820268935   -1.6822913153499575   -0.2077722060442947
-18.885425820268935   -1.6822913153499575   -0.2077722060442947
-18.885425820268935   -1.6822913153499575   -0.2077722060442947
-19.70951323560576   -3.9418149971042484   0.0004382500845165893
-19.70951323560576   -3.9418149971042484   0.0004382500845165893
-19.70951323560576   -3.9418149971042484   0.0004382500845165893
-19.70951323560576   -3.9418149971042484   0.0004382500845165893
-11.13495549141178   -0.44070252272955357   0.06583175089459187
-11.13495549141178   -0.44070252272955357   0.06583175089459187
-11.13495549141178   -0.44070252272955357   0.06583175089459187
-11.13495549141178   -0.44070252272955357   0.06583175089459187
-14.55914946444324   -2.0871264135413434   0.1807013121629255
-14.55914946444324   -2.0871264135413434   0.1807013121629255
-14.55914946444324   -2.0871264135413434   0.1807013121629255
-14.55914946444324   -2.0871264135413434   0.1807013121629255
11.996376631674769   0.5466942283213967   -0.26493557114017047
11.996376631674769   0.5466942283213967   -0.26493557114017047
11.996376631674769   0.5466942283213967   -0.26493557114017047
11.996376631674769   0.5466942283213967   -0.26493557114017047
6.048337827528181   -0.11552836002034272   0.13217182148396145
6.048337827528181   -0.11552836002034272   0.13217182148396145
6.048337827528181   -0.11552836002034272   0.13217182148396145
6.048337827528181   -0.11552836002034272   0.13217182148396145
5.658251327572436   -0.8947539424856423   -0.23267580086713846
5.658251327572436   -0.8947539424856423   -0.23267580086713846
5.658251327572436   -0.8947539424856423   -0.23267580086713846
5.658251327572436   -0.8947539424856423   -0.23267580086713846
11.856001737440236   0.8687053530975768   0.15464055166879465
11.856001737440236   0.8687053530975768   0.15464055166879465
11.856001737440236   0.8687053530975768   0.15464055166879465
11.856001737440236   0.8687053530975768   0.15464055166879465
8.42369627898284   0.020540030363668915   -0.3255523501533977
8.42369627898284   0.020540030363668915   -0.3255523501533977
8.42369627898284   0.020540030363668915   -0.3255523501533977
8.42369627898284   0.020540030363668915   -0.3255523501533977
11.657659671287028   0.2983250010256575   -0.266689427025231
11.657659671287028   0.2983250010256575   -0.266689427025231
11.657659671287028   0.2983250010256575   -0.266689427025231
11.657659671287028   0.2983250010256575   -0.266689427025231
5.845426623890752   -0.3355403602486067   0.14398709848736158
5.845426623890752   -0.3355403602486067   0.14398709848736158
5.845426623890752   -0.3355403602486067   0.14398709848736158
5.845426623890752   -0.3355403602486067   0.14398709848736158
5.448437403786483   -0.9456182403231073   -0.19166794613403737
5.448437403786483   -0.9456182403231073   -0.19166794613403737
5.448437403786483   -0.9456182403231073   -0.19166794613403737
5.448437403786483   -0.9456182403231073   -0.19166794613403737
11.564090131080137   0.7969857708235801   0.22488534255334697
11.564090131080137   0.7969857708235801   0.22488534255334697
11.564090131080137   0.7969857708235801   0.22488534255334697
11.564090131080137   0.7969857708235801   0.22488534255334697
8.306678195674623   -0.08600575889502071   -0.3903653103695613
8.306678195674623   -0.08600575889502071   -0.3903653103695613
8.306678195674623   -0.08600575889502071   -0.3903653103695613
8.306678195674623   -0.08600575889502071   -0.3903653103695613
11.364384326415113   0.23381095953315656   -0.21046886948134902
11.364384326415113   0.23381095953315656   -0.21046886948134902
11.364384326415113   0.23381095953315656   -0.21046886948134902
11.364384326415113   0.23381095953315656   -0.21046886948134902
5.632828866233263   -0.3977577712509266   0.18242889702768667
5.632828866233263   -0.3977577712509266   0.18242889702768667
5.632828866233263   -0.3977577712509266   0.18242889702768667
5.632828866233263   -0.3977577712509266   0.18242889702768667
5.244880794114295   -0.9343003099777545   -0.13111103069739694
5.244880794114295   -0.9343003099777545   -0.13111103069739694
5.244880794114295   -0.9343003099777545   -0.13111103069739694
5.244880794114295   -0.9343003099777545   -0.13111103069739694
11.202325647513492   0.7462084878621149   0.29149921444156035
11.202325647513492   0.7462084878621149   0.29149921444156035
11.202325647513492   0.7462084878621149   0.29149921444156035
11.202325647513492   0.7462084878621149   0.29149921444156035
7.891647583175779   -0.15055214205231193   -0.5138465254936305
7.891647583175779   -0.15055214205231193   -0.5138465254936305
7.891647583175779   -0.15055214205231193   -0.5138465254936305
7.891647583175779   -0.15055214205231193   -0.5138465254936305
6.076132009949147   0.10480270788587887   0.050811665682507945
6.076132009949147   0.10480270788587887   0.050811665682507945
6.076132009949147   0.10480270788587887   0.050811665682507945
6.076132009949147   0.10480270788587887   0.050811665682507945
0.6033834969013723   -0.36054551039061106   -0.011734133837482896
0.6033834969013723   -0.36054551039061106   -0.011734133837482896
0.6033834969013723   -0.36054551039061106   -0.011734133837482896
0.6033834969013723   -0.36054551039061106   -0.011734133837482896
0.23585478875743554   -1.1865599822142907   -0.22322317559232008
0.23585478875743554   -1.1865599822142907   -0.22322317559232008
0.23585478875743554   -1.1865599822142907   -0.22322317559232008
0.23585478875743554   -1.1865599822142907   -0.22322317559232008
6.084344578582144   0.7004647233307406   0.3025717883649705
6.084344578582144   0.7004647233307406   0.3025717883649705
6.084344578582144   0.7004647233307406   0.3025717883649705
6.084344578582144   0.7004647233307406   0.3025717883649705
3.190250487161886   -0.1696272015795346   -0.12792961892455493
3.190250487161886   -0.1696272015795346   -0.12792961892455493
3.190250487161886   -0.1696272015795346   -0.12792961892455493
3.190250487161886   -0.1696272015795346   -0.12792961892455493
5.903786394804991   0.009766743896397312   0.09047884891356511
5.903786394804991   0.009766743896397312   0.09047884891356511
5.903786394804991   0.009766743896397312   0.09047884891356511
5.903786394804991   0.009766743896397312   0.09047884891356511
0.4231295174681399   -0.4891454578463933   0.01573594359330424
0.4231295174681399   -0.4891454578463933   0.01573594359330424
0.4231295174681399   -0.4891454578463933   0.01573594359330424
0.4231295174681399   -0.4891454578463933   0.01573594359330424
0.033562929787595674   -1.2444112420685802   -0.1544745508631174
0.033562929787595674   -1.2444112420685802   -0.1544745508631174
0.033562929787595674   -1.2444112420685802   -0.1544745508631174
0.033562929787595674   -1.2444112420685802   -0.1544745508631174
5.862192831559092   0.5975354502792944   0.33395550212660985
5.862192831559092   0.5975354502792944   0.33395550212660985
5.862192831559092   0.5975354502792944   0.33395550212660985
5.862192831559092   0.5975354502792944   0.33395550212660985
2.958096632687557   -0.26407363073631407   -0.1811598947703793
2.958096632687557   -0.26407363073631407   -0.1811598947703793
2.958096632687557   -0.26407363073631407   -0.1811598947703793
2.958096632687557   -0.26407363073631407   -0.1811598947703793
5.691700699703703   -0.055068932739194   0.13409922586819661
5.691700699703703   -0.055068932739194   0.13409922586819661
5.691700699703703   -0.055068932739194   0.13409922586819661
5.691700699703703   -0.055068932739194   0.13409922586819661
0.2030140678133086   -0.5928478528798424   0.04121775007670958
0.2030140678133086   -0.5928478528798424   0.04121775007670958
0.2030140678133086   -0.5928478528798424   0.04121775007670958
0.2030140678133086   -0.5928478528798424   0.04121775007670958
-0.18381352029563108   -1.251623227243735   -0.10465262153791574
-0.18381352029563108   -1.251623227243735   -0.10465262153791574
-0.18381352029563108   -1.251623227243735   -0.10465262153791574
-0.18381352029563108   -1.251623227243735   -0.10465262153791574
5.638087770679539   0.5313260916533092   0.36929745049778895
5.638087770679539   0.5313260916533092   0.36929745049778895
5.638087770679539   0.5313260916533092   0.36929745049778895
5.638087770679539   0.5313260916533092   0.36929745049778895
2.7752834598959084   -0.3027813770418858   -0.22733786748317536
2.7752834598959084   -0.3027813770418858   -0.22733786748317536
2.7752834598959084   -0.3027813770418858   -0.22733786748317536
2.7752834598959084   -0.3027813770418858   -0.22733786748317536
0.6097055202448506   -0.3579404122156158   0.017270884704897904
0.6097055202448506   -0.3579404122156158   0.017270884704897904
0.6097055202448506   -0.3579404122156158   0.017270884704897904
0.6097055202448506   -0.3579404122156158   0.017270884704897904
-4.657611055341091   -0.5395540848497311   -0.14690921983470773
-4.657611055341091   -0.5395540848497311   -0.14690921983470773
-4.657611055341091   -0.5395540848497311   -0.14690921983470773
-4.657611055341091   -0.5395540848497311   -0.14690921983470773
-5.066179798642507   -1.5746870859994635   -0.2534486438331517
-5.066179798642507   -1.5746870859994635   -0.2534486438331517
-5.066179798642507   -1.5746870859994635   -0.2534486438331517
-5.066179798642507   -1.5746870859994635   -0.2534486438331517
0.6546180106491004   0.5111759005512735   0.17285705110043964
0.6546180106491004   0.5111759005512735   0.17285705110043964
0.6546180106491004   0.5111759005512735   0.17285705110043964
0.6546180106491004   0.5111759005512735   0.17285705110043964
-2.121384442572586   -0.4667007529842519   -0.1274296533296797
-2.121384442572586   -0.4667007529842519   -0.1274296533296797
-2.121384442572586   -0.4667007529842519   -0.1274296533296797
-2.121384442572586   -0.4667007529842519   -0.1274296533296797
0.4578276098232684   -0.39931640502930354   0.09939735255187246
0.4578276098232684   -0.39931640502930354   0.09939735255187246
0.4578276098232684   -0.39931640502930354   0.09939735255187246
0.4578276098232684   -0.39931640502930354   0.09939735255187246
-4.854447320446452   -0.6492527030487425   -0.12022063580359765
-4.854447320446452   -0.6492527030487425   -0.12022063580359765
-4.854447320446452   -0.6492527030487425   -0.12022063580359765
-4.854447320446452   -0.6492527030487425   -0.12022063580359765
-5.303568532723455   -1.6381995084204446   -0.16658654506380588
-5.303568532723455   -1.6381995084204446   -0.16658654506380588
-5.303568532723455   -1.6381995084204446   -0.16658654506380588
-5.303568532723455   -1.6381995084204446   -0.16658654506380588
0.4326488883737909   0.400895908879638   0.1956480911196407
0.4326488883737909   0.400895908879638   0.1956480911196407
0.4326488883737909   0.400895908879638   0.1956480911196407
0.4326488883737909   0.400895908879638   0.1956480911196407
-2.3176116025079536   -0.5327706731434267   -0.15299333008213142
-2.3176116025079536   -0.5327706731434267   -0.15299333008213142
-2.3176116025079536   -0.5327706731434267   -0.15299333008213142
-2.3176116025079536   -0.5327706731434267   -0.15299333008213142
0.24767405238964052   -0.46691643197446564   0.13858625205299246
0.24767405238964052   -0.46691643197446564   0.13858625205299246
0.24767405238964052   -0.46691643197446564   0.13858625205299246
0.24767405238964052   -0.46691643197446564   0.13858625205299246
-5.115544148485066   -0.7673376193121095   -0.09732651298024037
-5.115544148485066   -0.7673376193121095   -0.09732651298024037
-5.115544148485066   -0.7673376193121095   -0.09732651298024037
-5.115544148485066   -0.7673376193121095   -0.09732651298024037
-5.567149228816472   -1.685000297871484   -0.1481547813759192
-5.567149228816472   -1.685000297871484   -0.1481547813759192
-5.567149228816472   -1.685000297871484   -0.1481547813759192
-5.567149228816472   -1.685000297871484   -0.1481547813759192
0.1925808056573737   0.3066625939682349   0.21903318701513808
0.1925808056573737   0.3066625939682349   0.21903318701513808
0.1925808056573737   0.3066625939682349   0.21903318701513808
0.1925808056573737   0.3066625939682349   0.21903318701513808
-2.5727487806530602   -0.6118937307782921   -0.2143561903805142
-2.5727487806530602   -0.6118937307782921   -0.2143561903805142
-2.5727487806530602   -0.6118937307782921   -0.2143561903805142
-2.5727487806530602   -0.6118937307782921   -0.2143561903805142
-4.589287515258123   -0.4180940285943936   0.073248424324736
-4.589287515258123   -0.4180940285943936   0.073248424324736
-4.589287515258123   -0.4180940285943936   0.073248424324736
-4.589287515258123   -0.4180940285943936   0.073248424324736
-9.786143535426907   -0.6311119984646016   -0.26022138864597083
-9.786143535426907   -0.6311119984646016   -0.26022138864597083
-9.786143535426907   -0.6311119984646016   -0.26022138864597083
-9.786143535426907   -0.6311119984646016   -0.26022138864597083
-10.251131547947153   -1.647562393935354   -0.2516888556093199
-10.251131547947153   -1.647562393935354   -0.2516888556093199
-10.251131547947153   -1.647562393935354   -0.2516888556093199
-10.251131547947153   -1.647562393935354   -0.2516888556093199
-4.613259650661057   0.38882761000276234   0.04763740007179473
-4.613259650661057   0.38882761000276234   0.04763740007179473
-4.613259650661057   0.38882761000276234   0.04763740007179473
-4.613259650661057   0.38882761000276234   0.04763740007179473
-7.249434356830742   -0.5501809856649353   -0.10797409505493594
-7.249434356830742   -0.5501809856649353   -0.10797409505493594
-7.249434356830742   -0.5501809856649353   -0.10797409505493594
-7.249434356830742   -0.5501809856649353   -0.10797409505493594
-4.757622739100828   -0.4629941228908997   0.1776436907666284
-4.757622739100828   -0.4629941228908997   0.1776436907666284
-4.757622739100828   -0.4629941228908997   0.1776436907666284
-4.757622739100828   -0.4629941228908997   0.1776436907666284
-10.077269379167452   -0.7662415807017733   -0.2636988249444848
-10.077269379167452   -0.7662415807017733   -0.2636988249444848
-10.077269379167452   -0.7662415807017733   -0.2636988249444848
-10.077269379167452   -0.7662415807017733   -0.2636988249444848
-10.57996952817452   -1.755164210317374   -0.17581436339246345
-10.57996952817452   -1.755164210317374   -0.17581436339246345
-10.57996952817452   -1.755164210317374   -0.17581436339246345
-10.57996952817452   -1.755164210317374   -0.17581436339246345
-4.877259516996242   0.2680762997129782   0.0586827254387885
-4.877259516996242   0.2680762997129782   0.0586827254387885
-4.877259516996242   0.2680762997129782   0.0586827254387885
-4.877259516996242   0.2680762997129782   0.0586827254387885
-7.458461449389074   -0.6104484334754288   -0.10873465851684821
-7.458461449389074   -0.6104484334754288   -0.10873465851684821
-7.458461449389074   -0.6104484334754288   -0.10873465851684821
-7.458461449389074   -0.6104484334754288   -0.10873465851684821
-5.020049332263524   -0.5712127572446765   0.18402270606002583
-5.020049332263524   -0.5712127572446765   0.18402270606002583
-5.020049332263524   -0.5712127572446765   0.18402270606002583
-5.020049332263524   -0.5712127572446765   0.18402270606002583
-10.417449994693474   -0.8961454351460378   -0.22223547115857029
-10.417449994693474   -0.8961454351460378   -0.22223547115857029
-10.417449994693474   -0.8961454351460378   -0.22223547115857029
-10.417449994693474   -0.8961454351460378   -0.22223547115857029
-10.952415787328116   -1.896518491491594   -0.18882350204108325
-10.952415787328116   -1.896518491491594   -0.18882350204108325
-10.952415787328116   -1.896518491491594   -0.18882350204108325
-10.952415787328116   -1.896518491491594   -0.18882350204108325
-5.162494981450808   0.11947109440984316   0.07064506317099878
-5.162494981450808   0.11947109440984316   0.07064506317099878
-5.162494981450808   0.11947109440984316   0.07064506317099878
-5.162494981450808   0.11947109440984316   0.07064506317099878
-7.826298278839551   -0.7545873404874007   -0.1756163130245175
-7.826298278839551   -0.7545873404874007   -0.1756163130245175
-7.826298278839551   -0.7545873404874007   -0.1756163130245175
-7.826298278839551   -0.7545873404874007   -0.1756163130245175
-9.451737326386155   0.45249599216937764   0.32820166592381694
-9.451737326386155   0.45249599216937764   0.32820166592381694
-9.451737326386155   0.45249599216937764   0.32820166592381694
-9.451737326386155   0.45249599216937764   0.32820166592381694
-14.660535075103121   -0.7309478082620338   -0.20081150124906777
-14.660535075103121   -0.7309478082620338   -0.20081150124906777
-14.660535075103121   -0.7309478082620338   -0.20081150124906777
-14.660535075103121   -0.7309478082620338   -0.20081150124906777
-15.027721532954242   -0.7439384572592256   0.3378489347932949
-15.027721532954242   -0.7439384572592256   0.3378489347932949
-15.027721532954242   -0.7439384572592256   0.3378489347932949
-15.027721532954242   -0.7439384572592256   0.3378489347932949
-9.827556091644759   0.3007562768031917   -0.08213024483597597
-9.827556091644759   0.3007562768031917   -0.08213024483597597
-9.827556091644759   0.3007562768031917   -0.08213024483597597
-9.827556091644759   0.3007562768031917   -0.08213024483597597
-11.671731556687705   0.010405587426956853   0.2954209821731918
-11.671731556687705   0.010405587426956853   0.2954209821731918
-11.671731556687705   0.010405587426956853   0.2954209821731918
-11.671731556687705   0.010405587426956853   0.2954209821731918
-9.722187984853853   0.3322431488221058   0.4132234170995628
-9.722187984853853   0.3322431488221058   0.4132234170995628
-9.722187984853853   0.3322431488221058   0.4132234170995628
-9.722187984853853   0.3322431488221058   0.4132234170995628
-15.126353891835587   -0.7686895813685517   -0.1305617355041101
-15.126353891835587   -0.7686895813685517   -0.1305617355041101
-15.126353891835587   -0.7686895813685517   -0.1305617355041101
-15.126353891835587   -0.7686895813685517   -0.1305617355041101
-15.491990258001426   -0.870265427978997   0.4589216685429981
-15.491990258001426   -0.870265427978997   0.4589216685429981
-15.491990258001426   -0.870265427978997   0.4589216685429981
-15.491990258001426   -0.870265427978997   0.4589216685429981
-10.167882335156627   0.2150254094845634   -0.08556801810505199
-10.167882335156627   0.2150254094845634   -0.08556801810505199
-10.167882335156627   0.2150254094845634   -0.08556801810505199
-10.167882335156627   0.2150254094845634   -0.08556801810505199
-12.267312742469084   -0.13781115462269522   0.15878574284413471
-12.267312742469084   -0.13781115462269522   0.15878574284413471
-12.267312742469084   -0.13781115462269522   0.15878574284413471
-12.267312742469084   -0.13781115462269522   0.15878574284413471
-10.071606558359603   0.20349519442807784   0.40734108093655064
-10.071606558359603   0.20349519442807784   0.40734108093655064
-10.071606558359603   0.20349519442807784   0.40734108093655064
-10.071606558359603   0.20349519442807784   0.40734108093655064
-15.606389793144807   -0.8768589712688275   -0.10648246388407501
-15.606389793144807   -0.8768589712688275   -0.10648246388407501
-15.606389793144807   -0.8768589712688275   -0.10648246388407501
-15.606389793144807   -0.8768589712688275   -0.10648246388407501
-16.151136066523524   -1.3770793608081957   0.4001281356131246
-16.151136066523524   -1.3770793608081957   0.4001281356131246
-16.151136066523524   -1.3770793608081957   0.4001281356131246
-16.151136066523524   -1.3770793608081957   0.4001281356131246
-10.560217415920167   -0.043991890098669995   -0.08035824639444111
-10.560217415920167   -0.043991890098669995   -0.08035824639444111
-10.560217415920167   -0.043991890098669995   -0.08035824639444111
-10.560217415920167   -0.043991890098669995   -0.08035824639444111
-12.52618043093756   -0.32351554182993114   0.037248562685521125
-12.52618043093756   -0.32351554182993114   0.037248562685521125
-12.52618043093756   -0.32351554182993114   0.037248562685521125
-12.52618043093756   -0.32351554182993114   0.037248562685521125
9.683582614203175   0.5149680878105614   -0.3505907260360231
9.683582614203175   0.5149680878105614   -0.3505907260360231
9.683582614203175   0.5149680878105614   -0.3505907260360231
9.683582614203175   0.5149680878105614   -0.3505907260360231
4.808981890652066   0.0008978442947180643   0.12854367605437478
4.808981890652066   0.0008978442947180643   0.12854367605437478
4.808981890652066   0.0008978442947180643   0.12854367605437478
4.808981890652066   0.0008978442947180643   0.12854367605437478
4.389403849814639   -0.7196293699710807   -0.3204351760488947
4.389403849814639   -0.7196293699710807   -0.3204351760488947
4.389403849814639   -0.7196293699710807   -0.3204351760488947
4.389403849814639   -0.7196293699710807   -0.3204351760488947
9.498341025405693   0.7857733203371373   0.1610173153559908
9.498341025405693   0.7857733203371373   0.1610173153559908
9.498341025405693   0.7857733203371373   0.1610173153559908
9.498341025405693   0.7857733203371373   0.1610173153559908
6.728273717312488   0.05969768204838255   -0.22127833305106853
6.728273717312488   0.05969768204838255   -0.22127833305106853
6.728273717312488   0.05969768204838255   -0.22127833305106853
6.728273717312488   0.05969768204838255   -0.22127833305106853
9.293105180699076   0.25776684487309254   -0.3371554327129592
9.293105180699076   0.25776684487309254   -0.3371554327129592
9.293105180699076   0.25776684487309254   -0.3371554327129592
9.293105180699076   0.25776684487309254   -0.3371554327129592
4.585730716098102   -0.20053187293010644   0.14210165832736193
4.585730716098102   -0.20053187293010644   0.14210165832736193
4.585730716098102   -0.20053187293010644   0.14210165832736193
4.585730716098102   -0.20053187293010644   0.14210165832736193
4.179492830449017   -0.7805511202537145   -0.27820181220200696
4.179492830449017   -0.7805511202537145   -0.27820181220200696
4.179492830449017   -0.7805511202537145   -0.27820181220200696
4.179492830449017   -0.7805511202537145   -0.27820181220200696
9.18418367211068   0.7023158735991188   0.21934280246186022
9.18418367211068   0.7023158735991188   0.21934280246186022
9.18418367211068   0.7023158735991188   0.21934280246186022
9.18418367211068   0.7023158735991188   0.21934280246186022
6.56195834909788   -0.04948835356802639   -0.2924147749789969
6.56195834909788   -0.04948835356802639   -0.2924147749789969
6.56195834909788   -0.04948835356802639   -0.2924147749789969
6.56195834909788   -0.04948835356802639   -0.2924147749789969
8.983441891960318   0.18289084129234157   -0.2649410659830261
8.983441891960318   0.18289084129234157   -0.2649410659830261
8.983441891960318   0.18289084129234157   -0.2649410659830261
8.983441891960318   0.18289084129234157   -0.2649410659830261
4.372341384394483   -0.2690193141518171   0.17450915142338086
4.372341384394483   -0.2690193141518171   0.17450915142338086
4.372341384394483   -0.2690193141518171   0.17450915142338086
4.372341384394483   -0.2690193141518171   0.17450915142338086
3.9875551160207507   -0.8004795011225747   -0.22717019898914548
3.9875551160207507   -0.8004795011225747   -0.22717019898914548
3.9875551160207507   -0.8004795011225747   -0.22717019898914548
3.9875551160207507   -0.8004795011225747   -0.22717019898914548
8.830014396276157   0.6277270917364695   0.2722012272774548
8.830014396276157   0.6277270917364695   0.2722012272774548
8.830014396276157   0.6277270917364695   0.2722012272774548
8.830014396276157   0.6277270917364695   0.2722012272774548
6.181005417431784   -0.12528300877145515   -0.3979720995216731
6.181005417431784   -0.12528300877145515   -0.3979720995216731
6.181005417431784   -0.12528300877145515   -0.3979720995216731
6.181005417431784   -0.12528300877145515   -0.3979720995216731
4.888641358696665   0.5036672173753014   0.02407164319678695
4.888641358696665   0.5036672173753014   0.02407164319678695
4.888641358696665   0.5036672173753014   0.02407164319678695
4.888641358696665   0.5036672173753014   0.02407164319678695
0.17948138634009056   -0.15598559969283693   -0.018387666476915643
0.17948138634009056   -0.15598559969283693   -0.018387666476915643
0.17948138634009056   -0.15598559969283693   -0.018387666476915643
0.17948138634009056   -0.15598559969283693   -0.018387666476915643
-0.13670659933833745   -0.6476963334664689   -0.21718231770059643
-0.13670659933833745   -0.6476963334664689   -0.21718231770059643
-0.13670659933833745   -0.6476963334664689   -0.21718231770059643
-0.13670659933833745   -0.6476963334664689   -0.21718231770059643
4.792949272634761   0.7104208204071525   0.26724174767340075
4.792949272634761   0.7104208204071525   0.26724174767340075
4.792949272634761   0.7104208204071525   0.26724174767340075
4.792949272634761   0.7104208204071525   0.26724174767340075
2.393271212745325   0.10111500420042391   -0.028033235505657658
2.393271212745325   0.10111500420042391   -0.028033235505657658
2.393271212745325   0.10111500420042391   -0.028033235505657658
2.393271212745325   0.10111500420042391   -0.028033235505657658
4.681877314381925   0.369931223484234   0.05237155333216437
4.681877314381925   0.369931223484234   0.05237155333216437
4.681877314381925   0.369931223484234   0.05237155333216437
4.681877314381925   0.369931223484234   0.05237155333216437
-0.02370631789107109   -0.3052784133490366   0.005401169418287749
-0.02370631789107109   -0.3052784133490366   0.005401169418287749
-0.02370631789107109   -0.3052784133490366   0.005401169418287749
-0.02370631789107109   -0.3052784133490366   0.005401169418287749
-0.33557553510796434   -0.7462963734894461   -0.1874352500505272
-0.33557553510796434   -0.7462963734894461   -0.1874352500505272
-0.33557553510796434   -0.7462963734894461   -0.1874352500505272
-0.33557553510796434   -0.7462963734894461   -0.1874352500505272
4.567712863430117   0.5864523083916257   0.29589492405811146
4.567712863430117   0.5864523083916257   0.29589492405811146
4.567712863430117   0.5864523083916257   0.29589492405811146
4.567712863430117   0.5864523083916257   0.29589492405811146
2.1509332489832675   -0.020834428945769645   -0.09741973313737996
2.1509332489832675   -0.020834428945769645   -0.09741973313737996
2.1509332489832675   -0.020834428945769645   -0.09741973313737996
2.1509332489832675   -0.020834428945769645   -0.09741973313737996
4.460748369259477   0.26663367476121935   0.08089108683535859
4.460748369259477   0.26663367476121935   0.08089108683535859
4.460748369259477   0.26663367476121935   0.08089108683535859
4.460748369259477   0.26663367476121935   0.08089108683535859
-0.22840370542157706   -0.4262704043432857   0.02839792923524867
-0.22840370542157706   -0.4262704043432857   0.02839792923524867
-0.22840370542157706   -0.4262704043432857   0.02839792923524867
-0.22840370542157706   -0.4262704043432857   0.02839792923524867
-0.5325185788159915   -0.8063734479999908   -0.14859389827318012
-0.5325185788159915   -0.8063734479999908   -0.14859389827318012
-0.5325185788159915   -0.8063734479999908   -0.14859389827318012
-0.5325185788159915   -0.8063734479999908   -0.14859389827318012
4.353514722357166   0.4813338747700162   0.32081445680028414
4.353514722357166   0.4813338747700162   0.32081445680028414
4.353514722357166   0.4813338747700162   0.32081445680028414
4.353514722357166   0.4813338747700162   0.32081445680028414
1.9708231798076057   -0.09963073300033848   -0.1488278038550633
1.9708231798076057   -0.09963073300033848   -0.1488278038550633
1.9708231798076057   -0.09963073300033848   -0.1488278038550633
1.9708231798076057   -0.09963073300033848   -0.1488278038550633
0.3384645548172105   0.5109594969933667   0.10958307922248028
0.3384645548172105   0.5109594969933667   0.10958307922248028
0.3384645548172105   0.5109594969933667   0.10958307922248028
0.3384645548172105   0.5109594969933667   0.10958307922248028
-4.304700829530743   -0.27579198407328687   -0.14848422381354165
-4.304700829530743   -0.27579198407328687   -0.14848422381354165
-4.304700829530743   -0.27579198407328687   -0.14848422381354165
-4.304700829530743   -0.27579198407328687   -0.14848422381354165
-4.551417082656027   -0.5918275520785308   -0.13612511874345484
-4.551417082656027   -0.5918275520785308   -0.13612511874345484
-4.551417082656027   -0.5918275520785308   -0.13612511874345484
-4.551417082656027   -0.5918275520785308   -0.13612511874345484
0.17833223107371135   0.5814465654039921   0.12886893548917125
0.17833223107371135   0.5814465654039921   0.12886893548917125
0.17833223107371135   0.5814465654039921   0.12886893548917125
0.17833223107371135   0.5814465654039921   0.12886893548917125
-2.0822600604090837   0.06636255248998879   0.00753778909395747
-2.0822600604090837   0.06636255248998879   0.00753778909395747
-2.0822600604090837   0.06636255248998879   0.00753778909395747
-2.0822600604090837   0.06636255248998879   0.00753778909395747
0.14436015095850552   0.40220328204708045   0.13825181827006905
0.14436015095850552   0.40220328204708045   0.13825181827006905
0.14436015095850552   0.40220328204708045   0.13825181827006905
0.14436015095850552   0.40220328204708045   0.13825181827006905
-4.512048706048963   -0.40718797222975855   -0.1239228155569076
-4.512048706048963   -0.40718797222975855   -0.1239228155569076
-4.512048706048963   -0.40718797222975855   -0.1239228155569076
-4.512048706048963   -0.40718797222975855   -0.1239228155569076
-4.764890452055656   -0.700243043472206   -0.1125073302101312
-4.764890452055656   -0.700243043472206   -0.1125073302101312
-4.764890452055656   -0.700243043472206   -0.1125073302101312
-4.764890452055656   -0.700243043472206   -0.1125073302101312
-0.02672825443333196   0.45387692921130074   0.15662785062190304
-0.02672825443333196   0.45387692921130074   0.15662785062190304
-0.02672825443333196   0.45387692921130074   0.15662785062190304
-0.02672825443333196   0.45387692921130074   0.15662785062190304
-2.2867262028621527   -0.03939640290171742   -0.04479389678964846
-2.2867262028621527   -0.03939640290171742   -0.04479389678964846
-2.2867262028621527   -0.03939640290171742   -0.04479389678964846
-2.2867262028621527   -0.03939640290171742   -0.04479389678964846
-0.05580439486914185   0.29758370794829264   0.16754036970584651
-0.05580439486914185   0.29758370794829264   0.16754036970584651
-0.05580439486914185   0.29758370794829264   0.16754036970584651
-0.05580439486914185   0.29758370794829264   0.16754036970584651
-4.731136042822854   -0.5392715534122013   -0.10470677410608645
-4.731136042822854   -0.5392715534122013   -0.10470677410608645
-4.731136042822854   -0.5392715534122013   -0.10470677410608645
-4.731136042822854   -0.5392715534122013   -0.10470677410608645
-4.976998578872515   -0.7857186410206591   -0.07329360339944313
-4.976998578872515   -0.7857186410206591   -0.07329360339944313
-4.976998578872515   -0.7857186410206591   -0.07329360339944313
-4.976998578872515   -0.7857186410206591   -0.07329360339944313
-0.2391356100090624   0.33370155714588845   0.17824594061558643
-0.2391356100090624   0.33370155714588845   0.17824594061558643
-0.2391356100090624   0.33370155714588845   0.17824594061558643
-0.2391356100090624   0.33370155714588845   0.17824594061558643
-2.5066990884657345   -0.14697831764192465   -0.1018839730238112
-2.5066990884657345   -0.14697831764192465   -0.1018839730238112
-2.5066990884657345   -0.14697831764192465   -0.1018839730238112
-2.5066990884657345   -0.14697831764192465   -0.1018839730238112
-4.057971543683376   0.6070339349027659   0.20233628644733476
-4.057971543683376   0.6070339349027659   0.20233628644733476
-4.057971543683376   0.6070339349027659   0.20233628644733476
-4.057971543683376   0.6070339349027659   0.20233628644733476
-8.634483266640283   -0.3802058622939082   -0.2440104116389098
-8.634483266640283   -0.3802058622939082   -0.2440104116389098
-8.634483266640283   -0.3802058622939082   -0.2440104116389098
-8.634483266640283   -0.3802058622939082   -0.2440104116389098
-8.827018410437882   -0.4707150153729267   -0.03631696702982434
-8.827018410437882   -0.4707150153729267   -0.03631696702982434
-8.827018410437882   -0.4707150153729267   -0.03631696702982434
-8.827018410437882   -0.4707150153729267   -0.03631696702982434
-4.319771822056251   0.43884471473408815   -0.008571082557165044
-4.319771822056251   0.43884471473408815   -0.008571082557165044
-4.319771822056251   0.43884471473408815   -0.008571082557165044
-4.319771822056251   0.43884471473408815   -0.008571082557165044
-6.413225876303331   0.06902293757966826   0.04643461241232261
-6.413225876303331   0.06902293757966826   0.04643461241232261
-6.413225876303331   0.06902293757966826   0.04643461241232261
-6.413225876303331   0.06902293757966826   0.04643461241232261
-4.261342990264024   0.4951391835795179   0.22727860755854012
-4.261342990264024   0.4951391835795179   0.22727860755854012
-4.261342990264024   0.4951391835795179   0.22727860755854012
-4.261342990264024   0.4951391835795179   0.22727860755854012
-8.877991704344419   -0.5195539463326815   -0.24234450560284643
-8.877991704344419   -0.5195539463326815   -0.24234450560284643
-8.877991704344419   -0.5195539463326815   -0.24234450560284643
-8.877991704344419   -0.5195539463326815   -0.24234450560284643
-9.090008484735618   -0.5925101092774017   -0.03150035177324367
-9.090008484735618   -0.5925101092774017   -0.03150035177324367
-9.090008484735618   -0.5925101092774017   -0.03150035177324367
-9.090008484735618   -0.5925101092774017   -0.03150035177324367
-4.535677485796869   0.31710452889347684   0.016209928718158406
-4.535677485796869   0.31710452889347684   0.016209928718158406
-4.535677485796869   0.31710452889347684   0.016209928718158406
-4.535677485796869   0.31710452889347684   0.016209928718158406
-6.598145431335705   -0.028181901190664993   0.0034297018459907846
-6.598145431335705   -0.028181901190664993   0.0034297018459907846
-6.598145431335705   -0.028181901190664993   0.0034297018459907846
-6.598145431335705   -0.028181901190664993   0.0034297018459907846
-4.471755558520339   0.3900211375992999   0.2629029563949839
-4.471755558520339   0.3900211375992999   0.2629029563949839
-4.471755558520339   0.3900211375992999   0.2629029563949839
-4.471755558520339   0.3900211375992999   0.2629029563949839
-9.138962865574033   -0.6504591715451191   -0.21832319369765774
-9.138962865574033   -0.6504591715451191   -0.21832319369765774
-9.138962865574033   -0.6504591715451191   -0.21832319369765774
-9.138962865574033   -0.6504591715451191   -0.21832319369765774
-9.332339997019782   -0.7227331231844543   0.029468990768484915
-9.332339997019782   -0.7227331231844543   0.029468990768484915
-9.332339997019782   -0.7227331231844543   0.029468990768484915
-9.332339997019782   -0.7227331231844543   0.029468990768484915
-4.7644663021655225   0.17263971200594508   0.031009427109009058
-4.7644663021655225   0.17263971200594508   0.031009427109009058
-4.7644663021655225   0.17263971200594508   0.031009427109009058
-4.7644663021655225   0.17263971200594508   0.031009427109009058
-6.884634227513382   -0.1635454163980541   -0.05399917684243738
-6.884634227513382   -0.1635454163980541   -0.05399917684243738
-6.884634227513382   -0.1635454163980541   -0.05399917684243738
-6.884634227513382   -0.1635454163980541   -0.05399917684243738
-8.326113561742787   0.6330210373090113   0.2846112132455789
-8.326113561742787   0.6330210373090113   0.2846112132455789
-8.326113561742787   0.6330210373090113   0.2846112132455789
-8.326113561742787   0.6330210373090113   0.2846112132455789
-12.74058021982028   -0.5885193678380234   -0.2273778224804005
-12.74058021982028   -0.5885193678380234   -0.2273778224804005
-12.74058021982028   -0.5885193678380234   -0.2273778224804005
-12.74058021982028   -0.5885193678380234   -0.2273778224804005
-12.919292959434937   -0.2525414073752641   0.24311820206192292
-12.919292959434937   -0.2525414073752641   0.24311820206192292
-12.919292959434937   -0.2525414073752641   0.24311820206192292
-12.919292959434937   -0.2525414073752641   0.24311820206192292
-8.699584986830418   0.25927059904393746   -0.12913546340936466
-8.699584986830418   0.25927059904393746   -0.12913546340936466
-8.699584986830418   0.25927059904393746   -0.12913546340936466
-8.699584986830418   0.25927059904393746   -0.12913546340936466
-10.200462930993606   0.13330007047967518   0.2328291750581286
-10.200462930993606   0.13330007047967518   0.2328291750581286
-10.200462930993606   0.13330007047967518   0.2328291750581286
-10.200462930993606   0.13330007047967518   0.2328291750581286
-8.531875317972377   0.6417126470748331   0.3269708328498486
-8.531875317972377   0.6417126470748331   0.3269708328498486
-8.531875317972377   0.6417126470748331   0.3269708328498486
-8.531875317972377   0.6417126470748331   0.3269708328498486
-13.077086147464527   -0.6250669745776829   -0.17332217088335855
-13.077086147464527   -0.6250669745776829   -0.17332217088335855
-13.077086147464527   -0.6250669745776829   -0.17332217088335855
-13.077086147464527   -0.6250669745776829   -0.17332217088335855
-13.245787242316911   -0.3162334022831419   0.3360428302167042
-13.245787242316911   -0.3162334022831419   0.3360428302167042
-13.245787242316911   -0.3162334022831419   0.3360428302167042
-13.245787242316911   -0.3162334022831419   0.3360428302167042
-8.950362591121252   0.18927241726071697   -0.11505341023952742
-8.950362591121252   0.18927241726071697   -0.11505341023952742
-8.950362591121252   0.18927241726071697   -0.11505341023952742
-8.950362591121252   0.18927241726071697   -0.11505341023952742
-10.646375910848088   0.06544313813519054   0.14792485810960987
-10.646375910848088   0.06544313813519054   0.14792485810960987
-10.646375910848088   0.06544313813519054   0.14792485810960987
-10.646375910848088   0.06544313813519054   0.14792485810960987
-8.765174020876564   0.593927539675509   0.40623431856912107
-8.765174020876564   0.593927539675509   0.40623431856912107
-8.765174020876564   0.593927539675509   0.40623431856912107
-8.765174020876564   0.593927539675509   0.40623431856912107
-13.4214686402488   -0.7113813523850081   -0.14721620934060609
-13.4214686402488   -0.7113813523850081   -0.14721620934060609
-13.4214686402488   -0.7113813523850081   -0.14721620934060609
-13.4214686402488   -0.7113813523850081   -0.14721620934060609
-13.688504068626976   -0.5865461211526481   0.3351572510427234
-13.688504068626976   -0.5865461211526481   0.3351572510427234
-13.688504068626976   -0.5865461211526481   0.3351572510427234
-13.688504068626976   -0.5865461211526481   0.3351572510427234
-9.218936981443667   -0.018352393310695714   -0.10789666122469677
-9.218936981443667   -0.018352393310695714   -0.10789666122469677
-9.218936981443667   -0.018352393310695714   -0.10789666122469677
-9.218936981443667   -0.018352393310695714   -0.10789666122469677
-10.780579108178667   -0.03121615461907723   0.11886527025572668
-10.780579108178667   -0.03121615461907723   0.11886527025572668
-10.780579108178667   -0.03121615461907723   0.11886527025572668
-10.780579108178667   -0.03121615461907723   0.11886527025572668
7.304273314176964   0.40339293291394407   -0.35427230437439206
7.304273314176964   0.40339293291394407   -0.35427230437439206
7.304273314176964   0.40339293291394407   -0.35427230437439206
7.304273314176964   0.40339293291394407   -0.35427230437439206
3.479165252611113   0.0749969477327701   0.13631754667876472
3.479165252611113   0.0749969477327701   0.13631754667876472
3.479165252611113   0.0749969477327701   0.13631754667876472
3.479165252611113   0.0749969477327701   0.13631754667876472
3.0849514060141296   -0.5962463172487553   -0.33569125318191023
3.0849514060141296   -0.5962463172487553   -0.33569125318191023
3.0849514060141296   -0.5962463172487553   -0.33569125318191023
3.0849514060141296   -0.5962463172487553   -0.33569125318191023
7.14285573239105   0.6741856666767401   0.16838156969534884
7.14285573239105   0.6741856666767401   0.16838156969534884
7.14285573239105   0.6741856666767401   0.16838156969534884
7.14285573239105   0.6741856666767401   0.16838156969534884
4.981528672567143   0.06757983658588873   -0.14716477061536518
4.981528672567143   0.06757983658588873   -0.14716477061536518
4.981528672567143   0.06757983658588873   -0.14716477061536518
4.981528672567143   0.06757983658588873   -0.14716477061536518
6.942587134992007   0.17555327421548195   -0.334329024838602
6.942587134992007   0.17555327421548195   -0.334329024838602
6.942587134992007   0.17555327421548195   -0.334329024838602
6.942587134992007   0.17555327421548195   -0.334329024838602
3.2812326957234172   -0.10160123247725561   0.15107011059300285
3.2812326957234172   -0.10160123247725561   0.15107011059300285
3.2812326957234172   -0.10160123247725561   0.15107011059300285
3.2812326957234172   -0.10160123247725561   0.15107011059300285
2.900538999650349   -0.6554663369380759   -0.2859235777637794
2.900538999650349   -0.6554663369380759   -0.2859235777637794
2.900538999650349   -0.6554663369380759   -0.2859235777637794
2.900538999650349   -0.6554663369380759   -0.2859235777637794
6.856180796654704   0.5897227690219633   0.22077427567582802
6.856180796654704   0.5897227690219633   0.22077427567582802
6.856180796654704   0.5897227690219633   0.22077427567582802
6.856180796654704   0.5897227690219633   0.22077427567582802
4.8147263792576265   -0.034642547323204154   -0.2081468599006509
4.8147263792576265   -0.034642547323204154   -0.2081468599006509
4.8147263792576265   -0.034642547323204154   -0.2081468599006509
4.8147263792576265   -0.034642547323204154   -0.2081468599006509
6.660719183116688   0.10032684225791955   -0.2671378652501426
6.660719183116688   0.10032684225791955   -0.2671378652501426
6.660719183116688   0.10032684225791955   -0.2671378652501426
6.660719183116688   0.10032684225791955   -0.2671378652501426
3.0910690438339037   -0.17100197952848684   0.1822622857443773
3.0910690438339037   -0.17100197952848684   0.1822622857443773
3.0910690438339037   -0.17100197952848684   0.1822622857443773
3.0910690438339037   -0.17100197952848684   0.1822622857443773
2.734098487994613   -0.6935035920631   -0.23803628343884958
2.734098487994613   -0.6935035920631   -0.23803628343884958
2.734098487994613   -0.6935035920631   -0.23803628343884958
2.734098487994613   -0.6935035920631   -0.23803628343884958
6.533122009442359   0.49714764692214597   0.2616878480630508
6.533122009442359   0.49714764692214597   0.2616878480630508
6.533122009442359   0.49714764692214597   0.2616878480630508
6.533122009442359   0.49714764692214597   0.2616878480630508
4.490283094569752   -0.11243511990269539   -0.2974708561921381
4.490283094569752   -0.11243511990269539   -0.2974708561921381
4.490283094569752   -0.11243511990269539   -0.2974708561921381
4.490283094569752   -0.11243511990269539   -0.2974708561921381
3.534992444531854   0.5140701967032578   -0.023619742687959695
3.534992444531854   0.5140701967032578   -0.023619742687959695
3.534992444531854   0.5140701967032578   -0.023619742687959695
3.534992444531854   0.5140701967032578   -0.023619742687959695
-0.22529878070200776   -0.04637470360004129   -0.00031808404497933097
-0.22529878070200776   -0.04637470360004129   -0.00031808404497933097
-0.22529878070200776   -0.04637470360004129   -0.00031808404497933097
-0.22529878070200776   -0.04637470360004129   -0.00031808404497933097
-0.5029623187116798   -0.4447351092776635   -0.2126263094042381
-0.5029623187116798   -0.4447351092776635   -0.2126263094042381
-0.5029623187116798   -0.4447351092776635   -0.2126263094042381
-0.5029623187116798   -0.4447351092776635   -0.2126263094042381
3.440963159264701   0.6120362144660314   0.2360849813561346
3.440963159264701   0.6120362144660314   0.2360849813561346
3.440963159264701   0.6120362144660314   0.2360849813561346
3.440963159264701   0.6120362144660314   0.2360849813561346
1.5379328752810921   0.15171832396207327   0.01057295700949342
1.5379328752810921   0.15171832396207327   0.01057295700949342
1.5379328752810921   0.15171832396207327   0.01057295700949342
1.5379328752810921   0.15171832396207327   0.01057295700949342
3.346888940677866   0.369425354215584   0.008324748672452975
3.346888940677866   0.369425354215584   0.008324748672452975
3.346888940677866   0.369425354215584   0.008324748672452975
3.346888940677866   0.369425354215584   0.008324748672452975
-0.40724934518138217   -0.20048549408374552   0.021688943053332396
-0.40724934518138217   -0.20048549408374552   0.021688943053332396
-0.40724934518138217   -0.20048549408374552   0.021688943053332396
-0.40724934518138217   -0.20048549408374552   0.021688943053332396
-0.6767182561458082   -0.5567104244247418   -0.17548762044780072
-0.6767182561458082   -0.5567104244247418   -0.17548762044780072
-0.6767182561458082   -0.5567104244247418   -0.17548762044780072
-0.6767182561458082   -0.5567104244247418   -0.17548762044780072
3.2362250404418025   0.47887621935271024   0.2581640699026731
3.2362250404418025   0.47887621935271024   0.2581640699026731
3.2362250404418025   0.47887621935271024   0.2581640699026731
3.2362250404418025   0.47887621935271024   0.2581640699026731
1.324300531942809   0.020216964610474786   -0.05550402463023263
1.324300531942809   0.020216964610474786   -0.05550402463023263
1.324300531942809   0.020216964610474786   -0.05550402463023263
1.324300531942809   0.020216964610474786   -0.05550402463023263
3.145234282953253   0.24932908987263624   0.03275741194002876
3.145234282953253   0.24932908987263624   0.03275741194002876
3.145234282953253   0.24932908987263624   0.03275741194002876
3.145234282953253   0.24932908987263624   0.03275741194002876
-0.58699210072759   -0.32842789701499425   0.04486062923354288
-0.58699210072759   -0.32842789701499425   0.04486062923354288
-0.58699210072759   -0.32842789701499425   0.04486062923354288
-0.58699210072759   -0.32842789701499425   0.04486062923354288
-0.8482752573739185   -0.6513036172849687   -0.14058302374355622
-0.8482752573739185   -0.6513036172849687   -0.14058302374355622
-0.8482752573739185   -0.6513036172849687   -0.14058302374355622
-0.8482752573739185   -0.6513036172849687   -0.14058302374355622
3.0472024135329097   0.3552419971663705   0.27873775502315
3.0472024135329097   0.3552419971663705   0.27873775502315
3.0472024135329097   0.3552419971663705   0.27873775502315
3.0472024135329097   0.3552419971663705   0.27873775502315
1.1596636348365605   -0.08013600038241869   -0.11077828077664563
1.1596636348365605   -0.08013600038241869   -0.11077828077664563
1.1596636348365605   -0.08013600038241869   -0.11077828077664563
1.1596636348365605   -0.08013600038241869   -0.11077828077664563
-0.07557852497300385   0.6167591831674744   0.08514930783252465
-0.07557852497300385   0.6167591831674744   0.08514930783252465
-0.07557852497300385   0.6167591831674744   0.08514930783252465
-0.07557852497300385   0.6167591831674744   0.08514930783252465
-3.850508873798517   -0.16361321342364854   -0.12776039160279667
-3.850508873798517   -0.16361321342364854   -0.12776039160279667
-3.850508873798517   -0.16361321342364854   -0.12776039160279667
-3.850508873798517   -0.16361321342364854   -0.12776039160279667
-4.029524991711462   -0.3057883313936275   -0.09944832571375345
-4.029524991711462   -0.3057883313936275   -0.09944832571375345
-4.029524991711462   -0.3057883313936275   -0.09944832571375345
-4.029524991711462   -0.3057883313936275   -0.09944832571375345
-0.2521164707406837   0.49439541875483384   0.1024724024182605
-0.2521164707406837   0.49439541875483384   0.1024724024182605
-0.2521164707406837   0.49439541875483384   0.1024724024182605
-0.2521164707406837   0.49439541875483384   0.1024724024182605
-2.047093276270455   0.16166254547300296   0.04022528281578072
-2.047093276270455   0.16166254547300296   0.04022528281578072
-2.047093276270455   0.16166254547300296   0.04022528281578072
-2.047093276270455   0.16166254547300296   0.04022528281578072
-0.24854324781763487   0.49437039140463024   0.12036354438370836
-0.24854324781763487   0.49437039140463024   0.12036354438370836
-0.24854324781763487   0.49437039140463024   0.12036354438370836
-0.24854324781763487   0.49437039140463024   0.12036354438370836
-4.029714578227055   -0.3023796676359687   -0.10380492204938047
-4.029714578227055   -0.3023796676359687   -0.10380492204938047
-4.029714578227055   -0.3023796676359687   -0.10380492204938047
-4.029714578227055   -0.3023796676359687   -0.10380492204938047
-4.20748297226344   -0.4269937493227829   -0.06697082421840775
-4.20748297226344   -0.4269937493227829   -0.06697082421840775
-4.20748297226344   -0.4269937493227829   -0.06697082421840775
-4.20748297226344   -0.4269937493227829   -0.06697082421840775
-0.4332167784396852   0.3572639903663639   0.1280453532916937
-0.4332167784396852   0.3572639903663639   0.1280453532916937
-0.4332167784396852   0.3572639903663639   0.1280453532916937
-0.4332167784396852   0.3572639903663639   0.1280453532916937
-2.2268799906085834   0.04235468273896337   -0.013503087065230512
-2.2268799906085834   0.04235468273896337   -0.013503087065230512
-2.2268799906085834   0.04235468273896337   -0.013503087065230512
-2.2268799906085834   0.04235468273896337   -0.013503087065230512
-0.4260791187564933   0.3724005955309094   0.1485970465431075
-0.4260791187564933   0.3724005955309094   0.1485970465431075
-0.4260791187564933   0.3724005955309094   0.1485970465431075
-0.4260791187564933   0.3724005955309094   0.1485970465431075
-4.213578187027997   -0.4410879095686933   -0.08335273779528128
-4.213578187027997   -0.4410879095686933   -0.08335273779528128
-4.213578187027997   -0.4410879095686933   -0.08335273779528128
-4.213578187027997   -0.4410879095686933   -0.08335273779528128
-4.383429515443976   -0.5377798371393088   -0.03486712537573232
-4.383429515443976   -0.5377798371393088   -0.03486712537573232
-4.383429515443976   -0.5377798371393088   -0.03486712537573232
-4.383429515443976   -0.5377798371393088   -0.03486712537573232
-0.6149972908268743   0.22463168424168595   0.1498715074650251
-0.6149972908268743   0.22463168424168595   0.1498715074650251
-0.6149972908268743   0.22463168424168595   0.1498715074650251
-0.6149972908268743   0.22463168424168595   0.1498715074650251
-2.4148400211925884   -0.0779950977870057   -0.07328864843368367
-2.4148400211925884   -0.0779950977870057   -0.07328864843368367
-2.4148400211925884   -0.0779950977870057   -0.07328864843368367
-2.4148400211925884   -0.0779950977870057   -0.07328864843368367
-3.6127303885843527   0.7103754665449353   0.1871433544993779
-3.6127303885843527   0.7103754665449353   0.1871433544993779
-3.6127303885843527   0.7103754665449353   0.1871433544993779
-3.6127303885843527   0.7103754665449353   0.1871433544993779
-7.388857273108182   -0.2830985922625604   -0.23110337517508894
-7.388857273108182   -0.2830985922625604   -0.23110337517508894
-7.388857273108182   -0.2830985922625604   -0.23110337517508894
-7.388857273108182   -0.2830985922625604   -0.23110337517508894
-7.486859154564015   -0.1880702277177151   0.023941537691582304
-7.486859154564015   -0.1880702277177151   0.023941537691582304
-7.486859154564015   -0.1880702277177151   0.023941537691582304
-7.486859154564015   -0.1880702277177151   0.023941537691582304
-3.883741437873003   0.35447114484825826   -0.030790032763312436
-3.883741437873003   0.35447114484825826   -0.030790032763312436
-3.883741437873003   0.35447114484825826   -0.030790032763312436
-3.883741437873003   0.35447114484825826   -0.030790032763312436
-5.556926412659116   0.15571167506068018   0.06824571566902671
-5.556926412659116   0.15571167506068018   0.06824571566902671
-5.556926412659116   0.15571167506068018   0.06824571566902671
-5.556926412659116   0.15571167506068018   0.06824571566902671
-3.78596467372344   0.5915277895654837   0.22103714326724555
-3.78596467372344   0.5915277895654837   0.22103714326724555
-3.78596467372344   0.5915277895654837   0.22103714326724555
-3.78596467372344   0.5915277895654837   0.22103714326724555
-7.583631781619138   -0.4241227353405468   -0.2238690899612022
-7.583631781619138   -0.4241227353405468   -0.2238690899612022
-7.583631781619138   -0.4241227353405468   -0.2238690899612022
-7.583631781619138   -0.4241227353405468   -0.2238690899612022
-7.694024414157493   -0.3105571814396495   0.03624830541315105
-7.694024414157493   -0.3105571814396495   0.03624830541315105
-7.694024414157493   -0.3105571814396495   0.03624830541315105
-7.694024414157493   -0.3105571814396495   0.03624830541315105
-4.064135048356804   0.22749010711679363   -0.0047150611247746554
-4.064135048356804   0.22749010711679363   -0.0047150611247746554
-4.064135048356804   0.22749010711679363   -0.0047150611247746554
-4.064135048356804   0.22749010711679363   -0.0047150611247746554
-5.709625634007618   0.0489129783772182   0.01815357883263885
-5.709625634007618   0.0489129783772182   0.01815357883263885
-5.709625634007618   0.0489129783772182   0.01815357883263885
-5.709625634007618   0.0489129783772182   0.01815357883263885
-3.962329845769629   0.479076902450722   0.2527241564771432
-3.962329845769629   0.479076902450722   0.2527241564771432
-3.962329845769629   0.479076902450722   0.2527241564771432
-3.962329845769629   0.479076902450722   0.2527241564771432
-7.790550321620922   -0.5568646816498359   -0.2000737316938051
-7.790550321620922   -0.5568646816498359   -0.2000737316938051
-7.790550321620922   -0.5568646816498359   -0.2000737316938051
-7.790550321620922   -0.5568646816498359   -0.2000737316938051
-7.882126685354703   -0.4421532028360893   0.07470523608801732
-7.882126685354703   -0.4421532028360893   0.07470523608801732
-7.882126685354703   -0.4421532028360893   0.07470523608801732
-7.882126685354703   -0.4421532028360893   0.07470523608801732
-4.249550633610727   0.08256424320776745   0.014183203443467962
-4.249550633610727   0.08256424320776745   0.014183203443467962
-4.249550633610727   0.08256424320776745   0.014183203443467962
-4.249550633610727   0.08256424320776745   0.014183203443467962
-5.940470002963607   -0.08426395288724531   -0.045147949988716574
-5.940470002963607   -0.08426395288724531   -0.045147949988716574
-5.940470002963607   -0.08426395288724531   -0.045147949988716574
-5.940470002963607   -0.08426395288724531   -0.045147949988716574
-7.105574406586825   0.6369998602821456   0.2652125048869892
-7.105574406586825   0.6369998602821456   0.2652125048869892
-7.105574406586825   0.6369998602821456   0.2652125048869892
-7.105574406586825   0.6369998602821456   0.2652125048869892
-10.745959657209138   -0.4948041122157518   -0.2568112148995965
-10.745959657209138   -0.4948041122157518   -0.2568112148995965
-10.745959657209138   -0.4948041122157518   -0.2568112148995965
-10.745959657209138   -0.4948041122157518   -0.2568112148995965
-10.868142235296341   -0.09963648788429857   0.2448863504151323
-10.868142235296341   -0.09963648788429857   0.2448863504151323
-10.868142235296341   -0.09963648788429857   0.2448863504151323
-10.868142235296341   -0.09963648788429857   0.2448863504151323
-7.449144884756889   0.17581986505151015   -0.15137720604201327
-7.449144884756889   0.17581986505151015   -0.15137720604201327
-7.449144884756889   0.17581986505151015   -0.15137720604201327
-7.449144884756889   0.17581986505151015   -0.15137720604201327
-8.64272317651032   0.14480147832778334   0.21051726889964728
-8.64272317651032   0.14480147832778334   0.21051726889964728
-8.64272317651032   0.14480147832778334   0.21051726889964728
-8.64272317651032   0.14480147832778334   0.21051726889964728
-7.2649873201696336   0.6342194345392687   0.31101104740650665
-7.2649873201696336   0.6342194345392687   0.31101104740650665
-7.2649873201696336   0.6342194345392687   0.31101104740650665
-7.2649873201696336   0.6342194345392687   0.31101104740650665
-11.049093606616557   -0.5548298641050786   -0.20467712996504323
-11.049093606616557   -0.5548298641050786   -0.20467712996504323
-11.049093606616557   -0.5548298641050786   -0.20467712996504323
-11.049093606616557   -0.5548298641050786   -0.20467712996504323
-11.139108459019178   -0.16417575200699464   0.30645161131983956
-11.139108459019178   -0.16417575200699464   0.30645161131983956
-11.139108459019178   -0.16417575200699464   0.30645161131983956
-11.139108459019178   -0.16417575200699464   0.30645161131983956
-7.643898703221462   0.10618133822268327   -0.12986165956902074
-7.643898703221462   0.10618133822268327   -0.12986165956902074
-7.643898703221462   0.10618133822268327   -0.12986165956902074
-7.643898703221462   0.10618133822268327   -0.12986165956902074
-9.018693404819613   0.07258524357586826   0.12665112416817415
-9.018693404819613   0.07258524357586826   0.12665112416817415
-9.018693404819613   0.07258524357586826   0.12665112416817415
-9.018693404819613   0.07258524357586826   0.12665112416817415
-7.448537145708258   0.586061401362632   0.3670660648570506
-7.448537145708258   0.586061401362632   0.3670660648570506
-7.448537145708258   0.586061401362632   0.3670660648570506
-7.448537145708258   0.586061401362632   0.3670660648570506
-11.329283083398284   -0.638868882012845   -0.16972838056983863
-11.329283083398284   -0.638868882012845   -0.16972838056983863
-11.329283083398284   -0.638868882012845   -0.16972838056983863
-11.329283083398284   -0.638868882012845   -0.16972838056983863
-11.496665793083416   -0.39199447633313866   0.3016217353028383
-11.496665793083416   -0.39199447633313866   0.3016217353028383
-11.496665793083416   -0.39199447633313866   0.3016217353028383
-11.496665793083416   -0.39199447633313866   0.3016217353028383
-7.849311381316991   -0.08576536604704876   -0.1176060805124613
-7.849311381316991   -0.08576536604704876   -0.1176060805124613
-7.849311381316991   -0.08576536604704876   -0.1176060805124613
-7.849311381316991   -0.08576536604704876   -0.1176060805124613
-9.118975210647367   -0.01662635596852713   0.09808892273511849
-9.118975210647367   -0.01662635596852713   0.09808892273511849
-9.118975210647367   -0.01662635596852713   0.09808892273511849
-9.118975210647367   -0.01662635596852713   0.09808892273511849
4.982905925354181   0.27999215410016376   -0.3424470942273369
4.982905925354181   0.27999215410016376   -0.3424470942273369
4.982905925354181   0.27999215410016376   -0.3424470942273369
4.982905925354181   0.27999215410016376   -0.3424470942273369
2.1287001264533285   0.1410933630991732   0.14798164029752872
2.1287001264533285   0.1410933630991732   0.14798164029752872
2.1287001264533285   0.1410933630991732   0.14798164029752872
2.1287001264533285   0.1410933630991732   0.14798164029752872
1.7749638349640358   -0.4968473458616389   -0.31889159556953245
1.7749638349640358   -0.4968473458616389   -0.31889159556953245
1.7749638349640358   -0.4968473458616389   -0.31889159556953245
1.7749638349640358   -0.4968473458616389   -0.31889159556953245
4.863131783643121   0.5696165037037694   0.17967464394941488
4.863131783643121   0.5696165037037694   0.17967464394941488
4.863131783643121   0.5696165037037694   0.17967464394941488
4.863131783643121   0.5696165037037694   0.17967464394941488
3.2552638828293254   0.07246874479957388   -0.0890373719792833
3.2552638828293254   0.07246874479957388   -0.0890373719792833
3.2552638828293254   0.07246874479957388   -0.0890373719792833
3.2552638828293254   0.07246874479957388   -0.0890373719792833
4.6657294403472145   0.0812833171363957   -0.3190038859627834
4.6657294403472145   0.0812833171363957   -0.3190038859627834
4.6657294403472145   0.0812833171363957   -0.3190038859627834
4.6657294403472145   0.0812833171363957   -0.3190038859627834
1.9686659303566512   -0.012214407197516097   0.16498594272945685
1.9686659303566512   -0.012214407197516097   0.16498594272945685
1.9686659303566512   -0.012214407197516097   0.16498594272945685
1.9686659303566512   -0.012214407197516097   0.16498594272945685
1.624007364242204   -0.5550809525388629   -0.2710708997155581
1.624007364242204   -0.5550809525388629   -0.2710708997155581
1.624007364242204   -0.5550809525388629   -0.2710708997155581
1.624007364242204   -0.5550809525388629   -0.2710708997155581
4.614951055525282   0.48704715341317983   0.23097579420305922
4.614951055525282   0.48704715341317983   0.23097579420305922
4.614951055525282   0.48704715341317983   0.23097579420305922
4.614951055525282   0.48704715341317983   0.23097579420305922
3.0979162082854783   -0.023255510405113755   -0.1463122041549401
3.0979162082854783   -0.023255510405113755   -0.1463122041549401
3.0979162082854783   -0.023255510405113755   -0.1463122041549401
3.0979162082854783   -0.023255510405113755   -0.1463122041549401
4.420930982042812   0.006752055837617732   -0.2588294756337628
4.420930982042812   0.006752055837617732   -0.2588294756337628
4.420930982042812   0.006752055837617732   -0.2588294756337628
4.420930982042812   0.006752055837617732   -0.2588294756337628
1.812629628054459   -0.08018366463351878   0.19714313144038872
1.812629628054459   -0.08018366463351878   0.19714313144038872
1.812629628054459   -0.08018366463351878   0.19714313144038872
1.812629628054459   -0.08018366463351878   0.19714313144038872
1.4888912482746612   -0.609198594183707   -0.22581259629851522
1.4888912482746612   -0.609198594183707   -0.22581259629851522
1.4888912482746612   -0.609198594183707   -0.22581259629851522
1.4888912482746612   -0.609198594183707   -0.22581259629851522
4.325547702044983   0.3776525478534801   0.2631552690788335
4.325547702044983   0.3776525478534801   0.2631552690788335
4.325547702044983   0.3776525478534801   0.2631552690788335
4.325547702044983   0.3776525478534801   0.2631552690788335
2.835479587690979   -0.10227431269355958   -0.22431934613792265
2.835479587690979   -0.10227431269355958   -0.22431934613792265
2.835479587690979   -0.10227431269355958   -0.22431934613792265
2.835479587690979   -0.10227431269355958   -0.22431934613792265
2.141048410848689   0.4142680304947815   -0.06345160512131619
2.141048410848689   0.4142680304947815   -0.06345160512131619
2.141048410848689   0.4142680304947815   -0.06345160512131619
2.141048410848689   0.4142680304947815   -0.06345160512131619
-0.6637387753406692   0.0389905437364165   0.021128297896935135
-0.6637387753406692   0.0389905437364165   0.021128297896935135
-0.6637387753406692   0.0389905437364165   0.021128297896935135
-0.6637387753406692   0.0389905437364165   0.021128297896935135
-0.9055475661856176   -0.34364740310374764   -0.1958223810424426
-0.9055475661856176   -0.34364740310374764   -0.1958223810424426
-0.9055475661856176   -0.34364740310374764   -0.1958223810424426
-0.9055475661856176   -0.34364740310374764   -0.1958223810424426
2.0797971263297197   0.49870428978692394   0.20972322561035708
2.0797971263297197   0.49870428978692394   0.20972322561035708
2.0797971263297197   0.49870428978692394   0.20972322561035708
2.0797971263297197   0.49870428978692394   0.20972322561035708
0.6482909286752275   0.1447486371480912   0.024700862068262854
0.6482909286752275   0.1447486371480912   0.024700862068262854
0.6482909286752275   0.1447486371480912   0.024700862068262854
0.6482909286752275   0.1447486371480912   0.024700862068262854
1.9845046936907518   0.2666004962670822   -0.03463514406466266
1.9845046936907518   0.2666004962670822   -0.03463514406466266
1.9845046936907518   0.2666004962670822   -0.03463514406466266
1.9845046936907518   0.2666004962670822   -0.03463514406466266
-0.8116117450571456   -0.11290022109440535   0.043109542590575645
-0.8116117450571456   -0.11290022109440535   0.043109542590575645
-0.8116117450571456   -0.11290022109440535   0.043109542590575645
-0.8116117450571456   -0.11290022109440535   0.043109542590575645
-1.0460147778735762   -0.4608312158589287   -0.15813328784014308
-1.0460147778735762   -0.4608312158589287   -0.15813328784014308
-1.0460147778735762   -0.4608312158589287   -0.15813328784014308
-1.0460147778735762   -0.4608312158589287   -0.15813328784014308
1.9076145568604552   0.36388796780594157   0.22799614303090912
1.9076145568604552   0.36388796780594157   0.22799614303090912
1.9076145568604552   0.36388796780594157   0.22799614303090912
1.9076145568604552   0.36388796780594157   0.22799614303090912
0.475454119571361   0.012776674809429081   -0.038702792939143346
0.475454119571361   0.012776674809429081   -0.038702792939143346
0.475454119571361   0.012776674809429081   -0.038702792939143346
0.475454119571361   0.012776674809429081   -0.038702792939143346
1.8153328358165197   0.1409667213087903   -0.010491215691644087
1.8153328358165197   0.1409667213087903   -0.010491215691644087
1.8153328358165197   0.1409667213087903   -0.010491215691644087
1.8153328358165197   0.1409667213087903   -0.010491215691644087
-0.9572266167414925   -0.2414035292736718   0.06637983123503531
-0.9572266167414925   -0.2414035292736718   0.06637983123503531
-0.9572266167414925   -0.2414035292736718   0.06637983123503531
-0.9572266167414925   -0.2414035292736718   0.06637983123503531
-1.184667736961587   -0.5715389246450102   -0.12329670353925665
-1.184667736961587   -0.5715389246450102   -0.12329670353925665
-1.184667736961587   -0.5715389246450102   -0.12329670353925665
-1.184667736961587   -0.5715389246450102   -0.12329670353925665
1.7522302228345576   0.23381974916181902   0.2478639331554761
1.7522302228345576   0.23381974916181902   0.2478639331554761
1.7522302228345576   0.23381974916181902   0.2478639331554761
1.7522302228345576   0.23381974916181902   0.2478639331554761
0.33609355185597356   -0.09739109615683203   -0.09489686851678666
0.33609355185597356   -0.09739109615683203   -0.09489686851678666
0.33609355185597356   -0.09739109615683203   -0.09489686851678666
0.33609355185597356   -0.09739109615683203   -0.09489686851678666
-0.5602758117214861   0.5295601743817651   0.047873485347486255
-0.5602758117214861   0.5295601743817651   0.047873485347486255
-0.5602758117214861   0.5295601743817651   0.047873485347486255
-0.5602758117214861   0.5295601743817651   0.047873485347486255
-3.415338855616137   -0.08297632974738367   -0.10349552499645187
-3.415338855616137   -0.08297632974738367   -0.10349552499645187
-3.415338855616137   -0.08297632974738367   -0.10349552499645187
-3.415338855616137   -0.08297632974738367   -0.10349552499645187
-3.553699505817325   -0.2016154623005335   -0.07599896778193521
-3.553699505817325   -0.2016154623005335   -0.07599896778193521
-3.553699505817325   -0.2016154623005335   -0.07599896778193521
-3.553699505817325   -0.2016154623005335   -0.07599896778193521
-0.7053551835346065   0.3804043513316548   0.08108777777719534
-0.7053551835346065   0.3804043513316548   0.08108777777719534
-0.7053551835346065   0.3804043513316548   0.08108777777719534
-0.7053551835346065   0.3804043513316548   0.08108777777719534
-2.0537006070366157   0.15405625301658282   0.04033236069051058
-2.0537006070366157   0.15405625301658282   0.04033236069051058
-2.0537006070366157   0.15405625301658282   0.04033236069051058
-2.0537006070366157   0.15405625301658282   0.04033236069051058
-0.7008484150277203   0.40079978645206904   0.08322618519122768
-0.7008484150277203   0.40079978645206904   0.08322618519122768
-0.7008484150277203   0.40079978645206904   0.08322618519122768
-0.7008484150277203   0.40079978645206904   0.08322618519122768
-3.558539884780492   -0.22234450787722615   -0.07947181702107875
-3.558539884780492   -0.22234450787722615   -0.07947181702107875
-3.558539884780492   -0.22234450787722615   -0.07947181702107875
-3.558539884780492   -0.22234450787722615   -0.07947181702107875
-3.695578100668566   -0.32928925347900856   -0.04235954370628757
-3.695578100668566   -0.32928925347900856   -0.04235954370628757
-3.695578100668566   -0.32928925347900856   -0.04235954370628757
-3.695578100668566   -0.32928925347900856   -0.04235954370628757
-0.8527326422844096   0.2416506390689647   0.10579553517779684
-0.8527326422844096   0.2416506390689647   0.10579553517779684
-0.8527326422844096   0.2416506390689647   0.10579553517779684
-0.8527326422844096   0.2416506390689647   0.10579553517779684
-2.1995898735991166   0.029936275486802888   -0.014269986949246694
-2.1995898735991166   0.029936275486802888   -0.014269986949246694
-2.1995898735991166   0.029936275486802888   -0.014269986949246694
-2.1995898735991166   0.029936275486802888   -0.014269986949246694
-0.8451790567658432   0.2719210703422629   0.11329303149734672
-0.8451790567658432   0.2719210703422629   0.11329303149734672
-0.8451790567658432   0.2719210703422629   0.11329303149734672
-0.8451790567658432   0.2719210703422629   0.11329303149734672
-3.705310797774655   -0.36173879633978534   -0.05857348637595344
-3.705310797774655   -0.36173879633978534   -0.05857348637595344
-3.705310797774655   -0.36173879633978534   -0.05857348637595344
-3.705310797774655   -0.36173879633978534   -0.05857348637595344
-3.8351424856556293   -0.4513138118109208   -0.009710777969253376
-3.8351424856556293   -0.4513138118109208   -0.009710777969253376
-3.8351424856556293   -0.4513138118109208   -0.009710777969253376
-3.8351424856556293   -0.4513138118109208   -0.009710777969253376
-0.998799369001068   0.10680018748370229   0.127706024134595
-0.998799369001068   0.10680018748370229   0.127706024134595
-0.998799369001068   0.10680018748370229   0.127706024134595
-0.998799369001068   0.10680018748370229   0.127706024134595
-2.3514220652048596   -0.09434936648493741   -0.07341595452230126
-2.3514220652048596   -0.09434936648493741   -0.07341595452230126
-2.3514220652048596   -0.09434936648493741   -0.07341595452230126
-2.3514220652048596   -0.09434936648493741   -0.07341595452230126
-3.221172326509361   0.627942691875233   0.15641809891481084
-3.221172326509361   0.627942691875233   0.15641809891481084
-3.221172326509361   0.627942691875233   0.15641809891481084
-3.221172326509361   0.627942691875233   0.15641809891481084
-6.115398832976156   -0.20394180250202187   -0.21158996902435928
-6.115398832976156   -0.20394180250202187   -0.21158996902435928
-6.115398832976156   -0.20394180250202187   -0.21158996902435928
-6.115398832976156   -0.20394180250202187   -0.21158996902435928
-6.167601295959019   -0.08561386716128228   0.052644765275002114
-6.167601295959019   -0.08561386716128228   0.052644765275002114
-6.167601295959019   -0.08561386716128228   0.052644765275002114
-6.167601295959019   -0.08561386716128228   0.052644765275002114
-3.457839245396271   0.24757267418811724   -0.04588580216537691
-3.457839245396271   0.24757267418811724   -0.04588580216537691
-3.457839245396271   0.24757267418811724   -0.04588580216537691
-3.457839245396271   0.24757267418811724   -0.04588580216537691
-4.712644121032399   0.1480014826426841   0.0587609170668254
-4.712644121032399   0.1480014826426841   0.0587609170668254
-4.712644121032399   0.1480014826426841   0.0587609170668254
-4.712644121032399   0.1480014826426841   0.0587609170668254
-3.359087531417938   0.5038741842290226   0.19157125768544442
-3.359087531417938   0.5038741842290226   0.19157125768544442
-3.359087531417938   0.5038741842290226   0.19157125768544442
-3.359087531417938   0.5038741842290226   0.19157125768544442
-6.270571944777295   -0.3461343120421245   -0.20168803393556095
-6.270571944777295   -0.3461343120421245   -0.20168803393556095
-6.270571944777295   -0.3461343120421245   -0.20168803393556095
-6.270571944777295   -0.3461343120421245   -0.20168803393556095
-6.33474269239367   -0.2120226609116922   0.06832874276966233
-6.33474269239367   -0.2120226609116922   0.06832874276966233
-6.33474269239367   -0.2120226609116922   0.06832874276966233
-6.33474269239367   -0.2120226609116922   0.06832874276966233
-3.601211991638708   0.11976590398434428   -0.019584156020409388
-3.601211991638708   0.11976590398434428   -0.019584156020409388
-3.601211991638708   0.11976590398434428   -0.019584156020409388
-3.601211991638708   0.11976590398434428   -0.019584156020409388
-4.835942513546351   0.035181613602366824   0.003943182044087723
-4.835942513546351   0.035181613602366824   0.003943182044087723
-4.835942513546351   0.035181613602366824   0.003943182044087723
-4.835942513546351   0.035181613602366824   0.003943182044087723
-3.498931320663566   0.38649240454027656   0.22509269829940187
-3.498931320663566   0.38649240454027656   0.22509269829940187
-3.498931320663566   0.38649240454027656   0.22509269829940187
-3.498931320663566   0.38649240454027656   0.22509269829940187
-6.437340569589029   -0.4790663676878001   -0.17761693643105544
-6.437340569589029   -0.4790663676878001   -0.17761693643105544
-6.437340569589029   -0.4790663676878001   -0.17761693643105544
-6.437340569589029   -0.4790663676878001   -0.17761693643105544
-6.483750870694909   -0.3464381520140518   0.10337146441855444
-6.483750870694909   -0.3464381520140518   0.10337146441855444
-6.483750870694909   -0.3464381520140518   0.10337146441855444
-6.483750870694909   -0.3464381520140518   0.10337146441855444
-3.7470544747585253   -0.021675060658287726   0.0010905253635705436
-3.7470544747585253   -0.021675060658287726   0.0010905253635705436
-3.7470544747585253   -0.021675060658287726   0.0010905253635705436
-3.7470544747585253   -0.021675060658287726   0.0010905253635705436
-5.019670168852867   -0.09516275675230612   -0.0594421942845656
-5.019670168852867   -0.09516275675230612   -0.0594421942845656
-5.019670168852867   -0.09516275675230612   -0.0594421942845656
-5.019670168852867   -0.09516275675230612   -0.0594421942845656
-5.866703348494018   0.5816654355700444   0.24628021531426486
-5.866703348494018   0.5816654355700444   0.24628021531426486
-5.866703348494018   0.5816654355700444   0.24628021531426486
-5.866703348494018   0.5816654355700444   0.24628021531426486
-8.64796118969878   -0.39696059628255065   -0.2768646789481478
-8.64796118969878   -0.39696059628255065   -0.2768646789481478
-8.64796118969878   -0.39696059628255065   -0.2768646789481478
-8.64796118969878   -0.39696059628255065   -0.2768646789481478
-8.73326160176757   -0.0018647848082284924   0.24431626167021897
-8.73326160176757   -0.0018647848082284924   0.24431626167021897
-8.73326160176757   -0.0018647848082284924   0.24431626167021897
-8.73326160176757   -0.0018647848082284924   0.24431626167021897
-6.177999629535308   0.08196749839000406   -0.1669282681577845
-6.177999629535308   0.08196749839000406   -0.1669282681577845
-6.177999629535308   0.08196749839000406   -0.1669282681577845
-6.177999629535308   0.08196749839000406   -0.1669282681577845
-7.033268843065687   0.1364704108969541   0.1770559222186786
-7.033268843065687   0.1364704108969541   0.1770559222186786
-7.033268843065687   0.1364704108969541   0.1770559222186786
-7.033268843065687   0.1364704108969541   0.1770559222186786
-5.991784390468057   0.5556587418594832   0.29045668370901995
-5.991784390468057   0.5556587418594832   0.29045668370901995
-5.991784390468057   0.5556587418594832   0.29045668370901995
-5.991784390468057   0.5556587418594832   0.29045668370901995
-8.923047927163289   -0.47912711460608026   -0.22735303551047203
-8.923047927163289   -0.47912711460608026   -0.22735303551047203
-8.923047927163289   -0.47912711460608026   -0.22735303551047203
-8.923047927163289   -0.47912711460608026   -0.22735303551047203
-8.969089954856972   -0.07127777661358037   0.30803401788517326
-8.969089954856972   -0.07127777661358037   0.30803401788517326
-8.969089954856972   -0.07127777661358037   0.30803401788517326
-8.969089954856972   -0.07127777661358037   0.30803401788517326
-6.332110869328014   0.011861794686224947   -0.14239659750003486
-6.332110869328014   0.011861794686224947   -0.14239659750003486
-6.332110869328014   0.011861794686224947   -0.14239659750003486
-6.332110869328014   0.011861794686224947   -0.14239659750003486
-7.349507323586587   0.05651263767599679   0.09138871607904181
-7.349507323586587   0.05651263767599679   0.09138871607904181
-7.349507323586587   0.05651263767599679   0.09138871607904181
-7.349507323586587   0.05651263767599679   0.09138871607904181
-6.137131376477758   0.501983056477278   0.3423796049602503
-6.137131376477758   0.501983056477278   0.3423796049602503
-6.137131376477758   0.501983056477278   0.3423796049602503
-6.137131376477758   0.501983056477278   0.3423796049602503
-9.166663039678733   -0.5639926303761285   -0.18711655246108305
-9.166663039678733   -0.5639926303761285   -0.18711655246108305
-9.166663039678733   -0.5639926303761285   -0.18711655246108305
-9.166663039678733   -0.5639926303761285   -0.18711655246108305
-9.284589969491222   -0.2873990248506504   0.3095042136440099
-9.284589969491222   -0.2873990248506504   0.3095042136440099
-9.284589969491222   -0.2873990248506504   0.3095042136440099
-9.284589969491222   -0.2873990248506504   0.3095042136440099
-6.493209840622616   -0.16448668344490547   -0.12587485378919566
-6.493209840622616   -0.16448668344490547   -0.12587485378919566
-6.493209840622616   -0.16448668344490547   -0.12587485378919566
-6.493209840622616   -0.16448668344490547   -0.12587485378919566
-7.441491660261492   -0.03425421178612775   0.05017001330294962
-7.441491660261492   -0.03425421178612775   0.05017001330294962
-7.441491660261492   -0.03425421178612775   0.05017001330294962
-7.441491660261492   -0.03425421178612775   0.05017001330294962
2.7065298330449625   0.1603637155997918   -0.33349630379101236
2.7065298330449625   0.1603637155997918   -0.33349630379101236
2.7065298330449625   0.1603637155997918   -0.33349630379101236
2.7065298330449625   0.1603637155997918   -0.33349630379101236
0.7764311336543587   0.2020738252580999   0.16038496626384346
0.7764311336543587   0.2020738252580999   0.16038496626384346
0.7764311336543587   0.2020738252580999   0.16038496626384346
0.7764311336543587   0.2020738252580999   0.16038496626384346
0.4654735772099179   -0.4046109737572929   -0.2938045369224481
0.4654735772099179   -0.4046109737572929   -0.2938045369224481
0.4654735772099179   -0.4046109737572929   -0.2938045369224481
0.4654735772099179   -0.4046109737572929   -0.2938045369224481
2.629526053309986   0.4677958287388255   0.19301385132947863
2.629526053309986   0.4677958287388255   0.19301385132947863
2.629526053309986   0.4677958287388255   0.19301385132947863
2.629526053309986   0.4677958287388255   0.19301385132947863
1.5479840951214239   0.07779022306932612   -0.03614366414502241
1.5479840951214239   0.07779022306932612   -0.03614366414502241
1.5479840951214239   0.07779022306932612   -0.03614366414502241
1.5479840951214239   0.07779022306932612   -0.03614366414502241
2.4336355110516505   -0.01328857154090446   -0.30535445968248387
2.4336355110516505   -0.01328857154090446   -0.30535445968248387
2.4336355110516505   -0.01328857154090446   -0.30535445968248387
2.4336355110516505   -0.01328857154090446   -0.30535445968248387
0.6552447688355418   0.0703540758897645   0.1800863715586179
0.6552447688355418   0.0703540758897645   0.1800863715586179
0.6552447688355418   0.0703540758897645   0.1800863715586179
0.6552447688355418   0.0703540758897645   0.1800863715586179
0.34796165595387696   -0.46238363696258433   -0.2491887581041117
0.34796165595387696   -0.46238363696258433   -0.2491887581041117
0.34796165595387696   -0.46238363696258433   -0.2491887581041117
0.34796165595387696   -0.46238363696258433   -0.2491887581041117
2.418327254079599   0.3880273536329505   0.247468410278417
2.418327254079599   0.3880273536329505   0.247468410278417
2.418327254079599   0.3880273536329505   0.247468410278417
2.418327254079599   0.3880273536329505   0.247468410278417
1.399498024991911   -0.012250237193569491   -0.09486380136240949
1.399498024991911   -0.012250237193569491   -0.09486380136240949
1.399498024991911   -0.012250237193569491   -0.09486380136240949
1.399498024991911   -0.012250237193569491   -0.09486380136240949
2.2236915021544346   -0.08744709603707934   -0.2502358996773896
2.2236915021544346   -0.08744709603707934   -0.2502358996773896
2.2236915021544346   -0.08744709603707934   -0.2502358996773896
2.2236915021544346   -0.08744709603707934   -0.2502358996773896
0.5344424195256833   0.0049358243541278435   0.21589559843821923
0.5344424195256833   0.0049358243541278435   0.21589559843821923
0.5344424195256833   0.0049358243541278435   0.21589559843821923
0.5344424195256833   0.0049358243541278435   0.21589559843821923
0.24278884667579442   -0.5330082660602121   -0.20738994512068434
0.24278884667579442   -0.5330082660602121   -0.20738994512068434
0.24278884667579442   -0.5330082660602121   -0.20738994512068434
0.24278884667579442   -0.5330082660602121   -0.20738994512068434
2.15707241549981   0.25978361630892893   0.274353605286496
2.15707241549981   0.25978361630892893   0.274353605286496
2.15707241549981   0.25978361630892893   0.274353605286496
2.15707241549981   0.25978361630892893   0.274353605286496
1.1967238752762854   -0.09283870845523046   -0.1662153045939351
1.1967238752762854   -0.09283870845523046   -0.1662153045939351
1.1967238752762854   -0.09283870845523046   -0.1662153045939351
1.1967238752762854   -0.09283870845523046   -0.1662153045939351
0.7436925230589102   0.29667024295490324   -0.09790450441021048
0.7436925230589102   0.29667024295490324   -0.09790450441021048
0.7436925230589102   0.29667024295490324   -0.09790450441021048
0.7436925230589102   0.29667024295490324   -0.09790450441021048
-1.1266282002881656   0.0982913776247602   0.039649874506994295
-1.1266282002881656   0.0982913776247602   0.039649874506994295
-1.1266282002881656   0.0982913776247602   0.039649874506994295
-1.1266282002881656   0.0982913776247602   0.039649874506994295
-1.3268239952663332   -0.25877286523068144   -0.17104142788161725
-1.3268239952663332   -0.25877286523068144   -0.17104142788161725
-1.3268239952663332   -0.25877286523068144   -0.17104142788161725
-1.3268239952663332   -0.25877286523068144   -0.17104142788161725
0.7151626319635392   0.3685943851785869   0.18143537790978234
0.7151626319635392   0.3685943851785869   0.18143537790978234
0.7151626319635392   0.3685943851785869   0.18143537790978234
0.7151626319635392   0.3685943851785869   0.18143537790978234
-0.2550476028917105   0.12092517041261062   0.030008773161123846
-0.2550476028917105   0.12092517041261062   0.030008773161123846
-0.2550476028917105   0.12092517041261062   0.030008773161123846
-0.2550476028917105   0.12092517041261062   0.030008773161123846
0.6208673819111115   0.15057033195531422   -0.07201681912908353
0.6208673819111115   0.15057033195531422   -0.07201681912908353
0.6208673819111115   0.15057033195531422   -0.07201681912908353
0.6208673819111115   0.15057033195531422   -0.07201681912908353
-1.2377043880208798   -0.04592445481438309   0.06170819792935132
-1.2377043880208798   -0.04592445481438309   0.06170819792935132
-1.2377043880208798   -0.04592445481438309   0.06170819792935132
-1.2377043880208798   -0.04592445481438309   0.06170819792935132
-1.4319838123093862   -0.37636239579422487   -0.13365730579983637
-1.4319838123093862   -0.37636239579422487   -0.13365730579983637
-1.4319838123093862   -0.37636239579422487   -0.13365730579983637
-1.4319838123093862   -0.37636239579422487   -0.13365730579983637
0.5771775370050118   0.23675408347868748   0.19775292671030265
0.5771775370050118   0.23675408347868748   0.19775292671030265
0.5771775370050118   0.23675408347868748   0.19775292671030265
0.5771775370050118   0.23675408347868748   0.19775292671030265
-0.38477998696127924   -0.005532884209589181   -0.03054547162978558
-0.38477998696127924   -0.005532884209589181   -0.03054547162978558
-0.38477998696127924   -0.005532884209589181   -0.03054547162978558
-0.38477998696127924   -0.005532884209589181   -0.03054547162978558
0.48570119623687014   0.024442606953913953   -0.047317300605643986
0.48570119623687014   0.024442606953913953   -0.047317300605643986
0.48570119623687014   0.024442606953913953   -0.047317300605643986
0.48570119623687014   0.024442606953913953   -0.047317300605643986
-1.347200505195068   -0.17074395292327438   0.08464078690081883
-1.347200505195068   -0.17074395292327438   0.08464078690081883
-1.347200505195068   -0.17074395292327438   0.08464078690081883
-1.347200505195068   -0.17074395292327438   0.08464078690081883
-1.5363647601229522   -0.49344317956055395   -0.09985572749863308
-1.5363647601229522   -0.49344317956055395   -0.09985572749863308
-1.5363647601229522   -0.49344317956055395   -0.09985572749863308
-1.5363647601229522   -0.49344317956055395   -0.09985572749863308
0.45637289705099293   0.10685625968553508   0.22066578100956874
0.45637289705099293   0.10685625968553508   0.22066578100956874
0.45637289705099293   0.10685625968553508   0.22066578100956874
0.45637289705099293   0.10685625968553508   0.22066578100956874
-0.49743056072456326   -0.11928410417148924   -0.08787329095170347
-0.49743056072456326   -0.11928410417148924   -0.08787329095170347
-0.49743056072456326   -0.11928410417148924   -0.08787329095170347
-0.49743056072456326   -0.11928410417148924   -0.08787329095170347
-1.0694436978514297   0.40972879972327936   0.014134964592155658
-1.0694436978514297   0.40972879972327936   0.014134964592155658
-1.0694436978514297   0.40972879972327936   0.014134964592155658
-1.0694436978514297   0.40972879972327936   0.014134964592155658
-3.0054494217953622   -0.03347811644708354   -0.08202103500995031
-3.0054494217953622   -0.03347811644708354   -0.08202103500995031
-3.0054494217953622   -0.03347811644708354   -0.08202103500995031
-3.0054494217953622   -0.03347811644708354   -0.08202103500995031
-3.10000936333638   -0.12449053364832485   -0.04873246732068415
-3.10000936333638   -0.12449053364832485   -0.04873246732068415
-3.10000936333638   -0.12449053364832485   -0.04873246732068415
-3.10000936333638   -0.12449053364832485   -0.04873246732068415
-1.1808431075689405   0.24245127320729032   0.05763887216734384
-1.1808431075689405   0.24245127320729032   0.05763887216734384
-1.1808431075689405   0.24245127320729032   0.05763887216734384
-1.1808431075689405   0.24245127320729032   0.05763887216734384
-2.084047525898797   0.12107791434695203   0.03128390463257036
-2.084047525898797   0.12107791434695203   0.03128390463257036
-2.084047525898797   0.12107791434695203   0.03128390463257036
-2.084047525898797   0.12107791434695203   0.03128390463257036
-1.1750485495198526   0.28005059141932276   0.049012344200781405
-1.1750485495198526   0.28005059141932276   0.049012344200781405
-1.1750485495198526   0.28005059141932276   0.049012344200781405
-1.1750485495198526   0.28005059141932276   0.049012344200781405
-3.1103209563950074   -0.1666068868699021   -0.05817407939230532
-3.1103209563950074   -0.1666068868699021   -0.05817407939230532
-3.1103209563950074   -0.1666068868699021   -0.05817407939230532
-3.1103209563950074   -0.1666068868699021   -0.05817407939230532
-3.204680237042757   -0.2528585251019599   -0.014802690918478564
-3.204680237042757   -0.2528585251019599   -0.014802690918478564
-3.204680237042757   -0.2528585251019599   -0.014802690918478564
-3.204680237042757   -0.2528585251019599   -0.014802690918478564
-1.2918693851733671   0.10874362052023911   0.08180881356577828
-1.2918693851733671   0.10874362052023911   0.08180881356577828
-1.2918693851733671   0.10874362052023911   0.08180881356577828
-1.2918693851733671   0.10874362052023911   0.08180881356577828
-2.1932910952059275   -0.0007518170926790746   -0.02306141853396622
-2.1932910952059275   -0.0007518170926790746   -0.02306141853396622
-2.1932910952059275   -0.0007518170926790746   -0.02306141853396622
-2.1932910952059275   -0.0007518170926790746   -0.02306141853396622
-1.2841043241760979   0.1500772862246223   0.07930045284777305
-1.2841043241760979   0.1500772862246223   0.07930045284777305
-1.2841043241760979   0.1500772862246223   0.07930045284777305
-1.2841043241760979   0.1500772862246223   0.07930045284777305
-3.2188730459219004   -0.3006199386882216   -0.03800532172799205
-3.2188730459219004   -0.3006199386882216   -0.03800532172799205
-3.2188730459219004   -0.3006199386882216   -0.03800532172799205
-3.2188730459219004   -0.3006199386882216   -0.03800532172799205
-3.307399025635361   -0.37686419083963907   0.017983789151936047
-3.307399025635361   -0.37686419083963907   0.017983789151936047
-3.307399025635361   -0.37686419083963907   0.017983789151936047
-3.307399025635361   -0.37686419083963907   0.017983789151936047
-1.4009249256650527   -0.02012035680097002   0.10402062203128122
-1.4009249256650527   -0.02012035680097002   0.10402062203128122
-1.4009249256650527   -0.02012035680097002   0.10402062203128122
-1.4009249256650527   -0.02012035680097002   0.10402062203128122
-2.3081847282548598   -0.12290353876186066   -0.08204043566497318
-2.3081847282548598   -0.12290353876186066   -0.08204043566497318
-2.3081847282548598   -0.12290353876186066   -0.08204043566497318
-2.3081847282548598   -0.12290353876186066   -0.08204043566497318
-2.853270804455969   0.5165671533790616   0.12882678186087076
-2.853270804455969   0.5165671533790616   0.12882678186087076
-2.853270804455969   0.5165671533790616   0.12882678186087076
-2.853270804455969   0.5165671533790616   0.12882678186087076
-4.840953840893527   -0.14093644549137274   -0.18808034444983115
-4.840953840893527   -0.14093644549137274   -0.18808034444983115
-4.840953840893527   -0.14093644549137274   -0.18808034444983115
-4.840953840893527   -0.14093644549137274   -0.18808034444983115
-4.850392875742446   -0.005542682149412226   0.08109104649290472
-4.850392875742446   -0.005542682149412226   0.08109104649290472
-4.850392875742446   -0.005542682149412226   0.08109104649290472
-4.850392875742446   -0.005542682149412226   0.08109104649290472
-3.05247679489511   0.12430893964813583   -0.059869098410857524
-3.05247679489511   0.12430893964813583   -0.059869098410857524
-3.05247679489511   0.12430893964813583   -0.059869098410857524
-3.05247679489511   0.12430893964813583   -0.059869098410857524
-3.87969343246998   0.12347231319780094   0.04150113343226136
-3.87969343246998   0.12347231319780094   0.04150113343226136
-3.87969343246998   0.12347231319780094   0.04150113343226136
-3.87969343246998   0.12347231319780094   0.04150113343226136
-2.954565640933167   0.39016973143602063   0.16382587961103562
-2.954565640933167   0.39016973143602063   0.16382587961103562
-2.954565640933167   0.39016973143602063   0.16382587961103562
-2.954565640933167   0.39016973143602063   0.16382587961103562
-4.9570055529925785   -0.2801049972255276   -0.1774100246817064
-4.9570055529925785   -0.2801049972255276   -0.1774100246817064
-4.9570055529925785   -0.2801049972255276   -0.1774100246817064
-4.9570055529925785   -0.2801049972255276   -0.1774100246817064
-4.979188462912692   -0.1320306813512636   0.09940938857553497
-4.979188462912692   -0.1320306813512636   0.09940938857553497
-4.979188462912692   -0.1320306813512636   0.09940938857553497
-4.979188462912692   -0.1320306813512636   0.09940938857553497
-3.157697931702834   0.0013153397991738647   -0.03406502912005549
-3.157697931702834   0.0013153397991738647   -0.03406502912005549
-3.157697931702834   0.0013153397991738647   -0.03406502912005549
-3.157697931702834   0.0013153397991738647   -0.03406502912005549
-3.9728019926694094   0.009781716595144374   -0.015521439846875817
-3.9728019926694094   0.009781716595144374   -0.015521439846875817
-3.9728019926694094   0.009781716595144374   -0.015521439846875817
-3.9728019926694094   0.009781716595144374   -0.015521439846875817
-3.0571751137198824   0.27205249240914886   0.19781190818478792
-3.0571751137198824   0.27205249240914886   0.19781190818478792
-3.0571751137198824   0.27205249240914886   0.19781190818478792
-3.0571751137198824   0.27205249240914886   0.19781190818478792
-5.085127265341181   -0.40818381840678586   -0.15413148651150643
-5.085127265341181   -0.40818381840678586   -0.15413148651150643
-5.085127265341181   -0.40818381840678586   -0.15413148651150643
-5.085127265341181   -0.40818381840678586   -0.15413148651150643
-5.090586364488771   -0.263635529220562   0.13482007228244539
-5.090586364488771   -0.263635529220562   0.13482007228244539
-5.090586364488771   -0.263635529220562   0.13482007228244539
-5.090586364488771   -0.263635529220562   0.13482007228244539
-3.264201395162833   -0.1299543712388238   -0.012937878086300536
-3.264201395162833   -0.1299543712388238   -0.012937878086300536
-3.264201395162833   -0.1299543712388238   -0.012937878086300536
-3.264201395162833   -0.1299543712388238   -0.012937878086300536
-4.11049137370266   -0.11364338976994859   -0.0774931093285327
-4.11049137370266   -0.11364338976994859   -0.0774931093285327
-4.11049137370266   -0.11364338976994859   -0.0774931093285327
-4.11049137370266   -0.11364338976994859   -0.0774931093285327
-4.627866443361967   0.5080961069314782   0.22832409078518168
-4.627866443361967   0.5080961069314782   0.22832409078518168
-4.627866443361967   0.5080961069314782   0.22832409078518168
-4.627866443361967   0.5080961069314782   0.22832409078518168
-6.500841452458593   -0.29779929169027053   -0.28744501249638604
-6.500841452458593   -0.29779929169027053   -0.28744501249638604
-6.500841452458593   -0.29779929169027053   -0.28744501249638604
-6.500841452458593   -0.29779929169027053   -0.28744501249638604
-6.549215172216828   0.08913059608985097   0.24010276302272326
-6.549215172216828   0.08913059608985097   0.24010276302272326
-6.549215172216828   0.08913059608985097   0.24010276302272326
-6.549215172216828   0.08913059608985097   0.24010276302272326
-4.90411567707649   -0.01711684978225181   -0.1759487925445995
-4.90411567707649   -0.01711684978225181   -0.1759487925445995
-4.90411567707649   -0.01711684978225181   -0.1759487925445995
-4.90411567707649   -0.01711684978225181   -0.1759487925445995
-5.403369540260857   0.12325172157645592   0.12979291733889814
-5.403369540260857   0.12325172157645592   0.12979291733889814
-5.403369540260857   0.12325172157645592   0.12979291733889814
-5.403369540260857   0.12325172157645592   0.12979291733889814
-4.719278860857662   0.4611008279254669   0.270017610841884
-4.719278860857662   0.4611008279254669   0.270017610841884
-4.719278860857662   0.4611008279254669   0.270017610841884
-4.719278860857662   0.4611008279254669   0.270017610841884
-6.743289309086693   -0.39832440226891563   -0.2428129229677164
-6.743289309086693   -0.39832440226891563   -0.2428129229677164
-6.743289309086693   -0.39832440226891563   -0.2428129229677164
-6.743289309086693   -0.39832440226891563   -0.2428129229677164
-6.749535253799751   0.018220022613098408   0.30681892660606824
-6.749535253799751   0.018220022613098408   0.30681892660606824
-6.749535253799751   0.018220022613098408   0.30681892660606824
-6.749535253799751   0.018220022613098408   0.30681892660606824
-5.02004409883196   -0.08575228163975912   -0.15114719073242894
-5.02004409883196   -0.08575228163975912   -0.15114719073242894
-5.02004409883196   -0.08575228163975912   -0.15114719073242894
-5.02004409883196   -0.08575228163975912   -0.15114719073242894
-5.658312872738552   0.03922612042720974   0.045371953441738055
-5.658312872738552   0.03922612042720974   0.045371953441738055
-5.658312872738552   0.03922612042720974   0.045371953441738055
-5.658312872738552   0.03922612042720974   0.045371953441738055
-4.827285855098331   0.4055703885761437   0.32132135771987447
-4.827285855098331   0.4055703885761437   0.32132135771987447
-4.827285855098331   0.4055703885761437   0.32132135771987447
-4.827285855098331   0.4055703885761437   0.32132135771987447
-6.951081370814982   -0.4818905208843751   -0.20080111497248826
-6.951081370814982   -0.4818905208843751   -0.20080111497248826
-6.951081370814982   -0.4818905208843751   -0.20080111497248826
-6.951081370814982   -0.4818905208843751   -0.20080111497248826
-7.026783858067717   -0.18259891061340294   0.3171380278136651
-7.026783858067717   -0.18259891061340294   0.3171380278136651
-7.026783858067717   -0.18259891061340294   0.3171380278136651
-7.026783858067717   -0.18259891061340294   0.3171380278136651
-5.139592174178639   -0.24204733399161638   -0.1317971713959641
-5.139592174178639   -0.24204733399161638   -0.1317971713959641
-5.139592174178639   -0.24204733399161638   -0.1317971713959641
-5.139592174178639   -0.24204733399161638   -0.1317971713959641
-5.74306246155195   -0.049794975563980826   -0.005200355425991232
-5.74306246155195   -0.049794975563980826   -0.005200355425991232
-5.74306246155195   -0.049794975563980826   -0.005200355425991232
-5.74306246155195   -0.049794975563980826   -0.005200355425991232
0.43914579286699584   0.036266135985918276   -0.33136813930970166
0.43914579286699584   0.036266135985918276   -0.33136813930970166
0.43914579286699584   0.036266135985918276   -0.33136813930970166
0.43914579286699584   0.036266135985918276   -0.33136813930970166
-0.5682990198281443   0.24963504109678802   0.1701726182998356
-0.5682990198281443   0.24963504109678802   0.1701726182998356
-0.5682990198281443   0.24963504109678802   0.1701726182998356
-0.5682990198281443   0.24963504109678802   0.1701726182998356
-0.8382729020059029   -0.3176675560148048   -0.26650411712278366
-0.8382729020059029   -0.3176675560148048   -0.26650411712278366
-0.8382729020059029   -0.3176675560148048   -0.26650411712278366
-0.8382729020059029   -0.3176675560148048   -0.26650411712278366
0.39823219375417085   0.346884402863039   0.20933756828684086
0.39823219375417085   0.346884402863039   0.20933756828684086
0.39823219375417085   0.346884402863039   0.20933756828684086
0.39823219375417085   0.346884402863039   0.20933756828684086
-0.15160873505953246   0.07605425947470071   0.029067814777153048
-0.15160873505953246   0.07605425947470071   0.029067814777153048
-0.15160873505953246   0.07605425947470071   0.029067814777153048
-0.15160873505953246   0.07605425947470071   0.029067814777153048
0.20484348184544954   -0.11490647791560236   -0.2958151104781242
0.20484348184544954   -0.11490647791560236   -0.2958151104781242
0.20484348184544954   -0.11490647791560236   -0.2958151104781242
0.20484348184544954   -0.11490647791560236   -0.2958151104781242
-0.6564098825407054   0.1325976323203129   0.19254579186808646
-0.6564098825407054   0.1325976323203129   0.19254579186808646
-0.6564098825407054   0.1325976323203129   0.19254579186808646
-0.6564098825407054   0.1325976323203129   0.19254579186808646
-0.9270060762187817   -0.3756457468837486   -0.22556376200694328
-0.9270060762187817   -0.3756457468837486   -0.22556376200694328
-0.9270060762187817   -0.3756457468837486   -0.22556376200694328
-0.9270060762187817   -0.3756457468837486   -0.22556376200694328
0.21501599072782804   0.26798363055498226   0.2866851480277411
0.21501599072782804   0.26798363055498226   0.2866851480277411
0.21501599072782804   0.26798363055498226   0.2866851480277411
0.21501599072782804   0.26798363055498226   0.2866851480277411
-0.2969313765193127   -0.010753621170756136   -0.0381045360422372
-0.2969313765193127   -0.010753621170756136   -0.0381045360422372
-0.2969313765193127   -0.010753621170756136   -0.0381045360422372
-0.2969313765193127   -0.010753621170756136   -0.0381045360422372
0.017272099925341157   -0.1904062452829389   -0.24364443014677223
0.017272099925341157   -0.1904062452829389   -0.24364443014677223
0.017272099925341157   -0.1904062452829389   -0.24364443014677223
0.017272099925341157   -0.1904062452829389   -0.24364443014677223
-0.7452126136424392   0.06679370072798585   0.2409641032630264
-0.7452126136424392   0.06679370072798585   0.2409641032630264
-0.7452126136424392   0.06679370072798585   0.2409641032630264
-0.7452126136424392   0.06679370072798585   0.2409641032630264
-1.0083045616884125   -0.4655111382511446   -0.186743190325649
-1.0083045616884125   -0.4655111382511446   -0.186743190325649
-1.0083045616884125   -0.4655111382511446   -0.186743190325649
-1.0083045616884125   -0.4655111382511446   -0.186743190325649
-0.03940450538600046   0.10209419640627873   0.3264531326751645
-0.03940450538600046   0.10209419640627873   0.3264531326751645
-0.03940450538600046   0.10209419640627873   0.3264531326751645
-0.03940450538600046   0.10209419640627873   0.3264531326751645
-0.45135495827030625   -0.09847288670209339   -0.11524387630574193
-0.45135495827030625   -0.09847288670209339   -0.11524387630574193
-0.45135495827030625   -0.09847288670209339   -0.11524387630574193
-0.45135495827030625   -0.09847288670209339   -0.11524387630574193
-0.6468531082132147   0.15976988719379728   -0.13273266972252562
-0.6468531082132147   0.15976988719379728   -0.13273266972252562
-0.6468531082132147   0.15976988719379728   -0.13273266972252562
-0.6468531082132147   0.15976988719379728   -0.13273266972252562
-1.5939162585669817   0.06689082597210122   0.044778290223925585
-1.5939162585669817   0.06689082597210122   0.044778290223925585
-1.5939162585669817   0.06689082597210122   0.044778290223925585
-1.5939162585669817   0.06689082597210122   0.044778290223925585
-1.7327745862548996   -0.18492465592637317   -0.13822260939657918
-1.7327745862548996   -0.18492465592637317   -0.13822260939657918
-1.7327745862548996   -0.18492465592637317   -0.13822260939657918
-1.7327745862548996   -0.18492465592637317   -0.13822260939657918
-0.6642888590593767   0.153917416134009   0.13183112546103332
-0.6642888590593767   0.153917416134009   0.13183112546103332
-0.6642888590593767   0.153917416134009   0.13183112546103332
-0.6642888590593767   0.153917416134009   0.13183112546103332
-1.156932525617232   0.04577056614347058   0.024103547625477242
-1.156932525617232   0.04577056614347058   0.024103547625477242
-1.156932525617232   0.04577056614347058   0.024103547625477242
-1.156932525617232   0.04577056614347058   0.024103547625477242
-0.7393091343600154   0.019618657791907773   -0.10897149270005876
-0.7393091343600154   0.019618657791907773   -0.10897149270005876
-0.7393091343600154   0.019618657791907773   -0.10897149270005876
-0.7393091343600154   0.019618657791907773   -0.10897149270005876
-1.667151605721516   -0.060023192351527255   0.06499082969549157
-1.667151605721516   -0.060023192351527255   0.06499082969549157
-1.667151605721516   -0.060023192351527255   0.06499082969549157
-1.667151605721516   -0.060023192351527255   0.06499082969549157
-1.8017576441608099   -0.298924011003843   -0.10170236453652823
-1.8017576441608099   -0.298924011003843   -0.10170236453652823
-1.8017576441608099   -0.298924011003843   -0.10170236453652823
-1.8017576441608099   -0.298924011003843   -0.10170236453652823
-0.7714422988664759   0.02799132977663299   0.14861804809419638
-0.7714422988664759   0.02799132977663299   0.14861804809419638
-0.7714422988664759   0.02799132977663299   0.14861804809419638
-0.7714422988664759   0.02799132977663299   0.14861804809419638
-1.2440996156784556   -0.0683854569521507   -0.033076205586951415
-1.2440996156784556   -0.0683854569521507   -0.033076205586951415
-1.2440996156784556   -0.0683854569521507   -0.033076205586951415
-1.2440996156784556   -0.0683854569521507   -0.033076205586951415
-0.843685765934635   -0.10324229495441165   -0.08136566251554617
-0.843685765934635   -0.10324229495441165   -0.08136566251554617
-0.843685765934635   -0.10324229495441165   -0.08136566251554617
-0.843685765934635   -0.10324229495441165   -0.08136566251554617
-1.7395875481531442   -0.17776375733329047   0.08798786183124731
-1.7395875481531442   -0.17776375733329047   0.08798786183124731
-1.7395875481531442   -0.17776375733329047   0.08798786183124731
-1.7395875481531442   -0.17776375733329047   0.08798786183124731
-1.8711960561832082   -0.4166589517767185   -0.06934132306749805
-1.8711960561832082   -0.4166589517767185   -0.06934132306749805
-1.8711960561832082   -0.4166589517767185   -0.06934132306749805
-1.8711960561832082   -0.4166589517767185   -0.06934132306749805
-0.8609931206482594   -0.10012198757691154   0.1844248642008829
-0.8609931206482594   -0.10012198757691154   0.1844248642008829
-0.8609931206482594   -0.10012198757691154   0.1844248642008829
-0.8609931206482594   -0.10012198757691154   0.1844248642008829
-1.3314581586007843   -0.18180876031117266   -0.09136464275210646
-1.3314581586007843   -0.18180876031117266   -0.09136464275210646
-1.3314581586007843   -0.18180876031117266   -0.09136464275210646
-1.3314581586007843   -0.18180876031117266   -0.09136464275210646
-1.5654630870197455   0.26809196024705706   -0.014156986314863812
-1.5654630870197455   0.26809196024705706   -0.014156986314863812
-1.5654630870197455   0.26809196024705706   -0.014156986314863812
-1.5654630870197455   0.26809196024705706   -0.014156986314863812
-2.612012232902659   -0.08851570791328472   -0.07322545462977308
-2.612012232902659   -0.08851570791328472   -0.07322545462977308
-2.612012232902659   -0.08851570791328472   -0.07322545462977308
-2.612012232902659   -0.08851570791328472   -0.07322545462977308
-2.6390987472562992   -0.06368612971478582   -0.0147925027556782
-2.6390987472562992   -0.06368612971478582   -0.0147925027556782
-2.6390987472562992   -0.06368612971478582   -0.0147925027556782
-2.6390987472562992   -0.06368612971478582   -0.0147925027556782
-1.6616766977770938   0.012078449898827504   0.020263727167248405
-1.6616766977770938   0.012078449898827504   0.020263727167248405
-1.6616766977770938   0.012078449898827504   0.020263727167248405
-1.6616766977770938   0.012078449898827504   0.020263727167248405
-2.1151971681676947   0.030027287408859293   0.00769225627759379
-2.1151971681676947   0.030027287408859293   0.00769225627759379
-2.1151971681676947   0.030027287408859293   0.00769225627759379
-2.1151971681676947   0.030027287408859293   0.00769225627759379
-1.6352929016603397   0.14407147623792593   0.02018968141192115
-1.6352929016603397   0.14407147623792593   0.02018968141192115
-1.6352929016603397   0.14407147623792593   0.02018968141192115
-1.6352929016603397   0.14407147623792593   0.02018968141192115
-2.6744990945378353   -0.20469570721866598   -0.0507846616594778
-2.6744990945378353   -0.20469570721866598   -0.0507846616594778
-2.6744990945378353   -0.20469570721866598   -0.0507846616594778
-2.6744990945378353   -0.20469570721866598   -0.0507846616594778
-2.703723445179627   -0.18614124390543535   0.01923855144366564
-2.703723445179627   -0.18614124390543535   0.01923855144366564
-2.703723445179627   -0.18614124390543535   0.01923855144366564
-2.703723445179627   -0.18614124390543535   0.01923855144366564
-1.7349228138961474   -0.10824454228994213   0.041792318072882334
-1.7349228138961474   -0.10824454228994213   0.041792318072882334
-1.7349228138961474   -0.10824454228994213   0.041792318072882334
-1.7349228138961474   -0.10824454228994213   0.041792318072882334
-2.18533502566419   -0.08133650938064074   -0.044837866676213145
-2.18533502566419   -0.08133650938064074   -0.044837866676213145
-2.18533502566419   -0.08133650938064074   -0.044837866676213145
-2.18533502566419   -0.08133650938064074   -0.044837866676213145
-1.7076511285679585   0.019338958010826135   0.05056724441305928
-1.7076511285679585   0.019338958010826135   0.05056724441305928
-1.7076511285679585   0.019338958010826135   0.05056724441305928
-1.7076511285679585   0.019338958010826135   0.05056724441305928
-2.741856777072157   -0.3245863907704885   -0.03298296115396264
-2.741856777072157   -0.3245863907704885   -0.03298296115396264
-2.741856777072157   -0.3245863907704885   -0.03298296115396264
-2.741856777072157   -0.3245863907704885   -0.03298296115396264
-2.766689740654222   -0.3037149779087733   0.05181233148143484
-2.766689740654222   -0.3037149779087733   0.05181233148143484
-2.766689740654222   -0.3037149779087733   0.05181233148143484
-2.766689740654222   -0.3037149779087733   0.05181233148143484
-1.8051660924892228   -0.22189613400414948   0.06604567762985977
-1.8051660924892228   -0.22189613400414948   0.06604567762985977
-1.8051660924892228   -0.22189613400414948   0.06604567762985977
-1.8051660924892228   -0.22189613400414948   0.06604567762985977
-2.260811161900702   -0.19344822259459848   -0.10190640038216789
-2.260811161900702   -0.19344822259459848   -0.10190640038216789
-2.260811161900702   -0.19344822259459848   -0.10190640038216789
-2.260811161900702   -0.19344822259459848   -0.10190640038216789
-2.4800058714890065   0.39043945515374623   0.1078511893714883
-2.4800058714890065   0.39043945515374623   0.1078511893714883
-2.4800058714890065   0.39043945515374623   0.1078511893714883
-2.4800058714890065   0.39043945515374623   0.1078511893714883
-3.5881159530252433   -0.14627718577778726   -0.16466169400503564
-3.5881159530252433   -0.14627718577778726   -0.16466169400503564
-3.5881159530252433   -0.14627718577778726   -0.16466169400503564
-3.5881159530252433   -0.14627718577778726   -0.16466169400503564
-3.5390627034905062   0.06152355420524813   0.11278988297010017
-3.5390627034905062   0.06152355420524813   0.11278988297010017
-3.5390627034905062   0.06152355420524813   0.11278988297010017
-3.5390627034905062   0.06152355420524813   0.11278988297010017
-2.6489737511469738   -0.054115862689881   -0.07373778923395452
-2.6489737511469738   -0.054115862689881   -0.07373778923395452
-2.6489737511469738   -0.054115862689881   -0.07373778923395452
-2.6489737511469738   -0.054115862689881   -0.07373778923395452
-3.0537233173864156   0.0634349390803638   0.014074446146917247
-3.0537233173864156   0.0634349390803638   0.014074446146917247
-3.0537233173864156   0.0634349390803638   0.014074446146917247
-3.0537233173864156   0.0634349390803638   0.014074446146917247
-2.54156179874413   0.26692248381544237   0.14228362627494054
-2.54156179874413   0.26692248381544237   0.14228362627494054
-2.54156179874413   0.26692248381544237   0.14228362627494054
-2.54156179874413   0.26692248381544237   0.14228362627494054
-3.659633115584143   -0.27267325199089876   -0.15586537130199718
-3.659633115584143   -0.27267325199089876   -0.15586537130199718
-3.659633115584143   -0.27267325199089876   -0.15586537130199718
-3.659633115584143   -0.27267325199089876   -0.15586537130199718
-3.625785508992738   -0.05887309700221055   0.13308036416292668
-3.625785508992738   -0.05887309700221055   0.13308036416292668
-3.625785508992738   -0.05887309700221055   0.13308036416292668
-3.625785508992738   -0.05887309700221055   0.13308036416292668
-2.7130499534422348   -0.16331628481515414   -0.05021894895965531
-2.7130499534422348   -0.16331628481515414   -0.05021894895965531
-2.7130499534422348   -0.16331628481515414   -0.05021894895965531
-2.7130499534422348   -0.16331628481515414   -0.05021894895965531
-3.112702970150741   -0.043918590958061166   -0.042877417857070194
-3.112702970150741   -0.043918590958061166   -0.042877417857070194
-3.112702970150741   -0.043918590958061166   -0.042877417857070194
-3.112702970150741   -0.043918590958061166   -0.042877417857070194
-2.6043917832198216   0.1539505823226579   0.1758050350145981
-2.6043917832198216   0.1539505823226579   0.1758050350145981
-2.6043917832198216   0.1539505823226579   0.1758050350145981
-2.6043917832198216   0.1539505823226579   0.1758050350145981
-3.7448340618328313   -0.3865303467577538   -0.13450515028205637
-3.7448340618328313   -0.3865303467577538   -0.13450515028205637
-3.7448340618328313   -0.3865303467577538   -0.13450515028205637
-3.7448340618328313   -0.3865303467577538   -0.13450515028205637
-3.6963167986239944   -0.1799337523032175   0.16928062005264774
-3.6963167986239944   -0.1799337523032175   0.16928062005264774
-3.6963167986239944   -0.1799337523032175   0.16928062005264774
-3.6963167986239944   -0.1799337523032175   0.16928062005264774
-2.777322895047692   -0.2749245931664534   -0.030143825228261742
-2.777322895047692   -0.2749245931664534   -0.030143825228261742
-2.777322895047692   -0.2749245931664534   -0.030143825228261742
-2.777322895047692   -0.2749245931664534   -0.030143825228261742
-3.201223152056311   -0.1530751192448483   -0.10111544860736407
-3.201223152056311   -0.1530751192448483   -0.10111544860736407
-3.201223152056311   -0.1530751192448483   -0.10111544860736407
-3.201223152056311   -0.1530751192448483   -0.10111544860736407
-3.398765831707441   0.4227226502671029   0.21308907653908266
-3.398765831707441   0.4227226502671029   0.21308907653908266
-3.398765831707441   0.4227226502671029   0.21308907653908266
-3.398765831707441   0.4227226502671029   0.21308907653908266
-4.357830833504523   -0.2166759770975557   -0.2770697529876723
-4.357830833504523   -0.2166759770975557   -0.2770697529876723
-4.357830833504523   -0.2166759770975557   -0.2770697529876723
-4.357830833504523   -0.2166759770975557   -0.2770697529876723
-4.360735733883781   0.1737250992463909   0.23488100940590562
-4.360735733883781   0.1737250992463909   0.23488100940590562
-4.360735733883781   0.1737250992463909   0.23488100940590562
-4.360735733883781   0.1737250992463909   0.23488100940590562
-3.6330543119161436   -0.12604223027103334   -0.16960237468186493
-3.6330543119161436   -0.12604223027103334   -0.16960237468186493
-3.6330543119161436   -0.12604223027103334   -0.16960237468186493
-3.6330543119161436   -0.12604223027103334   -0.16960237468186493
-3.7788346513496056   0.10160993265316087   0.07183413194479119
-3.7788346513496056   0.10160993265316087   0.07183413194479119
-3.7788346513496056   0.10160993265316087   0.07183413194479119
-3.7788346513496056   0.10160993265316087   0.07183413194479119
-3.451887065055077   0.35879746416789526   0.2513941651844771
-3.451887065055077   0.35879746416789526   0.2513941651844771
-3.451887065055077   0.35879746416789526   0.2513941651844771
-3.451887065055077   0.35879746416789526   0.2513941651844771
-4.555521893619714   -0.3247335080673631   -0.24059118195994303
-4.555521893619714   -0.3247335080673631   -0.24059118195994303
-4.555521893619714   -0.3247335080673631   -0.24059118195994303
-4.555521893619714   -0.3247335080673631   -0.24059118195994303
-4.518527121087891   0.10535565736740171   0.30287552655930433
-4.518527121087891   0.10535565736740171   0.30287552655930433
-4.518527121087891   0.10535565736740171   0.30287552655930433
-4.518527121087891   0.10535565736740171   0.30287552655930433
-3.708139605125045   -0.18877599557401648   -0.14878721792680266
-3.708139605125045   -0.18877599557401648   -0.14878721792680266
-3.708139605125045   -0.18877599557401648   -0.14878721792680266
-3.708139605125045   -0.18877599557401648   -0.14878721792680266
-3.9661131427184197   0.018321725840660164   -0.006793250866257566
-3.9661131427184197   0.018321725840660164   -0.006793250866257566
-3.9661131427184197   0.018321725840660164   -0.006793250866257566
-3.9661131427184197   0.018321725840660164   -0.006793250866257566
-3.5193030953300743   0.3049576869182995   0.3016616485557335
-3.5193030953300743   0.3049576869182995   0.3016616485557335
-3.5193030953300743   0.3049576869182995   0.3016616485557335
-3.5193030953300743   0.3049576869182995   0.3016616485557335
-4.721306696423346   -0.4023210906653376   -0.20334560208510838
-4.721306696423346   -0.4023210906653376   -0.20334560208510838
-4.721306696423346   -0.4023210906653376   -0.20334560208510838
-4.721306696423346   -0.4023210906653376   -0.20334560208510838
-4.752348846042704   -0.07414014088908105   0.3204954659810231
-4.752348846042704   -0.07414014088908105   0.3204954659810231
-4.752348846042704   -0.07414014088908105   0.3204954659810231
-4.752348846042704   -0.07414014088908105   0.3204954659810231
-3.7834922408677034   -0.31799968894308206   -0.12853065452609574
-3.7834922408677034   -0.31799968894308206   -0.12853065452609574
-3.7834922408677034   -0.31799968894308206   -0.12853065452609574
-3.7834922408677034   -0.31799968894308206   -0.12853065452609574
-4.03886517661327   -0.06391832804766762   -0.06288918639574131
-4.03886517661327   -0.06391832804766762   -0.06288918639574131
-4.03886517661327   -0.06391832804766762   -0.06288918639574131
-4.03886517661327   -0.06391832804766762   -0.06288918639574131
-1.9284364670514382   -0.12656414676793287   -0.35068587380047533
-1.9284364670514382   -0.12656414676793287   -0.35068587380047533
-1.9284364670514382   -0.12656414676793287   -0.35068587380047533
-1.9284364670514382   -0.12656414676793287   -0.35068587380047533
-1.8797667006883971   0.27048931180285807   0.15823201184796343
-1.8797667006883971   0.27048931180285807   0.15823201184796343
-1.8797667006883971   0.27048931180285807   0.15823201184796343
-1.8797667006883971   0.27048931180285807   0.15823201184796343
-2.1103098835336542   -0.24408629040001967   -0.2369738207406279
-2.1103098835336542   -0.24408629040001967   -0.2369738207406279
-2.1103098835336542   -0.24408629040001967   -0.2369738207406279
-2.1103098835336542   -0.24408629040001967   -0.2369738207406279
-1.9662542406132357   0.13629371561387715   0.2390396408230145
-1.9662542406132357   0.13629371561387715   0.2390396408230145
-1.9662542406132357   0.13629371561387715   0.2390396408230145
-1.9662542406132357   0.13629371561387715   0.2390396408230145
-1.8723853582196244   0.044368434259610456   0.16139945434179973
-1.8723853582196244   0.044368434259610456   0.16139945434179973
-1.8723853582196244   0.044368434259610456   0.16139945434179973
-1.8723853582196244   0.044368434259610456   0.16139945434179973
-2.1527299926045704   -0.26382052397502526   -0.29322487954473975
-2.1527299926045704   -0.26382052397502526   -0.29322487954473975
-2.1527299926045704   -0.26382052397502526   -0.29322487954473975
-2.1527299926045704   -0.26382052397502526   -0.29322487954473975
-1.9473110220883298   0.13255105864287486   0.20138313744309772
-1.9473110220883298   0.13255105864287486   0.20138313744309772
-1.9473110220883298   0.13255105864287486   0.20138313744309772
-1.9473110220883298   0.13255105864287486   0.20138313744309772
-2.178884814797584   -0.3081534420470242   -0.20009940945675667
-2.178884814797584   -0.3081534420470242   -0.20009940945675667
-2.178884814797584   -0.3081534420470242   -0.20009940945675667
-2.178884814797584   -0.3081534420470242   -0.20009940945675667
-2.1451484149130056   0.048756729547161703   0.4429627810448745
-2.1451484149130056   0.048756729547161703   0.4429627810448745
-2.1451484149130056   0.048756729547161703   0.4429627810448745
-2.1451484149130056   0.048756729547161703   0.4429627810448745
-2.0381347685032685   -0.06582961625603595   0.06395155919912975
-2.0381347685032685   -0.06582961625603595   0.06395155919912975
-2.0381347685032685   -0.06582961625603595   0.06395155919912975
-2.0381347685032685   -0.06582961625603595   0.06395155919912975
-2.3590029641251977   -0.34972319759581416   -0.2278300378730929
-2.3590029641251977   -0.34972319759581416   -0.2278300378730929
-2.3590029641251977   -0.34972319759581416   -0.2278300378730929
-2.3590029641251977   -0.34972319759581416   -0.2278300378730929
-2.0201443987232506   0.03521235195809558   0.250236876909789
-2.0201443987232506   0.03521235195809558   0.250236876909789
-2.0201443987232506   0.03521235195809558   0.250236876909789
-2.0201443987232506   0.03521235195809558   0.250236876909789
-2.2348591879925244   -0.4337001635422672   -0.15706398446104122
-2.2348591879925244   -0.4337001635422672   -0.15706398446104122
-2.2348591879925244   -0.4337001635422672   -0.15706398446104122
-2.2348591879925244   -0.4337001635422672   -0.15706398446104122
-2.4236056076142933   -0.24049726674911398   0.4147830965870487
-2.4236056076142933   -0.24049726674911398   0.4147830965870487
-2.4236056076142933   -0.24049726674911398   0.4147830965870487
-2.4236056076142933   -0.24049726674911398   0.4147830965870487
-2.179968302120085   -0.19627291157058963   -0.08970924623528494
-2.179968302120085   -0.19627291157058963   -0.08970924623528494
-2.179968302120085   -0.19627291157058963   -0.08970924623528494
-2.179968302120085   -0.19627291157058963   -0.08970924623528494
-2.014283341107615   -0.0624255202248894   -0.18143635822039433
-2.014283341107615   -0.0624255202248894   -0.18143635822039433
-2.014283341107615   -0.0624255202248894   -0.18143635822039433
-2.014283341107615   -0.0624255202248894   -0.18143635822039433
-2.019984789434397   -0.24730796758043966   -0.010416452959822645
-2.019984789434397   -0.24730796758043966   -0.010416452959822645
-2.019984789434397   -0.24730796758043966   -0.010416452959822645
-2.019984789434397   -0.24730796758043966   -0.010416452959822645
-2.0330624643897215   -0.16405140963674486   -0.08923939806239152
-2.0330624643897215   -0.16405140963674486   -0.08923939806239152
-2.0330624643897215   -0.16405140963674486   -0.08923939806239152
-2.0330624643897215   -0.16405140963674486   -0.08923939806239152
-2.0830932669492825   -0.3403715537116703   -0.004605474507119334
-2.0830932669492825   -0.3403715537116703   -0.004605474507119334
-2.0830932669492825   -0.3403715537116703   -0.004605474507119334
-2.0830932669492825   -0.3403715537116703   -0.004605474507119334
-2.020205013356598   -0.21233315498543445   -0.008588622232742364
-2.020205013356598   -0.21233315498543445   -0.008588622232742364
-2.020205013356598   -0.21233315498543445   -0.008588622232742364
-2.020205013356598   -0.21233315498543445   -0.008588622232742364
-2.0829650667934025   -0.1875427133274019   -0.15679331411199554
-2.0829650667934025   -0.1875427133274019   -0.15679331411199554
-2.0829650667934025   -0.1875427133274019   -0.15679331411199554
-2.0829650667934025   -0.1875427133274019   -0.15679331411199554
-2.0461530759264495   -0.3298426614018684   0.011098796019057399
-2.0461530759264495   -0.3298426614018684   0.011098796019057399
-2.0461530759264495   -0.3298426614018684   0.011098796019057399
-2.0461530759264495   -0.3298426614018684   0.011098796019057399
-2.065741007379833   -0.27201719164380306   -0.057125850494626915
-2.065741007379833   -0.27201719164380306   -0.057125850494626915
-2.065741007379833   -0.27201719164380306   -0.057125850494626915
-2.065741007379833   -0.27201719164380306   -0.057125850494626915
-2.1563901366125706   -0.4406971361569926   0.04491767557827605
-2.1563901366125706   -0.4406971361569926   0.04491767557827605
-2.1563901366125706   -0.4406971361569926   0.04491767557827605
-2.1563901366125706   -0.4406971361569926   0.04491767557827605
-2.0648678336436643   -0.2993028958497905   -0.058247474948571035
-2.0648678336436643   -0.2993028958497905   -0.058247474948571035
-2.0648678336436643   -0.2993028958497905   -0.058247474948571035
-2.0648678336436643   -0.2993028958497905   -0.058247474948571035
-2.1610369200584176   -0.30287823303515404   -0.11613514477279695
-2.1610369200584176   -0.30287823303515404   -0.11613514477279695
-2.1610369200584176   -0.30287823303515404   -0.11613514477279695
-2.1610369200584176   -0.30287823303515404   -0.11613514477279695
-2.0776926713871693   -0.42643454221885274   0.037533180043696025
-2.0776926713871693   -0.42643454221885274   0.037533180043696025
-2.0776926713871693   -0.42643454221885274   0.037533180043696025
-2.0776926713871693   -0.42643454221885274   0.037533180043696025
-2.0948755627256648   -0.3888404653707175   -0.025285082690741444
-2.0948755627256648   -0.3888404653707175   -0.025285082690741444
-2.0948755627256648   -0.3888404653707175   -0.025285082690741444
-2.0948755627256648   -0.3888404653707175   -0.025285082690741444
-2.2122706654577264   -0.5688255737505089   0.09100403842117291
-2.2122706654577264   -0.5688255737505089   0.09100403842117291
-2.2122706654577264   -0.5688255737505089   0.09100403842117291
-2.2122706654577264   -0.5688255737505089   0.09100403842117291
-2.127073975368648   -0.4050421465851804   -0.12171375885638011
-2.127073975368648   -0.4050421465851804   -0.12171375885638011
-2.127073975368648   -0.4050421465851804   -0.12171375885638011
-2.127073975368648   -0.4050421465851804   -0.12171375885638011
-1.9652901152692461   0.04885299716373692   -0.033104046878199456
-1.9652901152692461   0.04885299716373692   -0.033104046878199456
-1.9652901152692461   0.04885299716373692   -0.033104046878199456
-1.9652901152692461   0.04885299716373692   -0.033104046878199456
-2.2053168183962013   -0.41844769499355483   -0.10521706406044451
-2.2053168183962013   -0.41844769499355483   -0.10521706406044451
-2.2053168183962013   -0.41844769499355483   -0.10521706406044451
-2.2053168183962013   -0.41844769499355483   -0.10521706406044451
-2.113787074319019   -0.07663731990529654   0.028795254688553276
-2.113787074319019   -0.07663731990529654   0.028795254688553276
-2.113787074319019   -0.07663731990529654   0.028795254688553276
-2.113787074319019   -0.07663731990529654   0.028795254688553276
-2.0867868489121517   -0.4563312158100296   -0.06558151450129156
-2.0867868489121517   -0.4563312158100296   -0.06558151450129156
-2.0867868489121517   -0.4563312158100296   -0.06558151450129156
-2.0867868489121517   -0.4563312158100296   -0.06558151450129156
-2.0913452515330597   -0.23273034578044252   -0.04816694481576755
-2.0913452515330597   -0.23273034578044252   -0.04816694481576755
-2.0913452515330597   -0.23273034578044252   -0.04816694481576755
-2.0913452515330597   -0.23273034578044252   -0.04816694481576755
-1.9941195494635218   -0.058481760404638594   -9.447266353176942e-05
-1.9941195494635218   -0.058481760404638594   -9.447266353176942e-05
-1.9941195494635218   -0.058481760404638594   -9.447266353176942e-05
-1.9941195494635218   -0.058481760404638594   -9.447266353176942e-05
-2.2181918187580134   -0.4862242203010566   -0.08364156711068765
-2.2181918187580134   -0.4862242203010566   -0.08364156711068765
-2.2181918187580134   -0.4862242203010566   -0.08364156711068765
-2.2181918187580134   -0.4862242203010566   -0.08364156711068765
-2.1368734919254715   -0.18485127234274729   0.060709345838180245
-2.1368734919254715   -0.18485127234274729   0.060709345838180245
-2.1368734919254715   -0.18485127234274729   0.060709345838180245
-2.1368734919254715   -0.18485127234274729   0.060709345838180245
-2.117360383637664   -0.5417214918206698   -0.04551843160694606
-2.117360383637664   -0.5417214918206698   -0.04551843160694606
-2.117360383637664   -0.5417214918206698   -0.04551843160694606
-2.117360383637664   -0.5417214918206698   -0.04551843160694606
-2.116011730896712   -0.3152844004630098   -0.0907384526076791
-2.116011730896712   -0.3152844004630098   -0.0907384526076791
-2.116011730896712   -0.3152844004630098   -0.0907384526076791
-2.116011730896712   -0.3152844004630098   -0.0907384526076791
-2.027169421112588   -0.16859112459018588   0.032306013787981105
-2.027169421112588   -0.16859112459018588   0.032306013787981105
-2.027169421112588   -0.16859112459018588   0.032306013787981105
-2.027169421112588   -0.16859112459018588   0.032306013787981105
-2.2401741530879464   -0.5710913382106043   -0.06955389410633643
-2.2401741530879464   -0.5710913382106043   -0.06955389410633643
-2.2401741530879464   -0.5710913382106043   -0.06955389410633643
-2.2401741530879464   -0.5710913382106043   -0.06955389410633643
-2.1554282687064483   -0.28678510524886525   0.09186299762350611
-2.1554282687064483   -0.28678510524886525   0.09186299762350611
-2.1554282687064483   -0.28678510524886525   0.09186299762350611
-2.1554282687064483   -0.28678510524886525   0.09186299762350611
-2.139719515916952   -0.6239666946661836   -0.014378619351726428
-2.139719515916952   -0.6239666946661836   -0.014378619351726428
-2.139719515916952   -0.6239666946661836   -0.014378619351726428
-2.139719515916952   -0.6239666946661836   -0.014378619351726428
-2.145592826266237   -0.40168695840703483   -0.13753264081770653
-2.145592826266237   -0.40168695840703483   -0.13753264081770653
-2.145592826266237   -0.40168695840703483   -0.13753264081770653
-2.145592826266237   -0.40168695840703483   -0.13753264081770653
-2.0364380525499786   0.21761378929474678   0.10311528088237007
-2.0364380525499786   0.21761378929474678   0.10311528088237007
-2.0364380525499786   0.21761378929474678   0.10311528088237007
-2.0364380525499786   0.21761378929474678   0.10311528088237007
-2.3911385167165435   -0.30998254074589715   -0.145916932791013
-2.3911385167165435   -0.30998254074589715   -0.145916932791013
-2.3911385167165435   -0.30998254074589715   -0.145916932791013
-2.3911385167165435   -0.30998254074589715   -0.145916932791013
-2.259990011483472   0.06715857227227662   0.14365064591333138
-2.259990011483472   0.06715857227227662   0.14365064591333138
-2.259990011483472   0.06715857227227662   0.14365064591333138
-2.259990011483472   0.06715857227227662   0.14365064591333138
-2.1920269043690856   -0.3501430610089705   -0.088898154458106
-2.1920269043690856   -0.3501430610089705   -0.088898154458106
-2.1920269043690856   -0.3501430610089705   -0.088898154458106
-2.1920269043690856   -0.3501430610089705   -0.088898154458106
-2.2199707480432567   -0.09142938613339663   -0.02878707223575372
-2.2199707480432567   -0.09142938613339663   -0.02878707223575372
-2.2199707480432567   -0.09142938613339663   -0.02878707223575372
-2.2199707480432567   -0.09142938613339663   -0.02878707223575372
-2.0559427502845917   0.10626150526707479   0.1351180496883191
-2.0559427502845917   0.10626150526707479   0.1351180496883191
-2.0559427502845917   0.10626150526707479   0.1351180496883191
-2.0559427502845917   0.10626150526707479   0.1351180496883191
-2.4116191667835656   -0.4047909952193478   -0.14254556309551253
-2.4116191667835656   -0.4047909952193478   -0.14254556309551253
-2.4116191667835656   -0.4047909952193478   -0.14254556309551253
-2.4116191667835656   -0.4047909952193478   -0.14254556309551253
-2.3009406671176005   -0.03830112916708095   0.16274754295607638
-2.3009406671176005   -0.03830112916708095   0.16274754295607638
-2.3009406671176005   -0.03830112916708095   0.16274754295607638
-2.3009406671176005   -0.03830112916708095   0.16274754295607638
-2.211954522268524   -0.4286648453893517   -0.07088223283044881
-2.211954522268524   -0.4286648453893517   -0.07088223283044881
-2.211954522268524   -0.4286648453893517   -0.07088223283044881
-2.211954522268524   -0.4286648453893517   -0.07088223283044881
-2.2401265675953503   -0.18079154257087737   -0.07867166962176055
-2.2401265675953503   -0.18079154257087737   -0.07867166962176055
-2.2401265675953503   -0.18079154257087737   -0.07867166962176055
-2.2401265675953503   -0.18079154257087737   -0.07867166962176055
-2.077371460671789   0.0071140412363623895   0.16625418852748194
-2.077371460671789   0.0071140412363623895   0.16625418852748194
-2.077371460671789   0.0071140412363623895   0.16625418852748194
-2.077371460671789   0.0071140412363623895   0.16625418852748194
-2.4490028021212584   -0.48755908919970253   -0.12830517202959119
-2.4490028021212584   -0.48755908919970253   -0.12830517202959119
-2.4490028021212584   -0.48755908919970253   -0.12830517202959119
-2.4490028021212584   -0.48755908919970253   -0.12830517202959119
-2.3276983639652284   -0.13929719809969304   0.198368619023077
-2.3276983639652284   -0.13929719809969304   0.198368619023077
-2.3276983639652284   -0.13929719809969304   0.198368619023077
-2.3276983639652284   -0.13929719809969304   0.198368619023077
-2.2288525270262154   -0.5074767483102738   -0.05456665091392385
-2.2288525270262154   -0.5074767483102738   -0.05456665091392385
-2.2288525270262154   -0.5074767483102738   -0.05456665091392385
-2.2288525270262154   -0.5074767483102738   -0.05456665091392385
-2.2760317720119088   -0.26476915087893554   -0.12691056429916797
-2.2760317720119088   -0.26476915087893554   -0.12691056429916797
-2.2760317720119088   -0.26476915087893554   -0.12691056429916797
-2.2760317720119088   -0.26476915087893554   -0.12691056429916797
-2.1964759483555953   0.3120763534860985   0.20533701478167105
-2.1964759483555953   0.3120763534860985   0.20533701478167105
-2.1964759483555953   0.3120763534860985   0.20533701478167105
-2.1964759483555953   0.3120763534860985   0.20533701478167105
-2.3286641633206235   -0.18538772456420483   -0.21206572750651326
-2.3286641633206235   -0.18538772456420483   -0.21206572750651326
-2.3286641633206235   -0.18538772456420483   -0.21206572750651326
-2.3286641633206235   -0.18538772456420483   -0.21206572750651326
-2.2740445476636673   0.22529660149566333   0.22808201989914265
-2.2740445476636673   0.22529660149566333   0.22808201989914265
-2.2740445476636673   0.22529660149566333   0.22808201989914265
-2.2740445476636673   0.22529660149566333   0.22808201989914265
-2.376633810110107   -0.2428252430225175   -0.1295845319250498
-2.376633810110107   -0.2428252430225175   -0.1295845319250498
-2.376633810110107   -0.2428252430225175   -0.1295845319250498
-2.376633810110107   -0.2428252430225175   -0.1295845319250498
-2.2165631500037914   0.056866296231794455   0.007114813942101589
-2.2165631500037914   0.056866296231794455   0.007114813942101589
-2.2165631500037914   0.056866296231794455   0.007114813942101589
-2.2165631500037914   0.056866296231794455   0.007114813942101589
-2.2065340031168734   0.24066679869075092   0.23742246132778663
-2.2065340031168734   0.24066679869075092   0.23742246132778663
-2.2065340031168734   0.24066679869075092   0.23742246132778663
-2.2065340031168734   0.24066679869075092   0.23742246132778663
-2.4567154151856183   -0.2707665007463228   -0.1892092154685646
-2.4567154151856183   -0.2707665007463228   -0.1892092154685646
-2.4567154151856183   -0.2707665007463228   -0.1892092154685646
-2.4567154151856183   -0.2707665007463228   -0.1892092154685646
-2.374258970110715   0.16654082904716205   0.29391627016476024
-2.374258970110715   0.16654082904716205   0.29391627016476024
-2.374258970110715   0.16654082904716205   0.29391627016476024
-2.374258970110715   0.16654082904716205   0.29391627016476024
-2.4073109165339366   -0.2888992660758578   -0.11850556721688948
-2.4073109165339366   -0.2888992660758578   -0.11850556721688948
-2.4073109165339366   -0.2888992660758578   -0.11850556721688948
-2.4073109165339366   -0.2888992660758578   -0.11850556721688948
-2.3242863274039935   -0.014467200942562264   -0.051324429924502785
-2.3242863274039935   -0.014467200942562264   -0.051324429924502785
-2.3242863274039935   -0.014467200942562264   -0.051324429924502785
-2.3242863274039935   -0.014467200942562264   -0.051324429924502785
-2.230261860841426   0.1934375715850239   0.28440287358478017
-2.230261860841426   0.1934375715850239   0.28440287358478017
-2.230261860841426   0.1934375715850239   0.28440287358478017
-2.230261860841426   0.1934375715850239   0.28440287358478017
-2.567801877782119   -0.33228986059261323   -0.17496757855248368
-2.567801877782119   -0.33228986059261323   -0.17496757855248368
-2.567801877782119   -0.33228986059261323   -0.17496757855248368
-2.567801877782119   -0.33228986059261323   -0.17496757855248368
-2.5526200026539425   0.016720917255475642   0.31420013825293186
-2.5526200026539425   0.016720917255475642   0.31420013825293186
-2.5526200026539425   0.016720917255475642   0.31420013825293186
-2.5526200026539425   0.016720917255475642   0.31420013825293186
-2.4351634400597284   -0.3751903981430911   -0.1030635614059629
-2.4351634400597284   -0.3751903981430911   -0.1030635614059629
-2.4351634400597284   -0.3751903981430911   -0.1030635614059629
-2.4351634400597284   -0.3751903981430911   -0.1030635614059629
-2.375475207268469   -0.07984448707399139   -0.10432659668569211
-2.375475207268469   -0.07984448707399139   -0.10432659668569211
-2.375475207268469   -0.07984448707399139   -0.10432659668569211
-2.375475207268469   -0.07984448707399139   -0.10432659668569211
-4.823943748347138   -0.43952489673728223   -0.4476619831939981
-4.823943748347138   -0.43952489673728223   -0.4476619831939981
-4.823943748347138   -0.43952489673728223   -0.4476619831939981
-4.823943748347138   -0.43952489673728223   -0.4476619831939981
-3.043774039880814   0.2660526297704384   0.10604787402797977
-3.043774039880814   0.2660526297704384   0.10604787402797977
-3.043774039880814   0.2660526297704384   0.10604787402797977
-3.043774039880814   0.2660526297704384   0.10604787402797977
-3.194376548298007   -0.19676691468186047   -0.19814120297090226
-3.194376548298007   -0.19676691468186047   -0.19814120297090226
-3.194376548298007   -0.19676691468186047   -0.19814120297090226
-3.194376548298007   -0.19676691468186047   -0.19814120297090226
-5.120086645915642   -0.5677070441874204   0.5054377291790979
-5.120086645915642   -0.5677070441874204   0.5054377291790979
-5.120086645915642   -0.5677070441874204   0.5054377291790979
-5.120086645915642   -0.5677070441874204   0.5054377291790979
-3.721138009991135   -0.13856253787600847   0.48824071714279815
-3.721138009991135   -0.13856253787600847   0.48824071714279815
-3.721138009991135   -0.13856253787600847   0.48824071714279815
-3.721138009991135   -0.13856253787600847   0.48824071714279815
-5.301820382768337   -0.6440125340300993   -0.32692546524164323
-5.301820382768337   -0.6440125340300993   -0.32692546524164323
-5.301820382768337   -0.6440125340300993   -0.32692546524164323
-5.301820382768337   -0.6440125340300993   -0.32692546524164323
-3.1402120849484967   -0.2480306983423774   0.12394489743716693
-3.1402120849484967   -0.2480306983423774   0.12394489743716693
-3.1402120849484967   -0.2480306983423774   0.12394489743716693
-3.1402120849484967   -0.2480306983423774   0.12394489743716693
-3.2402092353244987   -0.28707222305276436   -0.14112116154326274
-3.2402092353244987   -0.28707222305276436   -0.14112116154326274
-3.2402092353244987   -0.28707222305276436   -0.14112116154326274
-3.2402092353244987   -0.28707222305276436   -0.14112116154326274
-5.27850269389682   -0.7944672556430692   0.014935492779956747
-5.27850269389682   -0.7944672556430692   0.014935492779956747
-5.27850269389682   -0.7944672556430692   0.014935492779956747
-5.27850269389682   -0.7944672556430692   0.014935492779956747
-4.11357181587198   -0.4794767980672898   0.11194641162267338
-4.11357181587198   -0.4794767980672898   0.11194641162267338
-4.11357181587198   -0.4794767980672898   0.11194641162267338
-4.11357181587198   -0.4794767980672898   0.11194641162267338
-5.320441065976752   -0.7272825679392564   -0.26194105532347045
-5.320441065976752   -0.7272825679392564   -0.26194105532347045
-5.320441065976752   -0.7272825679392564   -0.26194105532347045
-5.320441065976752   -0.7272825679392564   -0.26194105532347045
-3.237231027895435   -0.3932170754074413   -0.020085272043288485
-3.237231027895435   -0.3932170754074413   -0.020085272043288485
-3.237231027895435   -0.3932170754074413   -0.020085272043288485
-3.237231027895435   -0.3932170754074413   -0.020085272043288485
-3.239444907954231   -0.5070363387501211   -0.10207296307804915
-3.239444907954231   -0.5070363387501211   -0.10207296307804915
-3.239444907954231   -0.5070363387501211   -0.10207296307804915
-3.239444907954231   -0.5070363387501211   -0.10207296307804915
-5.399247061953634   -1.2153648071526444   0.08333094699112911
-5.399247061953634   -1.2153648071526444   0.08333094699112911
-5.399247061953634   -1.2153648071526444   0.08333094699112911
-5.399247061953634   -1.2153648071526444   0.08333094699112911
-4.1055354251500145   -0.6598604990660415   0.007348653195761827
-4.1055354251500145   -0.6598604990660415   0.007348653195761827
-4.1055354251500145   -0.6598604990660415   0.007348653195761827
-4.1055354251500145   -0.6598604990660415   0.007348653195761827
-3.287199108899593   -0.5563937576171705   -0.2886310836782806
-3.287199108899593   -0.5563937576171705   -0.2886310836782806
-3.287199108899593   -0.5563937576171705   -0.2886310836782806
-3.287199108899593   -0.5563937576171705   -0.2886310836782806
-2.2456486761897505   -1.4367315137656909   -0.27006216058557775
-2.2456486761897505   -1.4367315137656909   -0.27006216058557775
-2.2456486761897505   -1.4367315137656909   -0.27006216058557775
-2.2456486761897505   -1.4367315137656909   -0.27006216058557775
-1.9733127937071098   -0.3206442252306952   -0.01574930534441631
-1.9733127937071098   -0.3206442252306952   -0.01574930534441631
-1.9733127937071098   -0.3206442252306952   -0.01574930534441631
-1.9733127937071098   -0.3206442252306952   -0.01574930534441631
-3.489341741554288   -1.5278815763944702   -0.34185250753969676
-3.489341741554288   -1.5278815763944702   -0.34185250753969676
-3.489341741554288   -1.5278815763944702   -0.34185250753969676
-3.489341741554288   -1.5278815763944702   -0.34185250753969676
-2.7166624692482513   -1.0201788548216704   -0.07880404785299899
-2.7166624692482513   -1.0201788548216704   -0.07880404785299899
-2.7166624692482513   -1.0201788548216704   -0.07880404785299899
-2.7166624692482513   -1.0201788548216704   -0.07880404785299899
-3.2833545484327864   -0.62288528231023   -0.21691283601641342
-3.2833545484327864   -0.62288528231023   -0.21691283601641342
-3.2833545484327864   -0.62288528231023   -0.21691283601641342
-3.2833545484327864   -0.62288528231023   -0.21691283601641342
-2.192681217675523   -1.2390217501618497   -0.1942139002553592
-2.192681217675523   -1.2390217501618497   -0.1942139002553592
-2.192681217675523   -1.2390217501618497   -0.1942139002553592
-2.192681217675523   -1.2390217501618497   -0.1942139002553592
-1.9928222429901625   -0.4160629099696129   0.00452091289276554
-1.9928222429901625   -0.4160629099696129   0.00452091289276554
-1.9928222429901625   -0.4160629099696129   0.00452091289276554
-1.9928222429901625   -0.4160629099696129   0.00452091289276554
-3.499039974797006   -1.5201104509121044   -0.2022366310464803
-3.499039974797006   -1.5201104509121044   -0.2022366310464803
-3.499039974797006   -1.5201104509121044   -0.2022366310464803
-3.499039974797006   -1.5201104509121044   -0.2022366310464803
-2.684499155841712   -0.9563413329732946   -0.08369009632646406
-2.684499155841712   -0.9563413329732946   -0.08369009632646406
-2.684499155841712   -0.9563413329732946   -0.08369009632646406
-2.684499155841712   -0.9563413329732946   -0.08369009632646406
-3.3304059975856903   -0.7169327355397239   -0.16224446036226162
-3.3304059975856903   -0.7169327355397239   -0.16224446036226162
-3.3304059975856903   -0.7169327355397239   -0.16224446036226162
-3.3304059975856903   -0.7169327355397239   -0.16224446036226162
-2.188904430846414   -1.2466888359869257   -0.14526410037117868
-2.188904430846414   -1.2466888359869257   -0.14526410037117868
-2.188904430846414   -1.2466888359869257   -0.14526410037117868
-2.188904430846414   -1.2466888359869257   -0.14526410037117868
-1.988678529439439   -0.5356076779746701   0.03350138128207894
-1.988678529439439   -0.5356076779746701   0.03350138128207894
-1.988678529439439   -0.5356076779746701   0.03350138128207894
-1.988678529439439   -0.5356076779746701   0.03350138128207894
-3.487236571637566   -1.5471872121122217   -0.3008804081326708
-3.487236571637566   -1.5471872121122217   -0.3008804081326708
-3.487236571637566   -1.5471872121122217   -0.3008804081326708
-3.487236571637566   -1.5471872121122217   -0.3008804081326708
-2.7217225505327147   -1.0293356796045918   -0.1551404237518002
-2.7217225505327147   -1.0293356796045918   -0.1551404237518002
-2.7217225505327147   -1.0293356796045918   -0.1551404237518002
-2.7217225505327147   -1.0293356796045918   -0.1551404237518002
-1.9806829403714077   -0.35739208802368155   -0.024572907235871962
-1.9806829403714077   -0.35739208802368155   -0.024572907235871962
-1.9806829403714077   -0.35739208802368155   -0.024572907235871962
-1.9806829403714077   -0.35739208802368155   -0.024572907235871962
-1.6479597555033487   -1.0964626849802046   -0.1893146971566016
-1.6479597555033487   -1.0964626849802046   -0.1893146971566016
-1.6479597555033487   -1.0964626849802046   -0.1893146971566016
-1.6479597555033487   -1.0964626849802046   -0.1893146971566016
-1.4195511220586066   -0.29441942156031803   0.07674172989372109
-1.4195511220586066   -0.29441942156031803   0.07674172989372109
-1.4195511220586066   -0.29441942156031803   0.07674172989372109
-1.4195511220586066   -0.29441942156031803   0.07674172989372109
-2.1871333890615396   -1.1954030891170775   -0.21009341823021407
-2.1871333890615396   -1.1954030891170775   -0.21009341823021407
-2.1871333890615396   -1.1954030891170775   -0.21009341823021407
-2.1871333890615396   -1.1954030891170775   -0.21009341823021407
-1.8006787457345916   -0.7466786018577884   -0.08759277072234403
-1.8006787457345916   -0.7466786018577884   -0.08759277072234403
-1.8006787457345916   -0.7466786018577884   -0.08759277072234403
-1.8006787457345916   -0.7466786018577884   -0.08759277072234403
-1.989915541669707   -0.4231017546157569   0.0036944842276276507
-1.989915541669707   -0.4231017546157569   0.0036944842276276507
-1.989915541669707   -0.4231017546157569   0.0036944842276276507
-1.989915541669707   -0.4231017546157569   0.0036944842276276507
-1.6285254437721648   -1.0784772303833647   -0.18407206985102384
-1.6285254437721648   -1.0784772303833647   -0.18407206985102384
-1.6285254437721648   -1.0784772303833647   -0.18407206985102384
-1.6285254437721648   -1.0784772303833647   -0.18407206985102384
-1.4172334506784512   -0.3727431549941154   0.09924631956661369
-1.4172334506784512   -0.3727431549941154   0.09924631956661369
-1.4172334506784512   -0.3727431549941154   0.09924631956661369
-1.4172334506784512   -0.3727431549941154   0.09924631956661369
-2.1911915926840724   -1.2143976002680807   -0.1889911452783157
-2.1911915926840724   -1.2143976002680807   -0.1889911452783157
-2.1911915926840724   -1.2143976002680807   -0.1889911452783157
-2.1911915926840724   -1.2143976002680807   -0.1889911452783157
-1.7950488647794214   -0.7765191809602576   -0.11359656413091092
-1.7950488647794214   -0.7765191809602576   -0.11359656413091092
-1.7950488647794214   -0.7765191809602576   -0.11359656413091092
-1.7950488647794214   -0.7765191809602576   -0.11359656413091092
-2.003567355640561   -0.5024272599713565   0.03715969964251738
-2.003567355640561   -0.5024272599713565   0.03715969964251738
-2.003567355640561   -0.5024272599713565   0.03715969964251738
-2.003567355640561   -0.5024272599713565   0.03715969964251738
-1.611280831292245   -1.0911366388611015   -0.1525970996353082
-1.611280831292245   -1.0911366388611015   -0.1525970996353082
-1.611280831292245   -1.0911366388611015   -0.1525970996353082
-1.611280831292245   -1.0911366388611015   -0.1525970996353082
-1.3973485875037308   -0.4478863414402797   0.12365221836457155
-1.3973485875037308   -0.4478863414402797   0.12365221836457155
-1.3973485875037308   -0.4478863414402797   0.12365221836457155
-1.3973485875037308   -0.4478863414402797   0.12365221836457155
-2.161710913458682   -1.2306504892437982   -0.13661772754500728
-2.161710913458682   -1.2306504892437982   -0.13661772754500728
-2.161710913458682   -1.2306504892437982   -0.13661772754500728
-2.161710913458682   -1.2306504892437982   -0.13661772754500728
-1.7865263814325882   -0.8153644737890671   -0.13122278445379648
-1.7865263814325882   -0.8153644737890671   -0.13122278445379648
-1.7865263814325882   -0.8153644737890671   -0.13122278445379648
-1.7865263814325882   -0.8153644737890671   -0.13122278445379648
-1.3739590912585569   -0.05043173439886828   0.13465767348602178
-1.3739590912585569   -0.05043173439886828   0.13465767348602178
-1.3739590912585569   -0.05043173439886828   0.13465767348602178
-1.3739590912585569   -0.05043173439886828   0.13465767348602178
-1.2855564986363315   -0.5776375927742485   -0.11208147067030583
-1.2855564986363315   -0.5776375927742485   -0.11208147067030583
-1.2855564986363315   -0.5776375927742485   -0.11208147067030583
-1.2855564986363315   -0.5776375927742485   -0.11208147067030583
-1.1057296246366863   -0.08382469105837695   0.15639641556246248
-1.1057296246366863   -0.08382469105837695   0.15639641556246248
-1.1057296246366863   -0.08382469105837695   0.15639641556246248
-1.1057296246366863   -0.08382469105837695   0.15639641556246248
-1.526227674936322   -0.6711539266733482   -0.07990652938182569
-1.526227674936322   -0.6711539266733482   -0.07990652938182569
-1.526227674936322   -0.6711539266733482   -0.07990652938182569
-1.526227674936322   -0.6711539266733482   -0.07990652938182569
-1.3273931519852669   -0.34279145121185617   -0.047359613545665286
-1.3273931519852669   -0.34279145121185617   -0.047359613545665286
-1.3273931519852669   -0.34279145121185617   -0.047359613545665286
-1.3273931519852669   -0.34279145121185617   -0.047359613545665286
-1.3724385398454317   -0.1373905944439693   0.15527581384324612
-1.3724385398454317   -0.1373905944439693   0.15527581384324612
-1.3724385398454317   -0.1373905944439693   0.15527581384324612
-1.3724385398454317   -0.1373905944439693   0.15527581384324612
-1.271879467558913   -0.6299487311190921   -0.12822875898795505
-1.271879467558913   -0.6299487311190921   -0.12822875898795505
-1.271879467558913   -0.6299487311190921   -0.12822875898795505
-1.271879467558913   -0.6299487311190921   -0.12822875898795505
-1.1046440587371207   -0.15944247354732052   0.16791916284818115
-1.1046440587371207   -0.15944247354732052   0.16791916284818115
-1.1046440587371207   -0.15944247354732052   0.16791916284818115
-1.1046440587371207   -0.15944247354732052   0.16791916284818115
-1.5228313830714963   -0.7118739047987579   -0.08961259259396999
-1.5228313830714963   -0.7118739047987579   -0.08961259259396999
-1.5228313830714963   -0.7118739047987579   -0.08961259259396999
-1.5228313830714963   -0.7118739047987579   -0.08961259259396999
-1.3190926808895407   -0.4037568575328996   -0.08014187468713473
-1.3190926808895407   -0.4037568575328996   -0.08014187468713473
-1.3190926808895407   -0.4037568575328996   -0.08014187468713473
-1.3190926808895407   -0.4037568575328996   -0.08014187468713473
-1.3693151734966562   -0.21061801581047435   0.17671256629194754
-1.3693151734966562   -0.21061801581047435   0.17671256629194754
-1.3693151734966562   -0.21061801581047435   0.17671256629194754
-1.3693151734966562   -0.21061801581047435   0.17671256629194754
-1.2656330725023839   -0.6681711667260372   -0.12829721279941783
-1.2656330725023839   -0.6681711667260372   -0.12829721279941783
-1.2656330725023839   -0.6681711667260372   -0.12829721279941783
-1.2656330725023839   -0.6681711667260372   -0.12829721279941783
-1.0922711494609807   -0.23035057015204277   0.19448286231199627
-1.0922711494609807   -0.23035057015204277   0.19448286231199627
-1.0922711494609807   -0.23035057015204277   0.19448286231199627
-1.0922711494609807   -0.23035057015204277   0.19448286231199627
-1.495415736450589   -0.7528109290960336   -0.06175893871396468
-1.495415736450589   -0.7528109290960336   -0.06175893871396468
-1.495415736450589   -0.7528109290960336   -0.06175893871396468
-1.495415736450589   -0.7528109290960336   -0.06175893871396468
-1.312033178886931   -0.4557186359646339   -0.10257337751571574
-1.312033178886931   -0.4557186359646339   -0.10257337751571574
-1.312033178886931   -0.4557186359646339   -0.10257337751571574
-1.312033178886931   -0.4557186359646339   -0.10257337751571574
-1.0759403365241627   0.14936877976637353   0.2089929673499173
-1.0759403365241627   0.14936877976637353   0.2089929673499173
-1.0759403365241627   0.14936877976637353   0.2089929673499173
-1.0759403365241627   0.14936877976637353   0.2089929673499173
-0.6963800795518486   -0.18790966465990278   -0.06802398922032774
-0.6963800795518486   -0.18790966465990278   -0.06802398922032774
-0.6963800795518486   -0.18790966465990278   -0.06802398922032774
-0.6963800795518486   -0.18790966465990278   -0.06802398922032774
-0.6026822207494819   0.17908710668617567   0.20602562725779122
-0.6026822207494819   0.17908710668617567   0.20602562725779122
-0.6026822207494819   0.17908710668617567   0.20602562725779122
-0.6026822207494819   0.17908710668617567   0.20602562725779122
-1.1857106349149826   -0.2922904562635083   -0.0350428706238888
-1.1857106349149826   -0.2922904562635083   -0.0350428706238888
-1.1857106349149826   -0.2922904562635083   -0.0350428706238888
-1.1857106349149826   -0.2922904562635083   -0.0350428706238888
-0.8787194284809033   -0.01800458684491746   -0.03881538172012864
-0.8787194284809033   -0.01800458684491746   -0.03881538172012864
-0.8787194284809033   -0.01800458684491746   -0.03881538172012864
-0.8787194284809033   -0.01800458684491746   -0.03881538172012864
-1.0560613842945639   0.09282394480711703   0.22808898140758002
-1.0560613842945639   0.09282394480711703   0.22808898140758002
-1.0560613842945639   0.09282394480711703   0.22808898140758002
-1.0560613842945639   0.09282394480711703   0.22808898140758002
-0.7333980851460221   -0.20709390816058132   -0.061372679878152994
-0.7333980851460221   -0.20709390816058132   -0.061372679878152994
-0.7333980851460221   -0.20709390816058132   -0.061372679878152994
-0.7333980851460221   -0.20709390816058132   -0.061372679878152994
-0.6272690012510763   0.14268427491418106   0.2593702224504446
-0.6272690012510763   0.14268427491418106   0.2593702224504446
-0.6272690012510763   0.14268427491418106   0.2593702224504446
-0.6272690012510763   0.14268427491418106   0.2593702224504446
-1.1775948394243076   -0.3107459391648821   -0.0455312749701928
-1.1775948394243076   -0.3107459391648821   -0.0455312749701928
-1.1775948394243076   -0.3107459391648821   -0.0455312749701928
-1.1775948394243076   -0.3107459391648821   -0.0455312749701928
-0.9020551630666472   -0.05783347667194755   -0.05336821139969513
-0.9020551630666472   -0.05783347667194755   -0.05336821139969513
-0.9020551630666472   -0.05783347667194755   -0.05336821139969513
-0.9020551630666472   -0.05783347667194755   -0.05336821139969513
-1.0416906526334064   0.060478870092927156   0.2627648497265051
-1.0416906526334064   0.060478870092927156   0.2627648497265051
-1.0416906526334064   0.060478870092927156   0.2627648497265051
-1.0416906526334064   0.060478870092927156   0.2627648497265051
-0.7724745106984636   -0.2378418570001038   -0.08613119287220697
-0.7724745106984636   -0.2378418570001038   -0.08613119287220697
-0.7724745106984636   -0.2378418570001038   -0.08613119287220697
-0.7724745106984636   -0.2378418570001038   -0.08613119287220697
-0.7186717986222989   0.042691587817904164   0.26985472696158386
-0.7186717986222989   0.042691587817904164   0.26985472696158386
-0.7186717986222989   0.042691587817904164   0.26985472696158386
-0.7186717986222989   0.042691587817904164   0.26985472696158386
-1.1580775684154994   -0.3264566033131709   -0.038443199299469225
-1.1580775684154994   -0.3264566033131709   -0.038443199299469225
-1.1580775684154994   -0.3264566033131709   -0.038443199299469225
-1.1580775684154994   -0.3264566033131709   -0.038443199299469225
-0.9122678304118923   -0.08617018248298934   -0.07782046681263317
-0.9122678304118923   -0.08617018248298934   -0.07782046681263317
-0.9122678304118923   -0.08617018248298934   -0.07782046681263317
-0.9122678304118923   -0.08617018248298934   -0.07782046681263317
-11.283646034867301   -1.5894561374866838   -0.9316239672710813
-11.283646034867301   -1.5894561374866838   -0.9316239672710813
-11.283646034867301   -1.5894561374866838   -0.9316239672710813
-11.283646034867301   -1.5894561374866838   -0.9316239672710813
-3.903001214862101   -6.041421127738233   -0.7311596085723097
-3.903001214862101   -6.041421127738233   -0.7311596085723097
-3.903001214862101   -6.041421127738233   -0.7311596085723097
-3.903001214862101   -6.041421127738233   -0.7311596085723097
-3.03027219697853   -0.24971266344266657   0.005595183965816139
-3.03027219697853   -0.24971266344266657   0.005595183965816139
-3.03027219697853   -0.24971266344266657   0.005595183965816139
-3.03027219697853   -0.24971266344266657   0.005595183965816139
-12.02123202994937   -7.1222141918662185   -3.828689244363118
-12.02123202994937   -7.1222141918662185   -3.828689244363118
-12.02123202994937   -7.1222141918662185   -3.828689244363118
-12.02123202994937   -7.1222141918662185   -3.828689244363118
-7.371094548082007   -3.546129268119161   -0.5163457644574067
-7.371094548082007   -3.546129268119161   -0.5163457644574067
-7.371094548082007   -3.546129268119161   -0.5163457644574067
-7.371094548082007   -3.546129268119161   -0.5163457644574067
-10.48318143026837   -1.994619695382235   -1.2660307424421846
-10.48318143026837   -1.994619695382235   -1.2660307424421846
-10.48318143026837   -1.994619695382235   -1.2660307424421846
-10.48318143026837   -1.994619695382235   -1.2660307424421846
-4.210776713674373   -5.019761076941503   -1.1268789860145385
-4.210776713674373   -5.019761076941503   -1.1268789860145385
-4.210776713674373   -5.019761076941503   -1.1268789860145385
-4.210776713674373   -5.019761076941503   -1.1268789860145385
-3.08777303366804   -0.33593817987598484   0.11685121138653748
-3.08777303366804   -0.33593817987598484   0.11685121138653748
-3.08777303366804   -0.33593817987598484   0.11685121138653748
-3.08777303366804   -0.33593817987598484   0.11685121138653748
-11.246724883365054   -6.341954249713796   -3.5177358266157697
-11.246724883365054   -6.341954249713796   -3.5177358266157697
-11.246724883365054   -6.341954249713796   -3.5177358266157697
-11.246724883365054   -6.341954249713796   -3.5177358266157697
-6.9406252419310075   -3.1940126042122587   0.2837543789274324
-6.9406252419310075   -3.1940126042122587   0.2837543789274324
-6.9406252419310075   -3.1940126042122587   0.2837543789274324
-6.9406252419310075   -3.1940126042122587   0.2837543789274324
-9.842957768612164   -1.898763558045965   -0.9420909445192387
-9.842957768612164   -1.898763558045965   -0.9420909445192387
-9.842957768612164   -1.898763558045965   -0.9420909445192387
-9.842957768612164   -1.898763558045965   -0.9420909445192387
-4.094620252617128   -4.382208975740023   -0.871114087494834
-4.094620252617128   -4.382208975740023   -0.871114087494834
-4.094620252617128   -4.382208975740023   -0.871114087494834
-4.094620252617128   -4.382208975740023   -0.871114087494834
-3.5398230816260576   -0.8963940146113958   -0.18123907063020359
-3.5398230816260576   -0.8963940146113958   -0.18123907063020359
-3.5398230816260576   -0.8963940146113958   -0.18123907063020359
-3.5398230816260576   -0.8963940146113958   -0.18123907063020359
-10.249085385696933   -5.315556277510705   -3.112928332641528
-10.249085385696933   -5.315556277510705   -3.112928332641528
-10.249085385696933   -5.315556277510705   -3.112928332641528
-10.249085385696933   -5.315556277510705   -3.112928332641528
-6.42684249505545   -2.7663627050947506   1.1864967205728656
-6.42684249505545   -2.7663627050947506   1.1864967205728656
-6.42684249505545   -2.7663627050947506   1.1864967205728656
-6.42684249505545   -2.7663627050947506   1.1864967205728656
-2.907204850211256   -1.5614584158867872   -0.2321404971695532
-2.907204850211256   -1.5614584158867872   -0.2321404971695532
-2.907204850211256   -1.5614584158867872   -0.2321404971695532
-2.907204850211256   -1.5614584158867872   -0.2321404971695532
-1.3328219404029569   -1.8756194871303993   -0.3287781200828498
-1.3328219404029569   -1.8756194871303993   -0.3287781200828498
-1.3328219404029569   -1.8756194871303993   -0.3287781200828498
-1.3328219404029569   -1.8756194871303993   -0.3287781200828498
-1.1826933724913435   -0.9918816255130143   0.0314988778046382
-1.1826933724913435   -0.9918816255130143   0.0314988778046382
-1.1826933724913435   -0.9918816255130143   0.0314988778046382
-1.1826933724913435   -0.9918816255130143   0.0314988778046382
-3.5366278707311194   -2.7719126117010875   -0.003983236538684598
-3.5366278707311194   -2.7719126117010875   -0.003983236538684598
-3.5366278707311194   -2.7719126117010875   -0.003983236538684598
-3.5366278707311194   -2.7719126117010875   -0.003983236538684598
-1.9047884388995573   -1.3473497397743603   0.6062795499999121
-1.9047884388995573   -1.3473497397743603   0.6062795499999121
-1.9047884388995573   -1.3473497397743603   0.6062795499999121
-1.9047884388995573   -1.3473497397743603   0.6062795499999121
-3.3016233546702662   -1.4517850425806964   -0.1490882253548502
-3.3016233546702662   -1.4517850425806964   -0.1490882253548502
-3.3016233546702662   -1.4517850425806964   -0.1490882253548502
-3.3016233546702662   -1.4517850425806964   -0.1490882253548502
-1.5162636858596268   -2.410574991940837   -0.2176593226089245
-1.5162636858596268   -2.410574991940837   -0.2176593226089245
-1.5162636858596268   -2.410574991940837   -0.2176593226089245
-1.5162636858596268   -2.410574991940837   -0.2176593226089245
-1.2740498966899976   -1.028335173215204   0.031649679331074876
-1.2740498966899976   -1.028335173215204   0.031649679331074876
-1.2740498966899976   -1.028335173215204   0.031649679331074876
-1.2740498966899976   -1.028335173215204   0.031649679331074876
-3.7039725329492366   -2.7320987753451593   -0.5679856895502414
-3.7039725329492366   -2.7320987753451593   -0.5679856895502414
-3.7039725329492366   -2.7320987753451593   -0.5679856895502414
-3.7039725329492366   -2.7320987753451593   -0.5679856895502414
-2.264754977626089   -1.732296800650316   0.279878394926038
-2.264754977626089   -1.732296800650316   0.279878394926038
-2.264754977626089   -1.732296800650316   0.279878394926038
-2.264754977626089   -1.732296800650316   0.279878394926038
-3.402687039168537   -1.5159366139795947   -0.2777203820123393
-3.402687039168537   -1.5159366139795947   -0.2777203820123393
-3.402687039168537   -1.5159366139795947   -0.2777203820123393
-3.402687039168537   -1.5159366139795947   -0.2777203820123393
-1.5659665268655687   -2.2351284709756505   -0.22114017378636502
-1.5659665268655687   -2.2351284709756505   -0.22114017378636502
-1.5659665268655687   -2.2351284709756505   -0.22114017378636502
-1.5659665268655687   -2.2351284709756505   -0.22114017378636502
-1.4138562826543208   -1.0630400139542846   0.04647529367376907
-1.4138562826543208   -1.0630400139542846   0.04647529367376907
-1.4138562826543208   -1.0630400139542846   0.04647529367376907
-1.4138562826543208   -1.0630400139542846   0.04647529367376907
-3.9539750848370843   -2.65154153542157   -0.4968515658751332
-3.9539750848370843   -2.65154153542157   -0.4968515658751332
-3.9539750848370843   -2.65154153542157   -0.4968515658751332
-3.9539750848370843   -2.65154153542157   -0.4968515658751332
-2.3650467113766096   -1.6319458765488437   0.29675418748543575
-2.3650467113766096   -1.6319458765488437   0.29675418748543575
-2.3650467113766096   -1.6319458765488437   0.29675418748543575
-2.3650467113766096   -1.6319458765488437   0.29675418748543575
-1.0639898869121964   -0.9282110331521245   0.06797369339264636
-1.0639898869121964   -0.9282110331521245   0.06797369339264636
-1.0639898869121964   -0.9282110331521245   0.06797369339264636
-1.0639898869121964   -0.9282110331521245   0.06797369339264636
-0.640422132753727   -0.5673052467723716   -0.15961204941295326
-0.640422132753727   -0.5673052467723716   -0.15961204941295326
-0.640422132753727   -0.5673052467723716   -0.15961204941295326
-0.640422132753727   -0.5673052467723716   -0.15961204941295326
-0.6243745705755069   -0.8269725691758614   0.06930036298983464
-0.6243745705755069   -0.8269725691758614   0.06930036298983464
-0.6243745705755069   -0.8269725691758614   0.06930036298983464
-0.6243745705755069   -0.8269725691758614   0.06930036298983464
-1.164037093859457   -0.7893367510007034   -0.07776460354821027
-1.164037093859457   -0.7893367510007034   -0.07776460354821027
-1.164037093859457   -0.7893367510007034   -0.07776460354821027
-1.164037093859457   -0.7893367510007034   -0.07776460354821027
-0.7385943202708354   -0.6572379887207006   0.3032491975356686
-0.7385943202708354   -0.6572379887207006   0.3032491975356686
-0.7385943202708354   -0.6572379887207006   0.3032491975356686
-0.7385943202708354   -0.6572379887207006   0.3032491975356686
-1.1628606461514681   -0.9339780667423502   0.07275895073335167
-1.1628606461514681   -0.9339780667423502   0.07275895073335167
-1.1628606461514681   -0.9339780667423502   0.07275895073335167
-1.1628606461514681   -0.9339780667423502   0.07275895073335167
-0.6349520323130887   -0.6917322674638122   -0.11882724741012307
-0.6349520323130887   -0.6917322674638122   -0.11882724741012307
-0.6349520323130887   -0.6917322674638122   -0.11882724741012307
-0.6349520323130887   -0.6917322674638122   -0.11882724741012307
-0.628783731828548   -0.85187859929004   0.06119599875636447
-0.628783731828548   -0.85187859929004   0.06119599875636447
-0.628783731828548   -0.85187859929004   0.06119599875636447
-0.628783731828548   -0.85187859929004   0.06119599875636447
-1.2320442232883773   -0.923297245974626   0.13664011909856869
-1.2320442232883773   -0.923297245974626   0.13664011909856869
-1.2320442232883773   -0.923297245974626   0.13664011909856869
-1.2320442232883773   -0.923297245974626   0.13664011909856869
-0.7987955678387757   -0.7314562187269834   0.2594434767675458
-0.7987955678387757   -0.7314562187269834   0.2594434767675458
-0.7987955678387757   -0.7314562187269834   0.2594434767675458
-0.7987955678387757   -0.7314562187269834   0.2594434767675458
-1.2487104698146567   -0.9684173487833445   0.098428989275889
-1.2487104698146567   -0.9684173487833445   0.098428989275889
-1.2487104698146567   -0.9684173487833445   0.098428989275889
-1.2487104698146567   -0.9684173487833445   0.098428989275889
-0.6647184228772828   -0.8593594340563256   -0.11099662172102398
-0.6647184228772828   -0.8593594340563256   -0.11099662172102398
-0.6647184228772828   -0.8593594340563256   -0.11099662172102398
-0.6647184228772828   -0.8593594340563256   -0.11099662172102398
-0.6313101392920393   -0.8801269954104977   0.08559896745485335
-0.6313101392920393   -0.8801269954104977   0.08559896745485335
-0.6313101392920393   -0.8801269954104977   0.08559896745485335
-0.6313101392920393   -0.8801269954104977   0.08559896745485335
-1.4341388678080047   -1.1418572485576526   0.023879602508748266
-1.4341388678080047   -1.1418572485576526   0.023879602508748266
-1.4341388678080047   -1.1418572485576526   0.023879602508748266
-1.4341388678080047   -1.1418572485576526   0.023879602508748266
-0.8873362919128925   -0.8359722949224548   0.12615042907859675
-0.8873362919128925   -0.8359722949224548   0.12615042907859675
-0.8873362919128925   -0.8359722949224548   0.12615042907859675
-0.8873362919128925   -0.8359722949224548   0.12615042907859675
-0.5329708061220724   -0.3688635772856217   0.1792029142585695
-0.5329708061220724   -0.3688635772856217   0.1792029142585695
-0.5329708061220724   -0.3688635772856217   0.1792029142585695
-0.5329708061220724   -0.3688635772856217   0.1792029142585695
-0.3655438384356314   0.01717242921163517   -0.03531215353634603
-0.3655438384356314   0.01717242921163517   -0.03531215353634603
-0.3655438384356314   0.01717242921163517   -0.03531215353634603
-0.3655438384356314   0.01717242921163517   -0.03531215353634603
-0.3474897065392037   -0.39709702693413085   0.11164000091714249
-0.3474897065392037   -0.39709702693413085   0.11164000091714249
-0.3474897065392037   -0.39709702693413085   0.11164000091714249
-0.3474897065392037   -0.39709702693413085   0.11164000091714249
-0.4883005368232622   -0.05131279712701387   -0.025989240297788763
-0.4883005368232622   -0.05131279712701387   -0.025989240297788763
-0.4883005368232622   -0.05131279712701387   -0.025989240297788763
-0.4883005368232622   -0.05131279712701387   -0.025989240297788763
-0.4013415395402259   -0.19430489275607565   0.08893365317311303
-0.4013415395402259   -0.19430489275607565   0.08893365317311303
-0.4013415395402259   -0.19430489275607565   0.08893365317311303
-0.4013415395402259   -0.19430489275607565   0.08893365317311303
-0.5233219828285676   -0.42089444655474834   0.16848517910341887
-0.5233219828285676   -0.42089444655474834   0.16848517910341887
-0.5233219828285676   -0.42089444655474834   0.16848517910341887
-0.5233219828285676   -0.42089444655474834   0.16848517910341887
-0.3028183514794716   -0.017865468451969686   -0.04423478226635834
-0.3028183514794716   -0.017865468451969686   -0.04423478226635834
-0.3028183514794716   -0.017865468451969686   -0.04423478226635834
-0.3028183514794716   -0.017865468451969686   -0.04423478226635834
-0.3160231482375529   -0.43208675947202924   0.1025148992057295
-0.3160231482375529   -0.43208675947202924   0.1025148992057295
-0.3160231482375529   -0.43208675947202924   0.1025148992057295
-0.3160231482375529   -0.43208675947202924   0.1025148992057295
-0.4887667785201255   -0.11612840902732961   0.025530575035766268
-0.4887667785201255   -0.11612840902732961   0.025530575035766268
-0.4887667785201255   -0.11612840902732961   0.025530575035766268
-0.4887667785201255   -0.11612840902732961   0.025530575035766268
-0.3652171839226421   -0.2220695462925018   0.10797542988731262
-0.3652171839226421   -0.2220695462925018   0.10797542988731262
-0.3652171839226421   -0.2220695462925018   0.10797542988731262
-0.3652171839226421   -0.2220695462925018   0.10797542988731262
-0.5233576561548835   -0.4556392377747548   0.19208701560943253
-0.5233576561548835   -0.4556392377747548   0.19208701560943253
-0.5233576561548835   -0.4556392377747548   0.19208701560943253
-0.5233576561548835   -0.4556392377747548   0.19208701560943253
-0.28358177126886813   -0.09472543139067213   -0.07263954403220374
-0.28358177126886813   -0.09472543139067213   -0.07263954403220374
-0.28358177126886813   -0.09472543139067213   -0.07263954403220374
-0.28358177126886813   -0.09472543139067213   -0.07263954403220374
-0.2598740683110851   -0.4708885869255652   0.11231110399893517
-0.2598740683110851   -0.4708885869255652   0.11231110399893517
-0.2598740683110851   -0.4708885869255652   0.11231110399893517
-0.2598740683110851   -0.4708885869255652   0.11231110399893517
-0.5212250087700848   -0.2780636027146274   0.03396122736875547
-0.5212250087700848   -0.2780636027146274   0.03396122736875547
-0.5212250087700848   -0.2780636027146274   0.03396122736875547
-0.5212250087700848   -0.2780636027146274   0.03396122736875547
-0.34749921813087037   -0.28147873408423846   0.09576808428840054
-0.34749921813087037   -0.28147873408423846   0.09576808428840054
-0.34749921813087037   -0.28147873408423846   0.09576808428840054
-0.34749921813087037   -0.28147873408423846   0.09576808428840054
-0.33948196599344854   -0.06707609710576382   0.17924573499196694
-0.33948196599344854   -0.06707609710576382   0.17924573499196694
-0.33948196599344854   -0.06707609710576382   0.17924573499196694
-0.33948196599344854   -0.06707609710576382   0.17924573499196694
-0.05345257701482757   0.0428310950737672   -0.00361393977998372
-0.05345257701482757   0.0428310950737672   -0.00361393977998372
-0.05345257701482757   0.0428310950737672   -0.00361393977998372
-0.05345257701482757   0.0428310950737672   -0.00361393977998372
0.02703107668366958   -0.020714067528396975   0.11009736145307707
0.02703107668366958   -0.020714067528396975   0.11009736145307707
0.02703107668366958   -0.020714067528396975   0.11009736145307707
0.02703107668366958   -0.020714067528396975   0.11009736145307707
-0.2867858841374772   0.03421427875890544   -0.016152192767261143
-0.2867858841374772   0.03421427875890544   -0.016152192767261143
-0.2867858841374772   0.03421427875890544   -0.016152192767261143
-0.2867858841374772   0.03421427875890544   -0.016152192767261143
-0.1662940700412799   -0.011817029471612929   -0.0145657534986918
-0.1662940700412799   -0.011817029471612929   -0.0145657534986918
-0.1662940700412799   -0.011817029471612929   -0.0145657534986918
-0.1662940700412799   -0.011817029471612929   -0.0145657534986918
-0.2659989110420346   -0.06411678922531815   0.18611374069417536
-0.2659989110420346   -0.06411678922531815   0.18611374069417536
-0.2659989110420346   -0.06411678922531815   0.18611374069417536
-0.2659989110420346   -0.06411678922531815   0.18611374069417536
0.016534978130929502   0.08790787499852912   -0.05100507383754942
0.016534978130929502   0.08790787499852912   -0.05100507383754942
0.016534978130929502   0.08790787499852912   -0.05100507383754942
0.016534978130929502   0.08790787499852912   -0.05100507383754942
0.06922579372383918   -0.025168106287111303   0.13553725627051402
0.06922579372383918   -0.025168106287111303   0.13553725627051402
0.06922579372383918   -0.025168106287111303   0.13553725627051402
0.06922579372383918   -0.025168106287111303   0.13553725627051402
-0.24909813220711982   0.029142387172799877   -0.024089167286934055
-0.24909813220711982   0.029142387172799877   -0.024089167286934055
-0.24909813220711982   0.029142387172799877   -0.024089167286934055
-0.24909813220711982   0.029142387172799877   -0.024089167286934055
-0.1049902172272081   -0.001211268605881579   0.018339743414132977
-0.1049902172272081   -0.001211268605881579   0.018339743414132977
-0.1049902172272081   -0.001211268605881579   0.018339743414132977
-0.1049902172272081   -0.001211268605881579   0.018339743414132977
-0.22447005166024672   -0.0711466684116542   0.19934029103188544
-0.22447005166024672   -0.0711466684116542   0.19934029103188544
-0.22447005166024672   -0.0711466684116542   0.19934029103188544
-0.22447005166024672   -0.0711466684116542   0.19934029103188544
0.05413670515094021   0.08465994127131689   -0.04973623415240899
0.05413670515094021   0.08465994127131689   -0.04973623415240899
0.05413670515094021   0.08465994127131689   -0.04973623415240899
0.05413670515094021   0.08465994127131689   -0.04973623415240899
0.11372373568549192   -0.038200351116831205   0.1310367575812379
0.11372373568549192   -0.038200351116831205   0.1310367575812379
0.11372373568549192   -0.038200351116831205   0.1310367575812379
0.11372373568549192   -0.038200351116831205   0.1310367575812379
-0.18688233529017814   0.03394646061353008   -0.0275652784356253
-0.18688233529017814   0.03394646061353008   -0.0275652784356253
-0.18688233529017814   0.03394646061353008   -0.0275652784356253
-0.18688233529017814   0.03394646061353008   -0.0275652784356253
-0.04967347083588578   0.006335541295380772   0.048082640225803504
-0.04967347083588578   0.006335541295380772   0.048082640225803504
-0.04967347083588578   0.006335541295380772   0.048082640225803504
-0.04967347083588578   0.006335541295380772   0.048082640225803504
              </DataArray>   
             <DataArray type="Float64" NumberOfComponents="3" Name="Displacements" format="ascii">   
0.0   0.0   0.0
-0.03131769351637055   -0.020480176319486527   -0.010486931813646901
0.0   0.0   0.0
0.0   0.0   0.0
-0.03131769351637055   -0.020480176319486527   -0.010486931813646901
-0.019935343677492112   -0.01839267033338358   -0.0077040257704065335
0.0   0.0   0.0
-0.01954618666996784   -0.019319542033320543   -0.006452766654873042
0.0   0.0   0.0
0.0   0.0   0.0
-0.01954618666996784   -0.019319542033320543   -0.006452766654873042
0.0   0.0   0.0
0.0   0.0   0.0
-0.01954618666996784   -0.019319542033320543   -0.006452766654873042
-0.03278175457789484   -0.021821856749621896   -0.008417195659087898
-0.03131769351637055   -0.020480176319486527   -0.010486931813646901
0.0   0.0   0.0
-0.01954618666996784   -0.019319542033320543   -0.006452766654873042
-0.03131769351637055   -0.020480176319486527   -0.010486931813646901
0.0   0.0   0.0
0.0   0.0   0.0
-0.03278175457789484   -0.021821856749621896   -0.008417195659087898
0.0   0.0   0.0
0.0   0.0   0.0
-0.03278175457789484   -0.021821856749621896   -0.008417195659087898
-0.01954618666996784   -0.019319542033320543   -0.006452766654873042
0.0   0.0   0.0
-0.01960682469103009   -0.019793900781936002   -0.00520268127212404
0.0   0.0   0.0
0.0   0.0   0.0
-0.01960682469103009   -0.019793900781936002   -0.00520268127212404
0.0   0.0   0.0
0.0   0.0   0.0
-0.01960682469103009   -0.019793900781936002   -0.00520268127212404
-0.0338124818289716   -0.02247399141606007   -0.006432873401128115
-0.03278175457789484   -0.021821856749621896   -0.008417195659087898
0.0   0.0   0.0
-0.01960682469103009   -0.019793900781936002   -0.00520268127212404
-0.03278175457789484   -0.021821856749621896   -0.008417195659087898
0.0   0.0   0.0
0.0   0.0   0.0
-0.0338124818289716   -0.02247399141606007   -0.006432873401128115
0.0   0.0   0.0
0.0   0.0   0.0
-0.0338124818289716   -0.02247399141606007   -0.006432873401128115
-0.01960682469103009   -0.019793900781936002   -0.00520268127212404
0.0   0.0   0.0
-0.019602735085024282   -0.01991492251183929   -0.0039092925100990715
0.0   0.0   0.0
0.0   0.0   0.0
-0.019602735085024282   -0.01991492251183929   -0.0039092925100990715
0.0   0.0   0.0
0.0   0.0   0.0
-0.019602735085024282   -0.01991492251183929   -0.0039092925100990715
-0.03602747992956143   -0.022965714159530377   -0.004130000954821069
-0.0338124818289716   -0.02247399141606007   -0.006432873401128115
0.0   0.0   0.0
-0.019602735085024282   -0.01991492251183929   -0.0039092925100990715
-0.0338124818289716   -0.02247399141606007   -0.006432873401128115
0.0   0.0   0.0
0.0   0.0   0.0
-0.019935343677492112   -0.01839267033338358   -0.0077040257704065335
0.0   0.0   0.0
0.0   0.0   0.0
-0.019935343677492112   -0.01839267033338358   -0.0077040257704065335
-0.009072286408507298   -0.01762592340565076   -0.005857475540457025
0.0   0.0   0.0
-0.008730971183465124   -0.018229864355268   -0.005267432429013548
0.0   0.0   0.0
0.0   0.0   0.0
-0.008730971183465124   -0.018229864355268   -0.005267432429013548
0.0   0.0   0.0
0.0   0.0   0.0
-0.008730971183465124   -0.018229864355268   -0.005267432429013548
-0.01954618666996784   -0.019319542033320543   -0.006452766654873042
-0.019935343677492112   -0.01839267033338358   -0.0077040257704065335
0.0   0.0   0.0
-0.008730971183465124   -0.018229864355268   -0.005267432429013548
-0.019935343677492112   -0.01839267033338358   -0.0077040257704065335
0.0   0.0   0.0
0.0   0.0   0.0
-0.01954618666996784   -0.019319542033320543   -0.006452766654873042
0.0   0.0   0.0
0.0   0.0   0.0
-0.01954618666996784   -0.019319542033320543   -0.006452766654873042
-0.008730971183465124   -0.018229864355268   -0.005267432429013548
0.0   0.0   0.0
-0.008541532157742561   -0.018459838703517077   -0.004692178671563131
0.0   0.0   0.0
0.0   0.0   0.0
-0.008541532157742561   -0.018459838703517077   -0.004692178671563131
0.0   0.0   0.0
0.0   0.0   0.0
-0.008541532157742561   -0.018459838703517077   -0.004692178671563131
-0.01960682469103009   -0.019793900781936002   -0.00520268127212404
-0.01954618666996784   -0.019319542033320543   -0.006452766654873042
0.0   0.0   0.0
-0.008541532157742561   -0.018459838703517077   -0.004692178671563131
-0.01954618666996784   -0.019319542033320543   -0.006452766654873042
0.0   0.0   0.0
0.0   0.0   0.0
-0.01960682469103009   -0.019793900781936002   -0.00520268127212404
0.0   0.0   0.0
0.0   0.0   0.0
-0.01960682469103009   -0.019793900781936002   -0.00520268127212404
-0.008541532157742561   -0.018459838703517077   -0.004692178671563131
0.0   0.0   0.0
-0.00836994402037356   -0.01836337037806702   -0.004096824744450409
0.0   0.0   0.0
0.0   0.0   0.0
-0.00836994402037356   -0.01836337037806702   -0.004096824744450409
0.0   0.0   0.0
0.0   0.0   0.0
-0.00836994402037356   -0.01836337037806702   -0.004096824744450409
-0.019602735085024282   -0.01991492251183929   -0.0039092925100990715
-0.01960682469103009   -0.019793900781936002   -0.00520268127212404
0.0   0.0   0.0
-0.00836994402037356   -0.01836337037806702   -0.004096824744450409
-0.01960682469103009   -0.019793900781936002   -0.00520268127212404
0.0   0.0   0.0
0.0   0.0   0.0
-0.009072286408507298   -0.01762592340565076   -0.005857475540457025
0.0   0.0   0.0
0.0   0.0   0.0
-0.009072286408507298   -0.01762592340565076   -0.005857475540457025
0.001195974741325963   -0.017723303092153503   -0.004679278169780375
0.0   0.0   0.0
0.0014112794928184166   -0.018037053960652926   -0.004762512690660762
0.0   0.0   0.0
0.0   0.0   0.0
0.0014112794928184166   -0.018037053960652926   -0.004762512690660762
0.0   0.0   0.0
0.0   0.0   0.0
0.0014112794928184166   -0.018037053960652926   -0.004762512690660762
-0.008730971183465124   -0.018229864355268   -0.005267432429013548
-0.009072286408507298   -0.01762592340565076   -0.005857475540457025
0.0   0.0   0.0
0.0014112794928184166   -0.018037053960652926   -0.004762512690660762
-0.009072286408507298   -0.01762592340565076   -0.005857475540457025
0.0   0.0   0.0
0.0   0.0   0.0
-0.008730971183465124   -0.018229864355268   -0.005267432429013548
0.0   0.0   0.0
0.0   0.0   0.0
-0.008730971183465124   -0.018229864355268   -0.005267432429013548
0.0014112794928184166   -0.018037053960652926   -0.004762512690660762
0.0   0.0   0.0
0.00158048279927854   -0.018011672696984494   -0.004837163829007127
0.0   0.0   0.0
0.0   0.0   0.0
0.00158048279927854   -0.018011672696984494   -0.004837163829007127
0.0   0.0   0.0
0.0   0.0   0.0
0.00158048279927854   -0.018011672696984494   -0.004837163829007127
-0.008541532157742561   -0.018459838703517077   -0.004692178671563131
-0.008730971183465124   -0.018229864355268   -0.005267432429013548
0.0   0.0   0.0
0.00158048279927854   -0.018011672696984494   -0.004837163829007127
-0.008730971183465124   -0.018229864355268   -0.005267432429013548
0.0   0.0   0.0
0.0   0.0   0.0
-0.008541532157742561   -0.018459838703517077   -0.004692178671563131
0.0   0.0   0.0
0.0   0.0   0.0
-0.008541532157742561   -0.018459838703517077   -0.004692178671563131
0.00158048279927854   -0.018011672696984494   -0.004837163829007127
0.0   0.0   0.0
0.0018099771673482142   -0.017619240775892556   -0.004913242705218662
0.0   0.0   0.0
0.0   0.0   0.0
0.0018099771673482142   -0.017619240775892556   -0.004913242705218662
0.0   0.0   0.0
0.0   0.0   0.0
0.0018099771673482142   -0.017619240775892556   -0.004913242705218662
-0.00836994402037356   -0.01836337037806702   -0.004096824744450409
-0.008541532157742561   -0.018459838703517077   -0.004692178671563131
0.0   0.0   0.0
0.0018099771673482142   -0.017619240775892556   -0.004913242705218662
-0.008541532157742561   -0.018459838703517077   -0.004692178671563131
0.0   0.0   0.0
0.0   0.0   0.0
0.001195974741325963   -0.017723303092153503   -0.004679278169780375
0.0   0.0   0.0
0.0   0.0   0.0
0.001195974741325963   -0.017723303092153503   -0.004679278169780375
0.012337325409301207   -0.01859151101285339   -0.004094637977843144
0.0   0.0   0.0
0.01235214767165013   -0.018692500436345343   -0.004886261140978728
0.0   0.0   0.0
0.0   0.0   0.0
0.01235214767165013   -0.018692500436345343   -0.004886261140978728
0.0   0.0   0.0
0.0   0.0   0.0
0.01235214767165013   -0.018692500436345343   -0.004886261140978728
0.0014112794928184166   -0.018037053960652926   -0.004762512690660762
0.001195974741325963   -0.017723303092153503   -0.004679278169780375
0.0   0.0   0.0
0.01235214767165013   -0.018692500436345343   -0.004886261140978728
0.001195974741325963   -0.017723303092153503   -0.004679278169780375
0.0   0.0   0.0
0.0   0.0   0.0
0.0014112794928184166   -0.018037053960652926   -0.004762512690660762
0.0   0.0   0.0
0.0   0.0   0.0
0.0014112794928184166   -0.018037053960652926   -0.004762512690660762
0.01235214767165013   -0.018692500436345343   -0.004886261140978728
0.0   0.0   0.0
0.012293113144712   -0.018425527610799502   -0.005644946385506021
0.0   0.0   0.0
0.0   0.0   0.0
0.012293113144712   -0.018425527610799502   -0.005644946385506021
0.0   0.0   0.0
0.0   0.0   0.0
0.012293113144712   -0.018425527610799502   -0.005644946385506021
0.00158048279927854   -0.018011672696984494   -0.004837163829007127
0.0014112794928184166   -0.018037053960652926   -0.004762512690660762
0.0   0.0   0.0
0.012293113144712   -0.018425527610799502   -0.005644946385506021
0.0014112794928184166   -0.018037053960652926   -0.004762512690660762
0.0   0.0   0.0
0.0   0.0   0.0
0.00158048279927854   -0.018011672696984494   -0.004837163829007127
0.0   0.0   0.0
0.0   0.0   0.0
0.00158048279927854   -0.018011672696984494   -0.004837163829007127
0.012293113144712   -0.018425527610799502   -0.005644946385506021
0.0   0.0   0.0
0.012525301650977401   -0.01770822636622129   -0.006388603326047299
0.0   0.0   0.0
0.0   0.0   0.0
0.012525301650977401   -0.01770822636622129   -0.006388603326047299
0.0   0.0   0.0
0.0   0.0   0.0
0.012525301650977401   -0.01770822636622129   -0.006388603326047299
0.0018099771673482142   -0.017619240775892556   -0.004913242705218662
0.00158048279927854   -0.018011672696984494   -0.004837163829007127
0.0   0.0   0.0
0.012525301650977401   -0.01770822636622129   -0.006388603326047299
0.00158048279927854   -0.018011672696984494   -0.004837163829007127
0.0   0.0   0.0
0.0   0.0   0.0
0.012337325409301207   -0.01859151101285339   -0.004094637977843144
0.0   0.0   0.0
0.0   0.0   0.0
0.012337325409301207   -0.01859151101285339   -0.004094637977843144
0.02781565102941152   -0.020789541930898388   -0.0038585941180312496
0.0   0.0   0.0
0.02611414254733176   -0.020564929939573633   -0.005651265485054053
0.0   0.0   0.0
0.0   0.0   0.0
0.02611414254733176   -0.020564929939573633   -0.005651265485054053
0.0   0.0   0.0
0.0   0.0   0.0
0.02611414254733176   -0.020564929939573633   -0.005651265485054053
0.01235214767165013   -0.018692500436345343   -0.004886261140978728
0.012337325409301207   -0.01859151101285339   -0.004094637977843144
0.0   0.0   0.0
0.02611414254733176   -0.020564929939573633   -0.005651265485054053
0.012337325409301207   -0.01859151101285339   -0.004094637977843144
0.0   0.0   0.0
0.0   0.0   0.0
0.01235214767165013   -0.018692500436345343   -0.004886261140978728
0.0   0.0   0.0
0.0   0.0   0.0
0.01235214767165013   -0.018692500436345343   -0.004886261140978728
0.02611414254733176   -0.020564929939573633   -0.005651265485054053
0.0   0.0   0.0
0.025326739158243645   -0.020137306571983083   -0.007166618685519496
0.0   0.0   0.0
0.0   0.0   0.0
0.025326739158243645   -0.020137306571983083   -0.007166618685519496
0.0   0.0   0.0
0.0   0.0   0.0
0.025326739158243645   -0.020137306571983083   -0.007166618685519496
0.012293113144712   -0.018425527610799502   -0.005644946385506021
0.01235214767165013   -0.018692500436345343   -0.004886261140978728
0.0   0.0   0.0
0.025326739158243645   -0.020137306571983083   -0.007166618685519496
0.01235214767165013   -0.018692500436345343   -0.004886261140978728
0.0   0.0   0.0
0.0   0.0   0.0
0.012293113144712   -0.018425527610799502   -0.005644946385506021
0.0   0.0   0.0
0.0   0.0   0.0
0.012293113144712   -0.018425527610799502   -0.005644946385506021
0.025326739158243645   -0.020137306571983083   -0.007166618685519496
0.0   0.0   0.0
0.02415880296350248   -0.019041312703127488   -0.008768910658527583
0.0   0.0   0.0
0.0   0.0   0.0
0.02415880296350248   -0.019041312703127488   -0.008768910658527583
0.0   0.0   0.0
0.0   0.0   0.0
0.02415880296350248   -0.019041312703127488   -0.008768910658527583
0.012525301650977401   -0.01770822636622129   -0.006388603326047299
0.012293113144712   -0.018425527610799502   -0.005644946385506021
0.0   0.0   0.0
0.02415880296350248   -0.019041312703127488   -0.008768910658527583
0.012293113144712   -0.018425527610799502   -0.005644946385506021
0.0   0.0   0.0
-0.03131769351637055   -0.020480176319486527   -0.010486931813646901
-0.058544790280478966   -0.05726625079080737   -0.014126218038571902
-0.019935343677492112   -0.01839267033338358   -0.0077040257704065335
-0.03278175457789484   -0.021821856749621896   -0.008417195659087898
-0.058544790280478966   -0.05726625079080737   -0.014126218038571902
-0.03736917219511978   -0.05538701096241192   -0.01162240042333355
-0.019935343677492112   -0.01839267033338358   -0.0077040257704065335
-0.037421701233157245   -0.056336322560294826   -0.010463788675965488
-0.03278175457789484   -0.021821856749621896   -0.008417195659087898
-0.01954618666996784   -0.019319542033320543   -0.006452766654873042
-0.037421701233157245   -0.056336322560294826   -0.010463788675965488
-0.019935343677492112   -0.01839267033338358   -0.0077040257704065335
-0.03278175457789484   -0.021821856749621896   -0.008417195659087898
-0.037421701233157245   -0.056336322560294826   -0.010463788675965488
-0.060309961591239206   -0.05859003449484083   -0.012243558557253049
-0.058544790280478966   -0.05726625079080737   -0.014126218038571902
-0.03278175457789484   -0.021821856749621896   -0.008417195659087898
-0.037421701233157245   -0.056336322560294826   -0.010463788675965488
-0.058544790280478966   -0.05726625079080737   -0.014126218038571902
-0.019935343677492112   -0.01839267033338358   -0.0077040257704065335
-0.03278175457789484   -0.021821856749621896   -0.008417195659087898
-0.060309961591239206   -0.05859003449484083   -0.012243558557253049
-0.01954618666996784   -0.019319542033320543   -0.006452766654873042
-0.0338124818289716   -0.02247399141606007   -0.006432873401128115
-0.060309961591239206   -0.05859003449484083   -0.012243558557253049
-0.037421701233157245   -0.056336322560294826   -0.010463788675965488
-0.01954618666996784   -0.019319542033320543   -0.006452766654873042
-0.03757808892885146   -0.05691426450810367   -0.009349865516211192
-0.0338124818289716   -0.02247399141606007   -0.006432873401128115
-0.01960682469103009   -0.019793900781936002   -0.00520268127212404
-0.03757808892885146   -0.05691426450810367   -0.009349865516211192
-0.01954618666996784   -0.019319542033320543   -0.006452766654873042
-0.0338124818289716   -0.02247399141606007   -0.006432873401128115
-0.03757808892885146   -0.05691426450810367   -0.009349865516211192
-0.061539925050764895   -0.059336916229401446   -0.010399360962822358
-0.060309961591239206   -0.05859003449484083   -0.012243558557253049
-0.0338124818289716   -0.02247399141606007   -0.006432873401128115
-0.03757808892885146   -0.05691426450810367   -0.009349865516211192
-0.060309961591239206   -0.05859003449484083   -0.012243558557253049
-0.01954618666996784   -0.019319542033320543   -0.006452766654873042
-0.0338124818289716   -0.02247399141606007   -0.006432873401128115
-0.061539925050764895   -0.059336916229401446   -0.010399360962822358
-0.01960682469103009   -0.019793900781936002   -0.00520268127212404
-0.03602747992956143   -0.022965714159530377   -0.004130000954821069
-0.061539925050764895   -0.059336916229401446   -0.010399360962822358
-0.03757808892885146   -0.05691426450810367   -0.009349865516211192
-0.01960682469103009   -0.019793900781936002   -0.00520268127212404
-0.037475475740158734   -0.05721290536007999   -0.008306651480343697
-0.03602747992956143   -0.022965714159530377   -0.004130000954821069
-0.019602735085024282   -0.01991492251183929   -0.0039092925100990715
-0.037475475740158734   -0.05721290536007999   -0.008306651480343697
-0.01960682469103009   -0.019793900781936002   -0.00520268127212404
-0.03602747992956143   -0.022965714159530377   -0.004130000954821069
-0.037475475740158734   -0.05721290536007999   -0.008306651480343697
-0.06299407686016584   -0.05976892551207415   -0.008720276114429016
-0.061539925050764895   -0.059336916229401446   -0.010399360962822358
-0.03602747992956143   -0.022965714159530377   -0.004130000954821069
-0.037475475740158734   -0.05721290536007999   -0.008306651480343697
-0.061539925050764895   -0.059336916229401446   -0.010399360962822358
-0.01960682469103009   -0.019793900781936002   -0.00520268127212404
-0.019935343677492112   -0.01839267033338358   -0.0077040257704065335
-0.03736917219511978   -0.05538701096241192   -0.01162240042333355
-0.009072286408507298   -0.01762592340565076   -0.005857475540457025
-0.01954618666996784   -0.019319542033320543   -0.006452766654873042
-0.03736917219511978   -0.05538701096241192   -0.01162240042333355
-0.017324669797792704   -0.0545126339089756   -0.00991243152252614
-0.009072286408507298   -0.01762592340565076   -0.005857475540457025
-0.017183761783725913   -0.05511755167001902   -0.009319491167180368
-0.01954618666996784   -0.019319542033320543   -0.006452766654873042
-0.008730971183465124   -0.018229864355268   -0.005267432429013548
-0.017183761783725913   -0.05511755167001902   -0.009319491167180368
-0.009072286408507298   -0.01762592340565076   -0.005857475540457025
-0.01954618666996784   -0.019319542033320543   -0.006452766654873042
-0.017183761783725913   -0.05511755167001902   -0.009319491167180368
-0.037421701233157245   -0.056336322560294826   -0.010463788675965488
-0.03736917219511978   -0.05538701096241192   -0.01162240042333355
-0.01954618666996784   -0.019319542033320543   -0.006452766654873042
-0.017183761783725913   -0.05511755167001902   -0.009319491167180368
-0.03736917219511978   -0.05538701096241192   -0.01162240042333355
-0.009072286408507298   -0.01762592340565076   -0.005857475540457025
-0.01954618666996784   -0.019319542033320543   -0.006452766654873042
-0.037421701233157245   -0.056336322560294826   -0.010463788675965488
-0.008730971183465124   -0.018229864355268   -0.005267432429013548
-0.01960682469103009   -0.019793900781936002   -0.00520268127212404
-0.037421701233157245   -0.056336322560294826   -0.010463788675965488
-0.017183761783725913   -0.05511755167001902   -0.009319491167180368
-0.008730971183465124   -0.018229864355268   -0.005267432429013548
-0.01705985847411231   -0.055410649999415446   -0.00878161576027826
-0.01960682469103009   -0.019793900781936002   -0.00520268127212404
-0.008541532157742561   -0.018459838703517077   -0.004692178671563131
-0.01705985847411231   -0.055410649999415446   -0.00878161576027826
-0.008730971183465124   -0.018229864355268   -0.005267432429013548
-0.01960682469103009   -0.019793900781936002   -0.00520268127212404
-0.01705985847411231   -0.055410649999415446   -0.00878161576027826
-0.03757808892885146   -0.05691426450810367   -0.009349865516211192
-0.037421701233157245   -0.056336322560294826   -0.010463788675965488
-0.01960682469103009   -0.019793900781936002   -0.00520268127212404
-0.01705985847411231   -0.055410649999415446   -0.00878161576027826
-0.037421701233157245   -0.056336322560294826   -0.010463788675965488
-0.008730971183465124   -0.018229864355268   -0.005267432429013548
-0.01960682469103009   -0.019793900781936002   -0.00520268127212404
-0.03757808892885146   -0.05691426450810367   -0.009349865516211192
-0.008541532157742561   -0.018459838703517077   -0.004692178671563131
-0.019602735085024282   -0.01991492251183929   -0.0039092925100990715
-0.03757808892885146   -0.05691426450810367   -0.009349865516211192
-0.01705985847411231   -0.055410649999415446   -0.00878161576027826
-0.008541532157742561   -0.018459838703517077   -0.004692178671563131
-0.01687096536699189   -0.05540299876752937   -0.00831290123269422
-0.019602735085024282   -0.01991492251183929   -0.0039092925100990715
-0.00836994402037356   -0.01836337037806702   -0.004096824744450409
-0.01687096536699189   -0.05540299876752937   -0.00831290123269422
-0.008541532157742561   -0.018459838703517077   -0.004692178671563131
-0.019602735085024282   -0.01991492251183929   -0.0039092925100990715
-0.01687096536699189   -0.05540299876752937   -0.00831290123269422
-0.037475475740158734   -0.05721290536007999   -0.008306651480343697
-0.03757808892885146   -0.05691426450810367   -0.009349865516211192
-0.019602735085024282   -0.01991492251183929   -0.0039092925100990715
-0.01687096536699189   -0.05540299876752937   -0.00831290123269422
-0.03757808892885146   -0.05691426450810367   -0.009349865516211192
-0.008541532157742561   -0.018459838703517077   -0.004692178671563131
-0.009072286408507298   -0.01762592340565076   -0.005857475540457025
-0.017324669797792704   -0.0545126339089756   -0.00991243152252614
0.001195974741325963   -0.017723303092153503   -0.004679278169780375
-0.008730971183465124   -0.018229864355268   -0.005267432429013548
-0.017324669797792704   -0.0545126339089756   -0.00991243152252614
0.002009774430272345   -0.05453815407454803   -0.008829560637715646
0.001195974741325963   -0.017723303092153503   -0.004679278169780375
0.0021844584520179593   -0.054825863941569825   -0.008791882296435584
-0.008730971183465124   -0.018229864355268   -0.005267432429013548
0.0014112794928184166   -0.018037053960652926   -0.004762512690660762
0.0021844584520179593   -0.054825863941569825   -0.008791882296435584
0.001195974741325963   -0.017723303092153503   -0.004679278169780375
-0.008730971183465124   -0.018229864355268   -0.005267432429013548
0.0021844584520179593   -0.054825863941569825   -0.008791882296435584
-0.017183761783725913   -0.05511755167001902   -0.009319491167180368
-0.017324669797792704   -0.0545126339089756   -0.00991243152252614
-0.008730971183465124   -0.018229864355268   -0.005267432429013548
0.0021844584520179593   -0.054825863941569825   -0.008791882296435584
-0.017324669797792704   -0.0545126339089756   -0.00991243152252614
0.001195974741325963   -0.017723303092153503   -0.004679278169780375
-0.008730971183465124   -0.018229864355268   -0.005267432429013548
-0.017183761783725913   -0.05511755167001902   -0.009319491167180368
0.0014112794928184166   -0.018037053960652926   -0.004762512690660762
-0.008541532157742561   -0.018459838703517077   -0.004692178671563131
-0.017183761783725913   -0.05511755167001902   -0.009319491167180368
0.0021844584520179593   -0.054825863941569825   -0.008791882296435584
0.0014112794928184166   -0.018037053960652926   -0.004762512690660762
0.0022992779508624835   -0.05480909368103956   -0.008816734377112048
-0.008541532157742561   -0.018459838703517077   -0.004692178671563131
0.00158048279927854   -0.018011672696984494   -0.004837163829007127
0.0022992779508624835   -0.05480909368103956   -0.008816734377112048
0.0014112794928184166   -0.018037053960652926   -0.004762512690660762
-0.008541532157742561   -0.018459838703517077   -0.004692178671563131
0.0022992779508624835   -0.05480909368103956   -0.008816734377112048
-0.01705985847411231   -0.055410649999415446   -0.00878161576027826
-0.017183761783725913   -0.05511755167001902   -0.009319491167180368
-0.008541532157742561   -0.018459838703517077   -0.004692178671563131
0.0022992779508624835   -0.05480909368103956   -0.008816734377112048
-0.017183761783725913   -0.05511755167001902   -0.009319491167180368
0.0014112794928184166   -0.018037053960652926   -0.004762512690660762
-0.008541532157742561   -0.018459838703517077   -0.004692178671563131
-0.01705985847411231   -0.055410649999415446   -0.00878161576027826
0.00158048279927854   -0.018011672696984494   -0.004837163829007127
-0.00836994402037356   -0.01836337037806702   -0.004096824744450409
-0.01705985847411231   -0.055410649999415446   -0.00878161576027826
0.0022992779508624835   -0.05480909368103956   -0.008816734377112048
0.00158048279927854   -0.018011672696984494   -0.004837163829007127
0.002423099898170479   -0.054478510229534816   -0.00890511640757872
-0.00836994402037356   -0.01836337037806702   -0.004096824744450409
0.0018099771673482142   -0.017619240775892556   -0.004913242705218662
0.002423099898170479   -0.054478510229534816   -0.00890511640757872
0.00158048279927854   -0.018011672696984494   -0.004837163829007127
-0.00836994402037356   -0.01836337037806702   -0.004096824744450409
0.002423099898170479   -0.054478510229534816   -0.00890511640757872
-0.01687096536699189   -0.05540299876752937   -0.00831290123269422
-0.01705985847411231   -0.055410649999415446   -0.00878161576027826
-0.00836994402037356   -0.01836337037806702   -0.004096824744450409
0.002423099898170479   -0.054478510229534816   -0.00890511640757872
-0.01705985847411231   -0.055410649999415446   -0.00878161576027826
0.00158048279927854   -0.018011672696984494   -0.004837163829007127
0.001195974741325963   -0.017723303092153503   -0.004679278169780375
0.002009774430272345   -0.05453815407454803   -0.008829560637715646
0.012337325409301207   -0.01859151101285339   -0.004094637977843144
0.0014112794928184166   -0.018037053960652926   -0.004762512690660762
0.002009774430272345   -0.05453815407454803   -0.008829560637715646
0.022494120647829203   -0.05543092184017493   -0.0083216269114287
0.012337325409301207   -0.01859151101285339   -0.004094637977843144
0.022588188081183676   -0.05543077556799028   -0.008857276344725244
0.0014112794928184166   -0.018037053960652926   -0.004762512690660762
0.01235214767165013   -0.018692500436345343   -0.004886261140978728
0.022588188081183676   -0.05543077556799028   -0.008857276344725244
0.012337325409301207   -0.01859151101285339   -0.004094637977843144
0.0014112794928184166   -0.018037053960652926   -0.004762512690660762
0.022588188081183676   -0.05543077556799028   -0.008857276344725244
0.0021844584520179593   -0.054825863941569825   -0.008791882296435584
0.002009774430272345   -0.05453815407454803   -0.008829560637715646
0.0014112794928184166   -0.018037053960652926   -0.004762512690660762
0.022588188081183676   -0.05543077556799028   -0.008857276344725244
0.002009774430272345   -0.05453815407454803   -0.008829560637715646
0.012337325409301207   -0.01859151101285339   -0.004094637977843144
0.0014112794928184166   -0.018037053960652926   -0.004762512690660762
0.0021844584520179593   -0.054825863941569825   -0.008791882296435584
0.01235214767165013   -0.018692500436345343   -0.004886261140978728
0.00158048279927854   -0.018011672696984494   -0.004837163829007127
0.0021844584520179593   -0.054825863941569825   -0.008791882296435584
0.022588188081183676   -0.05543077556799028   -0.008857276344725244
0.01235214767165013   -0.018692500436345343   -0.004886261140978728
0.022474342988622945   -0.055131811804816216   -0.009463679255868166
0.00158048279927854   -0.018011672696984494   -0.004837163829007127
0.012293113144712   -0.018425527610799502   -0.005644946385506021
0.022474342988622945   -0.055131811804816216   -0.009463679255868166
0.01235214767165013   -0.018692500436345343   -0.004886261140978728
0.00158048279927854   -0.018011672696984494   -0.004837163829007127
0.022474342988622945   -0.055131811804816216   -0.009463679255868166
0.0022992779508624835   -0.05480909368103956   -0.008816734377112048
0.0021844584520179593   -0.054825863941569825   -0.008791882296435584
0.00158048279927854   -0.018011672696984494   -0.004837163829007127
0.022474342988622945   -0.055131811804816216   -0.009463679255868166
0.0021844584520179593   -0.054825863941569825   -0.008791882296435584
0.01235214767165013   -0.018692500436345343   -0.004886261140978728
0.00158048279927854   -0.018011672696984494   -0.004837163829007127
0.0022992779508624835   -0.05480909368103956   -0.008816734377112048
0.012293113144712   -0.018425527610799502   -0.005644946385506021
0.0018099771673482142   -0.017619240775892556   -0.004913242705218662
0.0022992779508624835   -0.05480909368103956   -0.008816734377112048
0.022474342988622945   -0.055131811804816216   -0.009463679255868166
0.012293113144712   -0.018425527610799502   -0.005644946385506021
0.022405669423133656   -0.05445190978734677   -0.010118432115805796
0.0018099771673482142   -0.017619240775892556   -0.004913242705218662
0.012525301650977401   -0.01770822636622129   -0.006388603326047299
0.022405669423133656   -0.05445190978734677   -0.010118432115805796
0.012293113144712   -0.018425527610799502   -0.005644946385506021
0.0018099771673482142   -0.017619240775892556   -0.004913242705218662
0.022405669423133656   -0.05445190978734677   -0.010118432115805796
0.002423099898170479   -0.054478510229534816   -0.00890511640757872
0.0022992779508624835   -0.05480909368103956   -0.008816734377112048
0.0018099771673482142   -0.017619240775892556   -0.004913242705218662
0.022405669423133656   -0.05445190978734677   -0.010118432115805796
0.0022992779508624835   -0.05480909368103956   -0.008816734377112048
0.012293113144712   -0.018425527610799502   -0.005644946385506021
0.012337325409301207   -0.01859151101285339   -0.004094637977843144
0.022494120647829203   -0.05543092184017493   -0.0083216269114287
0.02781565102941152   -0.020789541930898388   -0.0038585941180312496
0.01235214767165013   -0.018692500436345343   -0.004886261140978728
0.022494120647829203   -0.05543092184017493   -0.0083216269114287
0.04720060996046793   -0.057092028830539404   -0.008179526481743093
0.02781565102941152   -0.020789541930898388   -0.0038585941180312496
0.04622645709860892   -0.056939475826088465   -0.009383332646052418
0.01235214767165013   -0.018692500436345343   -0.004886261140978728
0.02611414254733176   -0.020564929939573633   -0.005651265485054053
0.04622645709860892   -0.056939475826088465   -0.009383332646052418
0.02781565102941152   -0.020789541930898388   -0.0038585941180312496
0.01235214767165013   -0.018692500436345343   -0.004886261140978728
0.04622645709860892   -0.056939475826088465   -0.009383332646052418
0.022588188081183676   -0.05543077556799028   -0.008857276344725244
0.022494120647829203   -0.05543092184017493   -0.0083216269114287
0.01235214767165013   -0.018692500436345343   -0.004886261140978728
0.04622645709860892   -0.056939475826088465   -0.009383332646052418
0.022494120647829203   -0.05543092184017493   -0.0083216269114287
0.02781565102941152   -0.020789541930898388   -0.0038585941180312496
0.01235214767165013   -0.018692500436345343   -0.004886261140978728
0.022588188081183676   -0.05543077556799028   -0.008857276344725244
0.02611414254733176   -0.020564929939573633   -0.005651265485054053
0.012293113144712   -0.018425527610799502   -0.005644946385506021
0.022588188081183676   -0.05543077556799028   -0.008857276344725244
0.04622645709860892   -0.056939475826088465   -0.009383332646052418
0.02611414254733176   -0.020564929939573633   -0.005651265485054053
0.04535705759534521   -0.05647806902999975   -0.010736120240901805
0.012293113144712   -0.018425527610799502   -0.005644946385506021
0.025326739158243645   -0.020137306571983083   -0.007166618685519496
0.04535705759534521   -0.05647806902999975   -0.010736120240901805
0.02611414254733176   -0.020564929939573633   -0.005651265485054053
0.012293113144712   -0.018425527610799502   -0.005644946385506021
0.04535705759534521   -0.05647806902999975   -0.010736120240901805
0.022474342988622945   -0.055131811804816216   -0.009463679255868166
0.022588188081183676   -0.05543077556799028   -0.008857276344725244
0.012293113144712   -0.018425527610799502   -0.005644946385506021
0.04535705759534521   -0.05647806902999975   -0.010736120240901805
0.022588188081183676   -0.05543077556799028   -0.008857276344725244
0.02611414254733176   -0.020564929939573633   -0.005651265485054053
0.012293113144712   -0.018425527610799502   -0.005644946385506021
0.022474342988622945   -0.055131811804816216   -0.009463679255868166
0.025326739158243645   -0.020137306571983083   -0.007166618685519496
0.012525301650977401   -0.01770822636622129   -0.006388603326047299
0.022474342988622945   -0.055131811804816216   -0.009463679255868166
0.04535705759534521   -0.05647806902999975   -0.010736120240901805
0.025326739158243645   -0.020137306571983083   -0.007166618685519496
0.04406019537768248   -0.05544843682801444   -0.012143428791720692
0.012525301650977401   -0.01770822636622129   -0.006388603326047299
0.02415880296350248   -0.019041312703127488   -0.008768910658527583
0.04406019537768248   -0.05544843682801444   -0.012143428791720692
0.025326739158243645   -0.020137306571983083   -0.007166618685519496
0.012525301650977401   -0.01770822636622129   -0.006388603326047299
0.04406019537768248   -0.05544843682801444   -0.012143428791720692
0.022405669423133656   -0.05445190978734677   -0.010118432115805796
0.022474342988622945   -0.055131811804816216   -0.009463679255868166
0.012525301650977401   -0.01770822636622129   -0.006388603326047299
0.04406019537768248   -0.05544843682801444   -0.012143428791720692
0.022474342988622945   -0.055131811804816216   -0.009463679255868166
0.025326739158243645   -0.020137306571983083   -0.007166618685519496
-0.058544790280478966   -0.05726625079080737   -0.014126218038571902
-0.08027850837193194   -0.10752675816086622   -0.01608246828576641
-0.03736917219511978   -0.05538701096241192   -0.01162240042333355
-0.060309961591239206   -0.05859003449484083   -0.012243558557253049
-0.08027850837193194   -0.10752675816086622   -0.01608246828576641
-0.05160677435529395   -0.1060884965530279   -0.014047925702226469
-0.03736917219511978   -0.05538701096241192   -0.01162240042333355
-0.05173002552410799   -0.10690922323525683   -0.013147742292979575
-0.060309961591239206   -0.05859003449484083   -0.012243558557253049
-0.037421701233157245   -0.056336322560294826   -0.010463788675965488
-0.05173002552410799   -0.10690922323525683   -0.013147742292979575
-0.03736917219511978   -0.05538701096241192   -0.01162240042333355
-0.060309961591239206   -0.05859003449484083   -0.012243558557253049
-0.05173002552410799   -0.10690922323525683   -0.013147742292979575
-0.08171989458799532   -0.10864784422952772   -0.014675529953574651
-0.08027850837193194   -0.10752675816086622   -0.01608246828576641
-0.060309961591239206   -0.05859003449484083   -0.012243558557253049
-0.05173002552410799   -0.10690922323525683   -0.013147742292979575
-0.08027850837193194   -0.10752675816086622   -0.01608246828576641
-0.03736917219511978   -0.05538701096241192   -0.01162240042333355
-0.060309961591239206   -0.05859003449484083   -0.012243558557253049
-0.08171989458799532   -0.10864784422952772   -0.014675529953574651
-0.037421701233157245   -0.056336322560294826   -0.010463788675965488
-0.061539925050764895   -0.059336916229401446   -0.010399360962822358
-0.08171989458799532   -0.10864784422952772   -0.014675529953574651
-0.05173002552410799   -0.10690922323525683   -0.013147742292979575
-0.037421701233157245   -0.056336322560294826   -0.010463788675965488
-0.05187393170184409   -0.10747959944656703   -0.012312340826271069
-0.061539925050764895   -0.059336916229401446   -0.010399360962822358
-0.03757808892885146   -0.05691426450810367   -0.009349865516211192
-0.05187393170184409   -0.10747959944656703   -0.012312340826271069
-0.037421701233157245   -0.056336322560294826   -0.010463788675965488
-0.061539925050764895   -0.059336916229401446   -0.010399360962822358
-0.05187393170184409   -0.10747959944656703   -0.012312340826271069
-0.08263319599136423   -0.1093499665692555   -0.013363588189524976
-0.08171989458799532   -0.10864784422952772   -0.014675529953574651
-0.061539925050764895   -0.059336916229401446   -0.010399360962822358
-0.05187393170184409   -0.10747959944656703   -0.012312340826271069
-0.08171989458799532   -0.10864784422952772   -0.014675529953574651
-0.037421701233157245   -0.056336322560294826   -0.010463788675965488
-0.061539925050764895   -0.059336916229401446   -0.010399360962822358
-0.08263319599136423   -0.1093499665692555   -0.013363588189524976
-0.03757808892885146   -0.05691426450810367   -0.009349865516211192
-0.06299407686016584   -0.05976892551207415   -0.008720276114429016
-0.08263319599136423   -0.1093499665692555   -0.013363588189524976
-0.05187393170184409   -0.10747959944656703   -0.012312340826271069
-0.03757808892885146   -0.05691426450810367   -0.009349865516211192
-0.05178737428565592   -0.10785366302601088   -0.011527944509283027
-0.06299407686016584   -0.05976892551207415   -0.008720276114429016
-0.037475475740158734   -0.05721290536007999   -0.008306651480343697
-0.05178737428565592   -0.10785366302601088   -0.011527944509283027
-0.03757808892885146   -0.05691426450810367   -0.009349865516211192
-0.06299407686016584   -0.05976892551207415   -0.008720276114429016
-0.05178737428565592   -0.10785366302601088   -0.011527944509283027
-0.08367235590140347   -0.10985298831097462   -0.012155517828701409
-0.08263319599136423   -0.1093499665692555   -0.013363588189524976
-0.06299407686016584   -0.05976892551207415   -0.008720276114429016
-0.05178737428565592   -0.10785366302601088   -0.011527944509283027
-0.08263319599136423   -0.1093499665692555   -0.013363588189524976
-0.03757808892885146   -0.05691426450810367   -0.009349865516211192
-0.03736917219511978   -0.05538701096241192   -0.01162240042333355
-0.05160677435529395   -0.1060884965530279   -0.014047925702226469
-0.017324669797792704   -0.0545126339089756   -0.00991243152252614
-0.037421701233157245   -0.056336322560294826   -0.010463788675965488
-0.05160677435529395   -0.1060884965530279   -0.014047925702226469
-0.024559321346573442   -0.10537221634996738   -0.012633990722182407
-0.017324669797792704   -0.0545126339089756   -0.00991243152252614
-0.024507863370091542   -0.10589772971685703   -0.012126205903273839
-0.037421701233157245   -0.056336322560294826   -0.010463788675965488
-0.017183761783725913   -0.05511755167001902   -0.009319491167180368
-0.024507863370091542   -0.10589772971685703   -0.012126205903273839
-0.017324669797792704   -0.0545126339089756   -0.00991243152252614
-0.037421701233157245   -0.056336322560294826   -0.010463788675965488
-0.024507863370091542   -0.10589772971685703   -0.012126205903273839
-0.05173002552410799   -0.10690922323525683   -0.013147742292979575
-0.05160677435529395   -0.1060884965530279   -0.014047925702226469
-0.037421701233157245   -0.056336322560294826   -0.010463788675965488
-0.024507863370091542   -0.10589772971685703   -0.012126205903273839
-0.05160677435529395   -0.1060884965530279   -0.014047925702226469
-0.017324669797792704   -0.0545126339089756   -0.00991243152252614
-0.037421701233157245   -0.056336322560294826   -0.010463788675965488
-0.05173002552410799   -0.10690922323525683   -0.013147742292979575
-0.017183761783725913   -0.05511755167001902   -0.009319491167180368
-0.03757808892885146   -0.05691426450810367   -0.009349865516211192
-0.05173002552410799   -0.10690922323525683   -0.013147742292979575
-0.024507863370091542   -0.10589772971685703   -0.012126205903273839
-0.017183761783725913   -0.05511755167001902   -0.009319491167180368
-0.0244425114724028   -0.10620611054229287   -0.011680169939817102
-0.03757808892885146   -0.05691426450810367   -0.009349865516211192
-0.01705985847411231   -0.055410649999415446   -0.00878161576027826
-0.0244425114724028   -0.10620611054229287   -0.011680169939817102
-0.017183761783725913   -0.05511755167001902   -0.009319491167180368
-0.03757808892885146   -0.05691426450810367   -0.009349865516211192
-0.0244425114724028   -0.10620611054229287   -0.011680169939817102
-0.05187393170184409   -0.10747959944656703   -0.012312340826271069
-0.05173002552410799   -0.10690922323525683   -0.013147742292979575
-0.03757808892885146   -0.05691426450810367   -0.009349865516211192
-0.0244425114724028   -0.10620611054229287   -0.011680169939817102
-0.05173002552410799   -0.10690922323525683   -0.013147742292979575
-0.017183761783725913   -0.05511755167001902   -0.009319491167180368
-0.03757808892885146   -0.05691426450810367   -0.009349865516211192
-0.05187393170184409   -0.10747959944656703   -0.012312340826271069
-0.01705985847411231   -0.055410649999415446   -0.00878161576027826
-0.037475475740158734   -0.05721290536007999   -0.008306651480343697
-0.05187393170184409   -0.10747959944656703   -0.012312340826271069
-0.0244425114724028   -0.10620611054229287   -0.011680169939817102
-0.01705985847411231   -0.055410649999415446   -0.00878161576027826
-0.024328797108959986   -0.10630176954731109   -0.011295670260650596
-0.037475475740158734   -0.05721290536007999   -0.008306651480343697
-0.01687096536699189   -0.05540299876752937   -0.00831290123269422
-0.024328797108959986   -0.10630176954731109   -0.011295670260650596
-0.01705985847411231   -0.055410649999415446   -0.00878161576027826
-0.037475475740158734   -0.05721290536007999   -0.008306651480343697
-0.024328797108959986   -0.10630176954731109   -0.011295670260650596
-0.05178737428565592   -0.10785366302601088   -0.011527944509283027
-0.05187393170184409   -0.10747959944656703   -0.012312340826271069
-0.037475475740158734   -0.05721290536007999   -0.008306651480343697
-0.024328797108959986   -0.10630176954731109   -0.011295670260650596
-0.05187393170184409   -0.10747959944656703   -0.012312340826271069
-0.01705985847411231   -0.055410649999415446   -0.00878161576027826
-0.017324669797792704   -0.0545126339089756   -0.00991243152252614
-0.024559321346573442   -0.10537221634996738   -0.012633990722182407
0.002009774430272345   -0.05453815407454803   -0.008829560637715646
-0.017183761783725913   -0.05511755167001902   -0.009319491167180368
-0.024559321346573442   -0.10537221634996738   -0.012633990722182407
0.0016980397305420335   -0.10533425437694675   -0.011755464540928042
0.002009774430272345   -0.05453815407454803   -0.008829560637715646
0.0018007523513716365   -0.10556942665763722   -0.011637912184929154
-0.017183761783725913   -0.05511755167001902   -0.009319491167180368
0.0021844584520179593   -0.054825863941569825   -0.008791882296435584
0.0018007523513716365   -0.10556942665763722   -0.011637912184929154
0.002009774430272345   -0.05453815407454803   -0.008829560637715646
-0.017183761783725913   -0.05511755167001902   -0.009319491167180368
0.0018007523513716365   -0.10556942665763722   -0.011637912184929154
-0.024507863370091542   -0.10589772971685703   -0.012126205903273839
-0.024559321346573442   -0.10537221634996738   -0.012633990722182407
-0.017183761783725913   -0.05511755167001902   -0.009319491167180368
0.0018007523513716365   -0.10556942665763722   -0.011637912184929154
-0.024559321346573442   -0.10537221634996738   -0.012633990722182407
0.002009774430272345   -0.05453815407454803   -0.008829560637715646
-0.017183761783725913   -0.05511755167001902   -0.009319491167180368
-0.024507863370091542   -0.10589772971685703   -0.012126205903273839
0.0021844584520179593   -0.054825863941569825   -0.008791882296435584
-0.01705985847411231   -0.055410649999415446   -0.00878161576027826
-0.024507863370091542   -0.10589772971685703   -0.012126205903273839
0.0018007523513716365   -0.10556942665763722   -0.011637912184929154
0.0021844584520179593   -0.054825863941569825   -0.008791882296435584
0.0018630166522533534   -0.10558835765877228   -0.011580462070946576
-0.01705985847411231   -0.055410649999415446   -0.00878161576027826
0.0022992779508624835   -0.05480909368103956   -0.008816734377112048
0.0018630166522533534   -0.10558835765877228   -0.011580462070946576
0.0021844584520179593   -0.054825863941569825   -0.008791882296435584
-0.01705985847411231   -0.055410649999415446   -0.00878161576027826
0.0018630166522533534   -0.10558835765877228   -0.011580462070946576
-0.0244425114724028   -0.10620611054229287   -0.011680169939817102
-0.024507863370091542   -0.10589772971685703   -0.012126205903273839
-0.01705985847411231   -0.055410649999415446   -0.00878161576027826
0.0018630166522533534   -0.10558835765877228   -0.011580462070946576
-0.024507863370091542   -0.10589772971685703   -0.012126205903273839
0.0021844584520179593   -0.054825863941569825   -0.008791882296435584
-0.01705985847411231   -0.055410649999415446   -0.00878161576027826
-0.0244425114724028   -0.10620611054229287   -0.011680169939817102
0.0022992779508624835   -0.05480909368103956   -0.008816734377112048
-0.01687096536699189   -0.05540299876752937   -0.00831290123269422
-0.0244425114724028   -0.10620611054229287   -0.011680169939817102
0.0018630166522533534   -0.10558835765877228   -0.011580462070946576
0.0022992779508624835   -0.05480909368103956   -0.008816734377112048
0.0019051642025931688   -0.10538781002781193   -0.011586804370689416
-0.01687096536699189   -0.05540299876752937   -0.00831290123269422
0.002423099898170479   -0.054478510229534816   -0.00890511640757872
0.0019051642025931688   -0.10538781002781193   -0.011586804370689416
0.0022992779508624835   -0.05480909368103956   -0.008816734377112048
-0.01687096536699189   -0.05540299876752937   -0.00831290123269422
0.0019051642025931688   -0.10538781002781193   -0.011586804370689416
-0.024328797108959986   -0.10630176954731109   -0.011295670260650596
-0.0244425114724028   -0.10620611054229287   -0.011680169939817102
-0.01687096536699189   -0.05540299876752937   -0.00831290123269422
0.0019051642025931688   -0.10538781002781193   -0.011586804370689416
-0.0244425114724028   -0.10620611054229287   -0.011680169939817102
0.0022992779508624835   -0.05480909368103956   -0.008816734377112048
0.002009774430272345   -0.05453815407454803   -0.008829560637715646
0.0016980397305420335   -0.10533425437694675   -0.011755464540928042
0.022494120647829203   -0.05543092184017493   -0.0083216269114287
0.0021844584520179593   -0.054825863941569825   -0.008791882296435584
0.0016980397305420335   -0.10533425437694675   -0.011755464540928042
0.02907326118460478   -0.10593437936146986   -0.011397047718219313
0.022494120647829203   -0.05543092184017493   -0.0083216269114287
0.02916070920809951   -0.10590377454453798   -0.011677912049454713
0.0021844584520179593   -0.054825863941569825   -0.008791882296435584
0.022588188081183676   -0.05543077556799028   -0.008857276344725244
0.02916070920809951   -0.10590377454453798   -0.011677912049454713
0.022494120647829203   -0.05543092184017493   -0.0083216269114287
0.0021844584520179593   -0.054825863941569825   -0.008791882296435584
0.02916070920809951   -0.10590377454453798   -0.011677912049454713
0.0018007523513716365   -0.10556942665763722   -0.011637912184929154
0.0016980397305420335   -0.10533425437694675   -0.011755464540928042
0.0021844584520179593   -0.054825863941569825   -0.008791882296435584
0.02916070920809951   -0.10590377454453798   -0.011677912049454713
0.0016980397305420335   -0.10533425437694675   -0.011755464540928042
0.022494120647829203   -0.05543092184017493   -0.0083216269114287
0.0021844584520179593   -0.054825863941569825   -0.008791882296435584
0.0018007523513716365   -0.10556942665763722   -0.011637912184929154
0.022588188081183676   -0.05543077556799028   -0.008857276344725244
0.0022992779508624835   -0.05480909368103956   -0.008816734377112048
0.0018007523513716365   -0.10556942665763722   -0.011637912184929154
0.02916070920809951   -0.10590377454453798   -0.011677912049454713
0.022588188081183676   -0.05543077556799028   -0.008857276344725244
0.029075622720146733   -0.10566124048046321   -0.012014462197132529
0.0022992779508624835   -0.05480909368103956   -0.008816734377112048
0.022474342988622945   -0.055131811804816216   -0.009463679255868166
0.029075622720146733   -0.10566124048046321   -0.012014462197132529
0.022588188081183676   -0.05543077556799028   -0.008857276344725244
0.0022992779508624835   -0.05480909368103956   -0.008816734377112048
0.029075622720146733   -0.10566124048046321   -0.012014462197132529
0.0018630166522533534   -0.10558835765877228   -0.011580462070946576
0.0018007523513716365   -0.10556942665763722   -0.011637912184929154
0.0022992779508624835   -0.05480909368103956   -0.008816734377112048
0.029075622720146733   -0.10566124048046321   -0.012014462197132529
0.0018007523513716365   -0.10556942665763722   -0.011637912184929154
0.022588188081183676   -0.05543077556799028   -0.008857276344725244
0.0022992779508624835   -0.05480909368103956   -0.008816734377112048
0.0018630166522533534   -0.10558835765877228   -0.011580462070946576
0.022474342988622945   -0.055131811804816216   -0.009463679255868166
0.002423099898170479   -0.054478510229534816   -0.00890511640757872
0.0018630166522533534   -0.10558835765877228   -0.011580462070946576
0.029075622720146733   -0.10566124048046321   -0.012014462197132529
0.022474342988622945   -0.055131811804816216   -0.009463679255868166
0.028954472569846058   -0.1051546612993509   -0.012413265470735544
0.002423099898170479   -0.054478510229534816   -0.00890511640757872
0.022405669423133656   -0.05445190978734677   -0.010118432115805796
0.028954472569846058   -0.1051546612993509   -0.012413265470735544
0.022474342988622945   -0.055131811804816216   -0.009463679255868166
0.002423099898170479   -0.054478510229534816   -0.00890511640757872
0.028954472569846058   -0.1051546612993509   -0.012413265470735544
0.0019051642025931688   -0.10538781002781193   -0.011586804370689416
0.0018630166522533534   -0.10558835765877228   -0.011580462070946576
0.002423099898170479   -0.054478510229534816   -0.00890511640757872
0.028954472569846058   -0.1051546612993509   -0.012413265470735544
0.0018630166522533534   -0.10558835765877228   -0.011580462070946576
0.022474342988622945   -0.055131811804816216   -0.009463679255868166
0.022494120647829203   -0.05543092184017493   -0.0083216269114287
0.02907326118460478   -0.10593437936146986   -0.011397047718219313
0.04720060996046793   -0.057092028830539404   -0.008179526481743093
0.022588188081183676   -0.05543077556799028   -0.008857276344725244
0.02907326118460478   -0.10593437936146986   -0.011397047718219313
0.060243714815971454   -0.10702507504922289   -0.011396571950828256
0.04720060996046793   -0.057092028830539404   -0.008179526481743093
0.0597034613878345   -0.1068418739366796   -0.012128192720653713
0.022588188081183676   -0.05543077556799028   -0.008857276344725244
0.04622645709860892   -0.056939475826088465   -0.009383332646052418
0.0597034613878345   -0.1068418739366796   -0.012128192720653713
0.04720060996046793   -0.057092028830539404   -0.008179526481743093
0.022588188081183676   -0.05543077556799028   -0.008857276344725244
0.0597034613878345   -0.1068418739366796   -0.012128192720653713
0.02916070920809951   -0.10590377454453798   -0.011677912049454713
0.02907326118460478   -0.10593437936146986   -0.011397047718219313
0.022588188081183676   -0.05543077556799028   -0.008857276344725244
0.0597034613878345   -0.1068418739366796   -0.012128192720653713
0.02907326118460478   -0.10593437936146986   -0.011397047718219313
0.04720060996046793   -0.057092028830539404   -0.008179526481743093
0.022588188081183676   -0.05543077556799028   -0.008857276344725244
0.02916070920809951   -0.10590377454453798   -0.011677912049454713
0.04622645709860892   -0.056939475826088465   -0.009383332646052418
0.022474342988622945   -0.055131811804816216   -0.009463679255868166
0.02916070920809951   -0.10590377454453798   -0.011677912049454713
0.0597034613878345   -0.1068418739366796   -0.012128192720653713
0.04622645709860892   -0.056939475826088465   -0.009383332646052418
0.05916644965978118   -0.10646782625774333   -0.012960220542504784
0.022474342988622945   -0.055131811804816216   -0.009463679255868166
0.04535705759534521   -0.05647806902999975   -0.010736120240901805
0.05916644965978118   -0.10646782625774333   -0.012960220542504784
0.04622645709860892   -0.056939475826088465   -0.009383332646052418
0.022474342988622945   -0.055131811804816216   -0.009463679255868166
0.05916644965978118   -0.10646782625774333   -0.012960220542504784
0.029075622720146733   -0.10566124048046321   -0.012014462197132529
0.02916070920809951   -0.10590377454453798   -0.011677912049454713
0.022474342988622945   -0.055131811804816216   -0.009463679255868166
0.05916644965978118   -0.10646782625774333   -0.012960220542504784
0.02916070920809951   -0.10590377454453798   -0.011677912049454713
0.04622645709860892   -0.056939475826088465   -0.009383332646052418
0.022474342988622945   -0.055131811804816216   -0.009463679255868166
0.029075622720146733   -0.10566124048046321   -0.012014462197132529
0.04535705759534521   -0.05647806902999975   -0.010736120240901805
0.022405669423133656   -0.05445190978734677   -0.010118432115805796
0.029075622720146733   -0.10566124048046321   -0.012014462197132529
0.05916644965978118   -0.10646782625774333   -0.012960220542504784
0.04535705759534521   -0.05647806902999975   -0.010736120240901805
0.058222844043122446   -0.1056797979646687   -0.013892758335628782
0.022405669423133656   -0.05445190978734677   -0.010118432115805796
0.04406019537768248   -0.05544843682801444   -0.012143428791720692
0.058222844043122446   -0.1056797979646687   -0.013892758335628782
0.04535705759534521   -0.05647806902999975   -0.010736120240901805
0.022405669423133656   -0.05445190978734677   -0.010118432115805796
0.058222844043122446   -0.1056797979646687   -0.013892758335628782
0.028954472569846058   -0.1051546612993509   -0.012413265470735544
0.029075622720146733   -0.10566124048046321   -0.012014462197132529
0.022405669423133656   -0.05445190978734677   -0.010118432115805796
0.058222844043122446   -0.1056797979646687   -0.013892758335628782
0.029075622720146733   -0.10566124048046321   -0.012014462197132529
0.04535705759534521   -0.05647806902999975   -0.010736120240901805
-0.08027850837193194   -0.10752675816086622   -0.01608246828576641
-0.09593439476242974   -0.16719943878925536   -0.017141637945017194
-0.05160677435529395   -0.1060884965530279   -0.014047925702226469
-0.08171989458799532   -0.10864784422952772   -0.014675529953574651
-0.09593439476242974   -0.16719943878925536   -0.017141637945017194
-0.06225224918879767   -0.16628234610099135   -0.015479452531408363
-0.05160677435529395   -0.1060884965530279   -0.014047925702226469
-0.0623370371553945   -0.16698966882052066   -0.01483412533535364
-0.08171989458799532   -0.10864784422952772   -0.014675529953574651
-0.05173002552410799   -0.10690922323525683   -0.013147742292979575
-0.0623370371553945   -0.16698966882052066   -0.01483412533535364
-0.05160677435529395   -0.1060884965530279   -0.014047925702226469
-0.08171989458799532   -0.10864784422952772   -0.014675529953574651
-0.0623370371553945   -0.16698966882052066   -0.01483412533535364
-0.09691099486861005   -0.16815586925223802   -0.01620498389833542
-0.09593439476242974   -0.16719943878925536   -0.017141637945017194
-0.08171989458799532   -0.10864784422952772   -0.014675529953574651
-0.0623370371553945   -0.16698966882052066   -0.01483412533535364
-0.09593439476242974   -0.16719943878925536   -0.017141637945017194
-0.05160677435529395   -0.1060884965530279   -0.014047925702226469
-0.08171989458799532   -0.10864784422952772   -0.014675529953574651
-0.09691099486861005   -0.16815586925223802   -0.01620498389833542
-0.05173002552410799   -0.10690922323525683   -0.013147742292979575
-0.08263319599136423   -0.1093499665692555   -0.013363588189524976
-0.09691099486861005   -0.16815586925223802   -0.01620498389833542
-0.0623370371553945   -0.16698966882052066   -0.01483412533535364
-0.05173002552410799   -0.10690922323525683   -0.013147742292979575
-0.06240069600140601   -0.16754961305615423   -0.014252932024970416
-0.08263319599136423   -0.1093499665692555   -0.013363588189524976
-0.05187393170184409   -0.10747959944656703   -0.012312340826271069
-0.06240069600140601   -0.16754961305615423   -0.014252932024970416
-0.05173002552410799   -0.10690922323525683   -0.013147742292979575
-0.08263319599136423   -0.1093499665692555   -0.013363588189524976
-0.06240069600140601   -0.16754961305615423   -0.014252932024970416
-0.0974762464326261   -0.1688315841112007   -0.015357788147722193
-0.09691099486861005   -0.16815586925223802   -0.01620498389833542
-0.08263319599136423   -0.1093499665692555   -0.013363588189524976
-0.06240069600140601   -0.16754961305615423   -0.014252932024970416
-0.09691099486861005   -0.16815586925223802   -0.01620498389833542
-0.05173002552410799   -0.10690922323525683   -0.013147742292979575
-0.08263319599136423   -0.1093499665692555   -0.013363588189524976
-0.0974762464326261   -0.1688315841112007   -0.015357788147722193
-0.05187393170184409   -0.10747959944656703   -0.012312340826271069
-0.08367235590140347   -0.10985298831097462   -0.012155517828701409
-0.0974762464326261   -0.1688315841112007   -0.015357788147722193
-0.06240069600140601   -0.16754961305615423   -0.014252932024970416
-0.05187393170184409   -0.10747959944656703   -0.012312340826271069
-0.06228161715965009   -0.16800852572420027   -0.013727409358752786
-0.08367235590140347   -0.10985298831097462   -0.012155517828701409
-0.05178737428565592   -0.10785366302601088   -0.011527944509283027
-0.06228161715965009   -0.16800852572420027   -0.013727409358752786
-0.05187393170184409   -0.10747959944656703   -0.012312340826271069
-0.08367235590140347   -0.10985298831097462   -0.012155517828701409
-0.06228161715965009   -0.16800852572420027   -0.013727409358752786
-0.09805930329964711   -0.16943562285505537   -0.014610627182289232
-0.0974762464326261   -0.1688315841112007   -0.015357788147722193
-0.08367235590140347   -0.10985298831097462   -0.012155517828701409
-0.06228161715965009   -0.16800852572420027   -0.013727409358752786
-0.0974762464326261   -0.1688315841112007   -0.015357788147722193
-0.05187393170184409   -0.10747959944656703   -0.012312340826271069
-0.05160677435529395   -0.1060884965530279   -0.014047925702226469
-0.06225224918879767   -0.16628234610099135   -0.015479452531408363
-0.024559321346573442   -0.10537221634996738   -0.012633990722182407
-0.05173002552410799   -0.10690922323525683   -0.013147742292979575
-0.06225224918879767   -0.16628234610099135   -0.015479452531408363
-0.030667852123712938   -0.16580963570741084   -0.014328180270923748
-0.024559321346573442   -0.10537221634996738   -0.012633990722182407
-0.030619220839951534   -0.16625417097456638   -0.013903235875054095
-0.05173002552410799   -0.10690922323525683   -0.013147742292979575
-0.024507863370091542   -0.10589772971685703   -0.012126205903273839
-0.030619220839951534   -0.16625417097456638   -0.013903235875054095
-0.024559321346573442   -0.10537221634996738   -0.012633990722182407
-0.05173002552410799   -0.10690922323525683   -0.013147742292979575
-0.030619220839951534   -0.16625417097456638   -0.013903235875054095
-0.0623370371553945   -0.16698966882052066   -0.01483412533535364
-0.06225224918879767   -0.16628234610099135   -0.015479452531408363
-0.05173002552410799   -0.10690922323525683   -0.013147742292979575
-0.030619220839951534   -0.16625417097456638   -0.013903235875054095
-0.06225224918879767   -0.16628234610099135   -0.015479452531408363
-0.024559321346573442   -0.10537221634996738   -0.012633990722182407
-0.05173002552410799   -0.10690922323525683   -0.013147742292979575
-0.0623370371553945   -0.16698966882052066   -0.01483412533535364
-0.024507863370091542   -0.10589772971685703   -0.012126205903273839
-0.05187393170184409   -0.10747959944656703   -0.012312340826271069
-0.0623370371553945   -0.16698966882052066   -0.01483412533535364
-0.030619220839951534   -0.16625417097456638   -0.013903235875054095
-0.024507863370091542   -0.10589772971685703   -0.012126205903273839
-0.030549135469566297   -0.16657529115941447   -0.01354151079699567
-0.05187393170184409   -0.10747959944656703   -0.012312340826271069
-0.0244425114724028   -0.10620611054229287   -0.011680169939817102
-0.030549135469566297   -0.16657529115941447   -0.01354151079699567
-0.024507863370091542   -0.10589772971685703   -0.012126205903273839
-0.05187393170184409   -0.10747959944656703   -0.012312340826271069
-0.030549135469566297   -0.16657529115941447   -0.01354151079699567
-0.06240069600140601   -0.16754961305615423   -0.014252932024970416
-0.0623370371553945   -0.16698966882052066   -0.01483412533535364
-0.05187393170184409   -0.10747959944656703   -0.012312340826271069
-0.030549135469566297   -0.16657529115941447   -0.01354151079699567
-0.0623370371553945   -0.16698966882052066   -0.01483412533535364
-0.024507863370091542   -0.10589772971685703   -0.012126205903273839
-0.05187393170184409   -0.10747959944656703   -0.012312340826271069
-0.06240069600140601   -0.16754961305615423   -0.014252932024970416
-0.0244425114724028   -0.10620611054229287   -0.011680169939817102
-0.05178737428565592   -0.10785366302601088   -0.011527944509283027
-0.06240069600140601   -0.16754961305615423   -0.014252932024970416
-0.030549135469566297   -0.16657529115941447   -0.01354151079699567
-0.0244425114724028   -0.10620611054229287   -0.011680169939817102
-0.030439988158223494   -0.16677509086183417   -0.013244016832091164
-0.05178737428565592   -0.10785366302601088   -0.011527944509283027
-0.024328797108959986   -0.10630176954731109   -0.011295670260650596
-0.030439988158223494   -0.16677509086183417   -0.013244016832091164
-0.0244425114724028   -0.10620611054229287   -0.011680169939817102
-0.05178737428565592   -0.10785366302601088   -0.011527944509283027
-0.030439988158223494   -0.16677509086183417   -0.013244016832091164
-0.06228161715965009   -0.16800852572420027   -0.013727409358752786
-0.06240069600140601   -0.16754961305615423   -0.014252932024970416
-0.05178737428565592   -0.10785366302601088   -0.011527944509283027
-0.030439988158223494   -0.16677509086183417   -0.013244016832091164
-0.06240069600140601   -0.16754961305615423   -0.014252932024970416
-0.0244425114724028   -0.10620611054229287   -0.011680169939817102
-0.024559321346573442   -0.10537221634996738   -0.012633990722182407
-0.030667852123712938   -0.16580963570741084   -0.014328180270923748
0.0016980397305420335   -0.10533425437694675   -0.011755464540928042
-0.024507863370091542   -0.10589772971685703   -0.012126205903273839
-0.030667852123712938   -0.16580963570741084   -0.014328180270923748
6.122121301311888e-05   -0.165729142335275   -0.013655704565110591
0.0016980397305420335   -0.10533425437694675   -0.011755464540928042
0.00016106357217452233   -0.1659097725958402   -0.013452738825414746
-0.024507863370091542   -0.10589772971685703   -0.012126205903273839
0.0018007523513716365   -0.10556942665763722   -0.011637912184929154
0.00016106357217452233   -0.1659097725958402   -0.013452738825414746
0.0016980397305420335   -0.10533425437694675   -0.011755464540928042
-0.024507863370091542   -0.10589772971685703   -0.012126205903273839
0.00016106357217452233   -0.1659097725958402   -0.013452738825414746
-0.030619220839951534   -0.16625417097456638   -0.013903235875054095
-0.030667852123712938   -0.16580963570741084   -0.014328180270923748
-0.024507863370091542   -0.10589772971685703   -0.012126205903273839
0.00016106357217452233   -0.1659097725958402   -0.013452738825414746
-0.030667852123712938   -0.16580963570741084   -0.014328180270923748
0.0016980397305420335   -0.10533425437694675   -0.011755464540928042
-0.024507863370091542   -0.10589772971685703   -0.012126205903273839
-0.030619220839951534   -0.16625417097456638   -0.013903235875054095
0.0018007523513716365   -0.10556942665763722   -0.011637912184929154
-0.0244425114724028   -0.10620611054229287   -0.011680169939817102
-0.030619220839951534   -0.16625417097456638   -0.013903235875054095
0.00016106357217452233   -0.1659097725958402   -0.013452738825414746
0.0018007523513716365   -0.10556942665763722   -0.011637912184929154
0.00022937228751173804   -0.16596614896106293   -0.013312156713383524
-0.0244425114724028   -0.10620611054229287   -0.011680169939817102
0.0018630166522533534   -0.10558835765877228   -0.011580462070946576
0.00022937228751173804   -0.16596614896106293   -0.013312156713383524
0.0018007523513716365   -0.10556942665763722   -0.011637912184929154
-0.0244425114724028   -0.10620611054229287   -0.011680169939817102
0.00022937228751173804   -0.16596614896106293   -0.013312156713383524
-0.030549135469566297   -0.16657529115941447   -0.01354151079699567
-0.030619220839951534   -0.16625417097456638   -0.013903235875054095
-0.0244425114724028   -0.10620611054229287   -0.011680169939817102
0.00022937228751173804   -0.16596614896106293   -0.013312156713383524
-0.030619220839951534   -0.16625417097456638   -0.013903235875054095
0.0018007523513716365   -0.10556942665763722   -0.011637912184929154
-0.0244425114724028   -0.10620611054229287   -0.011680169939817102
-0.030549135469566297   -0.16657529115941447   -0.01354151079699567
0.0018630166522533534   -0.10558835765877228   -0.011580462070946576
-0.024328797108959986   -0.10630176954731109   -0.011295670260650596
-0.030549135469566297   -0.16657529115941447   -0.01354151079699567
0.00022937228751173804   -0.16596614896106293   -0.013312156713383524
0.0018630166522533534   -0.10558835765877228   -0.011580462070946576
0.0002690395494033449   -0.1658965758860271   -0.013236747929271937
-0.024328797108959986   -0.10630176954731109   -0.011295670260650596
0.0019051642025931688   -0.10538781002781193   -0.011586804370689416
0.0002690395494033449   -0.1658965758860271   -0.013236747929271937
0.0018630166522533534   -0.10558835765877228   -0.011580462070946576
-0.024328797108959986   -0.10630176954731109   -0.011295670260650596
0.0002690395494033449   -0.1658965758860271   -0.013236747929271937
-0.030439988158223494   -0.16677509086183417   -0.013244016832091164
-0.030549135469566297   -0.16657529115941447   -0.01354151079699567
-0.024328797108959986   -0.10630176954731109   -0.011295670260650596
0.0002690395494033449   -0.1658965758860271   -0.013236747929271937
-0.030549135469566297   -0.16657529115941447   -0.01354151079699567
0.0018630166522533534   -0.10558835765877228   -0.011580462070946576
0.0016980397305420335   -0.10533425437694675   -0.011755464540928042
6.122121301311888e-05   -0.165729142335275   -0.013655704565110591
0.02907326118460478   -0.10593437936146986   -0.011397047718219313
0.0018007523513716365   -0.10556942665763722   -0.011637912184929154
6.122121301311888e-05   -0.165729142335275   -0.013655704565110591
0.031846445093166025   -0.16600759897721357   -0.013458952816335511
0.02907326118460478   -0.10593437936146986   -0.011397047718219313
0.0319700214432451   -0.16593996920177725   -0.013482720818915822
0.0018007523513716365   -0.10556942665763722   -0.011637912184929154
0.02916070920809951   -0.10590377454453798   -0.011677912049454713
0.0319700214432451   -0.16593996920177725   -0.013482720818915822
0.02907326118460478   -0.10593437936146986   -0.011397047718219313
0.0018007523513716365   -0.10556942665763722   -0.011637912184929154
0.0319700214432451   -0.16593996920177725   -0.013482720818915822
0.00016106357217452233   -0.1659097725958402   -0.013452738825414746
6.122121301311888e-05   -0.165729142335275   -0.013655704565110591
0.0018007523513716365   -0.10556942665763722   -0.011637912184929154
0.0319700214432451   -0.16593996920177725   -0.013482720818915822
6.122121301311888e-05   -0.165729142335275   -0.013655704565110591
0.02907326118460478   -0.10593437936146986   -0.011397047718219313
0.0018007523513716365   -0.10556942665763722   -0.011637912184929154
0.00016106357217452233   -0.1659097725958402   -0.013452738825414746
0.02916070920809951   -0.10590377454453798   -0.011677912049454713
0.0018630166522533534   -0.10558835765877228   -0.011580462070946576
0.00016106357217452233   -0.1659097725958402   -0.013452738825414746
0.0319700214432451   -0.16593996920177725   -0.013482720818915822
0.02916070920809951   -0.10590377454453798   -0.011677912049454713
0.031969239640592985   -0.16575722183407027   -0.013565539936067515
0.0018630166522533534   -0.10558835765877228   -0.011580462070946576
0.029075622720146733   -0.10566124048046321   -0.012014462197132529
0.031969239640592985   -0.16575722183407027   -0.013565539936067515
0.02916070920809951   -0.10590377454453798   -0.011677912049454713
0.0018630166522533534   -0.10558835765877228   -0.011580462070946576
0.031969239640592985   -0.16575722183407027   -0.013565539936067515
0.00022937228751173804   -0.16596614896106293   -0.013312156713383524
0.00016106357217452233   -0.1659097725958402   -0.013452738825414746
0.0018630166522533534   -0.10558835765877228   -0.011580462070946576
0.031969239640592985   -0.16575722183407027   -0.013565539936067515
0.00016106357217452233   -0.1659097725958402   -0.013452738825414746
0.02916070920809951   -0.10590377454453798   -0.011677912049454713
0.0018630166522533534   -0.10558835765877228   -0.011580462070946576
0.00022937228751173804   -0.16596614896106293   -0.013312156713383524
0.029075622720146733   -0.10566124048046321   -0.012014462197132529
0.0019051642025931688   -0.10538781002781193   -0.011586804370689416
0.00022937228751173804   -0.16596614896106293   -0.013312156713383524
0.031969239640592985   -0.16575722183407027   -0.013565539936067515
0.029075622720146733   -0.10566124048046321   -0.012014462197132529
0.03188913503418275   -0.16541325626169942   -0.013709624979073423
0.0019051642025931688   -0.10538781002781193   -0.011586804370689416
0.028954472569846058   -0.1051546612993509   -0.012413265470735544
0.03188913503418275   -0.16541325626169942   -0.013709624979073423
0.029075622720146733   -0.10566124048046321   -0.012014462197132529
0.0019051642025931688   -0.10538781002781193   -0.011586804370689416
0.03188913503418275   -0.16541325626169942   -0.013709624979073423
0.0002690395494033449   -0.1658965758860271   -0.013236747929271937
0.00022937228751173804   -0.16596614896106293   -0.013312156713383524
0.0019051642025931688   -0.10538781002781193   -0.011586804370689416
0.03188913503418275   -0.16541325626169942   -0.013709624979073423
0.00022937228751173804   -0.16596614896106293   -0.013312156713383524
0.029075622720146733   -0.10566124048046321   -0.012014462197132529
0.02907326118460478   -0.10593437936146986   -0.011397047718219313
0.031846445093166025   -0.16600759897721357   -0.013458952816335511
0.060243714815971454   -0.10702507504922289   -0.011396571950828256
0.02916070920809951   -0.10590377454453798   -0.011677912049454713
0.031846445093166025   -0.16600759897721357   -0.013458952816335511
0.06694617505662567   -0.16652106766211963   -0.013632281898942496
0.060243714815971454   -0.10702507504922289   -0.011396571950828256
0.06686814610216858   -0.1662856898692223   -0.013901824202021375
0.02916070920809951   -0.10590377454453798   -0.011677912049454713
0.0597034613878345   -0.1068418739366796   -0.012128192720653713
0.06686814610216858   -0.1662856898692223   -0.013901824202021375
0.060243714815971454   -0.10702507504922289   -0.011396571950828256
0.02916070920809951   -0.10590377454453798   -0.011677912049454713
0.06686814610216858   -0.1662856898692223   -0.013901824202021375
0.0319700214432451   -0.16593996920177725   -0.013482720818915822
0.031846445093166025   -0.16600759897721357   -0.013458952816335511
0.02916070920809951   -0.10590377454453798   -0.011677912049454713
0.06686814610216858   -0.1662856898692223   -0.013901824202021375
0.031846445093166025   -0.16600759897721357   -0.013458952816335511
0.060243714815971454   -0.10702507504922289   -0.011396571950828256
0.02916070920809951   -0.10590377454453798   -0.011677912049454713
0.0319700214432451   -0.16593996920177725   -0.013482720818915822
0.0597034613878345   -0.1068418739366796   -0.012128192720653713
0.029075622720146733   -0.10566124048046321   -0.012014462197132529
0.0319700214432451   -0.16593996920177725   -0.013482720818915822
0.06686814610216858   -0.1662856898692223   -0.013901824202021375
0.0597034613878345   -0.1068418739366796   -0.012128192720653713
0.06668637991984405   -0.16598677467070283   -0.014267103132262812
0.029075622720146733   -0.10566124048046321   -0.012014462197132529
0.05916644965978118   -0.10646782625774333   -0.012960220542504784
0.06668637991984405   -0.16598677467070283   -0.014267103132262812
0.0597034613878345   -0.1068418739366796   -0.012128192720653713
0.029075622720146733   -0.10566124048046321   -0.012014462197132529
0.06668637991984405   -0.16598677467070283   -0.014267103132262812
0.031969239640592985   -0.16575722183407027   -0.013565539936067515
0.0319700214432451   -0.16593996920177725   -0.013482720818915822
0.029075622720146733   -0.10566124048046321   -0.012014462197132529
0.06668637991984405   -0.16598677467070283   -0.014267103132262812
0.0319700214432451   -0.16593996920177725   -0.013482720818915822
0.0597034613878345   -0.1068418739366796   -0.012128192720653713
0.029075622720146733   -0.10566124048046321   -0.012014462197132529
0.031969239640592985   -0.16575722183407027   -0.013565539936067515
0.05916644965978118   -0.10646782625774333   -0.012960220542504784
0.028954472569846058   -0.1051546612993509   -0.012413265470735544
0.031969239640592985   -0.16575722183407027   -0.013565539936067515
0.06668637991984405   -0.16598677467070283   -0.014267103132262812
0.05916644965978118   -0.10646782625774333   -0.012960220542504784
0.06621411718826667   -0.16541375840054098   -0.014727425979777985
0.028954472569846058   -0.1051546612993509   -0.012413265470735544
0.058222844043122446   -0.1056797979646687   -0.013892758335628782
0.06621411718826667   -0.16541375840054098   -0.014727425979777985
0.05916644965978118   -0.10646782625774333   -0.012960220542504784
0.028954472569846058   -0.1051546612993509   -0.012413265470735544
0.06621411718826667   -0.16541375840054098   -0.014727425979777985
0.03188913503418275   -0.16541325626169942   -0.013709624979073423
0.031969239640592985   -0.16575722183407027   -0.013565539936067515
0.028954472569846058   -0.1051546612993509   -0.012413265470735544
0.06621411718826667   -0.16541375840054098   -0.014727425979777985
0.031969239640592985   -0.16575722183407027   -0.013565539936067515
0.05916644965978118   -0.10646782625774333   -0.012960220542504784
-0.09593439476242974   -0.16719943878925536   -0.017141637945017194
-0.1054440577300934   -0.23222667653823084   -0.01744467965226358
-0.06225224918879767   -0.16628234610099135   -0.015479452531408363
-0.09691099486861005   -0.16815586925223802   -0.01620498389833542
-0.1054440577300934   -0.23222667653823084   -0.01744467965226358
-0.06925530052923888   -0.2318511495266585   -0.016117725254591677
-0.06225224918879767   -0.16628234610099135   -0.015479452531408363
-0.06923605138068704   -0.23245568767292168   -0.01572122390282771
-0.09691099486861005   -0.16815586925223802   -0.01620498389833542
-0.0623370371553945   -0.16698966882052066   -0.01483412533535364
-0.06923605138068704   -0.23245568767292168   -0.01572122390282771
-0.06225224918879767   -0.16628234610099135   -0.015479452531408363
-0.09691099486861005   -0.16815586925223802   -0.01620498389833542
-0.06923605138068704   -0.23245568767292168   -0.01572122390282771
-0.10590623521049486   -0.23303889912478126   -0.01695949979534781
-0.1054440577300934   -0.23222667653823084   -0.01744467965226358
-0.09691099486861005   -0.16815586925223802   -0.01620498389833542
-0.06923605138068704   -0.23245568767292168   -0.01572122390282771
-0.1054440577300934   -0.23222667653823084   -0.01744467965226358
-0.06225224918879767   -0.16628234610099135   -0.015479452531408363
-0.09691099486861005   -0.16815586925223802   -0.01620498389833542
-0.10590623521049486   -0.23303889912478126   -0.01695949979534781
-0.0623370371553945   -0.16698966882052066   -0.01483412533535364
-0.0974762464326261   -0.1688315841112007   -0.015357788147722193
-0.10590623521049486   -0.23303889912478126   -0.01695949979534781
-0.06923605138068704   -0.23245568767292168   -0.01572122390282771
-0.0623370371553945   -0.16698966882052066   -0.01483412533535364
-0.06915154324094155   -0.23301245683363728   -0.015390530940290945
-0.0974762464326261   -0.1688315841112007   -0.015357788147722193
-0.06240069600140601   -0.16754961305615423   -0.014252932024970416
-0.06915154324094155   -0.23301245683363728   -0.015390530940290945
-0.0623370371553945   -0.16698966882052066   -0.01483412533535364
-0.0974762464326261   -0.1688315841112007   -0.015357788147722193
-0.06915154324094155   -0.23301245683363728   -0.015390530940290945
-0.10606022196682997   -0.23370025332157265   -0.016569067652819788
-0.10590623521049486   -0.23303889912478126   -0.01695949979534781
-0.0974762464326261   -0.1688315841112007   -0.015357788147722193
-0.06915154324094155   -0.23301245683363728   -0.015390530940290945
-0.10590623521049486   -0.23303889912478126   -0.01695949979534781
-0.0623370371553945   -0.16698966882052066   -0.01483412533535364
-0.0974762464326261   -0.1688315841112007   -0.015357788147722193
-0.10606022196682997   -0.23370025332157265   -0.016569067652819788
-0.06240069600140601   -0.16754961305615423   -0.014252932024970416
-0.09805930329964711   -0.16943562285505537   -0.014610627182289232
-0.10606022196682997   -0.23370025332157265   -0.016569067652819788
-0.06915154324094155   -0.23301245683363728   -0.015390530940290945
-0.06240069600140601   -0.16754961305615423   -0.014252932024970416
-0.06893068622307014   -0.23356381101128343   -0.015121113435410841
-0.09805930329964711   -0.16943562285505537   -0.014610627182289232
-0.06228161715965009   -0.16800852572420027   -0.013727409358752786
-0.06893068622307014   -0.23356381101128343   -0.015121113435410841
-0.06240069600140601   -0.16754961305615423   -0.014252932024970416
-0.09805930329964711   -0.16943562285505537   -0.014610627182289232
-0.06893068622307014   -0.23356381101128343   -0.015121113435410841
-0.106119365595222   -0.23441710400964597   -0.016281433128847486
-0.10606022196682997   -0.23370025332157265   -0.016569067652819788
-0.09805930329964711   -0.16943562285505537   -0.014610627182289232
-0.06893068622307014   -0.23356381101128343   -0.015121113435410841
-0.10606022196682997   -0.23370025332157265   -0.016569067652819788
-0.06240069600140601   -0.16754961305615423   -0.014252932024970416
-0.06225224918879767   -0.16628234610099135   -0.015479452531408363
-0.06925530052923888   -0.2318511495266585   -0.016117725254591677
-0.030667852123712938   -0.16580963570741084   -0.014328180270923748
-0.0623370371553945   -0.16698966882052066   -0.01483412533535364
-0.06925530052923888   -0.2318511495266585   -0.016117725254591677
-0.035636528859899035   -0.2316374284424941   -0.01521406310064363
-0.030667852123712938   -0.16580963570741084   -0.014328180270923748
-0.03551906566642127   -0.23200401398963086   -0.014869681351133136
-0.0623370371553945   -0.16698966882052066   -0.01483412533535364
-0.030619220839951534   -0.16625417097456638   -0.013903235875054095
-0.03551906566642127   -0.23200401398963086   -0.014869681351133136
-0.030667852123712938   -0.16580963570741084   -0.014328180270923748
-0.0623370371553945   -0.16698966882052066   -0.01483412533535364
-0.03551906566642127   -0.23200401398963086   -0.014869681351133136
-0.06923605138068704   -0.23245568767292168   -0.01572122390282771
-0.06925530052923888   -0.2318511495266585   -0.016117725254591677
-0.0623370371553945   -0.16698966882052066   -0.01483412533535364
-0.03551906566642127   -0.23200401398963086   -0.014869681351133136
-0.06925530052923888   -0.2318511495266585   -0.016117725254591677
-0.030667852123712938   -0.16580963570741084   -0.014328180270923748
-0.0623370371553945   -0.16698966882052066   -0.01483412533535364
-0.06923605138068704   -0.23245568767292168   -0.01572122390282771
-0.030619220839951534   -0.16625417097456638   -0.013903235875054095
-0.06240069600140601   -0.16754961305615423   -0.014252932024970416
-0.06923605138068704   -0.23245568767292168   -0.01572122390282771
-0.03551906566642127   -0.23200401398963086   -0.014869681351133136
-0.030619220839951534   -0.16625417097456638   -0.013903235875054095
-0.035373059102362804   -0.23233981655223387   -0.014591204578533298
-0.06240069600140601   -0.16754961305615423   -0.014252932024970416
-0.030549135469566297   -0.16657529115941447   -0.01354151079699567
-0.035373059102362804   -0.23233981655223387   -0.014591204578533298
-0.030619220839951534   -0.16625417097456638   -0.013903235875054095
-0.06240069600140601   -0.16754961305615423   -0.014252932024970416
-0.035373059102362804   -0.23233981655223387   -0.014591204578533298
-0.06915154324094155   -0.23301245683363728   -0.015390530940290945
-0.06923605138068704   -0.23245568767292168   -0.01572122390282771
-0.06240069600140601   -0.16754961305615423   -0.014252932024970416
-0.035373059102362804   -0.23233981655223387   -0.014591204578533298
-0.06923605138068704   -0.23245568767292168   -0.01572122390282771
-0.030619220839951534   -0.16625417097456638   -0.013903235875054095
-0.06240069600140601   -0.16754961305615423   -0.014252932024970416
-0.06915154324094155   -0.23301245683363728   -0.015390530940290945
-0.030549135469566297   -0.16657529115941447   -0.01354151079699567
-0.06228161715965009   -0.16800852572420027   -0.013727409358752786
-0.06915154324094155   -0.23301245683363728   -0.015390530940290945
-0.035373059102362804   -0.23233981655223387   -0.014591204578533298
-0.030549135469566297   -0.16657529115941447   -0.01354151079699567
-0.03519611629162802   -0.23264592462081507   -0.014380176543125914
-0.06228161715965009   -0.16800852572420027   -0.013727409358752786
-0.030439988158223494   -0.16677509086183417   -0.013244016832091164
-0.03519611629162802   -0.23264592462081507   -0.014380176543125914
-0.030549135469566297   -0.16657529115941447   -0.01354151079699567
-0.06228161715965009   -0.16800852572420027   -0.013727409358752786
-0.03519611629162802   -0.23264592462081507   -0.014380176543125914
-0.06893068622307014   -0.23356381101128343   -0.015121113435410841
-0.06915154324094155   -0.23301245683363728   -0.015390530940290945
-0.06228161715965009   -0.16800852572420027   -0.013727409358752786
-0.03519611629162802   -0.23264592462081507   -0.014380176543125914
-0.06915154324094155   -0.23301245683363728   -0.015390530940290945
-0.030549135469566297   -0.16657529115941447   -0.01354151079699567
-0.030667852123712938   -0.16580963570741084   -0.014328180270923748
-0.035636528859899035   -0.2316374284424941   -0.01521406310064363
6.122121301311888e-05   -0.165729142335275   -0.013655704565110591
-0.030619220839951534   -0.16625417097456638   -0.013903235875054095
-0.035636528859899035   -0.2316374284424941   -0.01521406310064363
-0.0029269926595764735   -0.23151618385755357   -0.01474451530754508
6.122121301311888e-05   -0.165729142335275   -0.013655704565110591
-0.0027598984687240854   -0.23164073803377608   -0.014455599008972067
-0.030619220839951534   -0.16625417097456638   -0.013903235875054095
0.00016106357217452233   -0.1659097725958402   -0.013452738825414746
-0.0027598984687240854   -0.23164073803377608   -0.014455599008972067
6.122121301311888e-05   -0.165729142335275   -0.013655704565110591
-0.030619220839951534   -0.16625417097456638   -0.013903235875054095
-0.0027598984687240854   -0.23164073803377608   -0.014455599008972067
-0.03551906566642127   -0.23200401398963086   -0.014869681351133136
-0.035636528859899035   -0.2316374284424941   -0.01521406310064363
-0.030619220839951534   -0.16625417097456638   -0.013903235875054095
-0.0027598984687240854   -0.23164073803377608   -0.014455599008972067
-0.035636528859899035   -0.2316374284424941   -0.01521406310064363
6.122121301311888e-05   -0.165729142335275   -0.013655704565110591
-0.030619220839951534   -0.16625417097456638   -0.013903235875054095
-0.03551906566642127   -0.23200401398963086   -0.014869681351133136
0.00016106357217452233   -0.1659097725958402   -0.013452738825414746
-0.030549135469566297   -0.16657529115941447   -0.01354151079699567
-0.03551906566642127   -0.23200401398963086   -0.014869681351133136
-0.0027598984687240854   -0.23164073803377608   -0.014455599008972067
0.00016106357217452233   -0.1659097725958402   -0.013452738825414746
-0.0026162329354081433   -0.2317323739193481   -0.014231984370461965
-0.030549135469566297   -0.16657529115941447   -0.01354151079699567
0.00022937228751173804   -0.16596614896106293   -0.013312156713383524
-0.0026162329354081433   -0.2317323739193481   -0.014231984370461965
0.00016106357217452233   -0.1659097725958402   -0.013452738825414746
-0.030549135469566297   -0.16657529115941447   -0.01354151079699567
-0.0026162329354081433   -0.2317323739193481   -0.014231984370461965
-0.035373059102362804   -0.23233981655223387   -0.014591204578533298
-0.03551906566642127   -0.23200401398963086   -0.014869681351133136
-0.030549135469566297   -0.16657529115941447   -0.01354151079699567
-0.0026162329354081433   -0.2317323739193481   -0.014231984370461965
-0.03551906566642127   -0.23200401398963086   -0.014869681351133136
0.00016106357217452233   -0.1659097725958402   -0.013452738825414746
-0.030549135469566297   -0.16657529115941447   -0.01354151079699567
-0.035373059102362804   -0.23233981655223387   -0.014591204578533298
0.00022937228751173804   -0.16596614896106293   -0.013312156713383524
-0.030439988158223494   -0.16677509086183417   -0.013244016832091164
-0.035373059102362804   -0.23233981655223387   -0.014591204578533298
-0.0026162329354081433   -0.2317323739193481   -0.014231984370461965
0.00022937228751173804   -0.16596614896106293   -0.013312156713383524
-0.0025087749637327872   -0.2317906478432616   -0.014076074314857778
-0.030439988158223494   -0.16677509086183417   -0.013244016832091164
0.0002690395494033449   -0.1658965758860271   -0.013236747929271937
-0.0025087749637327872   -0.2317906478432616   -0.014076074314857778
0.00022937228751173804   -0.16596614896106293   -0.013312156713383524
-0.030439988158223494   -0.16677509086183417   -0.013244016832091164
-0.0025087749637327872   -0.2317906478432616   -0.014076074314857778
-0.03519611629162802   -0.23264592462081507   -0.014380176543125914
-0.035373059102362804   -0.23233981655223387   -0.014591204578533298
-0.030439988158223494   -0.16677509086183417   -0.013244016832091164
-0.0025087749637327872   -0.2317906478432616   -0.014076074314857778
-0.035373059102362804   -0.23233981655223387   -0.014591204578533298
0.00022937228751173804   -0.16596614896106293   -0.013312156713383524
6.122121301311888e-05   -0.165729142335275   -0.013655704565110591
-0.0029269926595764735   -0.23151618385755357   -0.01474451530754508
0.031846445093166025   -0.16600759897721357   -0.013458952816335511
0.00016106357217452233   -0.1659097725958402   -0.013452738825414746
-0.0029269926595764735   -0.23151618385755357   -0.01474451530754508
0.03078265658625528   -0.2314665922770364   -0.014712852898281965
0.031846445093166025   -0.16600759897721357   -0.013458952816335511
0.031005982006155435   -0.23135695290781189   -0.014482224987785158
0.00016106357217452233   -0.1659097725958402   -0.013452738825414746
0.0319700214432451   -0.16593996920177725   -0.013482720818915822
0.031005982006155435   -0.23135695290781189   -0.014482224987785158
0.031846445093166025   -0.16600759897721357   -0.013458952816335511
0.00016106357217452233   -0.1659097725958402   -0.013452738825414746
0.031005982006155435   -0.23135695290781189   -0.014482224987785158
-0.0027598984687240854   -0.23164073803377608   -0.014455599008972067
-0.0029269926595764735   -0.23151618385755357   -0.01474451530754508
0.00016106357217452233   -0.1659097725958402   -0.013452738825414746
0.031005982006155435   -0.23135695290781189   -0.014482224987785158
-0.0029269926595764735   -0.23151618385755357   -0.01474451530754508
0.031846445093166025   -0.16600759897721357   -0.013458952816335511
0.00016106357217452233   -0.1659097725958402   -0.013452738825414746
-0.0027598984687240854   -0.23164073803377608   -0.014455599008972067
0.0319700214432451   -0.16593996920177725   -0.013482720818915822
0.00022937228751173804   -0.16596614896106293   -0.013312156713383524
-0.0027598984687240854   -0.23164073803377608   -0.014455599008972067
0.031005982006155435   -0.23135695290781189   -0.014482224987785158
0.0319700214432451   -0.16593996920177725   -0.013482720818915822
0.031152106794342264   -0.2312276450562717   -0.014315054573713584
0.00022937228751173804   -0.16596614896106293   -0.013312156713383524
0.031969239640592985   -0.16575722183407027   -0.013565539936067515
0.031152106794342264   -0.2312276450562717   -0.014315054573713584
0.0319700214432451   -0.16593996920177725   -0.013482720818915822
0.00022937228751173804   -0.16596614896106293   -0.013312156713383524
0.031152106794342264   -0.2312276450562717   -0.014315054573713584
-0.0026162329354081433   -0.2317323739193481   -0.014231984370461965
-0.0027598984687240854   -0.23164073803377608   -0.014455599008972067
0.00022937228751173804   -0.16596614896106293   -0.013312156713383524
0.031152106794342264   -0.2312276450562717   -0.014315054573713584
-0.0027598984687240854   -0.23164073803377608   -0.014455599008972067
0.0319700214432451   -0.16593996920177725   -0.013482720818915822
0.00022937228751173804   -0.16596614896106293   -0.013312156713383524
-0.0026162329354081433   -0.2317323739193481   -0.014231984370461965
0.031969239640592985   -0.16575722183407027   -0.013565539936067515
0.0002690395494033449   -0.1658965758860271   -0.013236747929271937
-0.0026162329354081433   -0.2317323739193481   -0.014231984370461965
0.031152106794342264   -0.2312276450562717   -0.014315054573713584
0.031969239640592985   -0.16575722183407027   -0.013565539936067515
0.031174774522657912   -0.23103576993812136   -0.01421001992513924
0.0002690395494033449   -0.1658965758860271   -0.013236747929271937
0.03188913503418275   -0.16541325626169942   -0.013709624979073423
0.031174774522657912   -0.23103576993812136   -0.01421001992513924
0.031969239640592985   -0.16575722183407027   -0.013565539936067515
0.0002690395494033449   -0.1658965758860271   -0.013236747929271937
0.031174774522657912   -0.23103576993812136   -0.01421001992513924
-0.0025087749637327872   -0.2317906478432616   -0.014076074314857778
-0.0026162329354081433   -0.2317323739193481   -0.014231984370461965
0.0002690395494033449   -0.1658965758860271   -0.013236747929271937
0.031174774522657912   -0.23103576993812136   -0.01421001992513924
-0.0026162329354081433   -0.2317323739193481   -0.014231984370461965
0.031969239640592985   -0.16575722183407027   -0.013565539936067515
0.031846445093166025   -0.16600759897721357   -0.013458952816335511
0.03078265658625528   -0.2314665922770364   -0.014712852898281965
0.06694617505662567   -0.16652106766211963   -0.013632281898942496
0.0319700214432451   -0.16593996920177725   -0.013482720818915822
0.03078265658625528   -0.2314665922770364   -0.014712852898281965
0.06732109348454716   -0.23140032006288297   -0.015073768963298541
0.06694617505662567   -0.16652106766211963   -0.013632281898942496
0.06776165836545021   -0.23110589339680204   -0.014887950211917595
0.0319700214432451   -0.16593996920177725   -0.013482720818915822
0.06686814610216858   -0.1662856898692223   -0.013901824202021375
0.06776165836545021   -0.23110589339680204   -0.014887950211917595
0.06694617505662567   -0.16652106766211963   -0.013632281898942496
0.0319700214432451   -0.16593996920177725   -0.013482720818915822
0.06776165836545021   -0.23110589339680204   -0.014887950211917595
0.031005982006155435   -0.23135695290781189   -0.014482224987785158
0.03078265658625528   -0.2314665922770364   -0.014712852898281965
0.0319700214432451   -0.16593996920177725   -0.013482720818915822
0.06776165836545021   -0.23110589339680204   -0.014887950211917595
0.03078265658625528   -0.2314665922770364   -0.014712852898281965
0.06694617505662567   -0.16652106766211963   -0.013632281898942496
0.0319700214432451   -0.16593996920177725   -0.013482720818915822
0.031005982006155435   -0.23135695290781189   -0.014482224987785158
0.06686814610216858   -0.1662856898692223   -0.013901824202021375
0.031969239640592985   -0.16575722183407027   -0.013565539936067515
0.031005982006155435   -0.23135695290781189   -0.014482224987785158
0.06776165836545021   -0.23110589339680204   -0.014887950211917595
0.06686814610216858   -0.1662856898692223   -0.013901824202021375
0.06798919320778586   -0.2308724962871788   -0.014798453526806846
0.031969239640592985   -0.16575722183407027   -0.013565539936067515
0.06668637991984405   -0.16598677467070283   -0.014267103132262812
0.06798919320778586   -0.2308724962871788   -0.014798453526806846
0.06686814610216858   -0.1662856898692223   -0.013901824202021375
0.031969239640592985   -0.16575722183407027   -0.013565539936067515
0.06798919320778586   -0.2308724962871788   -0.014798453526806846
0.031152106794342264   -0.2312276450562717   -0.014315054573713584
0.031005982006155435   -0.23135695290781189   -0.014482224987785158
0.031969239640592985   -0.16575722183407027   -0.013565539936067515
0.06798919320778586   -0.2308724962871788   -0.014798453526806846
0.031005982006155435   -0.23135695290781189   -0.014482224987785158
0.06686814610216858   -0.1662856898692223   -0.013901824202021375
0.031969239640592985   -0.16575722183407027   -0.013565539936067515
0.031152106794342264   -0.2312276450562717   -0.014315054573713584
0.06668637991984405   -0.16598677467070283   -0.014267103132262812
0.03188913503418275   -0.16541325626169942   -0.013709624979073423
0.031152106794342264   -0.2312276450562717   -0.014315054573713584
0.06798919320778586   -0.2308724962871788   -0.014798453526806846
0.06668637991984405   -0.16598677467070283   -0.014267103132262812
0.06803229132296716   -0.23049526054602879   -0.01480691587509511
0.03188913503418275   -0.16541325626169942   -0.013709624979073423
0.06621411718826667   -0.16541375840054098   -0.014727425979777985
0.06803229132296716   -0.23049526054602879   -0.01480691587509511
0.06668637991984405   -0.16598677467070283   -0.014267103132262812
0.03188913503418275   -0.16541325626169942   -0.013709624979073423
0.06803229132296716   -0.23049526054602879   -0.01480691587509511
0.031174774522657912   -0.23103576993812136   -0.01421001992513924
0.031152106794342264   -0.2312276450562717   -0.014315054573713584
0.03188913503418275   -0.16541325626169942   -0.013709624979073423
0.06803229132296716   -0.23049526054602879   -0.01480691587509511
0.031152106794342264   -0.2312276450562717   -0.014315054573713584
0.06668637991984405   -0.16598677467070283   -0.014267103132262812
-0.1054440577300934   -0.23222667653823084   -0.01744467965226358
-0.10879123414900028   -0.2984933360053098   -0.017139707673259924
-0.06925530052923888   -0.2318511495266585   -0.016117725254591677
-0.10590623521049486   -0.23303889912478126   -0.01695949979534781
-0.10879123414900028   -0.2984933360053098   -0.017139707673259924
-0.07261452498034754   -0.29866498309620204   -0.01615601761908635
-0.06925530052923888   -0.2318511495266585   -0.016117725254591677
-0.07242510025657684   -0.2991642487202371   -0.01600520404477335
-0.10590623521049486   -0.23303889912478126   -0.01695949979534781
-0.06923605138068704   -0.23245568767292168   -0.01572122390282771
-0.07242510025657684   -0.2991642487202371   -0.01600520404477335
-0.06925530052923888   -0.2318511495266585   -0.016117725254591677
-0.10590623521049486   -0.23303889912478126   -0.01695949979534781
-0.07242510025657684   -0.2991642487202371   -0.01600520404477335
-0.10867447020196043   -0.2991609988225794   -0.017105374155687948
-0.10879123414900028   -0.2984933360053098   -0.017139707673259924
-0.10590623521049486   -0.23303889912478126   -0.01695949979534781
-0.07242510025657684   -0.2991642487202371   -0.01600520404477335
-0.10879123414900028   -0.2984933360053098   -0.017139707673259924
-0.06925530052923888   -0.2318511495266585   -0.016117725254591677
-0.10590623521049486   -0.23303889912478126   -0.01695949979534781
-0.10867447020196043   -0.2991609988225794   -0.017105374155687948
-0.06923605138068704   -0.23245568767292168   -0.01572122390282771
-0.10606022196682997   -0.23370025332157265   -0.016569067652819788
-0.10867447020196043   -0.2991609988225794   -0.017105374155687948
-0.07242510025657684   -0.2991642487202371   -0.01600520404477335
-0.06923605138068704   -0.23245568767292168   -0.01572122390282771
-0.07212632324681906   -0.2997162579355437   -0.01592246292441038
-0.10606022196682997   -0.23370025332157265   -0.016569067652819788
-0.06915154324094155   -0.23301245683363728   -0.015390530940290945
-0.07212632324681906   -0.2997162579355437   -0.01592246292441038
-0.06923605138068704   -0.23245568767292168   -0.01572122390282771
-0.10606022196682997   -0.23370025332157265   -0.016569067652819788
-0.07212632324681906   -0.2997162579355437   -0.01592246292441038
-0.10834858801208011   -0.2998078673471915   -0.017172795442421764
-0.10867447020196043   -0.2991609988225794   -0.017105374155687948
-0.10606022196682997   -0.23370025332157265   -0.016569067652819788
-0.07212632324681906   -0.2997162579355437   -0.01592246292441038
-0.10867447020196043   -0.2991609988225794   -0.017105374155687948
-0.06923605138068704   -0.23245568767292168   -0.01572122390282771
-0.10606022196682997   -0.23370025332157265   -0.016569067652819788
-0.10834858801208011   -0.2998078673471915   -0.017172795442421764
-0.06915154324094155   -0.23301245683363728   -0.015390530940290945
-0.106119365595222   -0.23441710400964597   -0.016281433128847486
-0.10834858801208011   -0.2998078673471915   -0.017172795442421764
-0.07212632324681906   -0.2997162579355437   -0.01592246292441038
-0.06915154324094155   -0.23301245683363728   -0.015390530940290945
-0.0717374209903431   -0.3003589381026786   -0.015906774361179044
-0.106119365595222   -0.23441710400964597   -0.016281433128847486
-0.06893068622307014   -0.23356381101128343   -0.015121113435410841
-0.0717374209903431   -0.3003589381026786   -0.015906774361179044
-0.06915154324094155   -0.23301245683363728   -0.015390530940290945
-0.106119365595222   -0.23441710400964597   -0.016281433128847486
-0.0717374209903431   -0.3003589381026786   -0.015906774361179044
-0.10781524911197553   -0.30063987715176843   -0.017347009583358317
-0.10834858801208011   -0.2998078673471915   -0.017172795442421764
-0.106119365595222   -0.23441710400964597   -0.016281433128847486
-0.0717374209903431   -0.3003589381026786   -0.015906774361179044
-0.10834858801208011   -0.2998078673471915   -0.017172795442421764
-0.06915154324094155   -0.23301245683363728   -0.015390530940290945
-0.06925530052923888   -0.2318511495266585   -0.016117725254591677
-0.07261452498034754   -0.29866498309620204   -0.01615601761908635
-0.035636528859899035   -0.2316374284424941   -0.01521406310064363
-0.06923605138068704   -0.23245568767292168   -0.01572122390282771
-0.07261452498034754   -0.29866498309620204   -0.01615601761908635
-0.0394815248181329   -0.2987034748531132   -0.01550187019466888
-0.035636528859899035   -0.2316374284424941   -0.01521406310064363
-0.039225832590214976   -0.2989905268376292   -0.01523589068932343
-0.06923605138068704   -0.23245568767292168   -0.01572122390282771
-0.03551906566642127   -0.23200401398963086   -0.014869681351133136
-0.039225832590214976   -0.2989905268376292   -0.01523589068932343
-0.035636528859899035   -0.2316374284424941   -0.01521406310064363
-0.06923605138068704   -0.23245568767292168   -0.01572122390282771
-0.039225832590214976   -0.2989905268376292   -0.01523589068932343
-0.07242510025657684   -0.2991642487202371   -0.01600520404477335
-0.07261452498034754   -0.29866498309620204   -0.01615601761908635
-0.06923605138068704   -0.23245568767292168   -0.01572122390282771
-0.039225832590214976   -0.2989905268376292   -0.01523589068932343
-0.07261452498034754   -0.29866498309620204   -0.01615601761908635
-0.035636528859899035   -0.2316374284424941   -0.01521406310064363
-0.06923605138068704   -0.23245568767292168   -0.01572122390282771
-0.07242510025657684   -0.2991642487202371   -0.01600520404477335
-0.03551906566642127   -0.23200401398963086   -0.014869681351133136
-0.06915154324094155   -0.23301245683363728   -0.015390530940290945
-0.07242510025657684   -0.2991642487202371   -0.01600520404477335
-0.039225832590214976   -0.2989905268376292   -0.01523589068932343
-0.03551906566642127   -0.23200401398963086   -0.014869681351133136
-0.03893612604184784   -0.2993384860098411   -0.015038273103515704
-0.06915154324094155   -0.23301245683363728   -0.015390530940290945
-0.035373059102362804   -0.23233981655223387   -0.014591204578533298
-0.03893612604184784   -0.2993384860098411   -0.015038273103515704
-0.03551906566642127   -0.23200401398963086   -0.014869681351133136
-0.06915154324094155   -0.23301245683363728   -0.015390530940290945
-0.03893612604184784   -0.2993384860098411   -0.015038273103515704
-0.07212632324681906   -0.2997162579355437   -0.01592246292441038
-0.07242510025657684   -0.2991642487202371   -0.01600520404477335
-0.06915154324094155   -0.23301245683363728   -0.015390530940290945
-0.03893612604184784   -0.2993384860098411   -0.015038273103515704
-0.07242510025657684   -0.2991642487202371   -0.01600520404477335
-0.03551906566642127   -0.23200401398963086   -0.014869681351133136
-0.06915154324094155   -0.23301245683363728   -0.015390530940290945
-0.07212632324681906   -0.2997162579355437   -0.01592246292441038
-0.035373059102362804   -0.23233981655223387   -0.014591204578533298
-0.06893068622307014   -0.23356381101128343   -0.015121113435410841
-0.07212632324681906   -0.2997162579355437   -0.01592246292441038
-0.03893612604184784   -0.2993384860098411   -0.015038273103515704
-0.035373059102362804   -0.23233981655223387   -0.014591204578533298
-0.03862358855521531   -0.29974843470010043   -0.014911190536303187
-0.06893068622307014   -0.23356381101128343   -0.015121113435410841
-0.03519611629162802   -0.23264592462081507   -0.014380176543125914
-0.03862358855521531   -0.29974843470010043   -0.014911190536303187
-0.035373059102362804   -0.23233981655223387   -0.014591204578533298
-0.06893068622307014   -0.23356381101128343   -0.015121113435410841
-0.03862358855521531   -0.29974843470010043   -0.014911190536303187
-0.0717374209903431   -0.3003589381026786   -0.015906774361179044
-0.07212632324681906   -0.2997162579355437   -0.01592246292441038
-0.06893068622307014   -0.23356381101128343   -0.015121113435410841
-0.03862358855521531   -0.29974843470010043   -0.014911190536303187
-0.07212632324681906   -0.2997162579355437   -0.01592246292441038
-0.035373059102362804   -0.23233981655223387   -0.014591204578533298
-0.035636528859899035   -0.2316374284424941   -0.01521406310064363
-0.0394815248181329   -0.2987034748531132   -0.01550187019466888
-0.0029269926595764735   -0.23151618385755357   -0.01474451530754508
-0.03551906566642127   -0.23200401398963086   -0.014869681351133136
-0.0394815248181329   -0.2987034748531132   -0.01550187019466888
-0.00728698492726275   -0.2985293076963861   -0.015231986314792036
-0.0029269926595764735   -0.23151618385755357   -0.01474451530754508
-0.006983872145181858   -0.2985973604580471   -0.01485655744575628
-0.03551906566642127   -0.23200401398963086   -0.014869681351133136
-0.0027598984687240854   -0.23164073803377608   -0.014455599008972067
-0.006983872145181858   -0.2985973604580471   -0.01485655744575628
-0.0029269926595764735   -0.23151618385755357   -0.01474451530754508
-0.03551906566642127   -0.23200401398963086   -0.014869681351133136
-0.006983872145181858   -0.2985973604580471   -0.01485655744575628
-0.039225832590214976   -0.2989905268376292   -0.01523589068932343
-0.0394815248181329   -0.2987034748531132   -0.01550187019466888
-0.03551906566642127   -0.23200401398963086   -0.014869681351133136
-0.006983872145181858   -0.2985973604580471   -0.01485655744575628
-0.0394815248181329   -0.2987034748531132   -0.01550187019466888
-0.0029269926595764735   -0.23151618385755357   -0.01474451530754508
-0.03551906566642127   -0.23200401398963086   -0.014869681351133136
-0.039225832590214976   -0.2989905268376292   -0.01523589068932343
-0.0027598984687240854   -0.23164073803377608   -0.014455599008972067
-0.035373059102362804   -0.23233981655223387   -0.014591204578533298
-0.039225832590214976   -0.2989905268376292   -0.01523589068932343
-0.006983872145181858   -0.2985973604580471   -0.01485655744575628
-0.0027598984687240854   -0.23164073803377608   -0.014455599008972067
-0.00669740531409101   -0.298721452024931   -0.014548971195707127
-0.035373059102362804   -0.23233981655223387   -0.014591204578533298
-0.0026162329354081433   -0.2317323739193481   -0.014231984370461965
-0.00669740531409101   -0.298721452024931   -0.014548971195707127
-0.0027598984687240854   -0.23164073803377608   -0.014455599008972067
-0.035373059102362804   -0.23233981655223387   -0.014591204578533298
-0.00669740531409101   -0.298721452024931   -0.014548971195707127
-0.03893612604184784   -0.2993384860098411   -0.015038273103515704
-0.039225832590214976   -0.2989905268376292   -0.01523589068932343
-0.035373059102362804   -0.23233981655223387   -0.014591204578533298
-0.00669740531409101   -0.298721452024931   -0.014548971195707127
-0.039225832590214976   -0.2989905268376292   -0.01523589068932343
-0.0027598984687240854   -0.23164073803377608   -0.014455599008972067
-0.035373059102362804   -0.23233981655223387   -0.014591204578533298
-0.03893612604184784   -0.2993384860098411   -0.015038273103515704
-0.0026162329354081433   -0.2317323739193481   -0.014231984370461965
-0.03519611629162802   -0.23264592462081507   -0.014380176543125914
-0.03893612604184784   -0.2993384860098411   -0.015038273103515704
-0.00669740531409101   -0.298721452024931   -0.014548971195707127
-0.0026162329354081433   -0.2317323739193481   -0.014231984370461965
-0.006455198608417682   -0.29890446112532665   -0.0143116164708527
-0.03519611629162802   -0.23264592462081507   -0.014380176543125914
-0.0025087749637327872   -0.2317906478432616   -0.014076074314857778
-0.006455198608417682   -0.29890446112532665   -0.0143116164708527
-0.0026162329354081433   -0.2317323739193481   -0.014231984370461965
-0.03519611629162802   -0.23264592462081507   -0.014380176543125914
-0.006455198608417682   -0.29890446112532665   -0.0143116164708527
-0.03862358855521531   -0.29974843470010043   -0.014911190536303187
-0.03893612604184784   -0.2993384860098411   -0.015038273103515704
-0.03519611629162802   -0.23264592462081507   -0.014380176543125914
-0.006455198608417682   -0.29890446112532665   -0.0143116164708527
-0.03893612604184784   -0.2993384860098411   -0.015038273103515704
-0.0026162329354081433   -0.2317323739193481   -0.014231984370461965
-0.0029269926595764735   -0.23151618385755357   -0.01474451530754508
-0.00728698492726275   -0.2985293076963861   -0.015231986314792036
0.03078265658625528   -0.2314665922770364   -0.014712852898281965
-0.0027598984687240854   -0.23164073803377608   -0.014455599008972067
-0.00728698492726275   -0.2985293076963861   -0.015231986314792036
0.02588130364039653   -0.2981414706575182   -0.015358873853340454
0.03078265658625528   -0.2314665922770364   -0.014712852898281965
0.02626870110188653   -0.2979899652909089   -0.014876078551027207
-0.0027598984687240854   -0.23164073803377608   -0.014455599008972067
0.031005982006155435   -0.23135695290781189   -0.014482224987785158
0.02626870110188653   -0.2979899652909089   -0.014876078551027207
0.03078265658625528   -0.2314665922770364   -0.014712852898281965
-0.0027598984687240854   -0.23164073803377608   -0.014455599008972067
0.02626870110188653   -0.2979899652909089   -0.014876078551027207
-0.006983872145181858   -0.2985973604580471   -0.01485655744575628
-0.00728698492726275   -0.2985293076963861   -0.015231986314792036
-0.0027598984687240854   -0.23164073803377608   -0.014455599008972067
0.02626870110188653   -0.2979899652909089   -0.014876078551027207
-0.00728698492726275   -0.2985293076963861   -0.015231986314792036
0.03078265658625528   -0.2314665922770364   -0.014712852898281965
-0.0027598984687240854   -0.23164073803377608   -0.014455599008972067
-0.006983872145181858   -0.2985973604580471   -0.01485655744575628
0.031005982006155435   -0.23135695290781189   -0.014482224987785158
-0.0026162329354081433   -0.2317323739193481   -0.014231984370461965
-0.006983872145181858   -0.2985973604580471   -0.01485655744575628
0.02626870110188653   -0.2979899652909089   -0.014876078551027207
0.031005982006155435   -0.23135695290781189   -0.014482224987785158
0.02662569276805913   -0.2979112920683542   -0.014460945541513675
-0.0026162329354081433   -0.2317323739193481   -0.014231984370461965
0.031152106794342264   -0.2312276450562717   -0.014315054573713584
0.02662569276805913   -0.2979112920683542   -0.014460945541513675
0.031005982006155435   -0.23135695290781189   -0.014482224987785158
-0.0026162329354081433   -0.2317323739193481   -0.014231984370461965
0.02662569276805913   -0.2979112920683542   -0.014460945541513675
-0.00669740531409101   -0.298721452024931   -0.014548971195707127
-0.006983872145181858   -0.2985973604580471   -0.01485655744575628
-0.0026162329354081433   -0.2317323739193481   -0.014231984370461965
0.02662569276805913   -0.2979112920683542   -0.014460945541513675
-0.006983872145181858   -0.2985973604580471   -0.01485655744575628
0.031005982006155435   -0.23135695290781189   -0.014482224987785158
-0.0026162329354081433   -0.2317323739193481   -0.014231984370461965
-0.00669740531409101   -0.298721452024931   -0.014548971195707127
0.031152106794342264   -0.2312276450562717   -0.014315054573713584
-0.0025087749637327872   -0.2317906478432616   -0.014076074314857778
-0.00669740531409101   -0.298721452024931   -0.014548971195707127
0.02662569276805913   -0.2979112920683542   -0.014460945541513675
0.031152106794342264   -0.2312276450562717   -0.014315054573713584
0.026814311233973855   -0.29786671971311285   -0.014109057989178338
-0.0025087749637327872   -0.2317906478432616   -0.014076074314857778
0.031174774522657912   -0.23103576993812136   -0.01421001992513924
0.026814311233973855   -0.29786671971311285   -0.014109057989178338
0.031152106794342264   -0.2312276450562717   -0.014315054573713584
-0.0025087749637327872   -0.2317906478432616   -0.014076074314857778
0.026814311233973855   -0.29786671971311285   -0.014109057989178338
-0.006455198608417682   -0.29890446112532665   -0.0143116164708527
-0.00669740531409101   -0.298721452024931   -0.014548971195707127
-0.0025087749637327872   -0.2317906478432616   -0.014076074314857778
0.026814311233973855   -0.29786671971311285   -0.014109057989178338
-0.00669740531409101   -0.298721452024931   -0.014548971195707127
0.031152106794342264   -0.2312276450562717   -0.014315054573713584
0.03078265658625528   -0.2314665922770364   -0.014712852898281965
0.02588130364039653   -0.2981414706575182   -0.015358873853340454
0.06732109348454716   -0.23140032006288297   -0.015073768963298541
0.031005982006155435   -0.23135695290781189   -0.014482224987785158
0.02588130364039653   -0.2981414706575182   -0.015358873853340454
0.061406760240734055   -0.29749108680870484   -0.01590231770071722
0.06732109348454716   -0.23140032006288297   -0.015073768963298541
0.06242258555825346   -0.2971408341585162   -0.015270043066475242
0.031005982006155435   -0.23135695290781189   -0.014482224987785158
0.06776165836545021   -0.23110589339680204   -0.014887950211917595
0.06242258555825346   -0.2971408341585162   -0.015270043066475242
0.06732109348454716   -0.23140032006288297   -0.015073768963298541
0.031005982006155435   -0.23135695290781189   -0.014482224987785158
0.06242258555825346   -0.2971408341585162   -0.015270043066475242
0.02626870110188653   -0.2979899652909089   -0.014876078551027207
0.02588130364039653   -0.2981414706575182   -0.015358873853340454
0.031005982006155435   -0.23135695290781189   -0.014482224987785158
0.06242258555825346   -0.2971408341585162   -0.015270043066475242
0.02588130364039653   -0.2981414706575182   -0.015358873853340454
0.06732109348454716   -0.23140032006288297   -0.015073768963298541
0.031005982006155435   -0.23135695290781189   -0.014482224987785158
0.02626870110188653   -0.2979899652909089   -0.014876078551027207
0.06776165836545021   -0.23110589339680204   -0.014887950211917595
0.031152106794342264   -0.2312276450562717   -0.014315054573713584
0.02626870110188653   -0.2979899652909089   -0.014876078551027207
0.06242258555825346   -0.2971408341585162   -0.015270043066475242
0.06776165836545021   -0.23110589339680204   -0.014887950211917595
0.063118015101126   -0.2969711326771692   -0.014734022435310093
0.031152106794342264   -0.2312276450562717   -0.014315054573713584
0.06798919320778586   -0.2308724962871788   -0.014798453526806846
0.063118015101126   -0.2969711326771692   -0.014734022435310093
0.06776165836545021   -0.23110589339680204   -0.014887950211917595
0.031152106794342264   -0.2312276450562717   -0.014315054573713584
0.063118015101126   -0.2969711326771692   -0.014734022435310093
0.02662569276805913   -0.2979112920683542   -0.014460945541513675
0.02626870110188653   -0.2979899652909089   -0.014876078551027207
0.031152106794342264   -0.2312276450562717   -0.014315054573713584
0.063118015101126   -0.2969711326771692   -0.014734022435310093
0.02626870110188653   -0.2979899652909089   -0.014876078551027207
0.06776165836545021   -0.23110589339680204   -0.014887950211917595
0.031152106794342264   -0.2312276450562717   -0.014315054573713584
0.02662569276805913   -0.2979112920683542   -0.014460945541513675
0.06798919320778586   -0.2308724962871788   -0.014798453526806846
0.031174774522657912   -0.23103576993812136   -0.01421001992513924
0.02662569276805913   -0.2979112920683542   -0.014460945541513675
0.063118015101126   -0.2969711326771692   -0.014734022435310093
0.06798919320778586   -0.2308724962871788   -0.014798453526806846
0.06373211344952567   -0.29678466902885664   -0.014298225404862789
0.031174774522657912   -0.23103576993812136   -0.01421001992513924
0.06803229132296716   -0.23049526054602879   -0.01480691587509511
0.06373211344952567   -0.29678466902885664   -0.014298225404862789
0.06798919320778586   -0.2308724962871788   -0.014798453526806846
0.031174774522657912   -0.23103576993812136   -0.01421001992513924
0.06373211344952567   -0.29678466902885664   -0.014298225404862789
0.026814311233973855   -0.29786671971311285   -0.014109057989178338
0.02662569276805913   -0.2979112920683542   -0.014460945541513675
0.031174774522657912   -0.23103576993812136   -0.01421001992513924
0.06373211344952567   -0.29678466902885664   -0.014298225404862789
0.02662569276805913   -0.2979112920683542   -0.014460945541513675
0.06798919320778586   -0.2308724962871788   -0.014798453526806846
-0.10879123414900028   -0.2984933360053098   -0.017139707673259924
-0.1059064032562645   -0.3618321801902964   -0.016378637917161144
-0.07261452498034754   -0.29866498309620204   -0.01615601761908635
-0.10867447020196043   -0.2991609988225794   -0.017105374155687948
-0.1059064032562645   -0.3618321801902964   -0.016378637917161144
-0.0723246023761354   -0.3625625781737117   -0.015784209863895983
-0.07261452498034754   -0.29866498309620204   -0.01615601761908635
-0.0719014149850195   -0.3629359896903906   -0.015873177308675337
-0.10867447020196043   -0.2991609988225794   -0.017105374155687948
-0.07242510025657684   -0.2991642487202371   -0.01600520404477335
-0.0719014149850195   -0.3629359896903906   -0.015873177308675337
-0.07261452498034754   -0.29866498309620204   -0.01615601761908635
-0.10867447020196043   -0.2991609988225794   -0.017105374155687948
-0.0719014149850195   -0.3629359896903906   -0.015873177308675337
-0.1051428709387398   -0.36233624686469174   -0.016797431163035528
-0.1059064032562645   -0.3618321801902964   -0.016378637917161144
-0.10867447020196043   -0.2991609988225794   -0.017105374155687948
-0.0719014149850195   -0.3629359896903906   -0.015873177308675337
-0.1059064032562645   -0.3618321801902964   -0.016378637917161144
-0.07261452498034754   -0.29866498309620204   -0.01615601761908635
-0.10867447020196043   -0.2991609988225794   -0.017105374155687948
-0.1051428709387398   -0.36233624686469174   -0.016797431163035528
-0.07242510025657684   -0.2991642487202371   -0.01600520404477335
-0.10834858801208011   -0.2998078673471915   -0.017172795442421764
-0.1051428709387398   -0.36233624686469174   -0.016797431163035528
-0.0719014149850195   -0.3629359896903906   -0.015873177308675337
-0.07242510025657684   -0.2991642487202371   -0.01600520404477335
-0.07132742161837   -0.36346613640930303   -0.016032167522504494
-0.10834858801208011   -0.2998078673471915   -0.017172795442421764
-0.07212632324681906   -0.2997162579355437   -0.01592246292441038
-0.07132742161837   -0.36346613640930303   -0.016032167522504494
-0.07242510025657684   -0.2991642487202371   -0.01600520404477335
-0.10834858801208011   -0.2998078673471915   -0.017172795442421764
-0.07132742161837   -0.36346613640930303   -0.016032167522504494
-0.10426913201915931   -0.3629530317975467   -0.017326390520527472
-0.1051428709387398   -0.36233624686469174   -0.016797431163035528
-0.10834858801208011   -0.2998078673471915   -0.017172795442421764
-0.07132742161837   -0.36346613640930303   -0.016032167522504494
-0.1051428709387398   -0.36233624686469174   -0.016797431163035528
-0.07242510025657684   -0.2991642487202371   -0.01600520404477335
-0.10834858801208011   -0.2998078673471915   -0.017172795442421764
-0.10426913201915931   -0.3629530317975467   -0.017326390520527472
-0.07212632324681906   -0.2997162579355437   -0.01592246292441038
-0.10781524911197553   -0.30063987715176843   -0.017347009583358317
-0.10426913201915931   -0.3629530317975467   -0.017326390520527472
-0.07132742161837   -0.36346613640930303   -0.016032167522504494
-0.07212632324681906   -0.2997162579355437   -0.01592246292441038
-0.07071106195926502   -0.36418528639516845   -0.016263318638310372
-0.10781524911197553   -0.30063987715176843   -0.017347009583358317
-0.0717374209903431   -0.3003589381026786   -0.015906774361179044
-0.07071106195926502   -0.36418528639516845   -0.016263318638310372
-0.07212632324681906   -0.2997162579355437   -0.01592246292441038
-0.10781524911197553   -0.30063987715176843   -0.017347009583358317
-0.07071106195926502   -0.36418528639516845   -0.016263318638310372
-0.10307778056853893   -0.36389094454531606   -0.017967436657204676
-0.10426913201915931   -0.3629530317975467   -0.017326390520527472
-0.10781524911197553   -0.30063987715176843   -0.017347009583358317
-0.07071106195926502   -0.36418528639516845   -0.016263318638310372
-0.10426913201915931   -0.3629530317975467   -0.017326390520527472
-0.07212632324681906   -0.2997162579355437   -0.01592246292441038
-0.07261452498034754   -0.29866498309620204   -0.01615601761908635
-0.0723246023761354   -0.3625625781737117   -0.015784209863895983
-0.0394815248181329   -0.2987034748531132   -0.01550187019466888
-0.07242510025657684   -0.2991642487202371   -0.01600520404477335
-0.0723246023761354   -0.3625625781737117   -0.015784209863895983
-0.042234292659535204   -0.36285340846850905   -0.01540329890212106
-0.0394815248181329   -0.2987034748531132   -0.01550187019466888
-0.041772875051419085   -0.36304819836974334   -0.015209716795147406
-0.07242510025657684   -0.2991642487202371   -0.01600520404477335
-0.039225832590214976   -0.2989905268376292   -0.01523589068932343
-0.041772875051419085   -0.36304819836974334   -0.015209716795147406
-0.0394815248181329   -0.2987034748531132   -0.01550187019466888
-0.07242510025657684   -0.2991642487202371   -0.01600520404477335
-0.041772875051419085   -0.36304819836974334   -0.015209716795147406
-0.0719014149850195   -0.3629359896903906   -0.015873177308675337
-0.0723246023761354   -0.3625625781737117   -0.015784209863895983
-0.07242510025657684   -0.2991642487202371   -0.01600520404477335
-0.041772875051419085   -0.36304819836974334   -0.015209716795147406
-0.0723246023761354   -0.3625625781737117   -0.015784209863895983
-0.0394815248181329   -0.2987034748531132   -0.01550187019466888
-0.07242510025657684   -0.2991642487202371   -0.01600520404477335
-0.0719014149850195   -0.3629359896903906   -0.015873177308675337
-0.039225832590214976   -0.2989905268376292   -0.01523589068932343
-0.07212632324681906   -0.2997162579355437   -0.01592246292441038
-0.0719014149850195   -0.3629359896903906   -0.015873177308675337
-0.041772875051419085   -0.36304819836974334   -0.015209716795147406
-0.039225832590214976   -0.2989905268376292   -0.01523589068932343
-0.04127629812745538   -0.3633938105890951   -0.01508531808858537
-0.07212632324681906   -0.2997162579355437   -0.01592246292441038
-0.03893612604184784   -0.2993384860098411   -0.015038273103515704
-0.04127629812745538   -0.3633938105890951   -0.01508531808858537
-0.039225832590214976   -0.2989905268376292   -0.01523589068932343
-0.07212632324681906   -0.2997162579355437   -0.01592246292441038
-0.04127629812745538   -0.3633938105890951   -0.01508531808858537
-0.07132742161837   -0.36346613640930303   -0.016032167522504494
-0.0719014149850195   -0.3629359896903906   -0.015873177308675337
-0.07212632324681906   -0.2997162579355437   -0.01592246292441038
-0.04127629812745538   -0.3633938105890951   -0.01508531808858537
-0.0719014149850195   -0.3629359896903906   -0.015873177308675337
-0.039225832590214976   -0.2989905268376292   -0.01523589068932343
-0.07212632324681906   -0.2997162579355437   -0.01592246292441038
-0.07132742161837   -0.36346613640930303   -0.016032167522504494
-0.03893612604184784   -0.2993384860098411   -0.015038273103515704
-0.0717374209903431   -0.3003589381026786   -0.015906774361179044
-0.07132742161837   -0.36346613640930303   -0.016032167522504494
-0.04127629812745538   -0.3633938105890951   -0.01508531808858537
-0.03893612604184784   -0.2993384860098411   -0.015038273103515704
-0.04076586408424962   -0.36389467726261393   -0.01503344022947957
-0.0717374209903431   -0.3003589381026786   -0.015906774361179044
-0.03862358855521531   -0.29974843470010043   -0.014911190536303187
-0.04076586408424962   -0.36389467726261393   -0.01503344022947957
-0.03893612604184784   -0.2993384860098411   -0.015038273103515704
-0.0717374209903431   -0.3003589381026786   -0.015906774361179044
-0.04076586408424962   -0.36389467726261393   -0.01503344022947957
-0.07071106195926502   -0.36418528639516845   -0.016263318638310372
-0.07132742161837   -0.36346613640930303   -0.016032167522504494
-0.0717374209903431   -0.3003589381026786   -0.015906774361179044
-0.04076586408424962   -0.36389467726261393   -0.01503344022947957
-0.07132742161837   -0.36346613640930303   -0.016032167522504494
-0.03893612604184784   -0.2993384860098411   -0.015038273103515704
-0.0394815248181329   -0.2987034748531132   -0.01550187019466888
-0.042234292659535204   -0.36285340846850905   -0.01540329890212106
-0.00728698492726275   -0.2985293076963861   -0.015231986314792036
-0.039225832590214976   -0.2989905268376292   -0.01523589068932343
-0.042234292659535204   -0.36285340846850905   -0.01540329890212106
-0.013057265493376843   -0.3626337398632682   -0.01533708654374168
-0.00728698492726275   -0.2985293076963861   -0.015231986314792036
-0.012546814659124635   -0.3626398726184479   -0.014870646873566639
-0.039225832590214976   -0.2989905268376292   -0.01523589068932343
-0.006983872145181858   -0.2985973604580471   -0.01485655744575628
-0.012546814659124635   -0.3626398726184479   -0.014870646873566639
-0.00728698492726275   -0.2985293076963861   -0.015231986314792036
-0.039225832590214976   -0.2989905268376292   -0.01523589068932343
-0.012546814659124635   -0.3626398726184479   -0.014870646873566639
-0.041772875051419085   -0.36304819836974334   -0.015209716795147406
-0.042234292659535204   -0.36285340846850905   -0.01540329890212106
-0.039225832590214976   -0.2989905268376292   -0.01523589068932343
-0.012546814659124635   -0.3626398726184479   -0.014870646873566639
-0.042234292659535204   -0.36285340846850905   -0.01540329890212106
-0.00728698492726275   -0.2985293076963861   -0.015231986314792036
-0.039225832590214976   -0.2989905268376292   -0.01523589068932343
-0.041772875051419085   -0.36304819836974334   -0.015209716795147406
-0.006983872145181858   -0.2985973604580471   -0.01485655744575628
-0.03893612604184784   -0.2993384860098411   -0.015038273103515704
-0.041772875051419085   -0.36304819836974334   -0.015209716795147406
-0.012546814659124635   -0.3626398726184479   -0.014870646873566639
-0.006983872145181858   -0.2985973604580471   -0.01485655744575628
-0.012049892603152508   -0.3627855993886886   -0.014473530705144125
-0.03893612604184784   -0.2993384860098411   -0.015038273103515704
-0.00669740531409101   -0.298721452024931   -0.014548971195707127
-0.012049892603152508   -0.3627855993886886   -0.014473530705144125
-0.006983872145181858   -0.2985973604580471   -0.01485655744575628
-0.03893612604184784   -0.2993384860098411   -0.015038273103515704
-0.012049892603152508   -0.3627855993886886   -0.014473530705144125
-0.04127629812745538   -0.3633938105890951   -0.01508531808858537
-0.041772875051419085   -0.36304819836974334   -0.015209716795147406
-0.03893612604184784   -0.2993384860098411   -0.015038273103515704
-0.012049892603152508   -0.3627855993886886   -0.014473530705144125
-0.041772875051419085   -0.36304819836974334   -0.015209716795147406
-0.006983872145181858   -0.2985973604580471   -0.01485655744575628
-0.03893612604184784   -0.2993384860098411   -0.015038273103515704
-0.04127629812745538   -0.3633938105890951   -0.01508531808858537
-0.00669740531409101   -0.298721452024931   -0.014548971195707127
-0.03862358855521531   -0.29974843470010043   -0.014911190536303187
-0.04127629812745538   -0.3633938105890951   -0.01508531808858537
-0.012049892603152508   -0.3627855993886886   -0.014473530705144125
-0.00669740531409101   -0.298721452024931   -0.014548971195707127
-0.011606963496969895   -0.3630831424533075   -0.014148162107496622
-0.03862358855521531   -0.29974843470010043   -0.014911190536303187
-0.006455198608417682   -0.29890446112532665   -0.0143116164708527
-0.011606963496969895   -0.3630831424533075   -0.014148162107496622
-0.00669740531409101   -0.298721452024931   -0.014548971195707127
-0.03862358855521531   -0.29974843470010043   -0.014911190536303187
-0.011606963496969895   -0.3630831424533075   -0.014148162107496622
-0.04076586408424962   -0.36389467726261393   -0.01503344022947957
-0.04127629812745538   -0.3633938105890951   -0.01508531808858537
-0.03862358855521531   -0.29974843470010043   -0.014911190536303187
-0.011606963496969895   -0.3630831424533075   -0.014148162107496622
-0.04127629812745538   -0.3633938105890951   -0.01508531808858537
-0.00669740531409101   -0.298721452024931   -0.014548971195707127
-0.00728698492726275   -0.2985293076963861   -0.015231986314792036
-0.013057265493376843   -0.3626337398632682   -0.01533708654374168
0.02588130364039653   -0.2981414706575182   -0.015358873853340454
-0.006983872145181858   -0.2985973604580471   -0.01485655744575628
-0.013057265493376843   -0.3626337398632682   -0.01533708654374168
0.017134214232429498   -0.361919419332918   -0.015610336199424098
0.02588130364039653   -0.2981414706575182   -0.015358873853340454
0.017758140091355446   -0.3617242051058771   -0.014873773830323952
-0.006983872145181858   -0.2985973604580471   -0.01485655744575628
0.02626870110188653   -0.2979899652909089   -0.014876078551027207
0.017758140091355446   -0.3617242051058771   -0.014873773830323952
0.02588130364039653   -0.2981414706575182   -0.015358873853340454
-0.006983872145181858   -0.2985973604580471   -0.01485655744575628
0.017758140091355446   -0.3617242051058771   -0.014873773830323952
-0.012546814659124635   -0.3626398726184479   -0.014870646873566639
-0.013057265493376843   -0.3626337398632682   -0.01533708654374168
-0.006983872145181858   -0.2985973604580471   -0.01485655744575628
0.017758140091355446   -0.3617242051058771   -0.014873773830323952
-0.013057265493376843   -0.3626337398632682   -0.01533708654374168
0.02588130364039653   -0.2981414706575182   -0.015358873853340454
-0.006983872145181858   -0.2985973604580471   -0.01485655744575628
-0.012546814659124635   -0.3626398726184479   -0.014870646873566639
0.02626870110188653   -0.2979899652909089   -0.014876078551027207
-0.00669740531409101   -0.298721452024931   -0.014548971195707127
-0.012546814659124635   -0.3626398726184479   -0.014870646873566639
0.017758140091355446   -0.3617242051058771   -0.014873773830323952
0.02626870110188653   -0.2979899652909089   -0.014876078551027207
0.01839727607532878   -0.3616883910375965   -0.014211018866183353
-0.00669740531409101   -0.298721452024931   -0.014548971195707127
0.02662569276805913   -0.2979112920683542   -0.014460945541513675
0.01839727607532878   -0.3616883910375965   -0.014211018866183353
0.02626870110188653   -0.2979899652909089   -0.014876078551027207
-0.00669740531409101   -0.298721452024931   -0.014548971195707127
0.01839727607532878   -0.3616883910375965   -0.014211018866183353
-0.012049892603152508   -0.3627855993886886   -0.014473530705144125
-0.012546814659124635   -0.3626398726184479   -0.014870646873566639
-0.00669740531409101   -0.298721452024931   -0.014548971195707127
0.01839727607532878   -0.3616883910375965   -0.014211018866183353
-0.012546814659124635   -0.3626398726184479   -0.014870646873566639
0.02626870110188653   -0.2979899652909089   -0.014876078551027207
-0.00669740531409101   -0.298721452024931   -0.014548971195707127
-0.012049892603152508   -0.3627855993886886   -0.014473530705144125
0.02662569276805913   -0.2979112920683542   -0.014460945541513675
-0.006455198608417682   -0.29890446112532665   -0.0143116164708527
-0.012049892603152508   -0.3627855993886886   -0.014473530705144125
0.01839727607532878   -0.3616883910375965   -0.014211018866183353
0.02662569276805913   -0.2979112920683542   -0.014460945541513675
0.01882122738551123   -0.36178243355027345   -0.013612352068662445
-0.006455198608417682   -0.29890446112532665   -0.0143116164708527
0.026814311233973855   -0.29786671971311285   -0.014109057989178338
0.01882122738551123   -0.36178243355027345   -0.013612352068662445
0.02662569276805913   -0.2979112920683542   -0.014460945541513675
-0.006455198608417682   -0.29890446112532665   -0.0143116164708527
0.01882122738551123   -0.36178243355027345   -0.013612352068662445
-0.011606963496969895   -0.3630831424533075   -0.014148162107496622
-0.012049892603152508   -0.3627855993886886   -0.014473530705144125
-0.006455198608417682   -0.29890446112532665   -0.0143116164708527
0.01882122738551123   -0.36178243355027345   -0.013612352068662445
-0.012049892603152508   -0.3627855993886886   -0.014473530705144125
0.02662569276805913   -0.2979112920683542   -0.014460945541513675
0.02588130364039653   -0.2981414706575182   -0.015358873853340454
0.017134214232429498   -0.361919419332918   -0.015610336199424098
0.061406760240734055   -0.29749108680870484   -0.01590231770071722
0.02626870110188653   -0.2979899652909089   -0.014876078551027207
0.017134214232429498   -0.361919419332918   -0.015610336199424098
0.04927223309447559   -0.3606918757310599   -0.016321505412234025
0.061406760240734055   -0.29749108680870484   -0.01590231770071722
0.05093150195611849   -0.36028793342503584   -0.015250697678393665
0.02626870110188653   -0.2979899652909089   -0.014876078551027207
0.06242258555825346   -0.2971408341585162   -0.015270043066475242
0.05093150195611849   -0.36028793342503584   -0.015250697678393665
0.061406760240734055   -0.29749108680870484   -0.01590231770071722
0.02626870110188653   -0.2979899652909089   -0.014876078551027207
0.05093150195611849   -0.36028793342503584   -0.015250697678393665
0.017758140091355446   -0.3617242051058771   -0.014873773830323952
0.017134214232429498   -0.361919419332918   -0.015610336199424098
0.02626870110188653   -0.2979899652909089   -0.014876078551027207
0.05093150195611849   -0.36028793342503584   -0.015250697678393665
0.017134214232429498   -0.361919419332918   -0.015610336199424098
0.061406760240734055   -0.29749108680870484   -0.01590231770071722
0.02626870110188653   -0.2979899652909089   -0.014876078551027207
0.017758140091355446   -0.3617242051058771   -0.014873773830323952
0.06242258555825346   -0.2971408341585162   -0.015270043066475242
0.02662569276805913   -0.2979112920683542   -0.014460945541513675
0.017758140091355446   -0.3617242051058771   -0.014873773830323952
0.05093150195611849   -0.36028793342503584   -0.015250697678393665
0.06242258555825346   -0.2971408341585162   -0.015270043066475242
0.05215878663494775   -0.3601774325588211   -0.014277949602292667
0.02662569276805913   -0.2979112920683542   -0.014460945541513675
0.063118015101126   -0.2969711326771692   -0.014734022435310093
0.05215878663494775   -0.3601774325588211   -0.014277949602292667
0.06242258555825346   -0.2971408341585162   -0.015270043066475242
0.02662569276805913   -0.2979112920683542   -0.014460945541513675
0.05215878663494775   -0.3601774325588211   -0.014277949602292667
0.01839727607532878   -0.3616883910375965   -0.014211018866183353
0.017758140091355446   -0.3617242051058771   -0.014873773830323952
0.02662569276805913   -0.2979112920683542   -0.014460945541513675
0.05215878663494775   -0.3601774325588211   -0.014277949602292667
0.017758140091355446   -0.3617242051058771   -0.014873773830323952
0.06242258555825346   -0.2971408341585162   -0.015270043066475242
0.02662569276805913   -0.2979112920683542   -0.014460945541513675
0.01839727607532878   -0.3616883910375965   -0.014211018866183353
0.063118015101126   -0.2969711326771692   -0.014734022435310093
0.026814311233973855   -0.29786671971311285   -0.014109057989178338
0.01839727607532878   -0.3616883910375965   -0.014211018866183353
0.05215878663494775   -0.3601774325588211   -0.014277949602292667
0.063118015101126   -0.2969711326771692   -0.014734022435310093
0.05340049030713604   -0.3601758472008545   -0.013407660307179919
0.026814311233973855   -0.29786671971311285   -0.014109057989178338
0.06373211344952567   -0.29678466902885664   -0.014298225404862789
0.05340049030713604   -0.3601758472008545   -0.013407660307179919
0.063118015101126   -0.2969711326771692   -0.014734022435310093
0.026814311233973855   -0.29786671971311285   -0.014109057989178338
0.05340049030713604   -0.3601758472008545   -0.013407660307179919
0.01882122738551123   -0.36178243355027345   -0.013612352068662445
0.01839727607532878   -0.3616883910375965   -0.014211018866183353
0.026814311233973855   -0.29786671971311285   -0.014109057989178338
0.05340049030713604   -0.3601758472008545   -0.013407660307179919
0.01839727607532878   -0.3616883910375965   -0.014211018866183353
0.063118015101126   -0.2969711326771692   -0.014734022435310093
-0.1059064032562645   -0.3618321801902964   -0.016378637917161144
-0.0966429405883408   -0.4179250841307292   -0.015267205387965197
-0.0723246023761354   -0.3625625781737117   -0.015784209863895983
-0.1051428709387398   -0.36233624686469174   -0.016797431163035528
-0.0966429405883408   -0.4179250841307292   -0.015267205387965197
-0.0683673809627782   -0.4192468738086715   -0.015169963976120266
-0.0723246023761354   -0.3625625781737117   -0.015784209863895983
-0.06765873701303476   -0.41943832919932494   -0.015481929620097113
-0.1051428709387398   -0.36233624686469174   -0.016797431163035528
-0.0719014149850195   -0.3629359896903906   -0.015873177308675337
-0.06765873701303476   -0.41943832919932494   -0.015481929620097113
-0.0723246023761354   -0.3625625781737117   -0.015784209863895983
-0.1051428709387398   -0.36233624686469174   -0.016797431163035528
-0.06765873701303476   -0.41943832919932494   -0.015481929620097113
-0.09517003343959794   -0.41820954730258564   -0.01613913417362043
-0.0966429405883408   -0.4179250841307292   -0.015267205387965197
-0.1051428709387398   -0.36233624686469174   -0.016797431163035528
-0.06765873701303476   -0.41943832919932494   -0.015481929620097113
-0.0966429405883408   -0.4179250841307292   -0.015267205387965197
-0.0723246023761354   -0.3625625781737117   -0.015784209863895983
-0.1051428709387398   -0.36233624686469174   -0.016797431163035528
-0.09517003343959794   -0.41820954730258564   -0.01613913417362043
-0.0719014149850195   -0.3629359896903906   -0.015873177308675337
-0.10426913201915931   -0.3629530317975467   -0.017326390520527472
-0.09517003343959794   -0.41820954730258564   -0.01613913417362043
-0.06765873701303476   -0.41943832919932494   -0.015481929620097113
-0.0719014149850195   -0.3629359896903906   -0.015873177308675337
-0.06676879252100465   -0.419895637896207   -0.015865174500697656
-0.10426913201915931   -0.3629530317975467   -0.017326390520527472
-0.07132742161837   -0.36346613640930303   -0.016032167522504494
-0.06676879252100465   -0.419895637896207   -0.015865174500697656
-0.0719014149850195   -0.3629359896903906   -0.015873177308675337
-0.10426913201915931   -0.3629530317975467   -0.017326390520527472
-0.06676879252100465   -0.419895637896207   -0.015865174500697656
-0.09369927397612768   -0.41874617025774674   -0.017127146958775784
-0.09517003343959794   -0.41820954730258564   -0.01613913417362043
-0.10426913201915931   -0.3629530317975467   -0.017326390520527472
-0.06676879252100465   -0.419895637896207   -0.015865174500697656
-0.09517003343959794   -0.41820954730258564   -0.01613913417362043
-0.0719014149850195   -0.3629359896903906   -0.015873177308675337
-0.10426913201915931   -0.3629530317975467   -0.017326390520527472
-0.09369927397612768   -0.41874617025774674   -0.017127146958775784
-0.07132742161837   -0.36346613640930303   -0.016032167522504494
-0.10307778056853893   -0.36389094454531606   -0.017967436657204676
-0.09369927397612768   -0.41874617025774674   -0.017127146958775784
-0.06676879252100465   -0.419895637896207   -0.015865174500697656
-0.07132742161837   -0.36346613640930303   -0.016032167522504494
-0.06589039717479452   -0.42064474680017877   -0.01631903415943557
-0.10307778056853893   -0.36389094454531606   -0.017967436657204676
-0.07071106195926502   -0.36418528639516845   -0.016263318638310372
-0.06589039717479452   -0.42064474680017877   -0.01631903415943557
-0.07132742161837   -0.36346613640930303   -0.016032167522504494
-0.10307778056853893   -0.36389094454531606   -0.017967436657204676
-0.06589039717479452   -0.42064474680017877   -0.01631903415943557
-0.09181487211851232   -0.41974679745276366   -0.018228978167231718
-0.09369927397612768   -0.41874617025774674   -0.017127146958775784
-0.10307778056853893   -0.36389094454531606   -0.017967436657204676
-0.06589039717479452   -0.42064474680017877   -0.01631903415943557
-0.09369927397612768   -0.41874617025774674   -0.017127146958775784
-0.07132742161837   -0.36346613640930303   -0.016032167522504494
-0.0723246023761354   -0.3625625781737117   -0.015784209863895983
-0.0683673809627782   -0.4192468738086715   -0.015169963976120266
-0.042234292659535204   -0.36285340846850905   -0.01540329890212106
-0.0719014149850195   -0.3629359896903906   -0.015873177308675337
-0.0683673809627782   -0.4192468738086715   -0.015169963976120266
-0.04390394769130257   -0.4198690882364236   -0.015130443948048737
-0.042234292659535204   -0.36285340846850905   -0.01540329890212106
-0.04317631569142513   -0.41993234678311975   -0.014991594209998396
-0.0719014149850195   -0.3629359896903906   -0.015873177308675337
-0.041772875051419085   -0.36304819836974334   -0.015209716795147406
-0.04317631569142513   -0.41993234678311975   -0.014991594209998396
-0.042234292659535204   -0.36285340846850905   -0.01540329890212106
-0.0719014149850195   -0.3629359896903906   -0.015873177308675337
-0.04317631569142513   -0.41993234678311975   -0.014991594209998396
-0.06765873701303476   -0.41943832919932494   -0.015481929620097113
-0.0683673809627782   -0.4192468738086715   -0.015169963976120266
-0.0719014149850195   -0.3629359896903906   -0.015873177308675337
-0.04317631569142513   -0.41993234678311975   -0.014991594209998396
-0.0683673809627782   -0.4192468738086715   -0.015169963976120266
-0.042234292659535204   -0.36285340846850905   -0.01540329890212106
-0.0719014149850195   -0.3629359896903906   -0.015873177308675337
-0.06765873701303476   -0.41943832919932494   -0.015481929620097113
-0.041772875051419085   -0.36304819836974334   -0.015209716795147406
-0.07132742161837   -0.36346613640930303   -0.016032167522504494
-0.06765873701303476   -0.41943832919932494   -0.015481929620097113
-0.04317631569142513   -0.41993234678311975   -0.014991594209998396
-0.041772875051419085   -0.36304819836974334   -0.015209716795147406
-0.042425536520942754   -0.4202328604367948   -0.014921916560503436
-0.07132742161837   -0.36346613640930303   -0.016032167522504494
-0.04127629812745538   -0.3633938105890951   -0.01508531808858537
-0.042425536520942754   -0.4202328604367948   -0.014921916560503436
-0.041772875051419085   -0.36304819836974334   -0.015209716795147406
-0.07132742161837   -0.36346613640930303   -0.016032167522504494
-0.042425536520942754   -0.4202328604367948   -0.014921916560503436
-0.06676879252100465   -0.419895637896207   -0.015865174500697656
-0.06765873701303476   -0.41943832919932494   -0.015481929620097113
-0.07132742161837   -0.36346613640930303   -0.016032167522504494
-0.042425536520942754   -0.4202328604367948   -0.014921916560503436
-0.06765873701303476   -0.41943832919932494   -0.015481929620097113
-0.041772875051419085   -0.36304819836974334   -0.015209716795147406
-0.07132742161837   -0.36346613640930303   -0.016032167522504494
-0.06676879252100465   -0.419895637896207   -0.015865174500697656
-0.04127629812745538   -0.3633938105890951   -0.01508531808858537
-0.07071106195926502   -0.36418528639516845   -0.016263318638310372
-0.06676879252100465   -0.419895637896207   -0.015865174500697656
-0.042425536520942754   -0.4202328604367948   -0.014921916560503436
-0.04127629812745538   -0.3633938105890951   -0.01508531808858537
-0.04167610515245434   -0.4207848971463833   -0.014920431864348707
-0.07071106195926502   -0.36418528639516845   -0.016263318638310372
-0.04076586408424962   -0.36389467726261393   -0.01503344022947957
-0.04167610515245434   -0.4207848971463833   -0.014920431864348707
-0.04127629812745538   -0.3633938105890951   -0.01508531808858537
-0.07071106195926502   -0.36418528639516845   -0.016263318638310372
-0.04167610515245434   -0.4207848971463833   -0.014920431864348707
-0.06589039717479452   -0.42064474680017877   -0.01631903415943557
-0.06676879252100465   -0.419895637896207   -0.015865174500697656
-0.07071106195926502   -0.36418528639516845   -0.016263318638310372
-0.04167610515245434   -0.4207848971463833   -0.014920431864348707
-0.06676879252100465   -0.419895637896207   -0.015865174500697656
-0.04127629812745538   -0.3633938105890951   -0.01508531808858537
-0.042234292659535204   -0.36285340846850905   -0.01540329890212106
-0.04390394769130257   -0.4198690882364236   -0.015130443948048737
-0.013057265493376843   -0.3626337398632682   -0.01533708654374168
-0.041772875051419085   -0.36304819836974334   -0.015209716795147406
-0.04390394769130257   -0.4198690882364236   -0.015130443948048737
-0.020254727487506723   -0.4197621785634247   -0.01530352223450954
-0.013057265493376843   -0.3626337398632682   -0.01533708654374168
-0.019457656262634234   -0.41968168859505556   -0.014729736870481257
-0.041772875051419085   -0.36304819836974334   -0.015209716795147406
-0.012546814659124635   -0.3626398726184479   -0.014870646873566639
-0.019457656262634234   -0.41968168859505556   -0.014729736870481257
-0.013057265493376843   -0.3626337398632682   -0.01533708654374168
-0.041772875051419085   -0.36304819836974334   -0.015209716795147406
-0.019457656262634234   -0.41968168859505556   -0.014729736870481257
-0.04317631569142513   -0.41993234678311975   -0.014991594209998396
-0.04390394769130257   -0.4198690882364236   -0.015130443948048737
-0.041772875051419085   -0.36304819836974334   -0.015209716795147406
-0.019457656262634234   -0.41968168859505556   -0.014729736870481257
-0.04390394769130257   -0.4198690882364236   -0.015130443948048737
-0.013057265493376843   -0.3626337398632682   -0.01533708654374168
-0.041772875051419085   -0.36304819836974334   -0.015209716795147406
-0.04317631569142513   -0.41993234678311975   -0.014991594209998396
-0.012546814659124635   -0.3626398726184479   -0.014870646873566639
-0.04127629812745538   -0.3633938105890951   -0.01508531808858537
-0.04317631569142513   -0.41993234678311975   -0.014991594209998396
-0.019457656262634234   -0.41968168859505556   -0.014729736870481257
-0.012546814659124635   -0.3626398726184479   -0.014870646873566639
-0.01868442278416648   -0.41981539378745397   -0.014229672514025375
-0.04127629812745538   -0.3633938105890951   -0.01508531808858537
-0.012049892603152508   -0.3627855993886886   -0.014473530705144125
-0.01868442278416648   -0.41981539378745397   -0.014229672514025375
-0.012546814659124635   -0.3626398726184479   -0.014870646873566639
-0.04127629812745538   -0.3633938105890951   -0.01508531808858537
-0.01868442278416648   -0.41981539378745397   -0.014229672514025375
-0.042425536520942754   -0.4202328604367948   -0.014921916560503436
-0.04317631569142513   -0.41993234678311975   -0.014991594209998396
-0.04127629812745538   -0.3633938105890951   -0.01508531808858537
-0.01868442278416648   -0.41981539378745397   -0.014229672514025375
-0.04317631569142513   -0.41993234678311975   -0.014991594209998396
-0.012546814659124635   -0.3626398726184479   -0.014870646873566639
-0.04127629812745538   -0.3633938105890951   -0.01508531808858537
-0.042425536520942754   -0.4202328604367948   -0.014921916560503436
-0.012049892603152508   -0.3627855993886886   -0.014473530705144125
-0.04076586408424962   -0.36389467726261393   -0.01503344022947957
-0.042425536520942754   -0.4202328604367948   -0.014921916560503436
-0.01868442278416648   -0.41981539378745397   -0.014229672514025375
-0.012049892603152508   -0.3627855993886886   -0.014473530705144125
-0.017986143190178463   -0.4201949741917962   -0.01379689633839192
-0.04076586408424962   -0.36389467726261393   -0.01503344022947957
-0.011606963496969895   -0.3630831424533075   -0.014148162107496622
-0.017986143190178463   -0.4201949741917962   -0.01379689633839192
-0.012049892603152508   -0.3627855993886886   -0.014473530705144125
-0.04076586408424962   -0.36389467726261393   -0.01503344022947957
-0.017986143190178463   -0.4201949741917962   -0.01379689633839192
-0.04167610515245434   -0.4207848971463833   -0.014920431864348707
-0.042425536520942754   -0.4202328604367948   -0.014921916560503436
-0.04076586408424962   -0.36389467726261393   -0.01503344022947957
-0.017986143190178463   -0.4201949741917962   -0.01379689633839192
-0.042425536520942754   -0.4202328604367948   -0.014921916560503436
-0.012049892603152508   -0.3627855993886886   -0.014473530705144125
-0.013057265493376843   -0.3626337398632682   -0.01533708654374168
-0.020254727487506723   -0.4197621785634247   -0.01530352223450954
0.017134214232429498   -0.361919419332918   -0.015610336199424098
-0.012546814659124635   -0.3626398726184479   -0.014870646873566639
-0.020254727487506723   -0.4197621785634247   -0.01530352223450954
0.004517408180437468   -0.4189001825289014   -0.015728140567654498
0.017134214232429498   -0.361919419332918   -0.015610336199424098
0.0054864184669097165   -0.4186367158581371   -0.014721093031358082
-0.012546814659124635   -0.3626398726184479   -0.014870646873566639
0.017758140091355446   -0.3617242051058771   -0.014873773830323952
0.0054864184669097165   -0.4186367158581371   -0.014721093031358082
0.017134214232429498   -0.361919419332918   -0.015610336199424098
-0.012546814659124635   -0.3626398726184479   -0.014870646873566639
0.0054864184669097165   -0.4186367158581371   -0.014721093031358082
-0.019457656262634234   -0.41968168859505556   -0.014729736870481257
-0.020254727487506723   -0.4197621785634247   -0.01530352223450954
-0.012546814659124635   -0.3626398726184479   -0.014870646873566639
0.0054864184669097165   -0.4186367158581371   -0.014721093031358082
-0.020254727487506723   -0.4197621785634247   -0.01530352223450954
0.017134214232429498   -0.361919419332918   -0.015610336199424098
-0.012546814659124635   -0.3626398726184479   -0.014870646873566639
-0.019457656262634234   -0.41968168859505556   -0.014729736870481257
0.017758140091355446   -0.3617242051058771   -0.014873773830323952
-0.012049892603152508   -0.3627855993886886   -0.014473530705144125
-0.019457656262634234   -0.41968168859505556   -0.014729736870481257
0.0054864184669097165   -0.4186367158581371   -0.014721093031358082
0.017758140091355446   -0.3617242051058771   -0.014873773830323952
0.0065065621285846885   -0.4186127761394759   -0.01380758165467419
-0.012049892603152508   -0.3627855993886886   -0.014473530705144125
0.01839727607532878   -0.3616883910375965   -0.014211018866183353
0.0065065621285846885   -0.4186127761394759   -0.01380758165467419
0.017758140091355446   -0.3617242051058771   -0.014873773830323952
-0.012049892603152508   -0.3627855993886886   -0.014473530705144125
0.0065065621285846885   -0.4186127761394759   -0.01380758165467419
-0.01868442278416648   -0.41981539378745397   -0.014229672514025375
-0.019457656262634234   -0.41968168859505556   -0.014729736870481257
-0.012049892603152508   -0.3627855993886886   -0.014473530705144125
0.0065065621285846885   -0.4186127761394759   -0.01380758165467419
-0.019457656262634234   -0.41968168859505556   -0.014729736870481257
0.017758140091355446   -0.3617242051058771   -0.014873773830323952
-0.012049892603152508   -0.3627855993886886   -0.014473530705144125
-0.01868442278416648   -0.41981539378745397   -0.014229672514025375
0.01839727607532878   -0.3616883910375965   -0.014211018866183353
-0.011606963496969895   -0.3630831424533075   -0.014148162107496622
-0.01868442278416648   -0.41981539378745397   -0.014229672514025375
0.0065065621285846885   -0.4186127761394759   -0.01380758165467419
0.01839727607532878   -0.3616883910375965   -0.014211018866183353
0.0072526862329265656   -0.4188176155208419   -0.012958515004800353
-0.011606963496969895   -0.3630831424533075   -0.014148162107496622
0.01882122738551123   -0.36178243355027345   -0.013612352068662445
0.0072526862329265656   -0.4188176155208419   -0.012958515004800353
0.01839727607532878   -0.3616883910375965   -0.014211018866183353
-0.011606963496969895   -0.3630831424533075   -0.014148162107496622
0.0072526862329265656   -0.4188176155208419   -0.012958515004800353
-0.017986143190178463   -0.4201949741917962   -0.01379689633839192
-0.01868442278416648   -0.41981539378745397   -0.014229672514025375
-0.011606963496969895   -0.3630831424533075   -0.014148162107496622
0.0072526862329265656   -0.4188176155208419   -0.012958515004800353
-0.01868442278416648   -0.41981539378745397   -0.014229672514025375
0.01839727607532878   -0.3616883910375965   -0.014211018866183353
0.017134214232429498   -0.361919419332918   -0.015610336199424098
0.004517408180437468   -0.4189001825289014   -0.015728140567654498
0.04927223309447559   -0.3606918757310599   -0.016321505412234025
0.017758140091355446   -0.3617242051058771   -0.014873773830323952
0.004517408180437468   -0.4189001825289014   -0.015728140567654498
0.030955438634377302   -0.41720092061401287   -0.016641041147557867
0.04927223309447559   -0.3606918757310599   -0.016321505412234025
0.03340143137308266   -0.41669440113756934   -0.015100259193483727
0.017758140091355446   -0.3617242051058771   -0.014873773830323952
0.05093150195611849   -0.36028793342503584   -0.015250697678393665
0.03340143137308266   -0.41669440113756934   -0.015100259193483727
0.04927223309447559   -0.3606918757310599   -0.016321505412234025
0.017758140091355446   -0.3617242051058771   -0.014873773830323952
0.03340143137308266   -0.41669440113756934   -0.015100259193483727
0.0054864184669097165   -0.4186367158581371   -0.014721093031358082
0.004517408180437468   -0.4189001825289014   -0.015728140567654498
0.017758140091355446   -0.3617242051058771   -0.014873773830323952
0.03340143137308266   -0.41669440113756934   -0.015100259193483727
0.004517408180437468   -0.4189001825289014   -0.015728140567654498
0.04927223309447559   -0.3606918757310599   -0.016321505412234025
0.017758140091355446   -0.3617242051058771   -0.014873773830323952
0.0054864184669097165   -0.4186367158581371   -0.014721093031358082
0.05093150195611849   -0.36028793342503584   -0.015250697678393665
0.01839727607532878   -0.3616883910375965   -0.014211018866183353
0.0054864184669097165   -0.4186367158581371   -0.014721093031358082
0.03340143137308266   -0.41669440113756934   -0.015100259193483727
0.05093150195611849   -0.36028793342503584   -0.015250697678393665
0.03527622258034619   -0.4166067263672212   -0.013675436479865657
0.01839727607532878   -0.3616883910375965   -0.014211018866183353
0.05215878663494775   -0.3601774325588211   -0.014277949602292667
0.03527622258034619   -0.4166067263672212   -0.013675436479865657
0.05093150195611849   -0.36028793342503584   -0.015250697678393665
0.01839727607532878   -0.3616883910375965   -0.014211018866183353
0.03527622258034619   -0.4166067263672212   -0.013675436479865657
0.0065065621285846885   -0.4186127761394759   -0.01380758165467419
0.0054864184669097165   -0.4186367158581371   -0.014721093031358082
0.01839727607532878   -0.3616883910375965   -0.014211018866183353
0.03527622258034619   -0.4166067263672212   -0.013675436479865657
0.0054864184669097165   -0.4186367158581371   -0.014721093031358082
0.05093150195611849   -0.36028793342503584   -0.015250697678393665
0.01839727607532878   -0.3616883910375965   -0.014211018866183353
0.0065065621285846885   -0.4186127761394759   -0.01380758165467419
0.05215878663494775   -0.3601774325588211   -0.014277949602292667
0.01882122738551123   -0.36178243355027345   -0.013612352068662445
0.0065065621285846885   -0.4186127761394759   -0.01380758165467419
0.03527622258034619   -0.4166067263672212   -0.013675436479865657
0.05215878663494775   -0.3601774325588211   -0.014277949602292667
0.03721499085830611   -0.41675561569153335   -0.012378278733145051
0.01882122738551123   -0.36178243355027345   -0.013612352068662445
0.05340049030713604   -0.3601758472008545   -0.013407660307179919
0.03721499085830611   -0.41675561569153335   -0.012378278733145051
0.05215878663494775   -0.3601774325588211   -0.014277949602292667
0.01882122738551123   -0.36178243355027345   -0.013612352068662445
0.03721499085830611   -0.41675561569153335   -0.012378278733145051
0.0072526862329265656   -0.4188176155208419   -0.012958515004800353
0.0065065621285846885   -0.4186127761394759   -0.01380758165467419
0.01882122738551123   -0.36178243355027345   -0.013612352068662445
0.03721499085830611   -0.41675561569153335   -0.012378278733145051
0.0065065621285846885   -0.4186127761394759   -0.01380758165467419
0.05215878663494775   -0.3601774325588211   -0.014277949602292667
-0.0966429405883408   -0.4179250841307292   -0.015267205387965197
-0.08086666152910209   -0.4619766374637496   -0.013846019914349932
-0.0683673809627782   -0.4192468738086715   -0.015169963976120266
-0.09517003343959794   -0.41820954730258564   -0.01613913417362043
-0.08086666152910209   -0.4619766374637496   -0.013846019914349932
-0.060752605916265925   -0.4639386678260022   -0.014435511882312548
-0.0683673809627782   -0.4192468738086715   -0.015169963976120266
-0.059727272172745594   -0.4638359920557387   -0.014915876311225795
-0.09517003343959794   -0.41820954730258564   -0.01613913417362043
-0.06765873701303476   -0.41943832919932494   -0.015481929620097113
-0.059727272172745594   -0.4638359920557387   -0.014915876311225795
-0.0683673809627782   -0.4192468738086715   -0.015169963976120266
-0.09517003343959794   -0.41820954730258564   -0.01613913417362043
-0.059727272172745594   -0.4638359920557387   -0.014915876311225795
-0.07866328177660725   -0.46192035356969136   -0.015141503114988596
-0.08086666152910209   -0.4619766374637496   -0.013846019914349932
-0.09517003343959794   -0.41820954730258564   -0.01613913417362043
-0.059727272172745594   -0.4638359920557387   -0.014915876311225795
-0.08086666152910209   -0.4619766374637496   -0.013846019914349932
-0.0683673809627782   -0.4192468738086715   -0.015169963976120266
-0.09517003343959794   -0.41820954730258564   -0.01613913417362043
-0.07866328177660725   -0.46192035356969136   -0.015141503114988596
-0.06765873701303476   -0.41943832919932494   -0.015481929620097113
-0.09369927397612768   -0.41874617025774674   -0.017127146958775784
-0.07866328177660725   -0.46192035356969136   -0.015141503114988596
-0.059727272172745594   -0.4638359920557387   -0.014915876311225795
-0.06765873701303476   -0.41943832919932494   -0.015481929620097113
-0.05852241891594469   -0.46411555697531426   -0.01546927138106025
-0.09369927397612768   -0.41874617025774674   -0.017127146958775784
-0.06676879252100465   -0.419895637896207   -0.015865174500697656
-0.05852241891594469   -0.46411555697531426   -0.01546927138106025
-0.06765873701303476   -0.41943832919932494   -0.015481929620097113
-0.09369927397612768   -0.41874617025774674   -0.017127146958775784
-0.05852241891594469   -0.46411555697531426   -0.01546927138106025
-0.07663110130964441   -0.4622662315965979   -0.01653975790018934
-0.07866328177660725   -0.46192035356969136   -0.015141503114988596
-0.09369927397612768   -0.41874617025774674   -0.017127146958775784
-0.05852241891594469   -0.46411555697531426   -0.01546927138106025
-0.07866328177660725   -0.46192035356969136   -0.015141503114988596
-0.06765873701303476   -0.41943832919932494   -0.015481929620097113
-0.09369927397612768   -0.41874617025774674   -0.017127146958775784
-0.07663110130964441   -0.4622662315965979   -0.01653975790018934
-0.06676879252100465   -0.419895637896207   -0.015865174500697656
-0.09181487211851232   -0.41974679745276366   -0.018228978167231718
-0.07663110130964441   -0.4622662315965979   -0.01653975790018934
-0.05852241891594469   -0.46411555697531426   -0.01546927138106025
-0.06676879252100465   -0.419895637896207   -0.015865174500697656
-0.057429319958185586   -0.4647835654462955   -0.016091003152679022
-0.09181487211851232   -0.41974679745276366   -0.018228978167231718
-0.06589039717479452   -0.42064474680017877   -0.01631903415943557
-0.057429319958185586   -0.4647835654462955   -0.016091003152679022
-0.06676879252100465   -0.419895637896207   -0.015865174500697656
-0.09181487211851232   -0.41974679745276366   -0.018228978167231718
-0.057429319958185586   -0.4647835654462955   -0.016091003152679022
-0.07415330224407768   -0.4631935905596794   -0.018034603440537207
-0.07663110130964441   -0.4622662315965979   -0.01653975790018934
-0.09181487211851232   -0.41974679745276366   -0.018228978167231718
-0.057429319958185586   -0.4647835654462955   -0.016091003152679022
-0.07663110130964441   -0.4622662315965979   -0.01653975790018934
-0.06676879252100465   -0.419895637896207   -0.015865174500697656
-0.0683673809627782   -0.4192468738086715   -0.015169963976120266
-0.060752605916265925   -0.4639386678260022   -0.014435511882312548
-0.04390394769130257   -0.4198690882364236   -0.015130443948048737
-0.06765873701303476   -0.41943832919932494   -0.015481929620097113
-0.060752605916265925   -0.4639386678260022   -0.014435511882312548
-0.04434313017700817   -0.46521802098858744   -0.014896584242263894
-0.04390394769130257   -0.4198690882364236   -0.015130443948048737
-0.04328994460799394   -0.465055194719666   -0.014749454581611667
-0.06765873701303476   -0.41943832919932494   -0.015481929620097113
-0.04317631569142513   -0.41993234678311975   -0.014991594209998396
-0.04328994460799394   -0.465055194719666   -0.014749454581611667
-0.04390394769130257   -0.4198690882364236   -0.015130443948048737
-0.06765873701303476   -0.41943832919932494   -0.015481929620097113
-0.04328994460799394   -0.465055194719666   -0.014749454581611667
-0.059727272172745594   -0.4638359920557387   -0.014915876311225795
-0.060752605916265925   -0.4639386678260022   -0.014435511882312548
-0.06765873701303476   -0.41943832919932494   -0.015481929620097113
-0.04328994460799394   -0.465055194719666   -0.014749454581611667
-0.060752605916265925   -0.4639386678260022   -0.014435511882312548
-0.04390394769130257   -0.4198690882364236   -0.015130443948048737
-0.06765873701303476   -0.41943832919932494   -0.015481929620097113
-0.059727272172745594   -0.4638359920557387   -0.014915876311225795
-0.04317631569142513   -0.41993234678311975   -0.014991594209998396
-0.06676879252100465   -0.419895637896207   -0.015865174500697656
-0.059727272172745594   -0.4638359920557387   -0.014915876311225795
-0.04328994460799394   -0.465055194719666   -0.014749454581611667
-0.04317631569142513   -0.41993234678311975   -0.014991594209998396
-0.04225220870338314   -0.46522196715415776   -0.014673181911453982
-0.06676879252100465   -0.419895637896207   -0.015865174500697656
-0.042425536520942754   -0.4202328604367948   -0.014921916560503436
-0.04225220870338314   -0.46522196715415776   -0.014673181911453982
-0.04317631569142513   -0.41993234678311975   -0.014991594209998396
-0.06676879252100465   -0.419895637896207   -0.015865174500697656
-0.04225220870338314   -0.46522196715415776   -0.014673181911453982
-0.05852241891594469   -0.46411555697531426   -0.01546927138106025
-0.059727272172745594   -0.4638359920557387   -0.014915876311225795
-0.06676879252100465   -0.419895637896207   -0.015865174500697656
-0.04225220870338314   -0.46522196715415776   -0.014673181911453982
-0.059727272172745594   -0.4638359920557387   -0.014915876311225795
-0.04317631569142513   -0.41993234678311975   -0.014991594209998396
-0.06676879252100465   -0.419895637896207   -0.015865174500697656
-0.05852241891594469   -0.46411555697531426   -0.01546927138106025
-0.042425536520942754   -0.4202328604367948   -0.014921916560503436
-0.06589039717479452   -0.42064474680017877   -0.01631903415943557
-0.05852241891594469   -0.46411555697531426   -0.01546927138106025
-0.04225220870338314   -0.46522196715415776   -0.014673181911453982
-0.042425536520942754   -0.4202328604367948   -0.014921916560503436
-0.041298047872736166   -0.465729560036545   -0.01468272224103381
-0.06589039717479452   -0.42064474680017877   -0.01631903415943557
-0.04167610515245434   -0.4207848971463833   -0.014920431864348707
-0.041298047872736166   -0.465729560036545   -0.01468272224103381
-0.042425536520942754   -0.4202328604367948   -0.014921916560503436
-0.06589039717479452   -0.42064474680017877   -0.01631903415943557
-0.041298047872736166   -0.465729560036545   -0.01468272224103381
-0.057429319958185586   -0.4647835654462955   -0.016091003152679022
-0.05852241891594469   -0.46411555697531426   -0.01546927138106025
-0.06589039717479452   -0.42064474680017877   -0.01631903415943557
-0.041298047872736166   -0.465729560036545   -0.01468272224103381
-0.05852241891594469   -0.46411555697531426   -0.01546927138106025
-0.042425536520942754   -0.4202328604367948   -0.014921916560503436
-0.04390394769130257   -0.4198690882364236   -0.015130443948048737
-0.04434313017700817   -0.46521802098858744   -0.014896584242263894
-0.020254727487506723   -0.4197621785634247   -0.01530352223450954
-0.04317631569142513   -0.41993234678311975   -0.014991594209998396
-0.04434313017700817   -0.46521802098858744   -0.014896584242263894
-0.028628828457920412   -0.46590205416222147   -0.015438829318655353
-0.020254727487506723   -0.4197621785634247   -0.01530352223450954
-0.027441330729704273   -0.46566869953959583   -0.014700393395579624
-0.04317631569142513   -0.41993234678311975   -0.014991594209998396
-0.019457656262634234   -0.41968168859505556   -0.014729736870481257
-0.027441330729704273   -0.46566869953959583   -0.014700393395579624
-0.020254727487506723   -0.4197621785634247   -0.01530352223450954
-0.04317631569142513   -0.41993234678311975   -0.014991594209998396
-0.027441330729704273   -0.46566869953959583   -0.014700393395579624
-0.04328994460799394   -0.465055194719666   -0.014749454581611667
-0.04434313017700817   -0.46521802098858744   -0.014896584242263894
-0.04317631569142513   -0.41993234678311975   -0.014991594209998396
-0.027441330729704273   -0.46566869953959583   -0.014700393395579624
-0.04434313017700817   -0.46521802098858744   -0.014896584242263894
-0.020254727487506723   -0.4197621785634247   -0.01530352223450954
-0.04317631569142513   -0.41993234678311975   -0.014991594209998396
-0.04328994460799394   -0.465055194719666   -0.014749454581611667
-0.019457656262634234   -0.41968168859505556   -0.014729736870481257
-0.042425536520942754   -0.4202328604367948   -0.014921916560503436
-0.04328994460799394   -0.465055194719666   -0.014749454581611667
-0.027441330729704273   -0.46566869953959583   -0.014700393395579624
-0.019457656262634234   -0.41968168859505556   -0.014729736870481257
-0.026309879481799456   -0.46572451620169436   -0.014024310162981519
-0.042425536520942754   -0.4202328604367948   -0.014921916560503436
-0.01868442278416648   -0.41981539378745397   -0.014229672514025375
-0.026309879481799456   -0.46572451620169436   -0.014024310162981519
-0.019457656262634234   -0.41968168859505556   -0.014729736870481257
-0.042425536520942754   -0.4202328604367948   -0.014921916560503436
-0.026309879481799456   -0.46572451620169436   -0.014024310162981519
-0.04225220870338314   -0.46522196715415776   -0.014673181911453982
-0.04328994460799394   -0.465055194719666   -0.014749454581611667
-0.042425536520942754   -0.4202328604367948   -0.014921916560503436
-0.026309879481799456   -0.46572451620169436   -0.014024310162981519
-0.04328994460799394   -0.465055194719666   -0.014749454581611667
-0.019457656262634234   -0.41968168859505556   -0.014729736870481257
-0.042425536520942754   -0.4202328604367948   -0.014921916560503436
-0.04225220870338314   -0.46522196715415776   -0.014673181911453982
-0.01868442278416648   -0.41981539378745397   -0.014229672514025375
-0.04167610515245434   -0.4207848971463833   -0.014920431864348707
-0.04225220870338314   -0.46522196715415776   -0.014673181911453982
-0.026309879481799456   -0.46572451620169436   -0.014024310162981519
-0.01868442278416648   -0.41981539378745397   -0.014229672514025375
-0.02536990618722035   -0.46612705451166897   -0.013450185688273187
-0.04167610515245434   -0.4207848971463833   -0.014920431864348707
-0.017986143190178463   -0.4201949741917962   -0.01379689633839192
-0.02536990618722035   -0.46612705451166897   -0.013450185688273187
-0.01868442278416648   -0.41981539378745397   -0.014229672514025375
-0.04167610515245434   -0.4207848971463833   -0.014920431864348707
-0.02536990618722035   -0.46612705451166897   -0.013450185688273187
-0.041298047872736166   -0.465729560036545   -0.01468272224103381
-0.04225220870338314   -0.46522196715415776   -0.014673181911453982
-0.04167610515245434   -0.4207848971463833   -0.014920431864348707
-0.02536990618722035   -0.46612705451166897   -0.013450185688273187
-0.04225220870338314   -0.46522196715415776   -0.014673181911453982
-0.01868442278416648   -0.41981539378745397   -0.014229672514025375
-0.020254727487506723   -0.4197621785634247   -0.01530352223450954
-0.028628828457920412   -0.46590205416222147   -0.015438829318655353
0.004517408180437468   -0.4189001825289014   -0.015728140567654498
-0.019457656262634234   -0.41968168859505556   -0.014729736870481257
-0.028628828457920412   -0.46590205416222147   -0.015438829318655353
-0.011899547144679482   -0.4657547073462431   -0.016075343968272295
0.004517408180437468   -0.4189001825289014   -0.015728140567654498
-0.01037493747625842   -0.46538930442182114   -0.01477187327978424
-0.019457656262634234   -0.41968168859505556   -0.014729736870481257
0.0054864184669097165   -0.4186367158581371   -0.014721093031358082
-0.01037493747625842   -0.46538930442182114   -0.01477187327978424
0.004517408180437468   -0.4189001825289014   -0.015728140567654498
-0.019457656262634234   -0.41968168859505556   -0.014729736870481257
-0.01037493747625842   -0.46538930442182114   -0.01477187327978424
-0.027441330729704273   -0.46566869953959583   -0.014700393395579624
-0.028628828457920412   -0.46590205416222147   -0.015438829318655353
-0.019457656262634234   -0.41968168859505556   -0.014729736870481257
-0.01037493747625842   -0.46538930442182114   -0.01477187327978424
-0.028628828457920412   -0.46590205416222147   -0.015438829318655353
0.004517408180437468   -0.4189001825289014   -0.015728140567654498
-0.019457656262634234   -0.41968168859505556   -0.014729736870481257
-0.027441330729704273   -0.46566869953959583   -0.014700393395579624
0.0054864184669097165   -0.4186367158581371   -0.014721093031358082
-0.01868442278416648   -0.41981539378745397   -0.014229672514025375
-0.027441330729704273   -0.46566869953959583   -0.014700393395579624
-0.01037493747625842   -0.46538930442182114   -0.01477187327978424
0.0054864184669097165   -0.4186367158581371   -0.014721093031358082
-0.008818612345998969   -0.46532339143194856   -0.013535273318103941
-0.01868442278416648   -0.41981539378745397   -0.014229672514025375
0.0065065621285846885   -0.4186127761394759   -0.01380758165467419
-0.008818612345998969   -0.46532339143194856   -0.013535273318103941
0.0054864184669097165   -0.4186367158581371   -0.014721093031358082
-0.01868442278416648   -0.41981539378745397   -0.014229672514025375
-0.008818612345998969   -0.46532339143194856   -0.013535273318103941
-0.026309879481799456   -0.46572451620169436   -0.014024310162981519
-0.027441330729704273   -0.46566869953959583   -0.014700393395579624
-0.01868442278416648   -0.41981539378745397   -0.014229672514025375
-0.008818612345998969   -0.46532339143194856   -0.013535273318103941
-0.027441330729704273   -0.46566869953959583   -0.014700393395579624
0.0054864184669097165   -0.4186367158581371   -0.014721093031358082
-0.01868442278416648   -0.41981539378745397   -0.014229672514025375
-0.026309879481799456   -0.46572451620169436   -0.014024310162981519
0.0065065621285846885   -0.4186127761394759   -0.01380758165467419
-0.017986143190178463   -0.4201949741917962   -0.01379689633839192
-0.026309879481799456   -0.46572451620169436   -0.014024310162981519
-0.008818612345998969   -0.46532339143194856   -0.013535273318103941
0.0065065621285846885   -0.4186127761394759   -0.01380758165467419
-0.0076644295074546395   -0.4656225932059241   -0.012413408379925885
-0.017986143190178463   -0.4201949741917962   -0.01379689633839192
0.0072526862329265656   -0.4188176155208419   -0.012958515004800353
-0.0076644295074546395   -0.4656225932059241   -0.012413408379925885
0.0065065621285846885   -0.4186127761394759   -0.01380758165467419
-0.017986143190178463   -0.4201949741917962   -0.01379689633839192
-0.0076644295074546395   -0.4656225932059241   -0.012413408379925885
-0.02536990618722035   -0.46612705451166897   -0.013450185688273187
-0.026309879481799456   -0.46572451620169436   -0.014024310162981519
-0.017986143190178463   -0.4201949741917962   -0.01379689633839192
-0.0076644295074546395   -0.4656225932059241   -0.012413408379925885
-0.026309879481799456   -0.46572451620169436   -0.014024310162981519
0.0065065621285846885   -0.4186127761394759   -0.01380758165467419
0.004517408180437468   -0.4189001825289014   -0.015728140567654498
-0.011899547144679482   -0.4657547073462431   -0.016075343968272295
0.030955438634377302   -0.41720092061401287   -0.016641041147557867
0.0054864184669097165   -0.4186367158581371   -0.014721093031358082
-0.011899547144679482   -0.4657547073462431   -0.016075343968272295
0.0061432757334736925   -0.46415556615445647   -0.017387447770732763
0.030955438634377302   -0.41720092061401287   -0.016641041147557867
0.009678040504139824   -0.4633579609683024   -0.015253941906059077
0.0054864184669097165   -0.4186367158581371   -0.014721093031358082
0.03340143137308266   -0.41669440113756934   -0.015100259193483727
0.009678040504139824   -0.4633579609683024   -0.015253941906059077
0.030955438634377302   -0.41720092061401287   -0.016641041147557867
0.0054864184669097165   -0.4186367158581371   -0.014721093031358082
0.009678040504139824   -0.4633579609683024   -0.015253941906059077
-0.01037493747625842   -0.46538930442182114   -0.01477187327978424
-0.011899547144679482   -0.4657547073462431   -0.016075343968272295
0.0054864184669097165   -0.4186367158581371   -0.014721093031358082
0.009678040504139824   -0.4633579609683024   -0.015253941906059077
-0.011899547144679482   -0.4657547073462431   -0.016075343968272295
0.030955438634377302   -0.41720092061401287   -0.016641041147557867
0.0054864184669097165   -0.4186367158581371   -0.014721093031358082
-0.01037493747625842   -0.46538930442182114   -0.01477187327978424
0.03340143137308266   -0.41669440113756934   -0.015100259193483727
0.0065065621285846885   -0.4186127761394759   -0.01380758165467419
-0.01037493747625842   -0.46538930442182114   -0.01477187327978424
0.009678040504139824   -0.4633579609683024   -0.015253941906059077
0.03340143137308266   -0.41669440113756934   -0.015100259193483727
0.01245695292666164   -0.4631952297003284   -0.013252269440096717
0.0065065621285846885   -0.4186127761394759   -0.01380758165467419
0.03527622258034619   -0.4166067263672212   -0.013675436479865657
0.01245695292666164   -0.4631952297003284   -0.013252269440096717
0.03340143137308266   -0.41669440113756934   -0.015100259193483727
0.0065065621285846885   -0.4186127761394759   -0.01380758165467419
0.01245695292666164   -0.4631952297003284   -0.013252269440096717
-0.008818612345998969   -0.46532339143194856   -0.013535273318103941
-0.01037493747625842   -0.46538930442182114   -0.01477187327978424
0.0065065621285846885   -0.4186127761394759   -0.01380758165467419
0.01245695292666164   -0.4631952297003284   -0.013252269440096717
-0.01037493747625842   -0.46538930442182114   -0.01477187327978424
0.03340143137308266   -0.41669440113756934   -0.015100259193483727
0.0065065621285846885   -0.4186127761394759   -0.01380758165467419
-0.008818612345998969   -0.46532339143194856   -0.013535273318103941
0.03527622258034619   -0.4166067263672212   -0.013675436479865657
0.0072526862329265656   -0.4188176155208419   -0.012958515004800353
-0.008818612345998969   -0.46532339143194856   -0.013535273318103941
0.01245695292666164   -0.4631952297003284   -0.013252269440096717
0.03527622258034619   -0.4166067263672212   -0.013675436479865657
0.01534013409992741   -0.4633260722522285   -0.011426065182254572
0.0072526862329265656   -0.4188176155208419   -0.012958515004800353
0.03721499085830611   -0.41675561569153335   -0.012378278733145051
0.01534013409992741   -0.4633260722522285   -0.011426065182254572
0.03527622258034619   -0.4166067263672212   -0.013675436479865657
0.0072526862329265656   -0.4188176155208419   -0.012958515004800353
0.01534013409992741   -0.4633260722522285   -0.011426065182254572
-0.0076644295074546395   -0.4656225932059241   -0.012413408379925885
-0.008818612345998969   -0.46532339143194856   -0.013535273318103941
0.0072526862329265656   -0.4188176155208419   -0.012958515004800353
0.01534013409992741   -0.4633260722522285   -0.011426065182254572
-0.008818612345998969   -0.46532339143194856   -0.013535273318103941
0.03527622258034619   -0.4166067263672212   -0.013675436479865657
-0.08086666152910209   -0.4619766374637496   -0.013846019914349932
-0.05913439814164736   -0.4881283132178876   -0.012179110136765892
-0.060752605916265925   -0.4639386678260022   -0.014435511882312548
-0.07866328177660725   -0.46192035356969136   -0.015141503114988596
-0.05913439814164736   -0.4881283132178876   -0.012179110136765892
-0.04981579547679421   -0.4906134095454622   -0.013677680556736214
-0.060752605916265925   -0.4639386678260022   -0.014435511882312548
-0.04851896062897578   -0.4901185920692308   -0.014187468314538983
-0.07866328177660725   -0.46192035356969136   -0.015141503114988596
-0.059727272172745594   -0.4638359920557387   -0.014915876311225795
-0.04851896062897578   -0.4901185920692308   -0.014187468314538983
-0.060752605916265925   -0.4639386678260022   -0.014435511882312548
-0.07866328177660725   -0.46192035356969136   -0.015141503114988596
-0.04851896062897578   -0.4901185920692308   -0.014187468314538983
-0.05638392323386545   -0.48757135463871215   -0.013734265396862854
-0.05913439814164736   -0.4881283132178876   -0.012179110136765892
-0.07866328177660725   -0.46192035356969136   -0.015141503114988596
-0.04851896062897578   -0.4901185920692308   -0.014187468314538983
-0.05913439814164736   -0.4881283132178876   -0.012179110136765892
-0.060752605916265925   -0.4639386678260022   -0.014435511882312548
-0.07866328177660725   -0.46192035356969136   -0.015141503114988596
-0.05638392323386545   -0.48757135463871215   -0.013734265396862854
-0.059727272172745594   -0.4638359920557387   -0.014915876311225795
-0.07663110130964441   -0.4622662315965979   -0.01653975790018934
-0.05638392323386545   -0.48757135463871215   -0.013734265396862854
-0.04851896062897578   -0.4901185920692308   -0.014187468314538983
-0.059727272172745594   -0.4638359920557387   -0.014915876311225795
-0.04708452143097339   -0.4901380342708269   -0.0147023355757959
-0.07663110130964441   -0.4622662315965979   -0.01653975790018934
-0.05852241891594469   -0.46411555697531426   -0.01546927138106025
-0.04708452143097339   -0.4901380342708269   -0.0147023355757959
-0.059727272172745594   -0.4638359920557387   -0.014915876311225795
-0.07663110130964441   -0.4622662315965979   -0.01653975790018934
-0.04708452143097339   -0.4901380342708269   -0.0147023355757959
-0.05401035163323921   -0.4876133719209037   -0.015282989505219544
-0.05638392323386545   -0.48757135463871215   -0.013734265396862854
-0.07663110130964441   -0.4622662315965979   -0.01653975790018934
-0.04708452143097339   -0.4901380342708269   -0.0147023355757959
-0.05638392323386545   -0.48757135463871215   -0.013734265396862854
-0.059727272172745594   -0.4638359920557387   -0.014915876311225795
-0.07663110130964441   -0.4622662315965979   -0.01653975790018934
-0.05401035163323921   -0.4876133719209037   -0.015282989505219544
-0.05852241891594469   -0.46411555697531426   -0.01546927138106025
-0.07415330224407768   -0.4631935905596794   -0.018034603440537207
-0.05401035163323921   -0.4876133719209037   -0.015282989505219544
-0.04708452143097339   -0.4901380342708269   -0.0147023355757959
-0.05852241891594469   -0.46411555697531426   -0.01546927138106025
-0.04575092847731827   -0.49067388997345557   -0.015224449862966671
-0.07415330224407768   -0.4631935905596794   -0.018034603440537207
-0.057429319958185586   -0.4647835654462955   -0.016091003152679022
-0.04575092847731827   -0.49067388997345557   -0.015224449862966671
-0.05852241891594469   -0.46411555697531426   -0.01546927138106025
-0.07415330224407768   -0.4631935905596794   -0.018034603440537207
-0.04575092847731827   -0.49067388997345557   -0.015224449862966671
-0.051196451139559424   -0.4882882196669146   -0.016865212957016183
-0.05401035163323921   -0.4876133719209037   -0.015282989505219544
-0.07415330224407768   -0.4631935905596794   -0.018034603440537207
-0.04575092847731827   -0.49067388997345557   -0.015224449862966671
-0.05401035163323921   -0.4876133719209037   -0.015282989505219544
-0.05852241891594469   -0.46411555697531426   -0.01546927138106025
-0.060752605916265925   -0.4639386678260022   -0.014435511882312548
-0.04981579547679421   -0.4906134095454622   -0.013677680556736214
-0.04434313017700817   -0.46521802098858744   -0.014896584242263894
-0.059727272172745594   -0.4638359920557387   -0.014915876311225795
-0.04981579547679421   -0.4906134095454622   -0.013677680556736214
-0.04301088596143837   -0.4931255837261203   -0.015003383415905474
-0.04434313017700817   -0.46521802098858744   -0.014896584242263894
-0.041640857144787526   -0.49261884504345704   -0.014640980122158377
-0.059727272172745594   -0.4638359920557387   -0.014915876311225795
-0.04328994460799394   -0.465055194719666   -0.014749454581611667
-0.041640857144787526   -0.49261884504345704   -0.014640980122158377
-0.04434313017700817   -0.46521802098858744   -0.014896584242263894
-0.059727272172745594   -0.4638359920557387   -0.014915876311225795
-0.041640857144787526   -0.49261884504345704   -0.014640980122158377
-0.04851896062897578   -0.4901185920692308   -0.014187468314538983
-0.04981579547679421   -0.4906134095454622   -0.013677680556736214
-0.059727272172745594   -0.4638359920557387   -0.014915876311225795
-0.041640857144787526   -0.49261884504345704   -0.014640980122158377
-0.04981579547679421   -0.4906134095454622   -0.013677680556736214
-0.04434313017700817   -0.46521802098858744   -0.014896584242263894
-0.059727272172745594   -0.4638359920557387   -0.014915876311225795
-0.04851896062897578   -0.4901185920692308   -0.014187468314538983
-0.04328994460799394   -0.465055194719666   -0.014749454581611667
-0.05852241891594469   -0.46411555697531426   -0.01546927138106025
-0.04851896062897578   -0.4901185920692308   -0.014187468314538983
-0.041640857144787526   -0.49261884504345704   -0.014640980122158377
-0.04328994460799394   -0.465055194719666   -0.014749454581611667
-0.040317066441039114   -0.4926060279474747   -0.014273944830105639
-0.05852241891594469   -0.46411555697531426   -0.01546927138106025
-0.04225220870338314   -0.46522196715415776   -0.014673181911453982
-0.040317066441039114   -0.4926060279474747   -0.014273944830105639
-0.04328994460799394   -0.465055194719666   -0.014749454581611667
-0.05852241891594469   -0.46411555697531426   -0.01546927138106025
-0.040317066441039114   -0.4926060279474747   -0.014273944830105639
-0.04708452143097339   -0.4901380342708269   -0.0147023355757959
-0.04851896062897578   -0.4901185920692308   -0.014187468314538983
-0.05852241891594469   -0.46411555697531426   -0.01546927138106025
-0.040317066441039114   -0.4926060279474747   -0.014273944830105639
-0.04851896062897578   -0.4901185920692308   -0.014187468314538983
-0.04328994460799394   -0.465055194719666   -0.014749454581611667
-0.05852241891594469   -0.46411555697531426   -0.01546927138106025
-0.04708452143097339   -0.4901380342708269   -0.0147023355757959
-0.04225220870338314   -0.46522196715415776   -0.014673181911453982
-0.057429319958185586   -0.4647835654462955   -0.016091003152679022
-0.04708452143097339   -0.4901380342708269   -0.0147023355757959
-0.040317066441039114   -0.4926060279474747   -0.014273944830105639
-0.04225220870338314   -0.46522196715415776   -0.014673181911453982
-0.03893632221716149   -0.49307659076192545   -0.013921098163290775
-0.057429319958185586   -0.4647835654462955   -0.016091003152679022
-0.041298047872736166   -0.465729560036545   -0.01468272224103381
-0.03893632221716149   -0.49307659076192545   -0.013921098163290775
-0.04225220870338314   -0.46522196715415776   -0.014673181911453982
-0.057429319958185586   -0.4647835654462955   -0.016091003152679022
-0.03893632221716149   -0.49307659076192545   -0.013921098163290775
-0.04575092847731827   -0.49067388997345557   -0.015224449862966671
-0.04708452143097339   -0.4901380342708269   -0.0147023355757959
-0.057429319958185586   -0.4647835654462955   -0.016091003152679022
-0.03893632221716149   -0.49307659076192545   -0.013921098163290775
-0.04708452143097339   -0.4901380342708269   -0.0147023355757959
-0.04225220870338314   -0.46522196715415776   -0.014673181911453982
-0.04434313017700817   -0.46521802098858744   -0.014896584242263894
-0.04301088596143837   -0.4931255837261203   -0.015003383415905474
-0.028628828457920412   -0.46590205416222147   -0.015438829318655353
-0.04328994460799394   -0.465055194719666   -0.014749454581611667
-0.04301088596143837   -0.4931255837261203   -0.015003383415905474
-0.03680328273755376   -0.49617637394214453   -0.01646067610341365
-0.028628828457920412   -0.46590205416222147   -0.015438829318655353
-0.03512261694087029   -0.49573860189127933   -0.015176769750929039
-0.04328994460799394   -0.465055194719666   -0.014749454581611667
-0.027441330729704273   -0.46566869953959583   -0.014700393395579624
-0.03512261694087029   -0.49573860189127933   -0.015176769750929039
-0.028628828457920412   -0.46590205416222147   -0.015438829318655353
-0.04328994460799394   -0.465055194719666   -0.014749454581611667
-0.03512261694087029   -0.49573860189127933   -0.015176769750929039
-0.041640857144787526   -0.49261884504345704   -0.014640980122158377
-0.04301088596143837   -0.4931255837261203   -0.015003383415905474
-0.04328994460799394   -0.465055194719666   -0.014749454581611667
-0.03512261694087029   -0.49573860189127933   -0.015176769750929039
-0.04301088596143837   -0.4931255837261203   -0.015003383415905474
-0.028628828457920412   -0.46590205416222147   -0.015438829318655353
-0.04328994460799394   -0.465055194719666   -0.014749454581611667
-0.041640857144787526   -0.49261884504345704   -0.014640980122158377
-0.027441330729704273   -0.46566869953959583   -0.014700393395579624
-0.04225220870338314   -0.46522196715415776   -0.014673181911453982
-0.041640857144787526   -0.49261884504345704   -0.014640980122158377
-0.03512261694087029   -0.49573860189127933   -0.015176769750929039
-0.027441330729704273   -0.46566869953959583   -0.014700393395579624
-0.03356662288094813   -0.4957129965848299   -0.013897974175368354
-0.04225220870338314   -0.46522196715415776   -0.014673181911453982
-0.026309879481799456   -0.46572451620169436   -0.014024310162981519
-0.03356662288094813   -0.4957129965848299   -0.013897974175368354
-0.027441330729704273   -0.46566869953959583   -0.014700393395579624
-0.04225220870338314   -0.46522196715415776   -0.014673181911453982
-0.03356662288094813   -0.4957129965848299   -0.013897974175368354
-0.040317066441039114   -0.4926060279474747   -0.014273944830105639
-0.041640857144787526   -0.49261884504345704   -0.014640980122158377
-0.04225220870338314   -0.46522196715415776   -0.014673181911453982
-0.03356662288094813   -0.4957129965848299   -0.013897974175368354
-0.041640857144787526   -0.49261884504345704   -0.014640980122158377
-0.027441330729704273   -0.46566869953959583   -0.014700393395579624
-0.04225220870338314   -0.46522196715415776   -0.014673181911453982
-0.040317066441039114   -0.4926060279474747   -0.014273944830105639
-0.026309879481799456   -0.46572451620169436   -0.014024310162981519
-0.041298047872736166   -0.465729560036545   -0.01468272224103381
-0.040317066441039114   -0.4926060279474747   -0.014273944830105639
-0.03356662288094813   -0.4957129965848299   -0.013897974175368354
-0.026309879481799456   -0.46572451620169436   -0.014024310162981519
-0.031894427409470766   -0.49607672870548436   -0.012615017811739036
-0.041298047872736166   -0.465729560036545   -0.01468272224103381
-0.02536990618722035   -0.46612705451166897   -0.013450185688273187
-0.031894427409470766   -0.49607672870548436   -0.012615017811739036
-0.026309879481799456   -0.46572451620169436   -0.014024310162981519
-0.041298047872736166   -0.465729560036545   -0.01468272224103381
-0.031894427409470766   -0.49607672870548436   -0.012615017811739036
-0.03893632221716149   -0.49307659076192545   -0.013921098163290775
-0.040317066441039114   -0.4926060279474747   -0.014273944830105639
-0.041298047872736166   -0.465729560036545   -0.01468272224103381
-0.031894427409470766   -0.49607672870548436   -0.012615017811739036
-0.040317066441039114   -0.4926060279474747   -0.014273944830105639
-0.026309879481799456   -0.46572451620169436   -0.014024310162981519
-0.028628828457920412   -0.46590205416222147   -0.015438829318655353
-0.03680328273755376   -0.49617637394214453   -0.01646067610341365
-0.011899547144679482   -0.4657547073462431   -0.016075343968272295
-0.027441330729704273   -0.46566869953959583   -0.014700393395579624
-0.03680328273755376   -0.49617637394214453   -0.01646067610341365
-0.030693957718748076   -0.5   -0.017570152738782412
-0.011899547144679482   -0.4657547073462431   -0.016075343968272295
-0.028582971794072078   -0.5   -0.015628074106888712
-0.027441330729704273   -0.46566869953959583   -0.014700393395579624
-0.01037493747625842   -0.46538930442182114   -0.01477187327978424
-0.028582971794072078   -0.5   -0.015628074106888712
-0.011899547144679482   -0.4657547073462431   -0.016075343968272295
-0.027441330729704273   -0.46566869953959583   -0.014700393395579624
-0.028582971794072078   -0.5   -0.015628074106888712
-0.03512261694087029   -0.49573860189127933   -0.015176769750929039
-0.03680328273755376   -0.49617637394214453   -0.01646067610341365
-0.027441330729704273   -0.46566869953959583   -0.014700393395579624
-0.028582971794072078   -0.5   -0.015628074106888712
-0.03680328273755376   -0.49617637394214453   -0.01646067610341365
-0.011899547144679482   -0.4657547073462431   -0.016075343968272295
-0.027441330729704273   -0.46566869953959583   -0.014700393395579624
-0.03512261694087029   -0.49573860189127933   -0.015176769750929039
-0.01037493747625842   -0.46538930442182114   -0.01477187327978424
-0.026309879481799456   -0.46572451620169436   -0.014024310162981519
-0.03512261694087029   -0.49573860189127933   -0.015176769750929039
-0.028582971794072078   -0.5   -0.015628074106888712
-0.01037493747625842   -0.46538930442182114   -0.01477187327978424
-0.026464262728256343   -0.5   -0.013662885479730453
-0.026309879481799456   -0.46572451620169436   -0.014024310162981519
-0.008818612345998969   -0.46532339143194856   -0.013535273318103941
-0.026464262728256343   -0.5   -0.013662885479730453
-0.01037493747625842   -0.46538930442182114   -0.01477187327978424
-0.026309879481799456   -0.46572451620169436   -0.014024310162981519
-0.026464262728256343   -0.5   -0.013662885479730453
-0.03356662288094813   -0.4957129965848299   -0.013897974175368354
-0.03512261694087029   -0.49573860189127933   -0.015176769750929039
-0.026309879481799456   -0.46572451620169436   -0.014024310162981519
-0.026464262728256343   -0.5   -0.013662885479730453
-0.03512261694087029   -0.49573860189127933   -0.015176769750929039
-0.01037493747625842   -0.46538930442182114   -0.01477187327978424
-0.026309879481799456   -0.46572451620169436   -0.014024310162981519
-0.03356662288094813   -0.4957129965848299   -0.013897974175368354
-0.008818612345998969   -0.46532339143194856   -0.013535273318103941
-0.02536990618722035   -0.46612705451166897   -0.013450185688273187
-0.03356662288094813   -0.4957129965848299   -0.013897974175368354
-0.026464262728256343   -0.5   -0.013662885479730453
-0.008818612345998969   -0.46532339143194856   -0.013535273318103941
-0.024390276416611463   -0.5   -0.011723478621824695
-0.02536990618722035   -0.46612705451166897   -0.013450185688273187
-0.0076644295074546395   -0.4656225932059241   -0.012413408379925885
-0.024390276416611463   -0.5   -0.011723478621824695
-0.008818612345998969   -0.46532339143194856   -0.013535273318103941
-0.02536990618722035   -0.46612705451166897   -0.013450185688273187
-0.024390276416611463   -0.5   -0.011723478621824695
-0.031894427409470766   -0.49607672870548436   -0.012615017811739036
-0.03356662288094813   -0.4957129965848299   -0.013897974175368354
-0.02536990618722035   -0.46612705451166897   -0.013450185688273187
-0.024390276416611463   -0.5   -0.011723478621824695
-0.03356662288094813   -0.4957129965848299   -0.013897974175368354
-0.008818612345998969   -0.46532339143194856   -0.013535273318103941
-0.011899547144679482   -0.4657547073462431   -0.016075343968272295
-0.030693957718748076   -0.5   -0.017570152738782412
0.0061432757334736925   -0.46415556615445647   -0.017387447770732763
-0.01037493747625842   -0.46538930442182114   -0.01477187327978424
-0.030693957718748076   -0.5   -0.017570152738782412
-0.026287610870591678   -0.5   -0.01891391216434552
0.0061432757334736925   -0.46415556615445647   -0.017387447770732763
-0.02189252797312236   -0.5   -0.016108505655628318
-0.01037493747625842   -0.46538930442182114   -0.01477187327978424
0.009678040504139824   -0.4633579609683024   -0.015253941906059077
-0.02189252797312236   -0.5   -0.016108505655628318
0.0061432757334736925   -0.46415556615445647   -0.017387447770732763
-0.01037493747625842   -0.46538930442182114   -0.01477187327978424
-0.02189252797312236   -0.5   -0.016108505655628318
-0.028582971794072078   -0.5   -0.015628074106888712
-0.030693957718748076   -0.5   -0.017570152738782412
-0.01037493747625842   -0.46538930442182114   -0.01477187327978424
-0.02189252797312236   -0.5   -0.016108505655628318
-0.030693957718748076   -0.5   -0.017570152738782412
0.0061432757334736925   -0.46415556615445647   -0.017387447770732763
-0.01037493747625842   -0.46538930442182114   -0.01477187327978424
-0.028582971794072078   -0.5   -0.015628074106888712
0.009678040504139824   -0.4633579609683024   -0.015253941906059077
-0.008818612345998969   -0.46532339143194856   -0.013535273318103941
-0.028582971794072078   -0.5   -0.015628074106888712
-0.02189252797312236   -0.5   -0.016108505655628318
0.009678040504139824   -0.4633579609683024   -0.015253941906059077
-0.018387324951055804   -0.5   -0.013424546448693234
-0.008818612345998969   -0.46532339143194856   -0.013535273318103941
0.01245695292666164   -0.4631952297003284   -0.013252269440096717
-0.018387324951055804   -0.5   -0.013424546448693234
0.009678040504139824   -0.4633579609683024   -0.015253941906059077
-0.008818612345998969   -0.46532339143194856   -0.013535273318103941
-0.018387324951055804   -0.5   -0.013424546448693234
-0.026464262728256343   -0.5   -0.013662885479730453
-0.028582971794072078   -0.5   -0.015628074106888712
-0.008818612345998969   -0.46532339143194856   -0.013535273318103941
-0.018387324951055804   -0.5   -0.013424546448693234
-0.028582971794072078   -0.5   -0.015628074106888712
0.009678040504139824   -0.4633579609683024   -0.015253941906059077
-0.008818612345998969   -0.46532339143194856   -0.013535273318103941
-0.026464262728256343   -0.5   -0.013662885479730453
0.01245695292666164   -0.4631952297003284   -0.013252269440096717
-0.0076644295074546395   -0.4656225932059241   -0.012413408379925885
-0.026464262728256343   -0.5   -0.013662885479730453
-0.018387324951055804   -0.5   -0.013424546448693234
0.01245695292666164   -0.4631952297003284   -0.013252269440096717
-0.014056572975348364   -0.5   -0.010638501751033326
-0.0076644295074546395   -0.4656225932059241   -0.012413408379925885
0.01534013409992741   -0.4633260722522285   -0.011426065182254572
-0.014056572975348364   -0.5   -0.010638501751033326
0.01245695292666164   -0.4631952297003284   -0.013252269440096717
-0.0076644295074546395   -0.4656225932059241   -0.012413408379925885
-0.014056572975348364   -0.5   -0.010638501751033326
-0.024390276416611463   -0.5   -0.011723478621824695
-0.026464262728256343   -0.5   -0.013662885479730453
-0.0076644295074546395   -0.4656225932059241   -0.012413408379925885
-0.014056572975348364   -0.5   -0.010638501751033326
-0.026464262728256343   -0.5   -0.013662885479730453
0.01245695292666164   -0.4631952297003284   -0.013252269440096717
-0.05913439814164736   -0.4881283132178876   -0.012179110136765892
-0.035090066853243874   -0.4892827405793819   -0.0104206884630742
-0.04981579547679421   -0.4906134095454622   -0.013677680556736214
-0.05638392323386545   -0.48757135463871215   -0.013734265396862854
-0.035090066853243874   -0.4892827405793819   -0.0104206884630742
-0.03732505175718621   -0.4911904373819815   -0.012349708817042981
-0.04981579547679421   -0.4906134095454622   -0.013677680556736214
-0.036345661341902605   -0.4905155507886248   -0.013047809687410764
-0.05638392323386545   -0.48757135463871215   -0.013734265396862854
-0.04851896062897578   -0.4901185920692308   -0.014187468314538983
-0.036345661341902605   -0.4905155507886248   -0.013047809687410764
-0.04981579547679421   -0.4906134095454622   -0.013677680556736214
-0.05638392323386545   -0.48757135463871215   -0.013734265396862854
-0.036345661341902605   -0.4905155507886248   -0.013047809687410764
-0.032601198186016894   -0.4884167496778544   -0.01205410998435771
-0.035090066853243874   -0.4892827405793819   -0.0104206884630742
-0.05638392323386545   -0.48757135463871215   -0.013734265396862854
-0.036345661341902605   -0.4905155507886248   -0.013047809687410764
-0.035090066853243874   -0.4892827405793819   -0.0104206884630742
-0.04981579547679421   -0.4906134095454622   -0.013677680556736214
-0.05638392323386545   -0.48757135463871215   -0.013734265396862854
-0.032601198186016894   -0.4884167496778544   -0.01205410998435771
-0.04851896062897578   -0.4901185920692308   -0.014187468314538983
-0.05401035163323921   -0.4876133719209037   -0.015282989505219544
-0.032601198186016894   -0.4884167496778544   -0.01205410998435771
-0.036345661341902605   -0.4905155507886248   -0.013047809687410764
-0.04851896062897578   -0.4901185920692308   -0.014187468314538983
-0.03519809016539814   -0.4902613294277542   -0.013691055729122608
-0.05401035163323921   -0.4876133719209037   -0.015282989505219544
-0.04708452143097339   -0.4901380342708269   -0.0147023355757959
-0.03519809016539814   -0.4902613294277542   -0.013691055729122608
-0.04851896062897578   -0.4901185920692308   -0.014187468314538983
-0.05401035163323921   -0.4876133719209037   -0.015282989505219544
-0.03519809016539814   -0.4902613294277542   -0.013691055729122608
-0.030529029167622387   -0.4881443978392168   -0.01361941408417383
-0.032601198186016894   -0.4884167496778544   -0.01205410998435771
-0.05401035163323921   -0.4876133719209037   -0.015282989505219544
-0.03519809016539814   -0.4902613294277542   -0.013691055729122608
-0.032601198186016894   -0.4884167496778544   -0.01205410998435771
-0.04851896062897578   -0.4901185920692308   -0.014187468314538983
-0.05401035163323921   -0.4876133719209037   -0.015282989505219544
-0.030529029167622387   -0.4881443978392168   -0.01361941408417383
-0.04708452143097339   -0.4901380342708269   -0.0147023355757959
-0.051196451139559424   -0.4882882196669146   -0.016865212957016183
-0.030529029167622387   -0.4881443978392168   -0.01361941408417383
-0.03519809016539814   -0.4902613294277542   -0.013691055729122608
-0.04708452143097339   -0.4901380342708269   -0.0147023355757959
-0.03421432194958295   -0.49043121688987834   -0.014275995144625969
-0.051196451139559424   -0.4882882196669146   -0.016865212957016183
-0.04575092847731827   -0.49067388997345557   -0.015224449862966671
-0.03421432194958295   -0.49043121688987834   -0.014275995144625969
-0.04708452143097339   -0.4901380342708269   -0.0147023355757959
-0.051196451139559424   -0.4882882196669146   -0.016865212957016183
-0.03421432194958295   -0.49043121688987834   -0.014275995144625969
-0.028187267423036615   -0.48835660106373574   -0.015109465866665584
-0.030529029167622387   -0.4881443978392168   -0.01361941408417383
-0.051196451139559424   -0.4882882196669146   -0.016865212957016183
-0.03421432194958295   -0.49043121688987834   -0.014275995144625969
-0.030529029167622387   -0.4881443978392168   -0.01361941408417383
-0.04708452143097339   -0.4901380342708269   -0.0147023355757959
-0.04981579547679421   -0.4906134095454622   -0.013677680556736214
-0.03732505175718621   -0.4911904373819815   -0.012349708817042981
-0.04301088596143837   -0.4931255837261203   -0.015003383415905474
-0.04851896062897578   -0.4901185920692308   -0.014187468314538983
-0.03732505175718621   -0.4911904373819815   -0.012349708817042981
-0.040305871746865375   -0.4923783377642152   -0.013893338692208736
-0.04301088596143837   -0.4931255837261203   -0.015003383415905474
-0.039438313227392365   -0.4917760663061308   -0.013912821693917186
-0.04851896062897578   -0.4901185920692308   -0.014187468314538983
-0.041640857144787526   -0.49261884504345704   -0.014640980122158377
-0.039438313227392365   -0.4917760663061308   -0.013912821693917186
-0.04301088596143837   -0.4931255837261203   -0.015003383415905474
-0.04851896062897578   -0.4901185920692308   -0.014187468314538983
-0.039438313227392365   -0.4917760663061308   -0.013912821693917186
-0.036345661341902605   -0.4905155507886248   -0.013047809687410764
-0.03732505175718621   -0.4911904373819815   -0.012349708817042981
-0.04851896062897578   -0.4901185920692308   -0.014187468314538983
-0.039438313227392365   -0.4917760663061308   -0.013912821693917186
-0.03732505175718621   -0.4911904373819815   -0.012349708817042981
-0.04301088596143837   -0.4931255837261203   -0.015003383415905474
-0.04851896062897578   -0.4901185920692308   -0.014187468314538983
-0.036345661341902605   -0.4905155507886248   -0.013047809687410764
-0.041640857144787526   -0.49261884504345704   -0.014640980122158377
-0.04708452143097339   -0.4901380342708269   -0.0147023355757959
-0.036345661341902605   -0.4905155507886248   -0.013047809687410764
-0.039438313227392365   -0.4917760663061308   -0.013912821693917186
-0.041640857144787526   -0.49261884504345704   -0.014640980122158377
-0.038472351042123175   -0.49155485831593815   -0.013861175574015491
-0.04708452143097339   -0.4901380342708269   -0.0147023355757959
-0.040317066441039114   -0.4926060279474747   -0.014273944830105639
-0.038472351042123175   -0.49155485831593815   -0.013861175574015491
-0.041640857144787526   -0.49261884504345704   -0.014640980122158377
-0.04708452143097339   -0.4901380342708269   -0.0147023355757959
-0.038472351042123175   -0.49155485831593815   -0.013861175574015491
-0.03519809016539814   -0.4902613294277542   -0.013691055729122608
-0.036345661341902605   -0.4905155507886248   -0.013047809687410764
-0.04708452143097339   -0.4901380342708269   -0.0147023355757959
-0.038472351042123175   -0.49155485831593815   -0.013861175574015491
-0.036345661341902605   -0.4905155507886248   -0.013047809687410764
-0.041640857144787526   -0.49261884504345704   -0.014640980122158377
-0.04708452143097339   -0.4901380342708269   -0.0147023355757959
-0.03519809016539814   -0.4902613294277542   -0.013691055729122608
-0.040317066441039114   -0.4926060279474747   -0.014273944830105639
-0.04575092847731827   -0.49067388997345557   -0.015224449862966671
-0.03519809016539814   -0.4902613294277542   -0.013691055729122608
-0.038472351042123175   -0.49155485831593815   -0.013861175574015491
-0.040317066441039114   -0.4926060279474747   -0.014273944830105639
-0.03748985786683231   -0.4916968670653663   -0.013753734627036718
-0.04575092847731827   -0.49067388997345557   -0.015224449862966671
-0.03893632221716149   -0.49307659076192545   -0.013921098163290775
-0.03748985786683231   -0.4916968670653663   -0.013753734627036718
-0.040317066441039114   -0.4926060279474747   -0.014273944830105639
-0.04575092847731827   -0.49067388997345557   -0.015224449862966671
-0.03748985786683231   -0.4916968670653663   -0.013753734627036718
-0.03421432194958295   -0.49043121688987834   -0.014275995144625969
-0.03519809016539814   -0.4902613294277542   -0.013691055729122608
-0.04575092847731827   -0.49067388997345557   -0.015224449862966671
-0.03748985786683231   -0.4916968670653663   -0.013753734627036718
-0.03519809016539814   -0.4902613294277542   -0.013691055729122608
-0.040317066441039114   -0.4926060279474747   -0.014273944830105639
-0.04301088596143837   -0.4931255837261203   -0.015003383415905474
-0.040305871746865375   -0.4923783377642152   -0.013893338692208736
-0.03680328273755376   -0.49617637394214453   -0.01646067610341365
-0.041640857144787526   -0.49261884504345704   -0.014640980122158377
-0.040305871746865375   -0.4923783377642152   -0.013893338692208736
-0.0434955152825245   -0.4928907077570126   -0.015411262438309665
-0.03680328273755376   -0.49617637394214453   -0.01646067610341365
-0.042596867532822894   -0.49231750948369724   -0.014778326788665825
-0.041640857144787526   -0.49261884504345704   -0.014640980122158377
-0.03512261694087029   -0.49573860189127933   -0.015176769750929039
-0.042596867532822894   -0.49231750948369724   -0.014778326788665825
-0.03680328273755376   -0.49617637394214453   -0.01646067610341365
-0.041640857144787526   -0.49261884504345704   -0.014640980122158377
-0.042596867532822894   -0.49231750948369724   -0.014778326788665825
-0.039438313227392365   -0.4917760663061308   -0.013912821693917186
-0.040305871746865375   -0.4923783377642152   -0.013893338692208736
-0.041640857144787526   -0.49261884504345704   -0.014640980122158377
-0.042596867532822894   -0.49231750948369724   -0.014778326788665825
-0.040305871746865375   -0.4923783377642152   -0.013893338692208736
-0.03680328273755376   -0.49617637394214453   -0.01646067610341365
-0.041640857144787526   -0.49261884504345704   -0.014640980122158377
-0.039438313227392365   -0.4917760663061308   -0.013912821693917186
-0.03512261694087029   -0.49573860189127933   -0.015176769750929039
-0.040317066441039114   -0.4926060279474747   -0.014273944830105639
-0.039438313227392365   -0.4917760663061308   -0.013912821693917186
-0.042596867532822894   -0.49231750948369724   -0.014778326788665825
-0.03512261694087029   -0.49573860189127933   -0.015176769750929039
-0.04151803909670184   -0.49213171537551015   -0.01405879377148975
-0.040317066441039114   -0.4926060279474747   -0.014273944830105639
-0.03356662288094813   -0.4957129965848299   -0.013897974175368354
-0.04151803909670184   -0.49213171537551015   -0.01405879377148975
-0.03512261694087029   -0.49573860189127933   -0.015176769750929039
-0.040317066441039114   -0.4926060279474747   -0.014273944830105639
-0.04151803909670184   -0.49213171537551015   -0.01405879377148975
-0.038472351042123175   -0.49155485831593815   -0.013861175574015491
-0.039438313227392365   -0.4917760663061308   -0.013912821693917186
-0.040317066441039114   -0.4926060279474747   -0.014273944830105639
-0.04151803909670184   -0.49213171537551015   -0.01405879377148975
-0.039438313227392365   -0.4917760663061308   -0.013912821693917186
-0.03512261694087029   -0.49573860189127933   -0.015176769750929039
-0.040317066441039114   -0.4926060279474747   -0.014273944830105639
-0.038472351042123175   -0.49155485831593815   -0.013861175574015491
-0.03356662288094813   -0.4957129965848299   -0.013897974175368354
-0.03893632221716149   -0.49307659076192545   -0.013921098163290775
-0.038472351042123175   -0.49155485831593815   -0.013861175574015491
-0.04151803909670184   -0.49213171537551015   -0.01405879377148975
-0.03356662288094813   -0.4957129965848299   -0.013897974175368354
-0.04040801848015576   -0.4922713612305603   -0.013291847290946955
-0.03893632221716149   -0.49307659076192545   -0.013921098163290775
-0.031894427409470766   -0.49607672870548436   -0.012615017811739036
-0.04040801848015576   -0.4922713612305603   -0.013291847290946955
-0.03356662288094813   -0.4957129965848299   -0.013897974175368354
-0.03893632221716149   -0.49307659076192545   -0.013921098163290775
-0.04040801848015576   -0.4922713612305603   -0.013291847290946955
-0.03748985786683231   -0.4916968670653663   -0.013753734627036718
-0.038472351042123175   -0.49155485831593815   -0.013861175574015491
-0.03893632221716149   -0.49307659076192545   -0.013921098163290775
-0.04040801848015576   -0.4922713612305603   -0.013291847290946955
-0.038472351042123175   -0.49155485831593815   -0.013861175574015491
-0.03356662288094813   -0.4957129965848299   -0.013897974175368354
-0.03680328273755376   -0.49617637394214453   -0.01646067610341365
-0.0434955152825245   -0.4928907077570126   -0.015411262438309665
-0.030693957718748076   -0.5   -0.017570152738782412
-0.03512261694087029   -0.49573860189127933   -0.015176769750929039
-0.0434955152825245   -0.4928907077570126   -0.015411262438309665
-0.048111156198864934   -0.49237645285638476   -0.016849864222482375
-0.030693957718748076   -0.5   -0.017570152738782412
-0.046936902422539895   -0.4918372956814613   -0.015596595710840929
-0.03512261694087029   -0.49573860189127933   -0.015176769750929039
-0.028582971794072078   -0.5   -0.015628074106888712
-0.046936902422539895   -0.4918372956814613   -0.015596595710840929
-0.030693957718748076   -0.5   -0.017570152738782412
-0.03512261694087029   -0.49573860189127933   -0.015176769750929039
-0.046936902422539895   -0.4918372956814613   -0.015596595710840929
-0.042596867532822894   -0.49231750948369724   -0.014778326788665825
-0.0434955152825245   -0.4928907077570126   -0.015411262438309665
-0.03512261694087029   -0.49573860189127933   -0.015176769750929039
-0.046936902422539895   -0.4918372956814613   -0.015596595710840929
-0.0434955152825245   -0.4928907077570126   -0.015411262438309665
-0.030693957718748076   -0.5   -0.017570152738782412
-0.03512261694087029   -0.49573860189127933   -0.015176769750929039
-0.042596867532822894   -0.49231750948369724   -0.014778326788665825
-0.028582971794072078   -0.5   -0.015628074106888712
-0.03356662288094813   -0.4957129965848299   -0.013897974175368354
-0.042596867532822894   -0.49231750948369724   -0.014778326788665825
-0.046936902422539895   -0.4918372956814613   -0.015596595710840929
-0.028582971794072078   -0.5   -0.015628074106888712
-0.0453897404102222   -0.4917119352680939   -0.01424723623834039
-0.03356662288094813   -0.4957129965848299   -0.013897974175368354
-0.026464262728256343   -0.5   -0.013662885479730453
-0.0453897404102222   -0.4917119352680939   -0.01424723623834039
-0.028582971794072078   -0.5   -0.015628074106888712
-0.03356662288094813   -0.4957129965848299   -0.013897974175368354
-0.0453897404102222   -0.4917119352680939   -0.01424723623834039
-0.04151803909670184   -0.49213171537551015   -0.01405879377148975
-0.042596867532822894   -0.49231750948369724   -0.014778326788665825
-0.03356662288094813   -0.4957129965848299   -0.013897974175368354
-0.0453897404102222   -0.4917119352680939   -0.01424723623834039
-0.042596867532822894   -0.49231750948369724   -0.014778326788665825
-0.028582971794072078   -0.5   -0.015628074106888712
-0.03356662288094813   -0.4957129965848299   -0.013897974175368354
-0.04151803909670184   -0.49213171537551015   -0.01405879377148975
-0.026464262728256343   -0.5   -0.013662885479730453
-0.031894427409470766   -0.49607672870548436   -0.012615017811739036
-0.04151803909670184   -0.49213171537551015   -0.01405879377148975
-0.0453897404102222   -0.4917119352680939   -0.01424723623834039
-0.026464262728256343   -0.5   -0.013662885479730453
-0.04393087948559516   -0.4919197046584236   -0.012845019893391712
-0.031894427409470766   -0.49607672870548436   -0.012615017811739036
-0.024390276416611463   -0.5   -0.011723478621824695
-0.04393087948559516   -0.4919197046584236   -0.012845019893391712
-0.026464262728256343   -0.5   -0.013662885479730453
-0.031894427409470766   -0.49607672870548436   -0.012615017811739036
-0.04393087948559516   -0.4919197046584236   -0.012845019893391712
-0.04040801848015576   -0.4922713612305603   -0.013291847290946955
-0.04151803909670184   -0.49213171537551015   -0.01405879377148975
-0.031894427409470766   -0.49607672870548436   -0.012615017811739036
-0.04393087948559516   -0.4919197046584236   -0.012845019893391712
-0.04151803909670184   -0.49213171537551015   -0.01405879377148975
-0.026464262728256343   -0.5   -0.013662885479730453
-0.030693957718748076   -0.5   -0.017570152738782412
-0.048111156198864934   -0.49237645285638476   -0.016849864222482375
-0.026287610870591678   -0.5   -0.01891391216434552
-0.028582971794072078   -0.5   -0.015628074106888712
-0.048111156198864934   -0.49237645285638476   -0.016849864222482375
-0.05703451343433837   -0.4899624566115842   -0.018368452465759494
-0.026287610870591678   -0.5   -0.01891391216434552
-0.05393696152152849   -0.4895114623997938   -0.01631180880684548
-0.028582971794072078   -0.5   -0.015628074106888712
-0.02189252797312236   -0.5   -0.016108505655628318
-0.05393696152152849   -0.4895114623997938   -0.01631180880684548
-0.026287610870591678   -0.5   -0.01891391216434552
-0.028582971794072078   -0.5   -0.015628074106888712
-0.05393696152152849   -0.4895114623997938   -0.01631180880684548
-0.046936902422539895   -0.4918372956814613   -0.015596595710840929
-0.048111156198864934   -0.49237645285638476   -0.016849864222482375
-0.028582971794072078   -0.5   -0.015628074106888712
-0.05393696152152849   -0.4895114623997938   -0.01631180880684548
-0.048111156198864934   -0.49237645285638476   -0.016849864222482375
-0.026287610870591678   -0.5   -0.01891391216434552
-0.028582971794072078   -0.5   -0.015628074106888712
-0.046936902422539895   -0.4918372956814613   -0.015596595710840929
-0.02189252797312236   -0.5   -0.016108505655628318
-0.026464262728256343   -0.5   -0.013662885479730453
-0.046936902422539895   -0.4918372956814613   -0.015596595710840929
-0.05393696152152849   -0.4895114623997938   -0.01631180880684548
-0.02189252797312236   -0.5   -0.016108505655628318
-0.051085934696621274   -0.48944725510210874   -0.014114298320544486
-0.026464262728256343   -0.5   -0.013662885479730453
-0.018387324951055804   -0.5   -0.013424546448693234
-0.051085934696621274   -0.48944725510210874   -0.014114298320544486
-0.02189252797312236   -0.5   -0.016108505655628318
-0.026464262728256343   -0.5   -0.013662885479730453
-0.051085934696621274   -0.48944725510210874   -0.014114298320544486
-0.0453897404102222   -0.4917119352680939   -0.01424723623834039
-0.046936902422539895   -0.4918372956814613   -0.015596595710840929
-0.026464262728256343   -0.5   -0.013662885479730453
-0.051085934696621274   -0.48944725510210874   -0.014114298320544486
-0.046936902422539895   -0.4918372956814613   -0.015596595710840929
-0.02189252797312236   -0.5   -0.016108505655628318
-0.026464262728256343   -0.5   -0.013662885479730453
-0.0453897404102222   -0.4917119352680939   -0.01424723623834039
-0.018387324951055804   -0.5   -0.013424546448693234
-0.024390276416611463   -0.5   -0.011723478621824695
-0.0453897404102222   -0.4917119352680939   -0.01424723623834039
-0.051085934696621274   -0.48944725510210874   -0.014114298320544486
-0.018387324951055804   -0.5   -0.013424546448693234
-0.047486321890899345   -0.4900400697905361   -0.011814079698000624
-0.024390276416611463   -0.5   -0.011723478621824695
-0.014056572975348364   -0.5   -0.010638501751033326
-0.047486321890899345   -0.4900400697905361   -0.011814079698000624
-0.018387324951055804   -0.5   -0.013424546448693234
-0.024390276416611463   -0.5   -0.011723478621824695
-0.047486321890899345   -0.4900400697905361   -0.011814079698000624
-0.04393087948559516   -0.4919197046584236   -0.012845019893391712
-0.0453897404102222   -0.4917119352680939   -0.01424723623834039
-0.024390276416611463   -0.5   -0.011723478621824695
-0.047486321890899345   -0.4900400697905361   -0.011814079698000624
-0.0453897404102222   -0.4917119352680939   -0.01424723623834039
-0.018387324951055804   -0.5   -0.013424546448693234
-0.035090066853243874   -0.4892827405793819   -0.0104206884630742
-0.013994616499465557   -0.47053458557295763   -0.00901370487187498
-0.03732505175718621   -0.4911904373819815   -0.012349708817042981
-0.032601198186016894   -0.4884167496778544   -0.01205410998435771
-0.013994616499465557   -0.47053458557295763   -0.00901370487187498
-0.02664482360305995   -0.47196740920174507   -0.011061016986084271
-0.03732505175718621   -0.4911904373819815   -0.012349708817042981
-0.025950365800837226   -0.47115119204989525   -0.011681976981383214
-0.032601198186016894   -0.4884167496778544   -0.01205410998435771
-0.036345661341902605   -0.4905155507886248   -0.013047809687410764
-0.025950365800837226   -0.47115119204989525   -0.011681976981383214
-0.03732505175718621   -0.4911904373819815   -0.012349708817042981
-0.032601198186016894   -0.4884167496778544   -0.01205410998435771
-0.025950365800837226   -0.47115119204989525   -0.011681976981383214
-0.012015804976675966   -0.46952565518976364   -0.010421420340920189
-0.013994616499465557   -0.47053458557295763   -0.00901370487187498
-0.032601198186016894   -0.4884167496778544   -0.01205410998435771
-0.025950365800837226   -0.47115119204989525   -0.011681976981383214
-0.013994616499465557   -0.47053458557295763   -0.00901370487187498
-0.03732505175718621   -0.4911904373819815   -0.012349708817042981
-0.032601198186016894   -0.4884167496778544   -0.01205410998435771
-0.012015804976675966   -0.46952565518976364   -0.010421420340920189
-0.036345661341902605   -0.4905155507886248   -0.013047809687410764
-0.030529029167622387   -0.4881443978392168   -0.01361941408417383
-0.012015804976675966   -0.46952565518976364   -0.010421420340920189
-0.025950365800837226   -0.47115119204989525   -0.011681976981383214
-0.036345661341902605   -0.4905155507886248   -0.013047809687410764
-0.025170007760666843   -0.47069358705156983   -0.012246164351372064
-0.030529029167622387   -0.4881443978392168   -0.01361941408417383
-0.03519809016539814   -0.4902613294277542   -0.013691055729122608
-0.025170007760666843   -0.47069358705156983   -0.012246164351372064
-0.036345661341902605   -0.4905155507886248   -0.013047809687410764
-0.030529029167622387   -0.4881443978392168   -0.01361941408417383
-0.025170007760666843   -0.47069358705156983   -0.012246164351372064
-0.010458859718144023   -0.46903901886368665   -0.011744936146472247
-0.012015804976675966   -0.46952565518976364   -0.010421420340920189
-0.030529029167622387   -0.4881443978392168   -0.01361941408417383
-0.025170007760666843   -0.47069358705156983   -0.012246164351372064
-0.012015804976675966   -0.46952565518976364   -0.010421420340920189
-0.036345661341902605   -0.4905155507886248   -0.013047809687410764
-0.030529029167622387   -0.4881443978392168   -0.01361941408417383
-0.010458859718144023   -0.46903901886368665   -0.011744936146472247
-0.03519809016539814   -0.4902613294277542   -0.013691055729122608
-0.028187267423036615   -0.48835660106373574   -0.015109465866665584
-0.010458859718144023   -0.46903901886368665   -0.011744936146472247
-0.025170007760666843   -0.47069358705156983   -0.012246164351372064
-0.03519809016539814   -0.4902613294277542   -0.013691055729122608
-0.024571277669990486   -0.47058187852847844   -0.012755342986218225
-0.028187267423036615   -0.48835660106373574   -0.015109465866665584
-0.03421432194958295   -0.49043121688987834   -0.014275995144625969
-0.024571277669990486   -0.47058187852847844   -0.012755342986218225
-0.03519809016539814   -0.4902613294277542   -0.013691055729122608
-0.028187267423036615   -0.48835660106373574   -0.015109465866665584
-0.024571277669990486   -0.47058187852847844   -0.012755342986218225
-0.008761853806335589   -0.46893605893357143   -0.012980629675702848
-0.010458859718144023   -0.46903901886368665   -0.011744936146472247
-0.028187267423036615   -0.48835660106373574   -0.015109465866665584
-0.024571277669990486   -0.47058187852847844   -0.012755342986218225
-0.010458859718144023   -0.46903901886368665   -0.011744936146472247
-0.03519809016539814   -0.4902613294277542   -0.013691055729122608
-0.03732505175718621   -0.4911904373819815   -0.012349708817042981
-0.02664482360305995   -0.47196740920174507   -0.011061016986084271
-0.040305871746865375   -0.4923783377642152   -0.013893338692208736
-0.036345661341902605   -0.4905155507886248   -0.013047809687410764
-0.02664482360305995   -0.47196740920174507   -0.011061016986084271
-0.03910827558830179   -0.4724750509505119   -0.012733287345972016
-0.040305871746865375   -0.4923783377642152   -0.013893338692208736
-0.03852345206075145   -0.4717627664845864   -0.012768800732980047
-0.036345661341902605   -0.4905155507886248   -0.013047809687410764
-0.039438313227392365   -0.4917760663061308   -0.013912821693917186
-0.03852345206075145   -0.4717627664845864   -0.012768800732980047
-0.040305871746865375   -0.4923783377642152   -0.013893338692208736
-0.036345661341902605   -0.4905155507886248   -0.013047809687410764
-0.03852345206075145   -0.4717627664845864   -0.012768800732980047
-0.025950365800837226   -0.47115119204989525   -0.011681976981383214
-0.02664482360305995   -0.47196740920174507   -0.011061016986084271
-0.036345661341902605   -0.4905155507886248   -0.013047809687410764
-0.03852345206075145   -0.4717627664845864   -0.012768800732980047
-0.02664482360305995   -0.47196740920174507   -0.011061016986084271
-0.040305871746865375   -0.4923783377642152   -0.013893338692208736
-0.036345661341902605   -0.4905155507886248   -0.013047809687410764
-0.025950365800837226   -0.47115119204989525   -0.011681976981383214
-0.039438313227392365   -0.4917760663061308   -0.013912821693917186
-0.03519809016539814   -0.4902613294277542   -0.013691055729122608
-0.025950365800837226   -0.47115119204989525   -0.011681976981383214
-0.03852345206075145   -0.4717627664845864   -0.012768800732980047
-0.039438313227392365   -0.4917760663061308   -0.013912821693917186
-0.03791874664570279   -0.4713738282704297   -0.012751757663681487
-0.03519809016539814   -0.4902613294277542   -0.013691055729122608
-0.038472351042123175   -0.49155485831593815   -0.013861175574015491
-0.03791874664570279   -0.4713738282704297   -0.012751757663681487
-0.039438313227392365   -0.4917760663061308   -0.013912821693917186
-0.03519809016539814   -0.4902613294277542   -0.013691055729122608
-0.03791874664570279   -0.4713738282704297   -0.012751757663681487
-0.025170007760666843   -0.47069358705156983   -0.012246164351372064
-0.025950365800837226   -0.47115119204989525   -0.011681976981383214
-0.03519809016539814   -0.4902613294277542   -0.013691055729122608
-0.03791874664570279   -0.4713738282704297   -0.012751757663681487
-0.025950365800837226   -0.47115119204989525   -0.011681976981383214
-0.039438313227392365   -0.4917760663061308   -0.013912821693917186
-0.03519809016539814   -0.4902613294277542   -0.013691055729122608
-0.025170007760666843   -0.47069358705156983   -0.012246164351372064
-0.038472351042123175   -0.49155485831593815   -0.013861175574015491
-0.03421432194958295   -0.49043121688987834   -0.014275995144625969
-0.025170007760666843   -0.47069358705156983   -0.012246164351372064
-0.03791874664570279   -0.4713738282704297   -0.012751757663681487
-0.038472351042123175   -0.49155485831593815   -0.013861175574015491
-0.037335367320081955   -0.47129228589870686   -0.012681566552321053
-0.03421432194958295   -0.49043121688987834   -0.014275995144625969
-0.03748985786683231   -0.4916968670653663   -0.013753734627036718
-0.037335367320081955   -0.47129228589870686   -0.012681566552321053
-0.038472351042123175   -0.49155485831593815   -0.013861175574015491
-0.03421432194958295   -0.49043121688987834   -0.014275995144625969
-0.037335367320081955   -0.47129228589870686   -0.012681566552321053
-0.024571277669990486   -0.47058187852847844   -0.012755342986218225
-0.025170007760666843   -0.47069358705156983   -0.012246164351372064
-0.03421432194958295   -0.49043121688987834   -0.014275995144625969
-0.037335367320081955   -0.47129228589870686   -0.012681566552321053
-0.025170007760666843   -0.47069358705156983   -0.012246164351372064
-0.038472351042123175   -0.49155485831593815   -0.013861175574015491
-0.040305871746865375   -0.4923783377642152   -0.013893338692208736
-0.03910827558830179   -0.4724750509505119   -0.012733287345972016
-0.0434955152825245   -0.4928907077570126   -0.015411262438309665
-0.039438313227392365   -0.4917760663061308   -0.013912821693917186
-0.03910827558830179   -0.4724750509505119   -0.012733287345972016
-0.051481943541189165   -0.47202839020473236   -0.014297775815123094
-0.0434955152825245   -0.4928907077570126   -0.015411262438309665
-0.05090173087677338   -0.47139632031334827   -0.013772143419243557
-0.039438313227392365   -0.4917760663061308   -0.013912821693917186
-0.042596867532822894   -0.49231750948369724   -0.014778326788665825
-0.05090173087677338   -0.47139632031334827   -0.013772143419243557
-0.0434955152825245   -0.4928907077570126   -0.015411262438309665
-0.039438313227392365   -0.4917760663061308   -0.013912821693917186
-0.05090173087677338   -0.47139632031334827   -0.013772143419243557
-0.03852345206075145   -0.4717627664845864   -0.012768800732980047
-0.03910827558830179   -0.4724750509505119   -0.012733287345972016
-0.039438313227392365   -0.4917760663061308   -0.013912821693917186
-0.05090173087677338   -0.47139632031334827   -0.013772143419243557
-0.03910827558830179   -0.4724750509505119   -0.012733287345972016
-0.0434955152825245   -0.4928907077570126   -0.015411262438309665
-0.039438313227392365   -0.4917760663061308   -0.013912821693917186
-0.03852345206075145   -0.4717627664845864   -0.012768800732980047
-0.042596867532822894   -0.49231750948369724   -0.014778326788665825
-0.038472351042123175   -0.49155485831593815   -0.013861175574015491
-0.03852345206075145   -0.4717627664845864   -0.012768800732980047
-0.05090173087677338   -0.47139632031334827   -0.013772143419243557
-0.042596867532822894   -0.49231750948369724   -0.014778326788665825
-0.05025056793420466   -0.47108205811532616   -0.013194687960530105
-0.038472351042123175   -0.49155485831593815   -0.013861175574015491
-0.04151803909670184   -0.49213171537551015   -0.01405879377148975
-0.05025056793420466   -0.47108205811532616   -0.013194687960530105
-0.042596867532822894   -0.49231750948369724   -0.014778326788665825
-0.038472351042123175   -0.49155485831593815   -0.013861175574015491
-0.05025056793420466   -0.47108205811532616   -0.013194687960530105
-0.03791874664570279   -0.4713738282704297   -0.012751757663681487
-0.03852345206075145   -0.4717627664845864   -0.012768800732980047
-0.038472351042123175   -0.49155485831593815   -0.013861175574015491
-0.05025056793420466   -0.47108205811532616   -0.013194687960530105
-0.03852345206075145   -0.4717627664845864   -0.012768800732980047
-0.042596867532822894   -0.49231750948369724   -0.014778326788665825
-0.038472351042123175   -0.49155485831593815   -0.013861175574015491
-0.03791874664570279   -0.4713738282704297   -0.012751757663681487
-0.04151803909670184   -0.49213171537551015   -0.01405879377148975
-0.03748985786683231   -0.4916968670653663   -0.013753734627036718
-0.03791874664570279   -0.4713738282704297   -0.012751757663681487
-0.05025056793420466   -0.47108205811532616   -0.013194687960530105
-0.04151803909670184   -0.49213171537551015   -0.01405879377148975
-0.04959621320271227   -0.4710544698611446   -0.012559087347703725
-0.03748985786683231   -0.4916968670653663   -0.013753734627036718
-0.04040801848015576   -0.4922713612305603   -0.013291847290946955
-0.04959621320271227   -0.4710544698611446   -0.012559087347703725
-0.04151803909670184   -0.49213171537551015   -0.01405879377148975
-0.03748985786683231   -0.4916968670653663   -0.013753734627036718
-0.04959621320271227   -0.4710544698611446   -0.012559087347703725
-0.037335367320081955   -0.47129228589870686   -0.012681566552321053
-0.03791874664570279   -0.4713738282704297   -0.012751757663681487
-0.03748985786683231   -0.4916968670653663   -0.013753734627036718
-0.04959621320271227   -0.4710544698611446   -0.012559087347703725
-0.03791874664570279   -0.4713738282704297   -0.012751757663681487
-0.04151803909670184   -0.49213171537551015   -0.01405879377148975
-0.0434955152825245   -0.4928907077570126   -0.015411262438309665
-0.051481943541189165   -0.47202839020473236   -0.014297775815123094
-0.048111156198864934   -0.49237645285638476   -0.016849864222482375
-0.042596867532822894   -0.49231750948369724   -0.014778326788665825
-0.051481943541189165   -0.47202839020473236   -0.014297775815123094
-0.06508620365117025   -0.4705674421626652   -0.01573287730738721
-0.048111156198864934   -0.49237645285638476   -0.016849864222482375
-0.06437732874416216   -0.4700161591188741   -0.014659126001066634
-0.042596867532822894   -0.49231750948369724   -0.014778326788665825
-0.046936902422539895   -0.4918372956814613   -0.015596595710840929
-0.06437732874416216   -0.4700161591188741   -0.014659126001066634
-0.048111156198864934   -0.49237645285638476   -0.016849864222482375
-0.042596867532822894   -0.49231750948369724   -0.014778326788665825
-0.06437732874416216   -0.4700161591188741   -0.014659126001066634
-0.05090173087677338   -0.47139632031334827   -0.013772143419243557
-0.051481943541189165   -0.47202839020473236   -0.014297775815123094
-0.042596867532822894   -0.49231750948369724   -0.014778326788665825
-0.06437732874416216   -0.4700161591188741   -0.014659126001066634
-0.051481943541189165   -0.47202839020473236   -0.014297775815123094
-0.048111156198864934   -0.49237645285638476   -0.016849864222482375
-0.042596867532822894   -0.49231750948369724   -0.014778326788665825
-0.05090173087677338   -0.47139632031334827   -0.013772143419243557
-0.046936902422539895   -0.4918372956814613   -0.015596595710840929
-0.04151803909670184   -0.49213171537551015   -0.01405879377148975
-0.05090173087677338   -0.47139632031334827   -0.013772143419243557
-0.06437732874416216   -0.4700161591188741   -0.014659126001066634
-0.046936902422539895   -0.4918372956814613   -0.015596595710840929
-0.06339994149402527   -0.46977627190540633   -0.013537215890919779
-0.04151803909670184   -0.49213171537551015   -0.01405879377148975
-0.0453897404102222   -0.4917119352680939   -0.01424723623834039
-0.06339994149402527   -0.46977627190540633   -0.013537215890919779
-0.046936902422539895   -0.4918372956814613   -0.015596595710840929
-0.04151803909670184   -0.49213171537551015   -0.01405879377148975
-0.06339994149402527   -0.46977627190540633   -0.013537215890919779
-0.05025056793420466   -0.47108205811532616   -0.013194687960530105
-0.05090173087677338   -0.47139632031334827   -0.013772143419243557
-0.04151803909670184   -0.49213171537551015   -0.01405879377148975
-0.06339994149402527   -0.46977627190540633   -0.013537215890919779
-0.05090173087677338   -0.47139632031334827   -0.013772143419243557
-0.046936902422539895   -0.4918372956814613   -0.015596595710840929
-0.04151803909670184   -0.49213171537551015   -0.01405879377148975
-0.05025056793420466   -0.47108205811532616   -0.013194687960530105
-0.0453897404102222   -0.4917119352680939   -0.01424723623834039
-0.04040801848015576   -0.4922713612305603   -0.013291847290946955
-0.05025056793420466   -0.47108205811532616   -0.013194687960530105
-0.06339994149402527   -0.46977627190540633   -0.013537215890919779
-0.0453897404102222   -0.4917119352680939   -0.01424723623834039
-0.06254456745135764   -0.4698482779055978   -0.012335517648982601
-0.04040801848015576   -0.4922713612305603   -0.013291847290946955
-0.04393087948559516   -0.4919197046584236   -0.012845019893391712
-0.06254456745135764   -0.4698482779055978   -0.012335517648982601
-0.0453897404102222   -0.4917119352680939   -0.01424723623834039
-0.04040801848015576   -0.4922713612305603   -0.013291847290946955
-0.06254456745135764   -0.4698482779055978   -0.012335517648982601
-0.04959621320271227   -0.4710544698611446   -0.012559087347703725
-0.05025056793420466   -0.47108205811532616   -0.013194687960530105
-0.04040801848015576   -0.4922713612305603   -0.013291847290946955
-0.06254456745135764   -0.4698482779055978   -0.012335517648982601
-0.05025056793420466   -0.47108205811532616   -0.013194687960530105
-0.0453897404102222   -0.4917119352680939   -0.01424723623834039
-0.048111156198864934   -0.49237645285638476   -0.016849864222482375
-0.06508620365117025   -0.4705674421626652   -0.01573287730738721
-0.05703451343433837   -0.4899624566115842   -0.018368452465759494
-0.046936902422539895   -0.4918372956814613   -0.015596595710840929
-0.06508620365117025   -0.4705674421626652   -0.01573287730738721
-0.0826072752951174   -0.46819148296795665   -0.017104329305752956
-0.05703451343433837   -0.4899624566115842   -0.018368452465759494
-0.08034421174849155   -0.4675963426410303   -0.015409697341427888
-0.046936902422539895   -0.4918372956814613   -0.015596595710840929
-0.05393696152152849   -0.4895114623997938   -0.01631180880684548
-0.08034421174849155   -0.4675963426410303   -0.015409697341427888
-0.05703451343433837   -0.4899624566115842   -0.018368452465759494
-0.046936902422539895   -0.4918372956814613   -0.015596595710840929
-0.08034421174849155   -0.4675963426410303   -0.015409697341427888
-0.06437732874416216   -0.4700161591188741   -0.014659126001066634
-0.06508620365117025   -0.4705674421626652   -0.01573287730738721
-0.046936902422539895   -0.4918372956814613   -0.015596595710840929
-0.08034421174849155   -0.4675963426410303   -0.015409697341427888
-0.06508620365117025   -0.4705674421626652   -0.01573287730738721
-0.05703451343433837   -0.4899624566115842   -0.018368452465759494
-0.046936902422539895   -0.4918372956814613   -0.015596595710840929
-0.06437732874416216   -0.4700161591188741   -0.014659126001066634
-0.05393696152152849   -0.4895114623997938   -0.01631180880684548
-0.0453897404102222   -0.4917119352680939   -0.01424723623834039
-0.06437732874416216   -0.4700161591188741   -0.014659126001066634
-0.08034421174849155   -0.4675963426410303   -0.015409697341427888
-0.05393696152152849   -0.4895114623997938   -0.01631180880684548
-0.07831159106784788   -0.4673744533752258   -0.013614381111076462
-0.0453897404102222   -0.4917119352680939   -0.01424723623834039
-0.051085934696621274   -0.48944725510210874   -0.014114298320544486
-0.07831159106784788   -0.4673744533752258   -0.013614381111076462
-0.05393696152152849   -0.4895114623997938   -0.01631180880684548
-0.0453897404102222   -0.4917119352680939   -0.01424723623834039
-0.07831159106784788   -0.4673744533752258   -0.013614381111076462
-0.06339994149402527   -0.46977627190540633   -0.013537215890919779
-0.06437732874416216   -0.4700161591188741   -0.014659126001066634
-0.0453897404102222   -0.4917119352680939   -0.01424723623834039
-0.07831159106784788   -0.4673744533752258   -0.013614381111076462
-0.06437732874416216   -0.4700161591188741   -0.014659126001066634
-0.05393696152152849   -0.4895114623997938   -0.01631180880684548
-0.0453897404102222   -0.4917119352680939   -0.01424723623834039
-0.06339994149402527   -0.46977627190540633   -0.013537215890919779
-0.051085934696621274   -0.48944725510210874   -0.014114298320544486
-0.04393087948559516   -0.4919197046584236   -0.012845019893391712
-0.06339994149402527   -0.46977627190540633   -0.013537215890919779
-0.07831159106784788   -0.4673744533752258   -0.013614381111076462
-0.051085934696621274   -0.48944725510210874   -0.014114298320544486
-0.07567668553309818   -0.46763895998083005   -0.011735601788933556
-0.04393087948559516   -0.4919197046584236   -0.012845019893391712
-0.047486321890899345   -0.4900400697905361   -0.011814079698000624
-0.07567668553309818   -0.46763895998083005   -0.011735601788933556
-0.051085934696621274   -0.48944725510210874   -0.014114298320544486
-0.04393087948559516   -0.4919197046584236   -0.012845019893391712
-0.07567668553309818   -0.46763895998083005   -0.011735601788933556
-0.06254456745135764   -0.4698482779055978   -0.012335517648982601
-0.06339994149402527   -0.46977627190540633   -0.013537215890919779
-0.04393087948559516   -0.4919197046584236   -0.012845019893391712
-0.07567668553309818   -0.46763895998083005   -0.011735601788933556
-0.06339994149402527   -0.46977627190540633   -0.013537215890919779
-0.051085934696621274   -0.48944725510210874   -0.014114298320544486
-0.013994616499465557   -0.47053458557295763   -0.00901370487187498
0.0030561028324218196   -0.4362458575026966   -0.0074643677264958665
-0.02664482360305995   -0.47196740920174507   -0.011061016986084271
-0.012015804976675966   -0.46952565518976364   -0.010421420340920189
0.0030561028324218196   -0.4362458575026966   -0.0074643677264958665
-0.018194128220405816   -0.4372917309327813   -0.00947281770199653
-0.02664482360305995   -0.47196740920174507   -0.011061016986084271
-0.017827721350274252   -0.436436685953197   -0.009963649428106649
-0.012015804976675966   -0.46952565518976364   -0.010421420340920189
-0.025950365800837226   -0.47115119204989525   -0.011681976981383214
-0.017827721350274252   -0.436436685953197   -0.009963649428106649
-0.02664482360305995   -0.47196740920174507   -0.011061016986084271
-0.012015804976675966   -0.46952565518976364   -0.010421420340920189
-0.017827721350274252   -0.436436685953197   -0.009963649428106649
0.004431161274679251   -0.4352217407081632   -0.008580860985502092
0.0030561028324218196   -0.4362458575026966   -0.0074643677264958665
-0.012015804976675966   -0.46952565518976364   -0.010421420340920189
-0.017827721350274252   -0.436436685953197   -0.009963649428106649
0.0030561028324218196   -0.4362458575026966   -0.0074643677264958665
-0.02664482360305995   -0.47196740920174507   -0.011061016986084271
-0.012015804976675966   -0.46952565518976364   -0.010421420340920189
0.004431161274679251   -0.4352217407081632   -0.008580860985502092
-0.025950365800837226   -0.47115119204989525   -0.011681976981383214
-0.010458859718144023   -0.46903901886368665   -0.011744936146472247
0.004431161274679251   -0.4352217407081632   -0.008580860985502092
-0.017827721350274252   -0.436436685953197   -0.009963649428106649
-0.025950365800837226   -0.47115119204989525   -0.011681976981383214
-0.017411627165366202   -0.4358729535326793   -0.01039647517033647
-0.010458859718144023   -0.46903901886368665   -0.011744936146472247
-0.025170007760666843   -0.47069358705156983   -0.012246164351372064
-0.017411627165366202   -0.4358729535326793   -0.01039647517033647
-0.025950365800837226   -0.47115119204989525   -0.011681976981383214
-0.010458859718144023   -0.46903901886368665   -0.011744936146472247
-0.017411627165366202   -0.4358729535326793   -0.01039647517033647
0.005441938756941619   -0.43462377746768066   -0.009616171413464459
0.004431161274679251   -0.4352217407081632   -0.008580860985502092
-0.010458859718144023   -0.46903901886368665   -0.011744936146472247
-0.017411627165366202   -0.4358729535326793   -0.01039647517033647
0.004431161274679251   -0.4352217407081632   -0.008580860985502092
-0.025950365800837226   -0.47115119204989525   -0.011681976981383214
-0.010458859718144023   -0.46903901886368665   -0.011744936146472247
0.005441938756941619   -0.43462377746768066   -0.009616171413464459
-0.025170007760666843   -0.47069358705156983   -0.012246164351372064
-0.008761853806335589   -0.46893605893357143   -0.012980629675702848
0.005441938756941619   -0.43462377746768066   -0.009616171413464459
-0.017411627165366202   -0.4358729535326793   -0.01039647517033647
-0.025170007760666843   -0.47069358705156983   -0.012246164351372064
-0.017163000185815392   -0.43558403664089135   -0.010777014194261764
-0.008761853806335589   -0.46893605893357143   -0.012980629675702848
-0.024571277669990486   -0.47058187852847844   -0.012755342986218225
-0.017163000185815392   -0.43558403664089135   -0.010777014194261764
-0.025170007760666843   -0.47069358705156983   -0.012246164351372064
-0.008761853806335589   -0.46893605893357143   -0.012980629675702848
-0.017163000185815392   -0.43558403664089135   -0.010777014194261764
0.0065208824701191125   -0.4343196733550529   -0.010569850489038702
0.005441938756941619   -0.43462377746768066   -0.009616171413464459
-0.008761853806335589   -0.46893605893357143   -0.012980629675702848
-0.017163000185815392   -0.43558403664089135   -0.010777014194261764
0.005441938756941619   -0.43462377746768066   -0.009616171413464459
-0.025170007760666843   -0.47069358705156983   -0.012246164351372064
-0.02664482360305995   -0.47196740920174507   -0.011061016986084271
-0.018194128220405816   -0.4372917309327813   -0.00947281770199653
-0.03910827558830179   -0.4724750509505119   -0.012733287345972016
-0.025950365800837226   -0.47115119204989525   -0.011681976981383214
-0.018194128220405816   -0.4372917309327813   -0.00947281770199653
-0.038729554670326446   -0.43749124083772706   -0.011131156414043076
-0.03910827558830179   -0.4724750509505119   -0.012733287345972016
-0.03845937232418771   -0.4367564216955869   -0.011144752894494412
-0.025950365800837226   -0.47115119204989525   -0.011681976981383214
-0.03852345206075145   -0.4717627664845864   -0.012768800732980047
-0.03845937232418771   -0.4367564216955869   -0.011144752894494412
-0.03910827558830179   -0.4724750509505119   -0.012733287345972016
-0.025950365800837226   -0.47115119204989525   -0.011681976981383214
-0.03845937232418771   -0.4367564216955869   -0.011144752894494412
-0.017827721350274252   -0.436436685953197   -0.009963649428106649
-0.018194128220405816   -0.4372917309327813   -0.00947281770199653
-0.025950365800837226   -0.47115119204989525   -0.011681976981383214
-0.03845937232418771   -0.4367564216955869   -0.011144752894494412
-0.018194128220405816   -0.4372917309327813   -0.00947281770199653
-0.03910827558830179   -0.4724750509505119   -0.012733287345972016
-0.025950365800837226   -0.47115119204989525   -0.011681976981383214
-0.017827721350274252   -0.436436685953197   -0.009963649428106649
-0.03852345206075145   -0.4717627664845864   -0.012768800732980047
-0.025170007760666843   -0.47069358705156983   -0.012246164351372064
-0.017827721350274252   -0.436436685953197   -0.009963649428106649
-0.03845937232418771   -0.4367564216955869   -0.011144752894494412
-0.03852345206075145   -0.4717627664845864   -0.012768800732980047
-0.038181695780685074   -0.4362824262349118   -0.011102822319897057
-0.025170007760666843   -0.47069358705156983   -0.012246164351372064
-0.03791874664570279   -0.4713738282704297   -0.012751757663681487
-0.038181695780685074   -0.4362824262349118   -0.011102822319897057
-0.03852345206075145   -0.4717627664845864   -0.012768800732980047
-0.025170007760666843   -0.47069358705156983   -0.012246164351372064
-0.038181695780685074   -0.4362824262349118   -0.011102822319897057
-0.017411627165366202   -0.4358729535326793   -0.01039647517033647
-0.017827721350274252   -0.436436685953197   -0.009963649428106649
-0.025170007760666843   -0.47069358705156983   -0.012246164351372064
-0.038181695780685074   -0.4362824262349118   -0.011102822319897057
-0.017827721350274252   -0.436436685953197   -0.009963649428106649
-0.03852345206075145   -0.4717627664845864   -0.012768800732980047
-0.025170007760666843   -0.47069358705156983   -0.012246164351372064
-0.017411627165366202   -0.4358729535326793   -0.01039647517033647
-0.03791874664570279   -0.4713738282704297   -0.012751757663681487
-0.024571277669990486   -0.47058187852847844   -0.012755342986218225
-0.017411627165366202   -0.4358729535326793   -0.01039647517033647
-0.038181695780685074   -0.4362824262349118   -0.011102822319897057
-0.03791874664570279   -0.4713738282704297   -0.012751757663681487
-0.03793876857372393   -0.4360648125713452   -0.01100898677738338
-0.024571277669990486   -0.47058187852847844   -0.012755342986218225
-0.037335367320081955   -0.47129228589870686   -0.012681566552321053
-0.03793876857372393   -0.4360648125713452   -0.01100898677738338
-0.03791874664570279   -0.4713738282704297   -0.012751757663681487
-0.024571277669990486   -0.47058187852847844   -0.012755342986218225
-0.03793876857372393   -0.4360648125713452   -0.01100898677738338
-0.017163000185815392   -0.43558403664089135   -0.010777014194261764
-0.017411627165366202   -0.4358729535326793   -0.01039647517033647
-0.024571277669990486   -0.47058187852847844   -0.012755342986218225
-0.03793876857372393   -0.4360648125713452   -0.01100898677738338
-0.017411627165366202   -0.4358729535326793   -0.01039647517033647
-0.03791874664570279   -0.4713738282704297   -0.012751757663681487
-0.03910827558830179   -0.4724750509505119   -0.012733287345972016
-0.038729554670326446   -0.43749124083772706   -0.011131156414043076
-0.051481943541189165   -0.47202839020473236   -0.014297775815123094
-0.03852345206075145   -0.4717627664845864   -0.012768800732980047
-0.038729554670326446   -0.43749124083772706   -0.011131156414043076
-0.058937501117078545   -0.4368394616575904   -0.012628435240327309
-0.051481943541189165   -0.47202839020473236   -0.014297775815123094
-0.05868587672216496   -0.4362051782340059   -0.01217636554721349
-0.03852345206075145   -0.4717627664845864   -0.012768800732980047
-0.05090173087677338   -0.47139632031334827   -0.013772143419243557
-0.05868587672216496   -0.4362051782340059   -0.01217636554721349
-0.051481943541189165   -0.47202839020473236   -0.014297775815123094
-0.03852345206075145   -0.4717627664845864   -0.012768800732980047
-0.05868587672216496   -0.4362051782340059   -0.01217636554721349
-0.03845937232418771   -0.4367564216955869   -0.011144752894494412
-0.038729554670326446   -0.43749124083772706   -0.011131156414043076
-0.03852345206075145   -0.4717627664845864   -0.012768800732980047
-0.05868587672216496   -0.4362051782340059   -0.01217636554721349
-0.038729554670326446   -0.43749124083772706   -0.011131156414043076
-0.051481943541189165   -0.47202839020473236   -0.014297775815123094
-0.03852345206075145   -0.4717627664845864   -0.012768800732980047
-0.03845937232418771   -0.4367564216955869   -0.011144752894494412
-0.05090173087677338   -0.47139632031334827   -0.013772143419243557
-0.03791874664570279   -0.4713738282704297   -0.012751757663681487
-0.03845937232418771   -0.4367564216955869   -0.011144752894494412
-0.05868587672216496   -0.4362051782340059   -0.01217636554721349
-0.05090173087677338   -0.47139632031334827   -0.013772143419243557
-0.05838191135703009   -0.43582882516426846   -0.01166993178979368
-0.03791874664570279   -0.4713738282704297   -0.012751757663681487
-0.05025056793420466   -0.47108205811532616   -0.013194687960530105
-0.05838191135703009   -0.43582882516426846   -0.01166993178979368
-0.05090173087677338   -0.47139632031334827   -0.013772143419243557
-0.03791874664570279   -0.4713738282704297   -0.012751757663681487
-0.05838191135703009   -0.43582882516426846   -0.01166993178979368
-0.038181695780685074   -0.4362824262349118   -0.011102822319897057
-0.03845937232418771   -0.4367564216955869   -0.011144752894494412
-0.03791874664570279   -0.4713738282704297   -0.012751757663681487
-0.05838191135703009   -0.43582882516426846   -0.01166993178979368
-0.03845937232418771   -0.4367564216955869   -0.011144752894494412
-0.05090173087677338   -0.47139632031334827   -0.013772143419243557
-0.03791874664570279   -0.4713738282704297   -0.012751757663681487
-0.038181695780685074   -0.4362824262349118   -0.011102822319897057
-0.05025056793420466   -0.47108205811532616   -0.013194687960530105
-0.037335367320081955   -0.47129228589870686   -0.012681566552321053
-0.038181695780685074   -0.4362824262349118   -0.011102822319897057
-0.05838191135703009   -0.43582882516426846   -0.01166993178979368
-0.05025056793420466   -0.47108205811532616   -0.013194687960530105
-0.05808595901541281   -0.43569815586707883   -0.011110818276754267
-0.037335367320081955   -0.47129228589870686   -0.012681566552321053
-0.04959621320271227   -0.4710544698611446   -0.012559087347703725
-0.05808595901541281   -0.43569815586707883   -0.011110818276754267
-0.05025056793420466   -0.47108205811532616   -0.013194687960530105
-0.037335367320081955   -0.47129228589870686   -0.012681566552321053
-0.05808595901541281   -0.43569815586707883   -0.011110818276754267
-0.03793876857372393   -0.4360648125713452   -0.01100898677738338
-0.038181695780685074   -0.4362824262349118   -0.011102822319897057
-0.037335367320081955   -0.47129228589870686   -0.012681566552321053
-0.05808595901541281   -0.43569815586707883   -0.011110818276754267
-0.038181695780685074   -0.4362824262349118   -0.011102822319897057
-0.05025056793420466   -0.47108205811532616   -0.013194687960530105
-0.051481943541189165   -0.47202839020473236   -0.014297775815123094
-0.058937501117078545   -0.4368394616575904   -0.012628435240327309
-0.06508620365117025   -0.4705674421626652   -0.01573287730738721
-0.05090173087677338   -0.47139632031334827   -0.013772143419243557
-0.058937501117078545   -0.4368394616575904   -0.012628435240327309
-0.0801209033187563   -0.4353601405904223   -0.013958060184910217
-0.06508620365117025   -0.4705674421626652   -0.01573287730738721
-0.07979360438719629   -0.4348223019488574   -0.01303996394571827
-0.05090173087677338   -0.47139632031334827   -0.013772143419243557
-0.06437732874416216   -0.4700161591188741   -0.014659126001066634
-0.07979360438719629   -0.4348223019488574   -0.01303996394571827
-0.06508620365117025   -0.4705674421626652   -0.01573287730738721
-0.05090173087677338   -0.47139632031334827   -0.013772143419243557
-0.07979360438719629   -0.4348223019488574   -0.01303996394571827
-0.05868587672216496   -0.4362051782340059   -0.01217636554721349
-0.058937501117078545   -0.4368394616575904   -0.012628435240327309
-0.05090173087677338   -0.47139632031334827   -0.013772143419243557
-0.07979360438719629   -0.4348223019488574   -0.01303996394571827
-0.058937501117078545   -0.4368394616575904   -0.012628435240327309
-0.06508620365117025   -0.4705674421626652   -0.01573287730738721
-0.05090173087677338   -0.47139632031334827   -0.013772143419243557
-0.05868587672216496   -0.4362051782340059   -0.01217636554721349
-0.06437732874416216   -0.4700161591188741   -0.014659126001066634
-0.05025056793420466   -0.47108205811532616   -0.013194687960530105
-0.05868587672216496   -0.4362051782340059   -0.01217636554721349
-0.07979360438719629   -0.4348223019488574   -0.01303996394571827
-0.06437732874416216   -0.4700161591188741   -0.014659126001066634
-0.07923952875997134   -0.43453448095192654   -0.01207579161089343
-0.05025056793420466   -0.47108205811532616   -0.013194687960530105
-0.06339994149402527   -0.46977627190540633   -0.013537215890919779
-0.07923952875997134   -0.43453448095192654   -0.01207579161089343
-0.06437732874416216   -0.4700161591188741   -0.014659126001066634
-0.05025056793420466   -0.47108205811532616   -0.013194687960530105
-0.07923952875997134   -0.43453448095192654   -0.01207579161089343
-0.05838191135703009   -0.43582882516426846   -0.01166993178979368
-0.05868587672216496   -0.4362051782340059   -0.01217636554721349
-0.05025056793420466   -0.47108205811532616   -0.013194687960530105
-0.07923952875997134   -0.43453448095192654   -0.01207579161089343
-0.05868587672216496   -0.4362051782340059   -0.01217636554721349
-0.06437732874416216   -0.4700161591188741   -0.014659126001066634
-0.05025056793420466   -0.47108205811532616   -0.013194687960530105
-0.05838191135703009   -0.43582882516426846   -0.01166993178979368
-0.06339994149402527   -0.46977627190540633   -0.013537215890919779
-0.04959621320271227   -0.4710544698611446   -0.012559087347703725
-0.05838191135703009   -0.43582882516426846   -0.01166993178979368
-0.07923952875997134   -0.43453448095192654   -0.01207579161089343
-0.06339994149402527   -0.46977627190540633   -0.013537215890919779
-0.0787878310035424   -0.43451158581017013   -0.0110513150421501
-0.04959621320271227   -0.4710544698611446   -0.012559087347703725
-0.06254456745135764   -0.4698482779055978   -0.012335517648982601
-0.0787878310035424   -0.43451158581017013   -0.0110513150421501
-0.06339994149402527   -0.46977627190540633   -0.013537215890919779
-0.04959621320271227   -0.4710544698611446   -0.012559087347703725
-0.0787878310035424   -0.43451158581017013   -0.0110513150421501
-0.05808595901541281   -0.43569815586707883   -0.011110818276754267
-0.05838191135703009   -0.43582882516426846   -0.01166993178979368
-0.04959621320271227   -0.4710544698611446   -0.012559087347703725
-0.0787878310035424   -0.43451158581017013   -0.0110513150421501
-0.05838191135703009   -0.43582882516426846   -0.01166993178979368
-0.06339994149402527   -0.46977627190540633   -0.013537215890919779
-0.06508620365117025   -0.4705674421626652   -0.01573287730738721
-0.0801209033187563   -0.4353601405904223   -0.013958060184910217
-0.0826072752951174   -0.46819148296795665   -0.017104329305752956
-0.06437732874416216   -0.4700161591188741   -0.014659126001066634
-0.0801209033187563   -0.4353601405904223   -0.013958060184910217
-0.10482883144663083   -0.4332346223141444   -0.015193557129602093
-0.0826072752951174   -0.46819148296795665   -0.017104329305752956
-0.10316648792936133   -0.43267564326784125   -0.01375748993581454
-0.06437732874416216   -0.4700161591188741   -0.014659126001066634
-0.08034421174849155   -0.4675963426410303   -0.015409697341427888
-0.10316648792936133   -0.43267564326784125   -0.01375748993581454
-0.0826072752951174   -0.46819148296795665   -0.017104329305752956
-0.06437732874416216   -0.4700161591188741   -0.014659126001066634
-0.10316648792936133   -0.43267564326784125   -0.01375748993581454
-0.07979360438719629   -0.4348223019488574   -0.01303996394571827
-0.0801209033187563   -0.4353601405904223   -0.013958060184910217
-0.06437732874416216   -0.4700161591188741   -0.014659126001066634
-0.10316648792936133   -0.43267564326784125   -0.01375748993581454
-0.0801209033187563   -0.4353601405904223   -0.013958060184910217
-0.0826072752951174   -0.46819148296795665   -0.017104329305752956
-0.06437732874416216   -0.4700161591188741   -0.014659126001066634
-0.07979360438719629   -0.4348223019488574   -0.01303996394571827
-0.08034421174849155   -0.4675963426410303   -0.015409697341427888
-0.06339994149402527   -0.46977627190540633   -0.013537215890919779
-0.07979360438719629   -0.4348223019488574   -0.01303996394571827
-0.10316648792936133   -0.43267564326784125   -0.01375748993581454
-0.08034421174849155   -0.4675963426410303   -0.015409697341427888
-0.10172104182386141   -0.43241184248811076   -0.012245647501465258
-0.06339994149402527   -0.46977627190540633   -0.013537215890919779
-0.07831159106784788   -0.4673744533752258   -0.013614381111076462
-0.10172104182386141   -0.43241184248811076   -0.012245647501465258
-0.08034421174849155   -0.4675963426410303   -0.015409697341427888
-0.06339994149402527   -0.46977627190540633   -0.013537215890919779
-0.10172104182386141   -0.43241184248811076   -0.012245647501465258
-0.07923952875997134   -0.43453448095192654   -0.01207579161089343
-0.07979360438719629   -0.4348223019488574   -0.01303996394571827
-0.06339994149402527   -0.46977627190540633   -0.013537215890919779
-0.10172104182386141   -0.43241184248811076   -0.012245647501465258
-0.07979360438719629   -0.4348223019488574   -0.01303996394571827
-0.08034421174849155   -0.4675963426410303   -0.015409697341427888
-0.06339994149402527   -0.46977627190540633   -0.013537215890919779
-0.07923952875997134   -0.43453448095192654   -0.01207579161089343
-0.07831159106784788   -0.4673744533752258   -0.013614381111076462
-0.06254456745135764   -0.4698482779055978   -0.012335517648982601
-0.07923952875997134   -0.43453448095192654   -0.01207579161089343
-0.10172104182386141   -0.43241184248811076   -0.012245647501465258
-0.07831159106784788   -0.4673744533752258   -0.013614381111076462
-0.099772491707312   -0.43255362008378534   -0.010667700629153036
-0.06254456745135764   -0.4698482779055978   -0.012335517648982601
-0.07567668553309818   -0.46763895998083005   -0.011735601788933556
-0.099772491707312   -0.43255362008378534   -0.010667700629153036
-0.07831159106784788   -0.4673744533752258   -0.013614381111076462
-0.06254456745135764   -0.4698482779055978   -0.012335517648982601
-0.099772491707312   -0.43255362008378534   -0.010667700629153036
-0.0787878310035424   -0.43451158581017013   -0.0110513150421501
-0.07923952875997134   -0.43453448095192654   -0.01207579161089343
-0.06254456745135764   -0.4698482779055978   -0.012335517648982601
-0.099772491707312   -0.43255362008378534   -0.010667700629153036
-0.07923952875997134   -0.43453448095192654   -0.01207579161089343
-0.07831159106784788   -0.4673744533752258   -0.013614381111076462
0.0030561028324218196   -0.4362458575026966   -0.0074643677264958665
0.015943822246678077   -0.3898440012857322   -0.005691068278804827
-0.018194128220405816   -0.4372917309327813   -0.00947281770199653
0.004431161274679251   -0.4352217407081632   -0.008580860985502092
0.015943822246678077   -0.3898440012857322   -0.005691068278804827
-0.012121862577775425   -0.39053103267667766   -0.007607440808904651
-0.018194128220405816   -0.4372917309327813   -0.00947281770199653
-0.012047970608047638   -0.38968063921052287   -0.00794578880265613
0.004431161274679251   -0.4352217407081632   -0.008580860985502092
-0.017827721350274252   -0.436436685953197   -0.009963649428106649
-0.012047970608047638   -0.38968063921052287   -0.00794578880265613
-0.018194128220405816   -0.4372917309327813   -0.00947281770199653
0.004431161274679251   -0.4352217407081632   -0.008580860985502092
-0.012047970608047638   -0.38968063921052287   -0.00794578880265613
0.01675332078901957   -0.38884523801574494   -0.006512638779463371
0.015943822246678077   -0.3898440012857322   -0.005691068278804827
0.004431161274679251   -0.4352217407081632   -0.008580860985502092
-0.012047970608047638   -0.38968063921052287   -0.00794578880265613
0.015943822246678077   -0.3898440012857322   -0.005691068278804827
-0.018194128220405816   -0.4372917309327813   -0.00947281770199653
0.004431161274679251   -0.4352217407081632   -0.008580860985502092
0.01675332078901957   -0.38884523801574494   -0.006512638779463371
-0.017827721350274252   -0.436436685953197   -0.009963649428106649
0.005441938756941619   -0.43462377746768066   -0.009616171413464459
0.01675332078901957   -0.38884523801574494   -0.006512638779463371
-0.012047970608047638   -0.38968063921052287   -0.00794578880265613
-0.017827721350274252   -0.436436685953197   -0.009963649428106649
-0.01195435334453454   -0.38905909656456394   -0.008231334257341776
0.005441938756941619   -0.43462377746768066   -0.009616171413464459
-0.017411627165366202   -0.4358729535326793   -0.01039647517033647
-0.01195435334453454   -0.38905909656456394   -0.008231334257341776
-0.017827721350274252   -0.436436685953197   -0.009963649428106649
0.005441938756941619   -0.43462377746768066   -0.009616171413464459
-0.01195435334453454   -0.38905909656456394   -0.008231334257341776
0.01726893767516624   -0.3881838298732804   -0.007259639037095588
0.01675332078901957   -0.38884523801574494   -0.006512638779463371
0.005441938756941619   -0.43462377746768066   -0.009616171413464459
-0.01195435334453454   -0.38905909656456394   -0.008231334257341776
0.01675332078901957   -0.38884523801574494   -0.006512638779463371
-0.017827721350274252   -0.436436685953197   -0.009963649428106649
0.005441938756941619   -0.43462377746768066   -0.009616171413464459
0.01726893767516624   -0.3881838298732804   -0.007259639037095588
-0.017411627165366202   -0.4358729535326793   -0.01039647517033647
0.0065208824701191125   -0.4343196733550529   -0.010569850489038702
0.01726893767516624   -0.3881838298732804   -0.007259639037095588
-0.01195435334453454   -0.38905909656456394   -0.008231334257341776
-0.017411627165366202   -0.4358729535326793   -0.01039647517033647
-0.012003271452431992   -0.38864679895553744   -0.008467936805702616
0.0065208824701191125   -0.4343196733550529   -0.010569850489038702
-0.017163000185815392   -0.43558403664089135   -0.010777014194261764
-0.012003271452431992   -0.38864679895553744   -0.008467936805702616
-0.017411627165366202   -0.4358729535326793   -0.01039647517033647
0.0065208824701191125   -0.4343196733550529   -0.010569850489038702
-0.012003271452431992   -0.38864679895553744   -0.008467936805702616
0.017795361110481852   -0.3877332148658778   -0.007933588438279245
0.01726893767516624   -0.3881838298732804   -0.007259639037095588
0.0065208824701191125   -0.4343196733550529   -0.010569850489038702
-0.012003271452431992   -0.38864679895553744   -0.008467936805702616
0.01726893767516624   -0.3881838298732804   -0.007259639037095588
-0.017411627165366202   -0.4358729535326793   -0.01039647517033647
-0.018194128220405816   -0.4372917309327813   -0.00947281770199653
-0.012121862577775425   -0.39053103267667766   -0.007607440808904651
-0.038729554670326446   -0.43749124083772706   -0.011131156414043076
-0.017827721350274252   -0.436436685953197   -0.009963649428106649
-0.012121862577775425   -0.39053103267667766   -0.007607440808904651
-0.039111109834943064   -0.39053235917560064   -0.0091923395371813
-0.038729554670326446   -0.43749124083772706   -0.011131156414043076
-0.039115715142165275   -0.3898114237479697   -0.009160527633285287
-0.017827721350274252   -0.436436685953197   -0.009963649428106649
-0.03845937232418771   -0.4367564216955869   -0.011144752894494412
-0.039115715142165275   -0.3898114237479697   -0.009160527633285287
-0.038729554670326446   -0.43749124083772706   -0.011131156414043076
-0.017827721350274252   -0.436436685953197   -0.009963649428106649
-0.039115715142165275   -0.3898114237479697   -0.009160527633285287
-0.012047970608047638   -0.38968063921052287   -0.00794578880265613
-0.012121862577775425   -0.39053103267667766   -0.007607440808904651
-0.017827721350274252   -0.436436685953197   -0.009963649428106649
-0.039115715142165275   -0.3898114237479697   -0.009160527633285287
-0.012121862577775425   -0.39053103267667766   -0.007607440808904651
-0.038729554670326446   -0.43749124083772706   -0.011131156414043076
-0.017827721350274252   -0.436436685953197   -0.009963649428106649
-0.012047970608047638   -0.38968063921052287   -0.00794578880265613
-0.03845937232418771   -0.4367564216955869   -0.011144752894494412
-0.017411627165366202   -0.4358729535326793   -0.01039647517033647
-0.012047970608047638   -0.38968063921052287   -0.00794578880265613
-0.039115715142165275   -0.3898114237479697   -0.009160527633285287
-0.03845937232418771   -0.4367564216955869   -0.011144752894494412
-0.039118583849892315   -0.38929231381125956   -0.009076171973151978
-0.017411627165366202   -0.4358729535326793   -0.01039647517033647
-0.038181695780685074   -0.4362824262349118   -0.011102822319897057
-0.039118583849892315   -0.38929231381125956   -0.009076171973151978
-0.03845937232418771   -0.4367564216955869   -0.011144752894494412
-0.017411627165366202   -0.4358729535326793   -0.01039647517033647
-0.039118583849892315   -0.38929231381125956   -0.009076171973151978
-0.01195435334453454   -0.38905909656456394   -0.008231334257341776
-0.012047970608047638   -0.38968063921052287   -0.00794578880265613
-0.017411627165366202   -0.4358729535326793   -0.01039647517033647
-0.039118583849892315   -0.38929231381125956   -0.009076171973151978
-0.012047970608047638   -0.38968063921052287   -0.00794578880265613
-0.03845937232418771   -0.4367564216955869   -0.011144752894494412
-0.017411627165366202   -0.4358729535326793   -0.01039647517033647
-0.01195435334453454   -0.38905909656456394   -0.008231334257341776
-0.038181695780685074   -0.4362824262349118   -0.011102822319897057
-0.017163000185815392   -0.43558403664089135   -0.010777014194261764
-0.01195435334453454   -0.38905909656456394   -0.008231334257341776
-0.039118583849892315   -0.38929231381125956   -0.009076171973151978
-0.038181695780685074   -0.4362824262349118   -0.011102822319897057
-0.0391576695086501   -0.38897536365858854   -0.008941928964446406
-0.017163000185815392   -0.43558403664089135   -0.010777014194261764
-0.03793876857372393   -0.4360648125713452   -0.01100898677738338
-0.0391576695086501   -0.38897536365858854   -0.008941928964446406
-0.038181695780685074   -0.4362824262349118   -0.011102822319897057
-0.017163000185815392   -0.43558403664089135   -0.010777014194261764
-0.0391576695086501   -0.38897536365858854   -0.008941928964446406
-0.012003271452431992   -0.38864679895553744   -0.008467936805702616
-0.01195435334453454   -0.38905909656456394   -0.008231334257341776
-0.017163000185815392   -0.43558403664089135   -0.010777014194261764
-0.0391576695086501   -0.38897536365858854   -0.008941928964446406
-0.01195435334453454   -0.38905909656456394   -0.008231334257341776
-0.038181695780685074   -0.4362824262349118   -0.011102822319897057
-0.038729554670326446   -0.43749124083772706   -0.011131156414043076
-0.039111109834943064   -0.39053235917560064   -0.0091923395371813
-0.058937501117078545   -0.4368394616575904   -0.012628435240327309
-0.03845937232418771   -0.4367564216955869   -0.011144752894494412
-0.039111109834943064   -0.39053235917560064   -0.0091923395371813
-0.06563756145770261   -0.3898623514303816   -0.010582053195082002
-0.058937501117078545   -0.4368394616575904   -0.012628435240327309
-0.06566198566260663   -0.3892556030068891   -0.010184488986694702
-0.03845937232418771   -0.4367564216955869   -0.011144752894494412
-0.05868587672216496   -0.4362051782340059   -0.01217636554721349
-0.06566198566260663   -0.3892556030068891   -0.010184488986694702
-0.058937501117078545   -0.4368394616575904   -0.012628435240327309
-0.03845937232418771   -0.4367564216955869   -0.011144752894494412
-0.06566198566260663   -0.3892556030068891   -0.010184488986694702
-0.039115715142165275   -0.3898114237479697   -0.009160527633285287
-0.039111109834943064   -0.39053235917560064   -0.0091923395371813
-0.03845937232418771   -0.4367564216955869   -0.011144752894494412
-0.06566198566260663   -0.3892556030068891   -0.010184488986694702
-0.039111109834943064   -0.39053235917560064   -0.0091923395371813
-0.058937501117078545   -0.4368394616575904   -0.012628435240327309
-0.03845937232418771   -0.4367564216955869   -0.011144752894494412
-0.039115715142165275   -0.3898114237479697   -0.009160527633285287
-0.05868587672216496   -0.4362051782340059   -0.01217636554721349
-0.038181695780685074   -0.4362824262349118   -0.011102822319897057
-0.039115715142165275   -0.3898114237479697   -0.009160527633285287
-0.06566198566260663   -0.3892556030068891   -0.010184488986694702
-0.05868587672216496   -0.4362051782340059   -0.01217636554721349
-0.06564108107002514   -0.38884888807762424   -0.009735364176845923
-0.038181695780685074   -0.4362824262349118   -0.011102822319897057
-0.05838191135703009   -0.43582882516426846   -0.01166993178979368
-0.06564108107002514   -0.38884888807762424   -0.009735364176845923
-0.05868587672216496   -0.4362051782340059   -0.01217636554721349
-0.038181695780685074   -0.4362824262349118   -0.011102822319897057
-0.06564108107002514   -0.38884888807762424   -0.009735364176845923
-0.039118583849892315   -0.38929231381125956   -0.009076171973151978
-0.039115715142165275   -0.3898114237479697   -0.009160527633285287
-0.038181695780685074   -0.4362824262349118   -0.011102822319897057
-0.06564108107002514   -0.38884888807762424   -0.009735364176845923
-0.039115715142165275   -0.3898114237479697   -0.009160527633285287
-0.05868587672216496   -0.4362051782340059   -0.01217636554721349
-0.038181695780685074   -0.4362824262349118   -0.011102822319897057
-0.039118583849892315   -0.38929231381125956   -0.009076171973151978
-0.05838191135703009   -0.43582882516426846   -0.01166993178979368
-0.03793876857372393   -0.4360648125713452   -0.01100898677738338
-0.039118583849892315   -0.38929231381125956   -0.009076171973151978
-0.06564108107002514   -0.38884888807762424   -0.009735364176845923
-0.05838191135703009   -0.43582882516426846   -0.01166993178979368
-0.06562818538103289   -0.3886386249579729   -0.009236200171236938
-0.03793876857372393   -0.4360648125713452   -0.01100898677738338
-0.05808595901541281   -0.43569815586707883   -0.011110818276754267
-0.06562818538103289   -0.3886386249579729   -0.009236200171236938
-0.05838191135703009   -0.43582882516426846   -0.01166993178979368
-0.03793876857372393   -0.4360648125713452   -0.01100898677738338
-0.06562818538103289   -0.3886386249579729   -0.009236200171236938
-0.0391576695086501   -0.38897536365858854   -0.008941928964446406
-0.039118583849892315   -0.38929231381125956   -0.009076171973151978
-0.03793876857372393   -0.4360648125713452   -0.01100898677738338
-0.06562818538103289   -0.3886386249579729   -0.009236200171236938
-0.039118583849892315   -0.38929231381125956   -0.009076171973151978
-0.05838191135703009   -0.43582882516426846   -0.01166993178979368
-0.058937501117078545   -0.4368394616575904   -0.012628435240327309
-0.06563756145770261   -0.3898623514303816   -0.010582053195082002
-0.0801209033187563   -0.4353601405904223   -0.013958060184910217
-0.05868587672216496   -0.4362051782340059   -0.01217636554721349
-0.06563756145770261   -0.3898623514303816   -0.010582053195082002
-0.09299372466084227   -0.3885469165850875   -0.011778536096336814
-0.0801209033187563   -0.4353601405904223   -0.013958060184910217
-0.09296327473447329   -0.38804990254154403   -0.01101099322360474
-0.05868587672216496   -0.4362051782340059   -0.01217636554721349
-0.07979360438719629   -0.4348223019488574   -0.01303996394571827
-0.09296327473447329   -0.38804990254154403   -0.01101099322360474
-0.0801209033187563   -0.4353601405904223   -0.013958060184910217
-0.05868587672216496   -0.4362051782340059   -0.01217636554721349
-0.09296327473447329   -0.38804990254154403   -0.01101099322360474
-0.06566198566260663   -0.3892556030068891   -0.010184488986694702
-0.06563756145770261   -0.3898623514303816   -0.010582053195082002
-0.05868587672216496   -0.4362051782340059   -0.01217636554721349
-0.09296327473447329   -0.38804990254154403   -0.01101099322360474
-0.06563756145770261   -0.3898623514303816   -0.010582053195082002
-0.0801209033187563   -0.4353601405904223   -0.013958060184910217
-0.05868587672216496   -0.4362051782340059   -0.01217636554721349
-0.06566198566260663   -0.3892556030068891   -0.010184488986694702
-0.07979360438719629   -0.4348223019488574   -0.01303996394571827
-0.05838191135703009   -0.43582882516426846   -0.01166993178979368
-0.06566198566260663   -0.3892556030068891   -0.010184488986694702
-0.09296327473447329   -0.38804990254154403   -0.01101099322360474
-0.07979360438719629   -0.4348223019488574   -0.01303996394571827
-0.0927362825390388   -0.3877450787535821   -0.01019963762087757
-0.05838191135703009   -0.43582882516426846   -0.01166993178979368
-0.07923952875997134   -0.43453448095192654   -0.01207579161089343
-0.0927362825390388   -0.3877450787535821   -0.01019963762087757
-0.07979360438719629   -0.4348223019488574   -0.01303996394571827
-0.05838191135703009   -0.43582882516426846   -0.01166993178979368
-0.0927362825390388   -0.3877450787535821   -0.01019963762087757
-0.06564108107002514   -0.38884888807762424   -0.009735364176845923
-0.06566198566260663   -0.3892556030068891   -0.010184488986694702
-0.05838191135703009   -0.43582882516426846   -0.01166993178979368
-0.0927362825390388   -0.3877450787535821   -0.01019963762087757
-0.06566198566260663   -0.3892556030068891   -0.010184488986694702
-0.07979360438719629   -0.4348223019488574   -0.01303996394571827
-0.05838191135703009   -0.43582882516426846   -0.01166993178979368
-0.06564108107002514   -0.38884888807762424   -0.009735364176845923
-0.07923952875997134   -0.43453448095192654   -0.01207579161089343
-0.05808595901541281   -0.43569815586707883   -0.011110818276754267
-0.06564108107002514   -0.38884888807762424   -0.009735364176845923
-0.0927362825390388   -0.3877450787535821   -0.01019963762087757
-0.07923952875997134   -0.43453448095192654   -0.01207579161089343
-0.09258400961132522   -0.38765314326619776   -0.009334261137390913
-0.05808595901541281   -0.43569815586707883   -0.011110818276754267
-0.0787878310035424   -0.43451158581017013   -0.0110513150421501
-0.09258400961132522   -0.38765314326619776   -0.009334261137390913
-0.07923952875997134   -0.43453448095192654   -0.01207579161089343
-0.05808595901541281   -0.43569815586707883   -0.011110818276754267
-0.09258400961132522   -0.38765314326619776   -0.009334261137390913
-0.06562818538103289   -0.3886386249579729   -0.009236200171236938
-0.06564108107002514   -0.38884888807762424   -0.009735364176845923
-0.05808595901541281   -0.43569815586707883   -0.011110818276754267
-0.09258400961132522   -0.38765314326619776   -0.009334261137390913
-0.06564108107002514   -0.38884888807762424   -0.009735364176845923
-0.07923952875997134   -0.43453448095192654   -0.01207579161089343
-0.0801209033187563   -0.4353601405904223   -0.013958060184910217
-0.09299372466084227   -0.3885469165850875   -0.011778536096336814
-0.10482883144663083   -0.4332346223141444   -0.015193557129602093
-0.07979360438719629   -0.4348223019488574   -0.01303996394571827
-0.09299372466084227   -0.3885469165850875   -0.011778536096336814
-0.12354903743918573   -0.3867387009714416   -0.012855061154138817
-0.10482883144663083   -0.4332346223141444   -0.015193557129602093
-0.12241947769579689   -0.38625210294803386   -0.011682304064041419
-0.07979360438719629   -0.4348223019488574   -0.01303996394571827
-0.10316648792936133   -0.43267564326784125   -0.01375748993581454
-0.12241947769579689   -0.38625210294803386   -0.011682304064041419
-0.10482883144663083   -0.4332346223141444   -0.015193557129602093
-0.07979360438719629   -0.4348223019488574   -0.01303996394571827
-0.12241947769579689   -0.38625210294803386   -0.011682304064041419
-0.09296327473447329   -0.38804990254154403   -0.01101099322360474
-0.09299372466084227   -0.3885469165850875   -0.011778536096336814
-0.07979360438719629   -0.4348223019488574   -0.01303996394571827
-0.12241947769579689   -0.38625210294803386   -0.011682304064041419
-0.09299372466084227   -0.3885469165850875   -0.011778536096336814
-0.10482883144663083   -0.4332346223141444   -0.015193557129602093
-0.07979360438719629   -0.4348223019488574   -0.01303996394571827
-0.09296327473447329   -0.38804990254154403   -0.01101099322360474
-0.10316648792936133   -0.43267564326784125   -0.01375748993581454
-0.07923952875997134   -0.43453448095192654   -0.01207579161089343
-0.09296327473447329   -0.38804990254154403   -0.01101099322360474
-0.12241947769579689   -0.38625210294803386   -0.011682304064041419
-0.10316648792936133   -0.43267564326784125   -0.01375748993581454
-0.12145171961693872   -0.3859843719577014   -0.0104360687494482
-0.07923952875997134   -0.43453448095192654   -0.01207579161089343
-0.10172104182386141   -0.43241184248811076   -0.012245647501465258
-0.12145171961693872   -0.3859843719577014   -0.0104360687494482
-0.10316648792936133   -0.43267564326784125   -0.01375748993581454
-0.07923952875997134   -0.43453448095192654   -0.01207579161089343
-0.12145171961693872   -0.3859843719577014   -0.0104360687494482
-0.0927362825390388   -0.3877450787535821   -0.01019963762087757
-0.09296327473447329   -0.38804990254154403   -0.01101099322360474
-0.07923952875997134   -0.43453448095192654   -0.01207579161089343
-0.12145171961693872   -0.3859843719577014   -0.0104360687494482
-0.09296327473447329   -0.38804990254154403   -0.01101099322360474
-0.10316648792936133   -0.43267564326784125   -0.01375748993581454
-0.07923952875997134   -0.43453448095192654   -0.01207579161089343
-0.0927362825390388   -0.3877450787535821   -0.01019963762087757
-0.10172104182386141   -0.43241184248811076   -0.012245647501465258
-0.0787878310035424   -0.43451158581017013   -0.0110513150421501
-0.0927362825390388   -0.3877450787535821   -0.01019963762087757
-0.12145171961693872   -0.3859843719577014   -0.0104360687494482
-0.10172104182386141   -0.43241184248811076   -0.012245647501465258
-0.12005268825303175   -0.3860549615068492   -0.009126350249735366
-0.0787878310035424   -0.43451158581017013   -0.0110513150421501
-0.099772491707312   -0.43255362008378534   -0.010667700629153036
-0.12005268825303175   -0.3860549615068492   -0.009126350249735366
-0.10172104182386141   -0.43241184248811076   -0.012245647501465258
-0.0787878310035424   -0.43451158581017013   -0.0110513150421501
-0.12005268825303175   -0.3860549615068492   -0.009126350249735366
-0.09258400961132522   -0.38765314326619776   -0.009334261137390913
-0.0927362825390388   -0.3877450787535821   -0.01019963762087757
-0.0787878310035424   -0.43451158581017013   -0.0110513150421501
-0.12005268825303175   -0.3860549615068492   -0.009126350249735366
-0.0927362825390388   -0.3877450787535821   -0.01019963762087757
-0.10172104182386141   -0.43241184248811076   -0.012245647501465258
0.015943822246678077   -0.3898440012857322   -0.005691068278804827
0.024769611846288724   -0.33416193323992144   -0.0037883769102167735
-0.012121862577775425   -0.39053103267667766   -0.007607440808904651
0.01675332078901957   -0.38884523801574494   -0.006512638779463371
0.024769611846288724   -0.33416193323992144   -0.0037883769102167735
-0.008463054935065191   -0.33449505301757265   -0.005591771835651662
-0.012121862577775425   -0.39053103267667766   -0.007607440808904651
-0.008623745125273315   -0.3336650641423186   -0.005771970338368372
0.01675332078901957   -0.38884523801574494   -0.006512638779463371
-0.012047970608047638   -0.38968063921052287   -0.00794578880265613
-0.008623745125273315   -0.3336650641423186   -0.005771970338368372
-0.012121862577775425   -0.39053103267667766   -0.007607440808904651
0.01675332078901957   -0.38884523801574494   -0.006512638779463371
-0.008623745125273315   -0.3336650641423186   -0.005771970338368372
0.025080659223847297   -0.33319975165276233   -0.004322461134904621
0.024769611846288724   -0.33416193323992144   -0.0037883769102167735
0.01675332078901957   -0.38884523801574494   -0.006512638779463371
-0.008623745125273315   -0.3336650641423186   -0.005771970338368372
0.024769611846288724   -0.33416193323992144   -0.0037883769102167735
-0.012121862577775425   -0.39053103267667766   -0.007607440808904651
0.01675332078901957   -0.38884523801574494   -0.006512638779463371
0.025080659223847297   -0.33319975165276233   -0.004322461134904621
-0.012047970608047638   -0.38968063921052287   -0.00794578880265613
0.01726893767516624   -0.3881838298732804   -0.007259639037095588
0.025080659223847297   -0.33319975165276233   -0.004322461134904621
-0.008623745125273315   -0.3336650641423186   -0.005771970338368372
-0.012047970608047638   -0.38968063921052287   -0.00794578880265613
-0.00879315593341601   -0.3330038108198973   -0.005905247347733725
0.01726893767516624   -0.3881838298732804   -0.007259639037095588
-0.01195435334453454   -0.38905909656456394   -0.008231334257341776
-0.00879315593341601   -0.3330038108198973   -0.005905247347733725
-0.012047970608047638   -0.38968063921052287   -0.00794578880265613
0.01726893767516624   -0.3881838298732804   -0.007259639037095588
-0.00879315593341601   -0.3330038108198973   -0.005905247347733725
0.025168843092130983   -0.3324927102370006   -0.00478737506163291
0.025080659223847297   -0.33319975165276233   -0.004322461134904621
0.01726893767516624   -0.3881838298732804   -0.007259639037095588
-0.00879315593341601   -0.3330038108198973   -0.005905247347733725
0.025080659223847297   -0.33319975165276233   -0.004322461134904621
-0.012047970608047638   -0.38968063921052287   -0.00794578880265613
0.01726893767516624   -0.3881838298732804   -0.007259639037095588
0.025168843092130983   -0.3324927102370006   -0.00478737506163291
-0.01195435334453454   -0.38905909656456394   -0.008231334257341776
0.017795361110481852   -0.3877332148658778   -0.007933588438279245
0.025168843092130983   -0.3324927102370006   -0.00478737506163291
-0.00879315593341601   -0.3330038108198973   -0.005905247347733725
-0.01195435334453454   -0.38905909656456394   -0.008231334257341776
-0.009077664586051951   -0.3324908702930936   -0.005993201447406163
0.017795361110481852   -0.3877332148658778   -0.007933588438279245
-0.012003271452431992   -0.38864679895553744   -0.008467936805702616
-0.009077664586051951   -0.3324908702930936   -0.005993201447406163
-0.01195435334453454   -0.38905909656456394   -0.008231334257341776
0.017795361110481852   -0.3877332148658778   -0.007933588438279245
-0.009077664586051951   -0.3324908702930936   -0.005993201447406163
0.025211237680549926   -0.3319183387951735   -0.0051863649208206955
0.025168843092130983   -0.3324927102370006   -0.00478737506163291
0.017795361110481852   -0.3877332148658778   -0.007933588438279245
-0.009077664586051951   -0.3324908702930936   -0.005993201447406163
0.025168843092130983   -0.3324927102370006   -0.00478737506163291
-0.01195435334453454   -0.38905909656456394   -0.008231334257341776
-0.012121862577775425   -0.39053103267667766   -0.007607440808904651
-0.008463054935065191   -0.33449505301757265   -0.005591771835651662
-0.039111109834943064   -0.39053235917560064   -0.0091923395371813
-0.012047970608047638   -0.38968063921052287   -0.00794578880265613
-0.008463054935065191   -0.33449505301757265   -0.005591771835651662
-0.040305036590539065   -0.3343174777816449   -0.007082075247686025
-0.039111109834943064   -0.39053235917560064   -0.0091923395371813
-0.040524997137494564   -0.333621813026348   -0.006996045834130203
-0.012047970608047638   -0.38968063921052287   -0.00794578880265613
-0.039115715142165275   -0.3898114237479697   -0.009160527633285287
-0.040524997137494564   -0.333621813026348   -0.006996045834130203
-0.039111109834943064   -0.39053235917560064   -0.0091923395371813
-0.012047970608047638   -0.38968063921052287   -0.00794578880265613
-0.040524997137494564   -0.333621813026348   -0.006996045834130203
-0.008623745125273315   -0.3336650641423186   -0.005771970338368372
-0.008463054935065191   -0.33449505301757265   -0.005591771835651662
-0.012047970608047638   -0.38968063921052287   -0.00794578880265613
-0.040524997137494564   -0.333621813026348   -0.006996045834130203
-0.008463054935065191   -0.33449505301757265   -0.005591771835651662
-0.039111109834943064   -0.39053235917560064   -0.0091923395371813
-0.012047970608047638   -0.38968063921052287   -0.00794578880265613
-0.008623745125273315   -0.3336650641423186   -0.005771970338368372
-0.039115715142165275   -0.3898114237479697   -0.009160527633285287
-0.01195435334453454   -0.38905909656456394   -0.008231334257341776
-0.008623745125273315   -0.3336650641423186   -0.005771970338368372
-0.040524997137494564   -0.333621813026348   -0.006996045834130203
-0.039115715142165275   -0.3898114237479697   -0.009160527633285287
-0.04074795112398023   -0.33307084351124605   -0.006861763186414722
-0.01195435334453454   -0.38905909656456394   -0.008231334257341776
-0.039118583849892315   -0.38929231381125956   -0.009076171973151978
-0.04074795112398023   -0.33307084351124605   -0.006861763186414722
-0.039115715142165275   -0.3898114237479697   -0.009160527633285287
-0.01195435334453454   -0.38905909656456394   -0.008231334257341776
-0.04074795112398023   -0.33307084351124605   -0.006861763186414722
-0.00879315593341601   -0.3330038108198973   -0.005905247347733725
-0.008623745125273315   -0.3336650641423186   -0.005771970338368372
-0.01195435334453454   -0.38905909656456394   -0.008231334257341776
-0.04074795112398023   -0.33307084351124605   -0.006861763186414722
-0.008623745125273315   -0.3336650641423186   -0.005771970338368372
-0.039115715142165275   -0.3898114237479697   -0.009160527633285287
-0.01195435334453454   -0.38905909656456394   -0.008231334257341776
-0.00879315593341601   -0.3330038108198973   -0.005905247347733725
-0.039118583849892315   -0.38929231381125956   -0.009076171973151978
-0.012003271452431992   -0.38864679895553744   -0.008467936805702616
-0.00879315593341601   -0.3330038108198973   -0.005905247347733725
-0.04074795112398023   -0.33307084351124605   -0.006861763186414722
-0.039118583849892315   -0.38929231381125956   -0.009076171973151978
-0.041005197090495916   -0.33266705306557015   -0.006681488828088416
-0.012003271452431992   -0.38864679895553744   -0.008467936805702616
-0.0391576695086501   -0.38897536365858854   -0.008941928964446406
-0.041005197090495916   -0.33266705306557015   -0.006681488828088416
-0.039118583849892315   -0.38929231381125956   -0.009076171973151978
-0.012003271452431992   -0.38864679895553744   -0.008467936805702616
-0.041005197090495916   -0.33266705306557015   -0.006681488828088416
-0.009077664586051951   -0.3324908702930936   -0.005993201447406163
-0.00879315593341601   -0.3330038108198973   -0.005905247347733725
-0.012003271452431992   -0.38864679895553744   -0.008467936805702616
-0.041005197090495916   -0.33266705306557015   -0.006681488828088416
-0.00879315593341601   -0.3330038108198973   -0.005905247347733725
-0.039118583849892315   -0.38929231381125956   -0.009076171973151978
-0.039111109834943064   -0.39053235917560064   -0.0091923395371813
-0.040305036590539065   -0.3343174777816449   -0.007082075247686025
-0.06563756145770261   -0.3898623514303816   -0.010582053195082002
-0.039115715142165275   -0.3898114237479697   -0.009160527633285287
-0.040305036590539065   -0.3343174777816449   -0.007082075247686025
-0.07160583793237994   -0.3336593959303638   -0.008359693300111264
-0.06563756145770261   -0.3898623514303816   -0.010582053195082002
-0.07184250972585897   -0.3330862040166486   -0.008008593469677663
-0.039115715142165275   -0.3898114237479697   -0.009160527633285287
-0.06566198566260663   -0.3892556030068891   -0.010184488986694702
-0.07184250972585897   -0.3330862040166486   -0.008008593469677663
-0.06563756145770261   -0.3898623514303816   -0.010582053195082002
-0.039115715142165275   -0.3898114237479697   -0.009160527633285287
-0.07184250972585897   -0.3330862040166486   -0.008008593469677663
-0.040524997137494564   -0.333621813026348   -0.006996045834130203
-0.040305036590539065   -0.3343174777816449   -0.007082075247686025
-0.039115715142165275   -0.3898114237479697   -0.009160527633285287
-0.07184250972585897   -0.3330862040166486   -0.008008593469677663
-0.040305036590539065   -0.3343174777816449   -0.007082075247686025
-0.06563756145770261   -0.3898623514303816   -0.010582053195082002
-0.039115715142165275   -0.3898114237479697   -0.009160527633285287
-0.040524997137494564   -0.333621813026348   -0.006996045834130203
-0.06566198566260663   -0.3892556030068891   -0.010184488986694702
-0.039118583849892315   -0.38929231381125956   -0.009076171973151978
-0.040524997137494564   -0.333621813026348   -0.006996045834130203
-0.07184250972585897   -0.3330862040166486   -0.008008593469677663
-0.06566198566260663   -0.3892556030068891   -0.010184488986694702
-0.07203904633721861   -0.3326563155319277   -0.007610062809188579
-0.039118583849892315   -0.38929231381125956   -0.009076171973151978
-0.06564108107002514   -0.38884888807762424   -0.009735364176845923
-0.07203904633721861   -0.3326563155319277   -0.007610062809188579
-0.06566198566260663   -0.3892556030068891   -0.010184488986694702
-0.039118583849892315   -0.38929231381125956   -0.009076171973151978
-0.07203904633721861   -0.3326563155319277   -0.007610062809188579
-0.04074795112398023   -0.33307084351124605   -0.006861763186414722
-0.040524997137494564   -0.333621813026348   -0.006996045834130203
-0.039118583849892315   -0.38929231381125956   -0.009076171973151978
-0.07203904633721861   -0.3326563155319277   -0.007610062809188579
-0.040524997137494564   -0.333621813026348   -0.006996045834130203
-0.06566198566260663   -0.3892556030068891   -0.010184488986694702
-0.039118583849892315   -0.38929231381125956   -0.009076171973151978
-0.04074795112398023   -0.33307084351124605   -0.006861763186414722
-0.06564108107002514   -0.38884888807762424   -0.009735364176845923
-0.0391576695086501   -0.38897536365858854   -0.008941928964446406
-0.04074795112398023   -0.33307084351124605   -0.006861763186414722
-0.07203904633721861   -0.3326563155319277   -0.007610062809188579
-0.06564108107002514   -0.38884888807762424   -0.009735364176845923
-0.0722411492815622   -0.33236915321773586   -0.007165518384897098
-0.0391576695086501   -0.38897536365858854   -0.008941928964446406
-0.06562818538103289   -0.3886386249579729   -0.009236200171236938
-0.0722411492815622   -0.33236915321773586   -0.007165518384897098
-0.06564108107002514   -0.38884888807762424   -0.009735364176845923
-0.0391576695086501   -0.38897536365858854   -0.008941928964446406
-0.0722411492815622   -0.33236915321773586   -0.007165518384897098
-0.041005197090495916   -0.33266705306557015   -0.006681488828088416
-0.04074795112398023   -0.33307084351124605   -0.006861763186414722
-0.0391576695086501   -0.38897536365858854   -0.008941928964446406
-0.0722411492815622   -0.33236915321773586   -0.007165518384897098
-0.04074795112398023   -0.33307084351124605   -0.006861763186414722
-0.06564108107002514   -0.38884888807762424   -0.009735364176845923
-0.06563756145770261   -0.3898623514303816   -0.010582053195082002
-0.07160583793237994   -0.3336593959303638   -0.008359693300111264
-0.09299372466084227   -0.3885469165850875   -0.011778536096336814
-0.06566198566260663   -0.3892556030068891   -0.010184488986694702
-0.07160583793237994   -0.3336593959303638   -0.008359693300111264
-0.10365148522386503   -0.3325341776004365   -0.009428946103853341
-0.09299372466084227   -0.3885469165850875   -0.011778536096336814
-0.10384844695281562   -0.33208092025300856   -0.008809229874129385
-0.06566198566260663   -0.3892556030068891   -0.010184488986694702
-0.09296327473447329   -0.38804990254154403   -0.01101099322360474
-0.10384844695281562   -0.33208092025300856   -0.008809229874129385
-0.09299372466084227   -0.3885469165850875   -0.011778536096336814
-0.06566198566260663   -0.3892556030068891   -0.010184488986694702
-0.10384844695281562   -0.33208092025300856   -0.008809229874129385
-0.07184250972585897   -0.3330862040166486   -0.008008593469677663
-0.07160583793237994   -0.3336593959303638   -0.008359693300111264
-0.06566198566260663   -0.3892556030068891   -0.010184488986694702
-0.10384844695281562   -0.33208092025300856   -0.008809229874129385
-0.07160583793237994   -0.3336593959303638   -0.008359693300111264
-0.09299372466084227   -0.3885469165850875   -0.011778536096336814
-0.06566198566260663   -0.3892556030068891   -0.010184488986694702
-0.07184250972585897   -0.3330862040166486   -0.008008593469677663
-0.09296327473447329   -0.38804990254154403   -0.01101099322360474
-0.06564108107002514   -0.38884888807762424   -0.009735364176845923
-0.07184250972585897   -0.3330862040166486   -0.008008593469677663
-0.10384844695281562   -0.33208092025300856   -0.008809229874129385
-0.09296327473447329   -0.38804990254154403   -0.01101099322360474
-0.10387763220116823   -0.33176169524904836   -0.00814865671898903
-0.06564108107002514   -0.38884888807762424   -0.009735364176845923
-0.0927362825390388   -0.3877450787535821   -0.01019963762087757
-0.10387763220116823   -0.33176169524904836   -0.00814865671898903
-0.09296327473447329   -0.38804990254154403   -0.01101099322360474
-0.06564108107002514   -0.38884888807762424   -0.009735364176845923
-0.10387763220116823   -0.33176169524904836   -0.00814865671898903
-0.07203904633721861   -0.3326563155319277   -0.007610062809188579
-0.07184250972585897   -0.3330862040166486   -0.008008593469677663
-0.06564108107002514   -0.38884888807762424   -0.009735364176845923
-0.10387763220116823   -0.33176169524904836   -0.00814865671898903
-0.07184250972585897   -0.3330862040166486   -0.008008593469677663
-0.09296327473447329   -0.38804990254154403   -0.01101099322360474
-0.06564108107002514   -0.38884888807762424   -0.009735364176845923
-0.07203904633721861   -0.3326563155319277   -0.007610062809188579
-0.0927362825390388   -0.3877450787535821   -0.01019963762087757
-0.06562818538103289   -0.3886386249579729   -0.009236200171236938
-0.07203904633721861   -0.3326563155319277   -0.007610062809188579
-0.10387763220116823   -0.33176169524904836   -0.00814865671898903
-0.0927362825390388   -0.3877450787535821   -0.01019963762087757
-0.10395351055333195   -0.3315979330100814   -0.007438606983403452
-0.06562818538103289   -0.3886386249579729   -0.009236200171236938
-0.09258400961132522   -0.38765314326619776   -0.009334261137390913
-0.10395351055333195   -0.3315979330100814   -0.007438606983403452
-0.0927362825390388   -0.3877450787535821   -0.01019963762087757
-0.06562818538103289   -0.3886386249579729   -0.009236200171236938
-0.10395351055333195   -0.3315979330100814   -0.007438606983403452
-0.0722411492815622   -0.33236915321773586   -0.007165518384897098
-0.07203904633721861   -0.3326563155319277   -0.007610062809188579
-0.06562818538103289   -0.3886386249579729   -0.009236200171236938
-0.10395351055333195   -0.3315979330100814   -0.007438606983403452
-0.07203904633721861   -0.3326563155319277   -0.007610062809188579
-0.0927362825390388   -0.3877450787535821   -0.01019963762087757
-0.09299372466084227   -0.3885469165850875   -0.011778536096336814
-0.10365148522386503   -0.3325341776004365   -0.009428946103853341
-0.12354903743918573   -0.3867387009714416   -0.012855061154138817
-0.09296327473447329   -0.38804990254154403   -0.01101099322360474
-0.10365148522386503   -0.3325341776004365   -0.009428946103853341
-0.13859002000924342   -0.3310627946561466   -0.010342088510796894
-0.12354903743918573   -0.3867387009714416   -0.012855061154138817
-0.1379349404115919   -0.3306488145166884   -0.009439780101934631
-0.09296327473447329   -0.38804990254154403   -0.01101099322360474
-0.12241947769579689   -0.38625210294803386   -0.011682304064041419
-0.1379349404115919   -0.3306488145166884   -0.009439780101934631
-0.12354903743918573   -0.3867387009714416   -0.012855061154138817
-0.09296327473447329   -0.38804990254154403   -0.01101099322360474
-0.1379349404115919   -0.3306488145166884   -0.009439780101934631
-0.10384844695281562   -0.33208092025300856   -0.008809229874129385
-0.10365148522386503   -0.3325341776004365   -0.009428946103853341
-0.09296327473447329   -0.38804990254154403   -0.01101099322360474
-0.1379349404115919   -0.3306488145166884   -0.009439780101934631
-0.10365148522386503   -0.3325341776004365   -0.009428946103853341
-0.12354903743918573   -0.3867387009714416   -0.012855061154138817
-0.09296327473447329   -0.38804990254154403   -0.01101099322360474
-0.10384844695281562   -0.33208092025300856   -0.008809229874129385
-0.12241947769579689   -0.38625210294803386   -0.011682304064041419
-0.0927362825390388   -0.3877450787535821   -0.01019963762087757
-0.10384844695281562   -0.33208092025300856   -0.008809229874129385
-0.1379349404115919   -0.3306488145166884   -0.009439780101934631
-0.12241947769579689   -0.38625210294803386   -0.011682304064041419
-0.13738182774964422   -0.330376433812951   -0.008466233592604006
-0.0927362825390388   -0.3877450787535821   -0.01019963762087757
-0.12145171961693872   -0.3859843719577014   -0.0104360687494482
-0.13738182774964422   -0.330376433812951   -0.008466233592604006
-0.12241947769579689   -0.38625210294803386   -0.011682304064041419
-0.0927362825390388   -0.3877450787535821   -0.01019963762087757
-0.13738182774964422   -0.330376433812951   -0.008466233592604006
-0.10387763220116823   -0.33176169524904836   -0.00814865671898903
-0.10384844695281562   -0.33208092025300856   -0.008809229874129385
-0.0927362825390388   -0.3877450787535821   -0.01019963762087757
-0.13738182774964422   -0.330376433812951   -0.008466233592604006
-0.10384844695281562   -0.33208092025300856   -0.008809229874129385
-0.12241947769579689   -0.38625210294803386   -0.011682304064041419
-0.0927362825390388   -0.3877450787535821   -0.01019963762087757
-0.10387763220116823   -0.33176169524904836   -0.00814865671898903
-0.12145171961693872   -0.3859843719577014   -0.0104360687494482
-0.09258400961132522   -0.38765314326619776   -0.009334261137390913
-0.10387763220116823   -0.33176169524904836   -0.00814865671898903
-0.13738182774964422   -0.330376433812951   -0.008466233592604006
-0.12145171961693872   -0.3859843719577014   -0.0104360687494482
-0.13646436847785492   -0.3303689610078509   -0.007430300387922091
-0.09258400961132522   -0.38765314326619776   -0.009334261137390913
-0.12005268825303175   -0.3860549615068492   -0.009126350249735366
-0.13646436847785492   -0.3303689610078509   -0.007430300387922091
-0.12145171961693872   -0.3859843719577014   -0.0104360687494482
-0.09258400961132522   -0.38765314326619776   -0.009334261137390913
-0.13646436847785492   -0.3303689610078509   -0.007430300387922091
-0.10395351055333195   -0.3315979330100814   -0.007438606983403452
-0.10387763220116823   -0.33176169524904836   -0.00814865671898903
-0.09258400961132522   -0.38765314326619776   -0.009334261137390913
-0.13646436847785492   -0.3303689610078509   -0.007430300387922091
-0.10387763220116823   -0.33176169524904836   -0.00814865671898903
-0.12145171961693872   -0.3859843719577014   -0.0104360687494482
0.024769611846288724   -0.33416193323992144   -0.0037883769102167735
0.029612644267990512   -0.271799893886371   -0.0019214552064766139
-0.008463054935065191   -0.33449505301757265   -0.005591771835651662
0.025080659223847297   -0.33319975165276233   -0.004322461134904621
0.029612644267990512   -0.271799893886371   -0.0019214552064766139
-0.007219345791337327   -0.2717842996051613   -0.003595525053305929
-0.008463054935065191   -0.33449505301757265   -0.005591771835651662
-0.007554563713001466   -0.2709807293338424   -0.0036163236549070143
0.025080659223847297   -0.33319975165276233   -0.004322461134904621
-0.008623745125273315   -0.3336650641423186   -0.005771970338368372
-0.007554563713001466   -0.2709807293338424   -0.0036163236549070143
-0.008463054935065191   -0.33449505301757265   -0.005591771835651662
0.025080659223847297   -0.33319975165276233   -0.004322461134904621
-0.007554563713001466   -0.2709807293338424   -0.0036163236549070143
0.029492963318010424   -0.2708782076177409   -0.002172603925605168
0.029612644267990512   -0.271799893886371   -0.0019214552064766139
0.025080659223847297   -0.33319975165276233   -0.004322461134904621
-0.007554563713001466   -0.2709807293338424   -0.0036163236549070143
0.029612644267990512   -0.271799893886371   -0.0019214552064766139
-0.008463054935065191   -0.33449505301757265   -0.005591771835651662
0.025080659223847297   -0.33319975165276233   -0.004322461134904621
0.029492963318010424   -0.2708782076177409   -0.002172603925605168
-0.008623745125273315   -0.3336650641423186   -0.005771970338368372
0.025168843092130983   -0.3324927102370006   -0.00478737506163291
0.029492963318010424   -0.2708782076177409   -0.002172603925605168
-0.007554563713001466   -0.2709807293338424   -0.0036163236549070143
-0.008623745125273315   -0.3336650641423186   -0.005771970338368372
-0.007926943680823757   -0.27028502773769375   -0.003595730838291253
0.025168843092130983   -0.3324927102370006   -0.00478737506163291
-0.00879315593341601   -0.3330038108198973   -0.005905247347733725
-0.007926943680823757   -0.27028502773769375   -0.003595730838291253
-0.008623745125273315   -0.3336650641423186   -0.005771970338368372
0.025168843092130983   -0.3324927102370006   -0.00478737506163291
-0.007926943680823757   -0.27028502773769375   -0.003595730838291253
0.029216949278168664   -0.270131177795038   -0.002357411058269534
0.029492963318010424   -0.2708782076177409   -0.002172603925605168
0.025168843092130983   -0.3324927102370006   -0.00478737506163291
-0.007926943680823757   -0.27028502773769375   -0.003595730838291253
0.029492963318010424   -0.2708782076177409   -0.002172603925605168
-0.008623745125273315   -0.3336650641423186   -0.005771970338368372
0.025168843092130983   -0.3324927102370006   -0.00478737506163291
0.029216949278168664   -0.270131177795038   -0.002357411058269534
-0.00879315593341601   -0.3330038108198973   -0.005905247347733725
0.025211237680549926   -0.3319183387951735   -0.0051863649208206955
0.029216949278168664   -0.270131177795038   -0.002357411058269534
-0.007926943680823757   -0.27028502773769375   -0.003595730838291253
-0.00879315593341601   -0.3330038108198973   -0.005905247347733725
-0.008387084216949524   -0.2696795017192722   -0.0035321148490908626
0.025211237680549926   -0.3319183387951735   -0.0051863649208206955
-0.009077664586051951   -0.3324908702930936   -0.005993201447406163
-0.008387084216949524   -0.2696795017192722   -0.0035321148490908626
-0.00879315593341601   -0.3330038108198973   -0.005905247347733725
0.025211237680549926   -0.3319183387951735   -0.0051863649208206955
-0.008387084216949524   -0.2696795017192722   -0.0035321148490908626
0.028833578619031776   -0.2694393940289736   -0.0024805074075482454
0.029216949278168664   -0.270131177795038   -0.002357411058269534
0.025211237680549926   -0.3319183387951735   -0.0051863649208206955
-0.008387084216949524   -0.2696795017192722   -0.0035321148490908626
0.029216949278168664   -0.270131177795038   -0.002357411058269534
-0.00879315593341601   -0.3330038108198973   -0.005905247347733725
-0.008463054935065191   -0.33449505301757265   -0.005591771835651662
-0.007219345791337327   -0.2717842996051613   -0.003595525053305929
-0.040305036590539065   -0.3343174777816449   -0.007082075247686025
-0.008623745125273315   -0.3336650641423186   -0.005771970338368372
-0.007219345791337327   -0.2717842996051613   -0.003595525053305929
-0.042344288270246694   -0.27144964902977514   -0.004983162777538653
-0.040305036590539065   -0.3343174777816449   -0.007082075247686025
-0.04271733130117632   -0.27078008468733644   -0.004838688549600093
-0.008623745125273315   -0.3336650641423186   -0.005771970338368372
-0.040524997137494564   -0.333621813026348   -0.006996045834130203
-0.04271733130117632   -0.27078008468733644   -0.004838688549600093
-0.040305036590539065   -0.3343174777816449   -0.007082075247686025
-0.008623745125273315   -0.3336650641423186   -0.005771970338368372
-0.04271733130117632   -0.27078008468733644   -0.004838688549600093
-0.007554563713001466   -0.2709807293338424   -0.0036163236549070143
-0.007219345791337327   -0.2717842996051613   -0.003595525053305929
-0.008623745125273315   -0.3336650641423186   -0.005771970338368372
-0.04271733130117632   -0.27078008468733644   -0.004838688549600093
-0.007219345791337327   -0.2717842996051613   -0.003595525053305929
-0.040305036590539065   -0.3343174777816449   -0.007082075247686025
-0.008623745125273315   -0.3336650641423186   -0.005771970338368372
-0.007554563713001466   -0.2709807293338424   -0.0036163236549070143
-0.040524997137494564   -0.333621813026348   -0.006996045834130203
-0.00879315593341601   -0.3330038108198973   -0.005905247347733725
-0.007554563713001466   -0.2709807293338424   -0.0036163236549070143
-0.04271733130117632   -0.27078008468733644   -0.004838688549600093
-0.040524997137494564   -0.333621813026348   -0.006996045834130203
-0.043097738883680896   -0.27019834788885744   -0.004651153822570408
-0.00879315593341601   -0.3330038108198973   -0.005905247347733725
-0.04074795112398023   -0.33307084351124605   -0.006861763186414722
-0.043097738883680896   -0.27019834788885744   -0.004651153822570408
-0.040524997137494564   -0.333621813026348   -0.006996045834130203
-0.00879315593341601   -0.3330038108198973   -0.005905247347733725
-0.043097738883680896   -0.27019834788885744   -0.004651153822570408
-0.007926943680823757   -0.27028502773769375   -0.003595730838291253
-0.007554563713001466   -0.2709807293338424   -0.0036163236549070143
-0.00879315593341601   -0.3330038108198973   -0.005905247347733725
-0.043097738883680896   -0.27019834788885744   -0.004651153822570408
-0.007554563713001466   -0.2709807293338424   -0.0036163236549070143
-0.040524997137494564   -0.333621813026348   -0.006996045834130203
-0.00879315593341601   -0.3330038108198973   -0.005905247347733725
-0.007926943680823757   -0.27028502773769375   -0.003595730838291253
-0.04074795112398023   -0.33307084351124605   -0.006861763186414722
-0.009077664586051951   -0.3324908702930936   -0.005993201447406163
-0.007926943680823757   -0.27028502773769375   -0.003595730838291253
-0.043097738883680896   -0.27019834788885744   -0.004651153822570408
-0.04074795112398023   -0.33307084351124605   -0.006861763186414722
-0.04350997620482651   -0.26970976830152654   -0.004422514435924656
-0.009077664586051951   -0.3324908702930936   -0.005993201447406163
-0.041005197090495916   -0.33266705306557015   -0.006681488828088416
-0.04350997620482651   -0.26970976830152654   -0.004422514435924656
-0.04074795112398023   -0.33307084351124605   -0.006861763186414722
-0.009077664586051951   -0.3324908702930936   -0.005993201447406163
-0.04350997620482651   -0.26970976830152654   -0.004422514435924656
-0.008387084216949524   -0.2696795017192722   -0.0035321148490908626
-0.007926943680823757   -0.27028502773769375   -0.003595730838291253
-0.009077664586051951   -0.3324908702930936   -0.005993201447406163
-0.04350997620482651   -0.26970976830152654   -0.004422514435924656
-0.007926943680823757   -0.27028502773769375   -0.003595730838291253
-0.04074795112398023   -0.33307084351124605   -0.006861763186414722
-0.040305036590539065   -0.3343174777816449   -0.007082075247686025
-0.042344288270246694   -0.27144964902977514   -0.004983162777538653
-0.07160583793237994   -0.3336593959303638   -0.008359693300111264
-0.040524997137494564   -0.333621813026348   -0.006996045834130203
-0.042344288270246694   -0.27144964902977514   -0.004983162777538653
-0.0768750068219629   -0.27083055082315255   -0.006157180572584891
-0.07160583793237994   -0.3336593959303638   -0.008359693300111264
-0.07725834852999779   -0.27028493402978776   -0.005847543073975622
-0.040524997137494564   -0.333621813026348   -0.006996045834130203
-0.07184250972585897   -0.3330862040166486   -0.008008593469677663
-0.07725834852999779   -0.27028493402978776   -0.005847543073975622
-0.07160583793237994   -0.3336593959303638   -0.008359693300111264
-0.040524997137494564   -0.333621813026348   -0.006996045834130203
-0.07725834852999779   -0.27028493402978776   -0.005847543073975622
-0.04271733130117632   -0.27078008468733644   -0.004838688549600093
-0.042344288270246694   -0.27144964902977514   -0.004983162777538653
-0.040524997137494564   -0.333621813026348   -0.006996045834130203
-0.07725834852999779   -0.27028493402978776   -0.005847543073975622
-0.042344288270246694   -0.27144964902977514   -0.004983162777538653
-0.07160583793237994   -0.3336593959303638   -0.008359693300111264
-0.040524997137494564   -0.333621813026348   -0.006996045834130203
-0.04271733130117632   -0.27078008468733644   -0.004838688549600093
-0.07184250972585897   -0.3330862040166486   -0.008008593469677663
-0.04074795112398023   -0.33307084351124605   -0.006861763186414722
-0.04271733130117632   -0.27078008468733644   -0.004838688549600093
-0.07725834852999779   -0.27028493402978776   -0.005847543073975622
-0.07184250972585897   -0.3330862040166486   -0.008008593469677663
-0.07760644561961907   -0.269826522021534   -0.005495828415989357
-0.04074795112398023   -0.33307084351124605   -0.006861763186414722
-0.07203904633721861   -0.3326563155319277   -0.007610062809188579
-0.07760644561961907   -0.269826522021534   -0.005495828415989357
-0.07184250972585897   -0.3330862040166486   -0.008008593469677663
-0.04074795112398023   -0.33307084351124605   -0.006861763186414722
-0.07760644561961907   -0.269826522021534   -0.005495828415989357
-0.043097738883680896   -0.27019834788885744   -0.004651153822570408
-0.04271733130117632   -0.27078008468733644   -0.004838688549600093
-0.04074795112398023   -0.33307084351124605   -0.006861763186414722
-0.07760644561961907   -0.269826522021534   -0.005495828415989357
-0.04271733130117632   -0.27078008468733644   -0.004838688549600093
-0.07184250972585897   -0.3330862040166486   -0.008008593469677663
-0.04074795112398023   -0.33307084351124605   -0.006861763186414722
-0.043097738883680896   -0.27019834788885744   -0.004651153822570408
-0.07203904633721861   -0.3326563155319277   -0.007610062809188579
-0.041005197090495916   -0.33266705306557015   -0.006681488828088416
-0.043097738883680896   -0.27019834788885744   -0.004651153822570408
-0.07760644561961907   -0.269826522021534   -0.005495828415989357
-0.07203904633721861   -0.3326563155319277   -0.007610062809188579
-0.07795779759480922   -0.26945613525849565   -0.005103665120822083
-0.041005197090495916   -0.33266705306557015   -0.006681488828088416
-0.0722411492815622   -0.33236915321773586   -0.007165518384897098
-0.07795779759480922   -0.26945613525849565   -0.005103665120822083
-0.07203904633721861   -0.3326563155319277   -0.007610062809188579
-0.041005197090495916   -0.33266705306557015   -0.006681488828088416
-0.07795779759480922   -0.26945613525849565   -0.005103665120822083
-0.04350997620482651   -0.26970976830152654   -0.004422514435924656
-0.043097738883680896   -0.27019834788885744   -0.004651153822570408
-0.041005197090495916   -0.33266705306557015   -0.006681488828088416
-0.07795779759480922   -0.26945613525849565   -0.005103665120822083
-0.043097738883680896   -0.27019834788885744   -0.004651153822570408
-0.07203904633721861   -0.3326563155319277   -0.007610062809188579
-0.07160583793237994   -0.3336593959303638   -0.008359693300111264
-0.0768750068219629   -0.27083055082315255   -0.006157180572584891
-0.10365148522386503   -0.3325341776004365   -0.009428946103853341
-0.07184250972585897   -0.3330862040166486   -0.008008593469677663
-0.0768750068219629   -0.27083055082315255   -0.006157180572584891
-0.11208814685443974   -0.2699137270864982   -0.007119822369454186
-0.10365148522386503   -0.3325341776004365   -0.009428946103853341
-0.11244474120831233   -0.26949329644854114   -0.0066437930921708225
-0.07184250972585897   -0.3330862040166486   -0.008008593469677663
-0.10384844695281562   -0.33208092025300856   -0.008809229874129385
-0.11244474120831233   -0.26949329644854114   -0.0066437930921708225
-0.10365148522386503   -0.3325341776004365   -0.009428946103853341
-0.07184250972585897   -0.3330862040166486   -0.008008593469677663
-0.11244474120831233   -0.26949329644854114   -0.0066437930921708225
-0.07725834852999779   -0.27028493402978776   -0.005847543073975622
-0.0768750068219629   -0.27083055082315255   -0.006157180572584891
-0.07184250972585897   -0.3330862040166486   -0.008008593469677663
-0.11244474120831233   -0.26949329644854114   -0.0066437930921708225
-0.0768750068219629   -0.27083055082315255   -0.006157180572584891
-0.10365148522386503   -0.3325341776004365   -0.009428946103853341
-0.07184250972585897   -0.3330862040166486   -0.008008593469677663
-0.07725834852999779   -0.27028493402978776   -0.005847543073975622
-0.10384844695281562   -0.33208092025300856   -0.008809229874129385
-0.07203904633721861   -0.3326563155319277   -0.007610062809188579
-0.07725834852999779   -0.27028493402978776   -0.005847543073975622
-0.11244474120831233   -0.26949329644854114   -0.0066437930921708225
-0.10384844695281562   -0.33208092025300856   -0.008809229874129385
-0.11266325800392006   -0.26914842880743817   -0.006131418483594901
-0.07203904633721861   -0.3326563155319277   -0.007610062809188579
-0.10387763220116823   -0.33176169524904836   -0.00814865671898903
-0.11266325800392006   -0.26914842880743817   -0.006131418483594901
-0.10384844695281562   -0.33208092025300856   -0.008809229874129385
-0.07203904633721861   -0.3326563155319277   -0.007610062809188579
-0.11266325800392006   -0.26914842880743817   -0.006131418483594901
-0.07760644561961907   -0.269826522021534   -0.005495828415989357
-0.07725834852999779   -0.27028493402978776   -0.005847543073975622
-0.07203904633721861   -0.3326563155319277   -0.007610062809188579
-0.11266325800392006   -0.26914842880743817   -0.006131418483594901
-0.07725834852999779   -0.27028493402978776   -0.005847543073975622
-0.10384844695281562   -0.33208092025300856   -0.008809229874129385
-0.07203904633721861   -0.3326563155319277   -0.007610062809188579
-0.07760644561961907   -0.269826522021534   -0.005495828415989357
-0.10387763220116823   -0.33176169524904836   -0.00814865671898903
-0.0722411492815622   -0.33236915321773586   -0.007165518384897098
-0.07760644561961907   -0.269826522021534   -0.005495828415989357
-0.11266325800392006   -0.26914842880743817   -0.006131418483594901
-0.10387763220116823   -0.33176169524904836   -0.00814865671898903
-0.11290196156587812   -0.26889909623014474   -0.005575157747294494
-0.0722411492815622   -0.33236915321773586   -0.007165518384897098
-0.10395351055333195   -0.3315979330100814   -0.007438606983403452
-0.11290196156587812   -0.26889909623014474   -0.005575157747294494
-0.10387763220116823   -0.33176169524904836   -0.00814865671898903
-0.0722411492815622   -0.33236915321773586   -0.007165518384897098
-0.11290196156587812   -0.26889909623014474   -0.005575157747294494
-0.07795779759480922   -0.26945613525849565   -0.005103665120822083
-0.07760644561961907   -0.269826522021534   -0.005495828415989357
-0.0722411492815622   -0.33236915321773586   -0.007165518384897098
-0.11290196156587812   -0.26889909623014474   -0.005575157747294494
-0.07760644561961907   -0.269826522021534   -0.005495828415989357
-0.10387763220116823   -0.33176169524904836   -0.00814865671898903
-0.10365148522386503   -0.3325341776004365   -0.009428946103853341
-0.11208814685443974   -0.2699137270864982   -0.007119822369454186
-0.13859002000924342   -0.3310627946561466   -0.010342088510796894
-0.10384844695281562   -0.33208092025300856   -0.008809229874129385
-0.11208814685443974   -0.2699137270864982   -0.007119822369454186
-0.14986880550680748   -0.26879020270349385   -0.007887457316004985
-0.13859002000924342   -0.3310627946561466   -0.010342088510796894
-0.14962232882862259   -0.26843439604839064   -0.0072559595914270195
-0.10384844695281562   -0.33208092025300856   -0.008809229874129385
-0.1379349404115919   -0.3306488145166884   -0.009439780101934631
-0.14962232882862259   -0.26843439604839064   -0.0072559595914270195
-0.13859002000924342   -0.3310627946561466   -0.010342088510796894
-0.10384844695281562   -0.33208092025300856   -0.008809229874129385
-0.14962232882862259   -0.26843439604839064   -0.0072559595914270195
-0.11244474120831233   -0.26949329644854114   -0.0066437930921708225
-0.11208814685443974   -0.2699137270864982   -0.007119822369454186
-0.10384844695281562   -0.33208092025300856   -0.008809229874129385
-0.14962232882862259   -0.26843439604839064   -0.0072559595914270195
-0.11208814685443974   -0.2699137270864982   -0.007119822369454186
-0.13859002000924342   -0.3310627946561466   -0.010342088510796894
-0.10384844695281562   -0.33208092025300856   -0.008809229874129385
-0.11244474120831233   -0.26949329644854114   -0.0066437930921708225
-0.1379349404115919   -0.3306488145166884   -0.009439780101934631
-0.10387763220116823   -0.33176169524904836   -0.00814865671898903
-0.11244474120831233   -0.26949329644854114   -0.0066437930921708225
-0.14962232882862259   -0.26843439604839064   -0.0072559595914270195
-0.1379349404115919   -0.3306488145166884   -0.009439780101934631
-0.14942165644866118   -0.2681429666417776   -0.006557779485830197
-0.10387763220116823   -0.33176169524904836   -0.00814865671898903
-0.13738182774964422   -0.330376433812951   -0.008466233592604006
-0.14942165644866118   -0.2681429666417776   -0.006557779485830197
-0.1379349404115919   -0.3306488145166884   -0.009439780101934631
-0.10387763220116823   -0.33176169524904836   -0.00814865671898903
-0.14942165644866118   -0.2681429666417776   -0.006557779485830197
-0.11266325800392006   -0.26914842880743817   -0.006131418483594901
-0.11244474120831233   -0.26949329644854114   -0.0066437930921708225
-0.10387763220116823   -0.33176169524904836   -0.00814865671898903
-0.14942165644866118   -0.2681429666417776   -0.006557779485830197
-0.11244474120831233   -0.26949329644854114   -0.0066437930921708225
-0.1379349404115919   -0.3306488145166884   -0.009439780101934631
-0.10387763220116823   -0.33176169524904836   -0.00814865671898903
-0.11266325800392006   -0.26914842880743817   -0.006131418483594901
-0.13738182774964422   -0.330376433812951   -0.008466233592604006
-0.10395351055333195   -0.3315979330100814   -0.007438606983403452
-0.11266325800392006   -0.26914842880743817   -0.006131418483594901
-0.14942165644866118   -0.2681429666417776   -0.006557779485830197
-0.13738182774964422   -0.330376433812951   -0.008466233592604006
-0.1489267212720383   -0.2680380744614628   -0.00580053963696837
-0.10395351055333195   -0.3315979330100814   -0.007438606983403452
-0.13646436847785492   -0.3303689610078509   -0.007430300387922091
-0.1489267212720383   -0.2680380744614628   -0.00580053963696837
-0.13738182774964422   -0.330376433812951   -0.008466233592604006
-0.10395351055333195   -0.3315979330100814   -0.007438606983403452
-0.1489267212720383   -0.2680380744614628   -0.00580053963696837
-0.11290196156587812   -0.26889909623014474   -0.005575157747294494
-0.11266325800392006   -0.26914842880743817   -0.006131418483594901
-0.10395351055333195   -0.3315979330100814   -0.007438606983403452
-0.1489267212720383   -0.2680380744614628   -0.00580053963696837
-0.11266325800392006   -0.26914842880743817   -0.006131418483594901
-0.13738182774964422   -0.330376433812951   -0.008466233592604006
0.029612644267990512   -0.271799893886371   -0.0019214552064766139
0.030492796553382297   -0.20524036955702576   -0.00028474423367287664
-0.007219345791337327   -0.2717842996051613   -0.003595525053305929
0.029492963318010424   -0.2708782076177409   -0.002172603925605168
0.030492796553382297   -0.20524036955702576   -0.00028474423367287664
-0.008371749592940628   -0.2048913303470585   -0.0017933826724795675
-0.007219345791337327   -0.2717842996051613   -0.003595525053305929
-0.008829190157132889   -0.20412107097554627   -0.0016556291895313301
0.029492963318010424   -0.2708782076177409   -0.002172603925605168
-0.007554563713001466   -0.2709807293338424   -0.0036163236549070143
-0.008829190157132889   -0.20412107097554627   -0.0016556291895313301
-0.007219345791337327   -0.2717842996051613   -0.003595525053305929
0.029492963318010424   -0.2708782076177409   -0.002172603925605168
-0.008829190157132889   -0.20412107097554627   -0.0016556291895313301
0.030000008900208645   -0.20435997958026872   -0.0002492234745660457
0.030492796553382297   -0.20524036955702576   -0.00028474423367287664
0.029492963318010424   -0.2708782076177409   -0.002172603925605168
-0.008829190157132889   -0.20412107097554627   -0.0016556291895313301
0.030492796553382297   -0.20524036955702576   -0.00028474423367287664
-0.007219345791337327   -0.2717842996051613   -0.003595525053305929
0.029492963318010424   -0.2708782076177409   -0.002172603925605168
0.030000008900208645   -0.20435997958026872   -0.0002492234745660457
-0.007554563713001466   -0.2709807293338424   -0.0036163236549070143
0.029216949278168664   -0.270131177795038   -0.002357411058269534
0.030000008900208645   -0.20435997958026872   -0.0002492234745660457
-0.008829190157132889   -0.20412107097554627   -0.0016556291895313301
-0.007554563713001466   -0.2709807293338424   -0.0036163236549070143
-0.009352322080895563   -0.2033911625403868   -0.0014805359964146251
0.029216949278168664   -0.270131177795038   -0.002357411058269534
-0.007926943680823757   -0.27028502773769375   -0.003595730838291253
-0.009352322080895563   -0.2033911625403868   -0.0014805359964146251
-0.007554563713001466   -0.2709807293338424   -0.0036163236549070143
0.029216949278168664   -0.270131177795038   -0.002357411058269534
-0.009352322080895563   -0.2033911625403868   -0.0014805359964146251
0.029400840152746903   -0.2035688763949492   -0.0001372769352426186
0.030000008900208645   -0.20435997958026872   -0.0002492234745660457
0.029216949278168664   -0.270131177795038   -0.002357411058269534
-0.009352322080895563   -0.2033911625403868   -0.0014805359964146251
0.030000008900208645   -0.20435997958026872   -0.0002492234745660457
-0.007554563713001466   -0.2709807293338424   -0.0036163236549070143
0.029216949278168664   -0.270131177795038   -0.002357411058269534
0.029400840152746903   -0.2035688763949492   -0.0001372769352426186
-0.007926943680823757   -0.27028502773769375   -0.003595730838291253
0.028833578619031776   -0.2694393940289736   -0.0024805074075482454
0.029400840152746903   -0.2035688763949492   -0.0001372769352426186
-0.009352322080895563   -0.2033911625403868   -0.0014805359964146251
-0.007926943680823757   -0.27028502773769375   -0.003595730838291253
-0.009938062478386016   -0.20269176520167828   -0.0012587174535136137
0.028833578619031776   -0.2694393940289736   -0.0024805074075482454
-0.008387084216949524   -0.2696795017192722   -0.0035321148490908626
-0.009938062478386016   -0.20269176520167828   -0.0012587174535136137
-0.007926943680823757   -0.27028502773769375   -0.003595730838291253
0.028833578619031776   -0.2694393940289736   -0.0024805074075482454
-0.009938062478386016   -0.20269176520167828   -0.0012587174535136137
0.028612529199946463   -0.20273913389879678   4.759655973447749e-05
0.029400840152746903   -0.2035688763949492   -0.0001372769352426186
0.028833578619031776   -0.2694393940289736   -0.0024805074075482454
-0.009938062478386016   -0.20269176520167828   -0.0012587174535136137
0.029400840152746903   -0.2035688763949492   -0.0001372769352426186
-0.007926943680823757   -0.27028502773769375   -0.003595730838291253
-0.007219345791337327   -0.2717842996051613   -0.003595525053305929
-0.008371749592940628   -0.2048913303470585   -0.0017933826724795675
-0.042344288270246694   -0.27144964902977514   -0.004983162777538653
-0.007554563713001466   -0.2709807293338424   -0.0036163236549070143
-0.008371749592940628   -0.2048913303470585   -0.0017933826724795675
-0.04519985378580533   -0.20449198219902948   -0.0030763063049477446
-0.042344288270246694   -0.27144964902977514   -0.004983162777538653
-0.04566458418667156   -0.2038450190714611   -0.0028700734564536916
-0.007554563713001466   -0.2709807293338424   -0.0036163236549070143
-0.04271733130117632   -0.27078008468733644   -0.004838688549600093
-0.04566458418667156   -0.2038450190714611   -0.0028700734564536916
-0.042344288270246694   -0.27144964902977514   -0.004983162777538653
-0.007554563713001466   -0.2709807293338424   -0.0036163236549070143
-0.04566458418667156   -0.2038450190714611   -0.0028700734564536916
-0.008829190157132889   -0.20412107097554627   -0.0016556291895313301
-0.008371749592940628   -0.2048913303470585   -0.0017933826724795675
-0.007554563713001466   -0.2709807293338424   -0.0036163236549070143
-0.04566458418667156   -0.2038450190714611   -0.0028700734564536916
-0.008371749592940628   -0.2048913303470585   -0.0017933826724795675
-0.042344288270246694   -0.27144964902977514   -0.004983162777538653
-0.007554563713001466   -0.2709807293338424   -0.0036163236549070143
-0.008829190157132889   -0.20412107097554627   -0.0016556291895313301
-0.04271733130117632   -0.27078008468733644   -0.004838688549600093
-0.007926943680823757   -0.27028502773769375   -0.003595730838291253
-0.008829190157132889   -0.20412107097554627   -0.0016556291895313301
-0.04566458418667156   -0.2038450190714611   -0.0028700734564536916
-0.04271733130117632   -0.27078008468733644   -0.004838688549600093
-0.04613949218589421   -0.20322944220830438   -0.0026283621553287798
-0.007926943680823757   -0.27028502773769375   -0.003595730838291253
-0.043097738883680896   -0.27019834788885744   -0.004651153822570408
-0.04613949218589421   -0.20322944220830438   -0.0026283621553287798
-0.04271733130117632   -0.27078008468733644   -0.004838688549600093
-0.007926943680823757   -0.27028502773769375   -0.003595730838291253
-0.04613949218589421   -0.20322944220830438   -0.0026283621553287798
-0.009352322080895563   -0.2033911625403868   -0.0014805359964146251
-0.008829190157132889   -0.20412107097554627   -0.0016556291895313301
-0.007926943680823757   -0.27028502773769375   -0.003595730838291253
-0.04613949218589421   -0.20322944220830438   -0.0026283621553287798
-0.008829190157132889   -0.20412107097554627   -0.0016556291895313301
-0.04271733130117632   -0.27078008468733644   -0.004838688549600093
-0.007926943680823757   -0.27028502773769375   -0.003595730838291253
-0.009352322080895563   -0.2033911625403868   -0.0014805359964146251
-0.043097738883680896   -0.27019834788885744   -0.004651153822570408
-0.008387084216949524   -0.2696795017192722   -0.0035321148490908626
-0.009352322080895563   -0.2033911625403868   -0.0014805359964146251
-0.04613949218589421   -0.20322944220830438   -0.0026283621553287798
-0.043097738883680896   -0.27019834788885744   -0.004651153822570408
-0.046644244758208775   -0.2026544595510996   -0.0023507071948290536
-0.008387084216949524   -0.2696795017192722   -0.0035321148490908626
-0.04350997620482651   -0.26970976830152654   -0.004422514435924656
-0.046644244758208775   -0.2026544595510996   -0.0023507071948290536
-0.043097738883680896   -0.27019834788885744   -0.004651153822570408
-0.008387084216949524   -0.2696795017192722   -0.0035321148490908626
-0.046644244758208775   -0.2026544595510996   -0.0023507071948290536
-0.009938062478386016   -0.20269176520167828   -0.0012587174535136137
-0.009352322080895563   -0.2033911625403868   -0.0014805359964146251
-0.008387084216949524   -0.2696795017192722   -0.0035321148490908626
-0.046644244758208775   -0.2026544595510996   -0.0023507071948290536
-0.009352322080895563   -0.2033911625403868   -0.0014805359964146251
-0.043097738883680896   -0.27019834788885744   -0.004651153822570408
-0.042344288270246694   -0.27144964902977514   -0.004983162777538653
-0.04519985378580533   -0.20449198219902948   -0.0030763063049477446
-0.0768750068219629   -0.27083055082315255   -0.006157180572584891
-0.04271733130117632   -0.27078008468733644   -0.004838688549600093
-0.04519985378580533   -0.20449198219902948   -0.0030763063049477446
-0.08143271707000892   -0.20401650676129815   -0.004169490712311043
-0.0768750068219629   -0.27083055082315255   -0.006157180572584891
-0.08189333619918897   -0.20348421231101504   -0.0038945318586400086
-0.04271733130117632   -0.27078008468733644   -0.004838688549600093
-0.07725834852999779   -0.27028493402978776   -0.005847543073975622
-0.08189333619918897   -0.20348421231101504   -0.0038945318586400086
-0.0768750068219629   -0.27083055082315255   -0.006157180572584891
-0.04271733130117632   -0.27078008468733644   -0.004838688549600093
-0.08189333619918897   -0.20348421231101504   -0.0038945318586400086
-0.04566458418667156   -0.2038450190714611   -0.0028700734564536916
-0.04519985378580533   -0.20449198219902948   -0.0030763063049477446
-0.04271733130117632   -0.27078008468733644   -0.004838688549600093
-0.08189333619918897   -0.20348421231101504   -0.0038945318586400086
-0.04519985378580533   -0.20449198219902948   -0.0030763063049477446
-0.0768750068219629   -0.27083055082315255   -0.006157180572584891
-0.04271733130117632   -0.27078008468733644   -0.004838688549600093
-0.04566458418667156   -0.2038450190714611   -0.0028700734564536916
-0.07725834852999779   -0.27028493402978776   -0.005847543073975622
-0.043097738883680896   -0.27019834788885744   -0.004651153822570408
-0.04566458418667156   -0.2038450190714611   -0.0028700734564536916
-0.08189333619918897   -0.20348421231101504   -0.0038945318586400086
-0.07725834852999779   -0.27028493402978776   -0.005847543073975622
-0.08232436594945525   -0.20298522147663506   -0.003585312601459901
-0.043097738883680896   -0.27019834788885744   -0.004651153822570408
-0.07760644561961907   -0.269826522021534   -0.005495828415989357
-0.08232436594945525   -0.20298522147663506   -0.003585312601459901
-0.07725834852999779   -0.27028493402978776   -0.005847543073975622
-0.043097738883680896   -0.27019834788885744   -0.004651153822570408
-0.08232436594945525   -0.20298522147663506   -0.003585312601459901
-0.04613949218589421   -0.20322944220830438   -0.0026283621553287798
-0.04566458418667156   -0.2038450190714611   -0.0028700734564536916
-0.043097738883680896   -0.27019834788885744   -0.004651153822570408
-0.08232436594945525   -0.20298522147663506   -0.003585312601459901
-0.04566458418667156   -0.2038450190714611   -0.0028700734564536916
-0.07725834852999779   -0.27028493402978776   -0.005847543073975622
-0.043097738883680896   -0.27019834788885744   -0.004651153822570408
-0.04613949218589421   -0.20322944220830438   -0.0026283621553287798
-0.07760644561961907   -0.269826522021534   -0.005495828415989357
-0.04350997620482651   -0.26970976830152654   -0.004422514435924656
-0.04613949218589421   -0.20322944220830438   -0.0026283621553287798
-0.08232436594945525   -0.20298522147663506   -0.003585312601459901
-0.07760644561961907   -0.269826522021534   -0.005495828415989357
-0.08275693047708617   -0.2025209670256921   -0.003243554254925998
-0.04350997620482651   -0.26970976830152654   -0.004422514435924656
-0.07795779759480922   -0.26945613525849565   -0.005103665120822083
-0.08275693047708617   -0.2025209670256921   -0.003243554254925998
-0.07760644561961907   -0.269826522021534   -0.005495828415989357
-0.04350997620482651   -0.26970976830152654   -0.004422514435924656
-0.08275693047708617   -0.2025209670256921   -0.003243554254925998
-0.046644244758208775   -0.2026544595510996   -0.0023507071948290536
-0.04613949218589421   -0.20322944220830438   -0.0026283621553287798
-0.04350997620482651   -0.26970976830152654   -0.004422514435924656
-0.08275693047708617   -0.2025209670256921   -0.003243554254925998
-0.04613949218589421   -0.20322944220830438   -0.0026283621553287798
-0.07760644561961907   -0.269826522021534   -0.005495828415989357
-0.0768750068219629   -0.27083055082315255   -0.006157180572584891
-0.08143271707000892   -0.20401650676129815   -0.004169490712311043
-0.11208814685443974   -0.2699137270864982   -0.007119822369454186
-0.07725834852999779   -0.27028493402978776   -0.005847543073975622
-0.08143271707000892   -0.20401650676129815   -0.004169490712311043
-0.11831770193759995   -0.20337592901186888   -0.0050636502728893164
-0.11208814685443974   -0.2699137270864982   -0.007119822369454186
-0.11875909702266844   -0.2029643256197928   -0.004720766330748227
-0.07725834852999779   -0.27028493402978776   -0.005847543073975622
-0.11244474120831233   -0.26949329644854114   -0.0066437930921708225
-0.11875909702266844   -0.2029643256197928   -0.004720766330748227
-0.11208814685443974   -0.2699137270864982   -0.007119822369454186
-0.07725834852999779   -0.27028493402978776   -0.005847543073975622
-0.11875909702266844   -0.2029643256197928   -0.004720766330748227
-0.08189333619918897   -0.20348421231101504   -0.0038945318586400086
-0.08143271707000892   -0.20401650676129815   -0.004169490712311043
-0.07725834852999779   -0.27028493402978776   -0.005847543073975622
-0.11875909702266844   -0.2029643256197928   -0.004720766330748227
-0.08143271707000892   -0.20401650676129815   -0.004169490712311043
-0.11208814685443974   -0.2699137270864982   -0.007119822369454186
-0.07725834852999779   -0.27028493402978776   -0.005847543073975622
-0.08189333619918897   -0.20348421231101504   -0.0038945318586400086
-0.11244474120831233   -0.26949329644854114   -0.0066437930921708225
-0.07760644561961907   -0.269826522021534   -0.005495828415989357
-0.08189333619918897   -0.20348421231101504   -0.0038945318586400086
-0.11875909702266844   -0.2029643256197928   -0.004720766330748227
-0.11244474120831233   -0.26949329644854114   -0.0066437930921708225
-0.11909546111774494   -0.20257249621621257   -0.004349390652177549
-0.07760644561961907   -0.269826522021534   -0.005495828415989357
-0.11266325800392006   -0.26914842880743817   -0.006131418483594901
-0.11909546111774494   -0.20257249621621257   -0.004349390652177549
-0.11244474120831233   -0.26949329644854114   -0.0066437930921708225
-0.07760644561961907   -0.269826522021534   -0.005495828415989357
-0.11909546111774494   -0.20257249621621257   -0.004349390652177549
-0.08232436594945525   -0.20298522147663506   -0.003585312601459901
-0.08189333619918897   -0.20348421231101504   -0.0038945318586400086
-0.07760644561961907   -0.269826522021534   -0.005495828415989357
-0.11909546111774494   -0.20257249621621257   -0.004349390652177549
-0.08189333619918897   -0.20348421231101504   -0.0038945318586400086
-0.11244474120831233   -0.26949329644854114   -0.0066437930921708225
-0.07760644561961907   -0.269826522021534   -0.005495828415989357
-0.08232436594945525   -0.20298522147663506   -0.003585312601459901
-0.11266325800392006   -0.26914842880743817   -0.006131418483594901
-0.07795779759480922   -0.26945613525849565   -0.005103665120822083
-0.08232436594945525   -0.20298522147663506   -0.003585312601459901
-0.11909546111774494   -0.20257249621621257   -0.004349390652177549
-0.11266325800392006   -0.26914842880743817   -0.006131418483594901
-0.11942879225876482   -0.2022171838975415   -0.00394198916134359
-0.07795779759480922   -0.26945613525849565   -0.005103665120822083
-0.11290196156587812   -0.26889909623014474   -0.005575157747294494
-0.11942879225876482   -0.2022171838975415   -0.00394198916134359
-0.11266325800392006   -0.26914842880743817   -0.006131418483594901
-0.07795779759480922   -0.26945613525849565   -0.005103665120822083
-0.11942879225876482   -0.2022171838975415   -0.00394198916134359
-0.08275693047708617   -0.2025209670256921   -0.003243554254925998
-0.08232436594945525   -0.20298522147663506   -0.003585312601459901
-0.07795779759480922   -0.26945613525849565   -0.005103665120822083
-0.11942879225876482   -0.2022171838975415   -0.00394198916134359
-0.08232436594945525   -0.20298522147663506   -0.003585312601459901
-0.11266325800392006   -0.26914842880743817   -0.006131418483594901
-0.11208814685443974   -0.2699137270864982   -0.007119822369454186
-0.11831770193759995   -0.20337592901186888   -0.0050636502728893164
-0.14986880550680748   -0.26879020270349385   -0.007887457316004985
-0.11244474120831233   -0.26949329644854114   -0.0066437930921708225
-0.11831770193759995   -0.20337592901186888   -0.0050636502728893164
-0.15739368481332244   -0.2026229564250835   -0.005732092740401095
-0.14986880550680748   -0.26879020270349385   -0.007887457316004985
-0.1574711927077997   -0.20229172232610174   -0.005356455750334697
-0.11244474120831233   -0.26949329644854114   -0.0066437930921708225
-0.14962232882862259   -0.26843439604839064   -0.0072559595914270195
-0.1574711927077997   -0.20229172232610174   -0.005356455750334697
-0.14986880550680748   -0.26879020270349385   -0.007887457316004985
-0.11244474120831233   -0.26949329644854114   -0.0066437930921708225
-0.1574711927077997   -0.20229172232610174   -0.005356455750334697
-0.11875909702266844   -0.2029643256197928   -0.004720766330748227
-0.11831770193759995   -0.20337592901186888   -0.0050636502728893164
-0.11244474120831233   -0.26949329644854114   -0.0066437930921708225
-0.1574711927077997   -0.20229172232610174   -0.005356455750334697
-0.11831770193759995   -0.20337592901186888   -0.0050636502728893164
-0.14986880550680748   -0.26879020270349385   -0.007887457316004985
-0.11244474120831233   -0.26949329644854114   -0.0066437930921708225
-0.11875909702266844   -0.2029643256197928   -0.004720766330748227
-0.14962232882862259   -0.26843439604839064   -0.0072559595914270195
-0.11266325800392006   -0.26914842880743817   -0.006131418483594901
-0.11875909702266844   -0.2029643256197928   -0.004720766330748227
-0.1574711927077997   -0.20229172232610174   -0.005356455750334697
-0.14962232882862259   -0.26843439604839064   -0.0072559595914270195
-0.1575491712152217   -0.20195488911122703   -0.004923322712420991
-0.11266325800392006   -0.26914842880743817   -0.006131418483594901
-0.14942165644866118   -0.2681429666417776   -0.006557779485830197
-0.1575491712152217   -0.20195488911122703   -0.004923322712420991
-0.14962232882862259   -0.26843439604839064   -0.0072559595914270195
-0.11266325800392006   -0.26914842880743817   -0.006131418483594901
-0.1575491712152217   -0.20195488911122703   -0.004923322712420991
-0.11909546111774494   -0.20257249621621257   -0.004349390652177549
-0.11875909702266844   -0.2029643256197928   -0.004720766330748227
-0.11266325800392006   -0.26914842880743817   -0.006131418483594901
-0.1575491712152217   -0.20195488911122703   -0.004923322712420991
-0.11875909702266844   -0.2029643256197928   -0.004720766330748227
-0.14962232882862259   -0.26843439604839064   -0.0072559595914270195
-0.11266325800392006   -0.26914842880743817   -0.006131418483594901
-0.11909546111774494   -0.20257249621621257   -0.004349390652177549
-0.14942165644866118   -0.2681429666417776   -0.006557779485830197
-0.11290196156587812   -0.26889909623014474   -0.005575157747294494
-0.11909546111774494   -0.20257249621621257   -0.004349390652177549
-0.1575491712152217   -0.20195488911122703   -0.004923322712420991
-0.14942165644866118   -0.2681429666417776   -0.006557779485830197
-0.15741014867673989   -0.20172488189386412   -0.00443958893425101
-0.11290196156587812   -0.26889909623014474   -0.005575157747294494
-0.1489267212720383   -0.2680380744614628   -0.00580053963696837
-0.15741014867673989   -0.20172488189386412   -0.00443958893425101
-0.14942165644866118   -0.2681429666417776   -0.006557779485830197
-0.11290196156587812   -0.26889909623014474   -0.005575157747294494
-0.15741014867673989   -0.20172488189386412   -0.00443958893425101
-0.11942879225876482   -0.2022171838975415   -0.00394198916134359
-0.11909546111774494   -0.20257249621621257   -0.004349390652177549
-0.11290196156587812   -0.26889909623014474   -0.005575157747294494
-0.15741014867673989   -0.20172488189386412   -0.00443958893425101
-0.11909546111774494   -0.20257249621621257   -0.004349390652177549
-0.14942165644866118   -0.2681429666417776   -0.006557779485830197
0.030492796553382297   -0.20524036955702576   -0.00028474423367287664
0.027254304569393328   -0.13680593779587352   0.0008438390107925517
-0.008371749592940628   -0.2048913303470585   -0.0017933826724795675
0.030000008900208645   -0.20435997958026872   -0.0002492234745660457
0.027254304569393328   -0.13680593779587352   0.0008438390107925517
-0.011844383807461056   -0.13615421032283012   -0.0003623236095929758
-0.008371749592940628   -0.2048913303470585   -0.0017933826724795675
-0.012387666943891767   -0.13545501328695975   -7.958657212237998e-05
0.030000008900208645   -0.20435997958026872   -0.0002492234745660457
-0.008829190157132889   -0.20412107097554627   -0.0016556291895313301
-0.012387666943891767   -0.13545501328695975   -7.958657212237998e-05
-0.008371749592940628   -0.2048913303470585   -0.0017933826724795675
0.030000008900208645   -0.20435997958026872   -0.0002492234745660457
-0.012387666943891767   -0.13545501328695975   -7.958657212237998e-05
0.026393434850914273   -0.13596568816565788   0.001200159238014511
0.027254304569393328   -0.13680593779587352   0.0008438390107925517
0.030000008900208645   -0.20435997958026872   -0.0002492234745660457
-0.012387666943891767   -0.13545501328695975   -7.958657212237998e-05
0.027254304569393328   -0.13680593779587352   0.0008438390107925517
-0.008371749592940628   -0.2048913303470585   -0.0017933826724795675
0.030000008900208645   -0.20435997958026872   -0.0002492234745660457
0.026393434850914273   -0.13596568816565788   0.001200159238014511
-0.008829190157132889   -0.20412107097554627   -0.0016556291895313301
0.029400840152746903   -0.2035688763949492   -0.0001372769352426186
0.026393434850914273   -0.13596568816565788   0.001200159238014511
-0.012387666943891767   -0.13545501328695975   -7.958657212237998e-05
-0.008829190157132889   -0.20412107097554627   -0.0016556291895313301
-0.013022347247851089   -0.13471595218801857   0.0002527662724784382
0.029400840152746903   -0.2035688763949492   -0.0001372769352426186
-0.009352322080895563   -0.2033911625403868   -0.0014805359964146251
-0.013022347247851089   -0.13471595218801857   0.0002527662724784382
-0.008829190157132889   -0.20412107097554627   -0.0016556291895313301
0.029400840152746903   -0.2035688763949492   -0.0001372769352426186
-0.013022347247851089   -0.13471595218801857   0.0002527662724784382
0.025437072808168436   -0.1351285251805848   0.0017079573052218395
0.026393434850914273   -0.13596568816565788   0.001200159238014511
0.029400840152746903   -0.2035688763949492   -0.0001372769352426186
-0.013022347247851089   -0.13471595218801857   0.0002527662724784382
0.026393434850914273   -0.13596568816565788   0.001200159238014511
-0.008829190157132889   -0.20412107097554627   -0.0016556291895313301
0.029400840152746903   -0.2035688763949492   -0.0001372769352426186
0.025437072808168436   -0.1351285251805848   0.0017079573052218395
-0.009352322080895563   -0.2033911625403868   -0.0014805359964146251
0.028612529199946463   -0.20273913389879678   4.759655973447749e-05
0.025437072808168436   -0.1351285251805848   0.0017079573052218395
-0.013022347247851089   -0.13471595218801857   0.0002527662724784382
-0.009352322080895563   -0.2033911625403868   -0.0014805359964146251
-0.013677826362470578   -0.13393021541227967   0.00063393428558964
0.028612529199946463   -0.20273913389879678   4.759655973447749e-05
-0.009938062478386016   -0.20269176520167828   -0.0012587174535136137
-0.013677826362470578   -0.13393021541227967   0.00063393428558964
-0.009352322080895563   -0.2033911625403868   -0.0014805359964146251
0.028612529199946463   -0.20273913389879678   4.759655973447749e-05
-0.013677826362470578   -0.13393021541227967   0.00063393428558964
0.024268955395031478   -0.13410117007884118   0.0022660277831133184
0.025437072808168436   -0.1351285251805848   0.0017079573052218395
0.028612529199946463   -0.20273913389879678   4.759655973447749e-05
-0.013677826362470578   -0.13393021541227967   0.00063393428558964
0.025437072808168436   -0.1351285251805848   0.0017079573052218395
-0.009352322080895563   -0.2033911625403868   -0.0014805359964146251
-0.008371749592940628   -0.2048913303470585   -0.0017933826724795675
-0.011844383807461056   -0.13615421032283012   -0.0003623236095929758
-0.04519985378580533   -0.20449198219902948   -0.0030763063049477446
-0.008829190157132889   -0.20412107097554627   -0.0016556291895313301
-0.011844383807461056   -0.13615421032283012   -0.0003623236095929758
-0.04867766280581655   -0.1359859004844219   -0.0015281150215770084
-0.04519985378580533   -0.20449198219902948   -0.0030763063049477446
-0.04916706528711306   -0.1353732095471227   -0.001267195057829573
-0.008829190157132889   -0.20412107097554627   -0.0016556291895313301
-0.04566458418667156   -0.2038450190714611   -0.0028700734564536916
-0.04916706528711306   -0.1353732095471227   -0.001267195057829573
-0.04519985378580533   -0.20449198219902948   -0.0030763063049477446
-0.008829190157132889   -0.20412107097554627   -0.0016556291895313301
-0.04916706528711306   -0.1353732095471227   -0.001267195057829573
-0.012387666943891767   -0.13545501328695975   -7.958657212237998e-05
-0.011844383807461056   -0.13615421032283012   -0.0003623236095929758
-0.008829190157132889   -0.20412107097554627   -0.0016556291895313301
-0.04916706528711306   -0.1353732095471227   -0.001267195057829573
-0.011844383807461056   -0.13615421032283012   -0.0003623236095929758
-0.04519985378580533   -0.20449198219902948   -0.0030763063049477446
-0.008829190157132889   -0.20412107097554627   -0.0016556291895313301
-0.012387666943891767   -0.13545501328695975   -7.958657212237998e-05
-0.04566458418667156   -0.2038450190714611   -0.0028700734564536916
-0.009352322080895563   -0.2033911625403868   -0.0014805359964146251
-0.012387666943891767   -0.13545501328695975   -7.958657212237998e-05
-0.04916706528711306   -0.1353732095471227   -0.001267195057829573
-0.04566458418667156   -0.2038450190714611   -0.0028700734564536916
-0.049672906318318485   -0.13473546029114594   -0.0009808005092519988
-0.009352322080895563   -0.2033911625403868   -0.0014805359964146251
-0.04613949218589421   -0.20322944220830438   -0.0026283621553287798
-0.049672906318318485   -0.13473546029114594   -0.0009808005092519988
-0.04566458418667156   -0.2038450190714611   -0.0028700734564536916
-0.009352322080895563   -0.2033911625403868   -0.0014805359964146251
-0.049672906318318485   -0.13473546029114594   -0.0009808005092519988
-0.013022347247851089   -0.13471595218801857   0.0002527662724784382
-0.012387666943891767   -0.13545501328695975   -7.958657212237998e-05
-0.009352322080895563   -0.2033911625403868   -0.0014805359964146251
-0.049672906318318485   -0.13473546029114594   -0.0009808005092519988
-0.012387666943891767   -0.13545501328695975   -7.958657212237998e-05
-0.04566458418667156   -0.2038450190714611   -0.0028700734564536916
-0.009352322080895563   -0.2033911625403868   -0.0014805359964146251
-0.013022347247851089   -0.13471595218801857   0.0002527662724784382
-0.04613949218589421   -0.20322944220830438   -0.0026283621553287798
-0.009938062478386016   -0.20269176520167828   -0.0012587174535136137
-0.013022347247851089   -0.13471595218801857   0.0002527662724784382
-0.049672906318318485   -0.13473546029114594   -0.0009808005092519988
-0.04613949218589421   -0.20322944220830438   -0.0026283621553287798
-0.05019910421600625   -0.1340834722126435   -0.0006637459610983467
-0.009938062478386016   -0.20269176520167828   -0.0012587174535136137
-0.046644244758208775   -0.2026544595510996   -0.0023507071948290536
-0.05019910421600625   -0.1340834722126435   -0.0006637459610983467
-0.04613949218589421   -0.20322944220830438   -0.0026283621553287798
-0.009938062478386016   -0.20269176520167828   -0.0012587174535136137
-0.05019910421600625   -0.1340834722126435   -0.0006637459610983467
-0.013677826362470578   -0.13393021541227967   0.00063393428558964
-0.013022347247851089   -0.13471595218801857   0.0002527662724784382
-0.009938062478386016   -0.20269176520167828   -0.0012587174535136137
-0.05019910421600625   -0.1340834722126435   -0.0006637459610983467
-0.013022347247851089   -0.13471595218801857   0.0002527662724784382
-0.04613949218589421   -0.20322944220830438   -0.0026283621553287798
-0.04519985378580533   -0.20449198219902948   -0.0030763063049477446
-0.04867766280581655   -0.1359859004844219   -0.0015281150215770084
-0.08143271707000892   -0.20401650676129815   -0.004169490712311043
-0.04566458418667156   -0.2038450190714611   -0.0028700734564536916
-0.04867766280581655   -0.1359859004844219   -0.0015281150215770084
-0.08514399598623755   -0.1359396187725868   -0.0025838570650218978
-0.08143271707000892   -0.20401650676129815   -0.004169490712311043
-0.08561103701416364   -0.13540062037022588   -0.002336780599404992
-0.04566458418667156   -0.2038450190714611   -0.0028700734564536916
-0.08189333619918897   -0.20348421231101504   -0.0038945318586400086
-0.08561103701416364   -0.13540062037022588   -0.002336780599404992
-0.08143271707000892   -0.20401650676129815   -0.004169490712311043
-0.04566458418667156   -0.2038450190714611   -0.0028700734564536916
-0.08561103701416364   -0.13540062037022588   -0.002336780599404992
-0.04916706528711306   -0.1353732095471227   -0.001267195057829573
-0.04867766280581655   -0.1359859004844219   -0.0015281150215770084
-0.04566458418667156   -0.2038450190714611   -0.0028700734564536916
-0.08561103701416364   -0.13540062037022588   -0.002336780599404992
-0.04867766280581655   -0.1359859004844219   -0.0015281150215770084
-0.08143271707000892   -0.20401650676129815   -0.004169490712311043
-0.04566458418667156   -0.2038450190714611   -0.0028700734564536916
-0.04916706528711306   -0.1353732095471227   -0.001267195057829573
-0.08189333619918897   -0.20348421231101504   -0.0038945318586400086
-0.04613949218589421   -0.20322944220830438   -0.0026283621553287798
-0.04916706528711306   -0.1353732095471227   -0.001267195057829573
-0.08561103701416364   -0.13540062037022588   -0.002336780599404992
-0.08189333619918897   -0.20348421231101504   -0.0038945318586400086
-0.0860558944063891   -0.13485116247712306   -0.0020674981254938454
-0.04613949218589421   -0.20322944220830438   -0.0026283621553287798
-0.08232436594945525   -0.20298522147663506   -0.003585312601459901
-0.0860558944063891   -0.13485116247712306   -0.0020674981254938454
-0.08189333619918897   -0.20348421231101504   -0.0038945318586400086
-0.04613949218589421   -0.20322944220830438   -0.0026283621553287798
-0.0860558944063891   -0.13485116247712306   -0.0020674981254938454
-0.049672906318318485   -0.13473546029114594   -0.0009808005092519988
-0.04916706528711306   -0.1353732095471227   -0.001267195057829573
-0.04613949218589421   -0.20322944220830438   -0.0026283621553287798
-0.0860558944063891   -0.13485116247712306   -0.0020674981254938454
-0.04916706528711306   -0.1353732095471227   -0.001267195057829573
-0.08189333619918897   -0.20348421231101504   -0.0038945318586400086
-0.04613949218589421   -0.20322944220830438   -0.0026283621553287798
-0.049672906318318485   -0.13473546029114594   -0.0009808005092519988
-0.08232436594945525   -0.20298522147663506   -0.003585312601459901
-0.046644244758208775   -0.2026544595510996   -0.0023507071948290536
-0.049672906318318485   -0.13473546029114594   -0.0009808005092519988
-0.0860558944063891   -0.13485116247712306   -0.0020674981254938454
-0.08232436594945525   -0.20298522147663506   -0.003585312601459901
-0.08649623056044549   -0.13428822175428212   -0.0017773336943081126
-0.046644244758208775   -0.2026544595510996   -0.0023507071948290536
-0.08275693047708617   -0.2025209670256921   -0.003243554254925998
-0.08649623056044549   -0.13428822175428212   -0.0017773336943081126
-0.08232436594945525   -0.20298522147663506   -0.003585312601459901
-0.046644244758208775   -0.2026544595510996   -0.0023507071948290536
-0.08649623056044549   -0.13428822175428212   -0.0017773336943081126
-0.05019910421600625   -0.1340834722126435   -0.0006637459610983467
-0.049672906318318485   -0.13473546029114594   -0.0009808005092519988
-0.046644244758208775   -0.2026544595510996   -0.0023507071948290536
-0.08649623056044549   -0.13428822175428212   -0.0017773336943081126
-0.049672906318318485   -0.13473546029114594   -0.0009808005092519988
-0.08232436594945525   -0.20298522147663506   -0.003585312601459901
-0.08143271707000892   -0.20401650676129815   -0.004169490712311043
-0.08514399598623755   -0.1359396187725868   -0.0025838570650218978
-0.11831770193759995   -0.20337592901186888   -0.0050636502728893164
-0.08189333619918897   -0.20348421231101504   -0.0038945318586400086
-0.08514399598623755   -0.1359396187725868   -0.0025838570650218978
-0.12238123307189175   -0.1357303305579342   -0.0034746017275057877
-0.11831770193759995   -0.20337592901186888   -0.0050636502728893164
-0.12282650312712179   -0.13528820840829323   -0.0032423830710267094
-0.08189333619918897   -0.20348421231101504   -0.0038945318586400086
-0.11875909702266844   -0.2029643256197928   -0.004720766330748227
-0.12282650312712179   -0.13528820840829323   -0.0032423830710267094
-0.11831770193759995   -0.20337592901186888   -0.0050636502728893164
-0.08189333619918897   -0.20348421231101504   -0.0038945318586400086
-0.12282650312712179   -0.13528820840829323   -0.0032423830710267094
-0.08561103701416364   -0.13540062037022588   -0.002336780599404992
-0.08514399598623755   -0.1359396187725868   -0.0025838570650218978
-0.08189333619918897   -0.20348421231101504   -0.0038945318586400086
-0.12282650312712179   -0.13528820840829323   -0.0032423830710267094
-0.08514399598623755   -0.1359396187725868   -0.0025838570650218978
-0.11831770193759995   -0.20337592901186888   -0.0050636502728893164
-0.08189333619918897   -0.20348421231101504   -0.0038945318586400086
-0.08561103701416364   -0.13540062037022588   -0.002336780599404992
-0.11875909702266844   -0.2029643256197928   -0.004720766330748227
-0.08232436594945525   -0.20298522147663506   -0.003585312601459901
-0.08561103701416364   -0.13540062037022588   -0.002336780599404992
-0.12282650312712179   -0.13528820840829323   -0.0032423830710267094
-0.11875909702266844   -0.2029643256197928   -0.004720766330748227
-0.12320470131187107   -0.13482158384924625   -0.002994599520199224
-0.08232436594945525   -0.20298522147663506   -0.003585312601459901
-0.11909546111774494   -0.20257249621621257   -0.004349390652177549
-0.12320470131187107   -0.13482158384924625   -0.002994599520199224
-0.11875909702266844   -0.2029643256197928   -0.004720766330748227
-0.08232436594945525   -0.20298522147663506   -0.003585312601459901
-0.12320470131187107   -0.13482158384924625   -0.002994599520199224
-0.0860558944063891   -0.13485116247712306   -0.0020674981254938454
-0.08561103701416364   -0.13540062037022588   -0.002336780599404992
-0.08232436594945525   -0.20298522147663506   -0.003585312601459901
-0.12320470131187107   -0.13482158384924625   -0.002994599520199224
-0.08561103701416364   -0.13540062037022588   -0.002336780599404992
-0.11875909702266844   -0.2029643256197928   -0.004720766330748227
-0.08232436594945525   -0.20298522147663506   -0.003585312601459901
-0.0860558944063891   -0.13485116247712306   -0.0020674981254938454
-0.11909546111774494   -0.20257249621621257   -0.004349390652177549
-0.08275693047708617   -0.2025209670256921   -0.003243554254925998
-0.0860558944063891   -0.13485116247712306   -0.0020674981254938454
-0.12320470131187107   -0.13482158384924625   -0.002994599520199224
-0.11909546111774494   -0.20257249621621257   -0.004349390652177549
-0.12356220683146785   -0.13434206583137284   -0.002724277255043393
-0.08275693047708617   -0.2025209670256921   -0.003243554254925998
-0.11942879225876482   -0.2022171838975415   -0.00394198916134359
-0.12356220683146785   -0.13434206583137284   -0.002724277255043393
-0.11909546111774494   -0.20257249621621257   -0.004349390652177549
-0.08275693047708617   -0.2025209670256921   -0.003243554254925998
-0.12356220683146785   -0.13434206583137284   -0.002724277255043393
-0.08649623056044549   -0.13428822175428212   -0.0017773336943081126
-0.0860558944063891   -0.13485116247712306   -0.0020674981254938454
-0.08275693047708617   -0.2025209670256921   -0.003243554254925998
-0.12356220683146785   -0.13434206583137284   -0.002724277255043393
-0.0860558944063891   -0.13485116247712306   -0.0020674981254938454
-0.11909546111774494   -0.20257249621621257   -0.004349390652177549
-0.11831770193759995   -0.20337592901186888   -0.0050636502728893164
-0.12238123307189175   -0.1357303305579342   -0.0034746017275057877
-0.15739368481332244   -0.2026229564250835   -0.005732092740401095
-0.11875909702266844   -0.2029643256197928   -0.004720766330748227
-0.12238123307189175   -0.1357303305579342   -0.0034746017275057877
-0.16136748953577204   -0.13538818399934635   -0.004140013108111213
-0.15739368481332244   -0.2026229564250835   -0.005732092740401095
-0.16164914371829905   -0.1350142666145994   -0.0039687853990002285
-0.11875909702266844   -0.2029643256197928   -0.004720766330748227
-0.1574711927077997   -0.20229172232610174   -0.005356455750334697
-0.16164914371829905   -0.1350142666145994   -0.0039687853990002285
-0.15739368481332244   -0.2026229564250835   -0.005732092740401095
-0.11875909702266844   -0.2029643256197928   -0.004720766330748227
-0.16164914371829905   -0.1350142666145994   -0.0039687853990002285
-0.12282650312712179   -0.13528820840829323   -0.0032423830710267094
-0.12238123307189175   -0.1357303305579342   -0.0034746017275057877
-0.11875909702266844   -0.2029643256197928   -0.004720766330748227
-0.16164914371829905   -0.1350142666145994   -0.0039687853990002285
-0.12238123307189175   -0.1357303305579342   -0.0034746017275057877
-0.15739368481332244   -0.2026229564250835   -0.005732092740401095
-0.11875909702266844   -0.2029643256197928   -0.004720766330748227
-0.12282650312712179   -0.13528820840829323   -0.0032423830710267094
-0.1574711927077997   -0.20229172232610174   -0.005356455750334697
-0.11909546111774494   -0.20257249621621257   -0.004349390652177549
-0.12282650312712179   -0.13528820840829323   -0.0032423830710267094
-0.16164914371829905   -0.1350142666145994   -0.0039687853990002285
-0.1574711927077997   -0.20229172232610174   -0.005356455750334697
-0.16190668073810702   -0.1345923286930544   -0.0037589578561746553
-0.11909546111774494   -0.20257249621621257   -0.004349390652177549
-0.1575491712152217   -0.20195488911122703   -0.004923322712420991
-0.16190668073810702   -0.1345923286930544   -0.0037589578561746553
-0.1574711927077997   -0.20229172232610174   -0.005356455750334697
-0.11909546111774494   -0.20257249621621257   -0.004349390652177549
-0.16190668073810702   -0.1345923286930544   -0.0037589578561746553
-0.12320470131187107   -0.13482158384924625   -0.002994599520199224
-0.12282650312712179   -0.13528820840829323   -0.0032423830710267094
-0.11909546111774494   -0.20257249621621257   -0.004349390652177549
-0.16190668073810702   -0.1345923286930544   -0.0037589578561746553
-0.12282650312712179   -0.13528820840829323   -0.0032423830710267094
-0.1574711927077997   -0.20229172232610174   -0.005356455750334697
-0.11909546111774494   -0.20257249621621257   -0.004349390652177549
-0.12320470131187107   -0.13482158384924625   -0.002994599520199224
-0.1575491712152217   -0.20195488911122703   -0.004923322712420991
-0.11942879225876482   -0.2022171838975415   -0.00394198916134359
-0.12320470131187107   -0.13482158384924625   -0.002994599520199224
-0.16190668073810702   -0.1345923286930544   -0.0037589578561746553
-0.1575491712152217   -0.20195488911122703   -0.004923322712420991
-0.16203701124521272   -0.13420165416831625   -0.0035204120557491766
-0.11942879225876482   -0.2022171838975415   -0.00394198916134359
-0.15741014867673989   -0.20172488189386412   -0.00443958893425101
-0.16203701124521272   -0.13420165416831625   -0.0035204120557491766
-0.1575491712152217   -0.20195488911122703   -0.004923322712420991
-0.11942879225876482   -0.2022171838975415   -0.00394198916134359
-0.16203701124521272   -0.13420165416831625   -0.0035204120557491766
-0.12356220683146785   -0.13434206583137284   -0.002724277255043393
-0.12320470131187107   -0.13482158384924625   -0.002994599520199224
-0.11942879225876482   -0.2022171838975415   -0.00394198916134359
-0.16203701124521272   -0.13420165416831625   -0.0035204120557491766
-0.12320470131187107   -0.13482158384924625   -0.002994599520199224
-0.1575491712152217   -0.20195488911122703   -0.004923322712420991
0.027254304569393328   -0.13680593779587352   0.0008438390107925517
0.01904492935320801   -0.06860523942072569   0.0009006764086206492
-0.011844383807461056   -0.13615421032283012   -0.0003623236095929758
0.026393434850914273   -0.13596568816565788   0.001200159238014511
0.01904492935320801   -0.06860523942072569   0.0009006764086206492
-0.017353560734387742   -0.06770036536107092   0.0004328752438060948
-0.011844383807461056   -0.13615421032283012   -0.0003623236095929758
-0.017891898259735337   -0.0673396495871712   0.0008225054888296849
0.026393434850914273   -0.13596568816565788   0.001200159238014511
-0.012387666943891767   -0.13545501328695975   -7.958657212237998e-05
-0.017891898259735337   -0.0673396495871712   0.0008225054888296849
-0.011844383807461056   -0.13615421032283012   -0.0003623236095929758
0.026393434850914273   -0.13596568816565788   0.001200159238014511
-0.017891898259735337   -0.0673396495871712   0.0008225054888296849
0.0173693486620203   -0.06771621079476119   0.0018682832797630008
0.01904492935320801   -0.06860523942072569   0.0009006764086206492
0.026393434850914273   -0.13596568816565788   0.001200159238014511
-0.017891898259735337   -0.0673396495871712   0.0008225054888296849
0.01904492935320801   -0.06860523942072569   0.0009006764086206492
-0.011844383807461056   -0.13615421032283012   -0.0003623236095929758
0.026393434850914273   -0.13596568816565788   0.001200159238014511
0.0173693486620203   -0.06771621079476119   0.0018682832797630008
-0.012387666943891767   -0.13545501328695975   -7.958657212237998e-05
0.025437072808168436   -0.1351285251805848   0.0017079573052218395
0.0173693486620203   -0.06771621079476119   0.0018682832797630008
-0.017891898259735337   -0.0673396495871712   0.0008225054888296849
-0.012387666943891767   -0.13545501328695975   -7.958657212237998e-05
-0.01859579346411486   -0.06670947897930643   0.0012945864394158706
0.025437072808168436   -0.1351285251805848   0.0017079573052218395
-0.013022347247851089   -0.13471595218801857   0.0002527662724784382
-0.01859579346411486   -0.06670947897930643   0.0012945864394158706
-0.012387666943891767   -0.13545501328695975   -7.958657212237998e-05
0.025437072808168436   -0.1351285251805848   0.0017079573052218395
-0.01859579346411486   -0.06670947897930643   0.0012945864394158706
0.01638654923692425   -0.0669832381855753   0.0025923878043142006
0.0173693486620203   -0.06771621079476119   0.0018682832797630008
0.025437072808168436   -0.1351285251805848   0.0017079573052218395
-0.01859579346411486   -0.06670947897930643   0.0012945864394158706
0.0173693486620203   -0.06771621079476119   0.0018682832797630008
-0.012387666943891767   -0.13545501328695975   -7.958657212237998e-05
0.025437072808168436   -0.1351285251805848   0.0017079573052218395
0.01638654923692425   -0.0669832381855753   0.0025923878043142006
-0.013022347247851089   -0.13471595218801857   0.0002527662724784382
0.024268955395031478   -0.13410117007884118   0.0022660277831133184
0.01638654923692425   -0.0669832381855753   0.0025923878043142006
-0.01859579346411486   -0.06670947897930643   0.0012945864394158706
-0.013022347247851089   -0.13471595218801857   0.0002527662724784382
-0.01918599429107234   -0.06602970655980822   0.0017103722748795266
0.024268955395031478   -0.13410117007884118   0.0022660277831133184
-0.013677826362470578   -0.13393021541227967   0.00063393428558964
-0.01918599429107234   -0.06602970655980822   0.0017103722748795266
-0.013022347247851089   -0.13471595218801857   0.0002527662724784382
0.024268955395031478   -0.13410117007884118   0.0022660277831133184
-0.01918599429107234   -0.06602970655980822   0.0017103722748795266
0.015129661596583879   -0.06586838332571619   0.0034205699720482327
0.01638654923692425   -0.0669832381855753   0.0025923878043142006
0.024268955395031478   -0.13410117007884118   0.0022660277831133184
-0.01918599429107234   -0.06602970655980822   0.0017103722748795266
0.01638654923692425   -0.0669832381855753   0.0025923878043142006
-0.013022347247851089   -0.13471595218801857   0.0002527662724784382
-0.011844383807461056   -0.13615421032283012   -0.0003623236095929758
-0.017353560734387742   -0.06770036536107092   0.0004328752438060948
-0.04867766280581655   -0.1359859004844219   -0.0015281150215770084
-0.012387666943891767   -0.13545501328695975   -7.958657212237998e-05
-0.017353560734387742   -0.06770036536107092   0.0004328752438060948
-0.05204213266680506   -0.06869003604631187   -0.0005028648920345997
-0.04867766280581655   -0.1359859004844219   -0.0015281150215770084
-0.052534616678618515   -0.06814704470368252   -0.00022818062972275628
-0.012387666943891767   -0.13545501328695975   -7.958657212237998e-05
-0.04916706528711306   -0.1353732095471227   -0.001267195057829573
-0.052534616678618515   -0.06814704470368252   -0.00022818062972275628
-0.04867766280581655   -0.1359859004844219   -0.0015281150215770084
-0.012387666943891767   -0.13545501328695975   -7.958657212237998e-05
-0.052534616678618515   -0.06814704470368252   -0.00022818062972275628
-0.017891898259735337   -0.0673396495871712   0.0008225054888296849
-0.017353560734387742   -0.06770036536107092   0.0004328752438060948
-0.012387666943891767   -0.13545501328695975   -7.958657212237998e-05
-0.052534616678618515   -0.06814704470368252   -0.00022818062972275628
-0.017353560734387742   -0.06770036536107092   0.0004328752438060948
-0.04867766280581655   -0.1359859004844219   -0.0015281150215770084
-0.012387666943891767   -0.13545501328695975   -7.958657212237998e-05
-0.017891898259735337   -0.0673396495871712   0.0008225054888296849
-0.04916706528711306   -0.1353732095471227   -0.001267195057829573
-0.013022347247851089   -0.13471595218801857   0.0002527662724784382
-0.017891898259735337   -0.0673396495871712   0.0008225054888296849
-0.052534616678618515   -0.06814704470368252   -0.00022818062972275628
-0.04916706528711306   -0.1353732095471227   -0.001267195057829573
-0.053048372473044274   -0.06753618053027118   6.164663371194086e-05
-0.013022347247851089   -0.13471595218801857   0.0002527662724784382
-0.049672906318318485   -0.13473546029114594   -0.0009808005092519988
-0.053048372473044274   -0.06753618053027118   6.164663371194086e-05
-0.04916706528711306   -0.1353732095471227   -0.001267195057829573
-0.013022347247851089   -0.13471595218801857   0.0002527662724784382
-0.053048372473044274   -0.06753618053027118   6.164663371194086e-05
-0.01859579346411486   -0.06670947897930643   0.0012945864394158706
-0.017891898259735337   -0.0673396495871712   0.0008225054888296849
-0.013022347247851089   -0.13471595218801857   0.0002527662724784382
-0.053048372473044274   -0.06753618053027118   6.164663371194086e-05
-0.017891898259735337   -0.0673396495871712   0.0008225054888296849
-0.04916706528711306   -0.1353732095471227   -0.001267195057829573
-0.013022347247851089   -0.13471595218801857   0.0002527662724784382
-0.01859579346411486   -0.06670947897930643   0.0012945864394158706
-0.049672906318318485   -0.13473546029114594   -0.0009808005092519988
-0.013677826362470578   -0.13393021541227967   0.00063393428558964
-0.01859579346411486   -0.06670947897930643   0.0012945864394158706
-0.053048372473044274   -0.06753618053027118   6.164663371194086e-05
-0.049672906318318485   -0.13473546029114594   -0.0009808005092519988
-0.053535247802757   -0.06686670000449886   0.00038076003359149895
-0.013677826362470578   -0.13393021541227967   0.00063393428558964
-0.05019910421600625   -0.1340834722126435   -0.0006637459610983467
-0.053535247802757   -0.06686670000449886   0.00038076003359149895
-0.049672906318318485   -0.13473546029114594   -0.0009808005092519988
-0.013677826362470578   -0.13393021541227967   0.00063393428558964
-0.053535247802757   -0.06686670000449886   0.00038076003359149895
-0.01918599429107234   -0.06602970655980822   0.0017103722748795266
-0.01859579346411486   -0.06670947897930643   0.0012945864394158706
-0.013677826362470578   -0.13393021541227967   0.00063393428558964
-0.053535247802757   -0.06686670000449886   0.00038076003359149895
-0.01859579346411486   -0.06670947897930643   0.0012945864394158706
-0.049672906318318485   -0.13473546029114594   -0.0009808005092519988
-0.04867766280581655   -0.1359859004844219   -0.0015281150215770084
-0.05204213266680506   -0.06869003604631187   -0.0005028648920345997
-0.08514399598623755   -0.1359396187725868   -0.0025838570650218978
-0.04916706528711306   -0.1353732095471227   -0.001267195057829573
-0.05204213266680506   -0.06869003604631187   -0.0005028648920345997
-0.0876012473626969   -0.06946283582841245   -0.0015343751874176451
-0.08514399598623755   -0.1359396187725868   -0.0025838570650218978
-0.08804215995360762   -0.06890601049272004   -0.0013226144153681112
-0.04916706528711306   -0.1353732095471227   -0.001267195057829573
-0.08561103701416364   -0.13540062037022588   -0.002336780599404992
-0.08804215995360762   -0.06890601049272004   -0.0013226144153681112
-0.08514399598623755   -0.1359396187725868   -0.0025838570650218978
-0.04916706528711306   -0.1353732095471227   -0.001267195057829573
-0.08804215995360762   -0.06890601049272004   -0.0013226144153681112
-0.052534616678618515   -0.06814704470368252   -0.00022818062972275628
-0.05204213266680506   -0.06869003604631187   -0.0005028648920345997
-0.04916706528711306   -0.1353732095471227   -0.001267195057829573
-0.08804215995360762   -0.06890601049272004   -0.0013226144153681112
-0.05204213266680506   -0.06869003604631187   -0.0005028648920345997
-0.08514399598623755   -0.1359396187725868   -0.0025838570650218978
-0.04916706528711306   -0.1353732095471227   -0.001267195057829573
-0.052534616678618515   -0.06814704470368252   -0.00022818062972275628
-0.08561103701416364   -0.13540062037022588   -0.002336780599404992
-0.049672906318318485   -0.13473546029114594   -0.0009808005092519988
-0.052534616678618515   -0.06814704470368252   -0.00022818062972275628
-0.08804215995360762   -0.06890601049272004   -0.0013226144153681112
-0.08561103701416364   -0.13540062037022588   -0.002336780599404992
-0.08846319844100563   -0.06831889542710043   -0.0011121736232714789
-0.049672906318318485   -0.13473546029114594   -0.0009808005092519988
-0.0860558944063891   -0.13485116247712306   -0.0020674981254938454
-0.08846319844100563   -0.06831889542710043   -0.0011121736232714789
-0.08561103701416364   -0.13540062037022588   -0.002336780599404992
-0.049672906318318485   -0.13473546029114594   -0.0009808005092519988
-0.08846319844100563   -0.06831889542710043   -0.0011121736232714789
-0.053048372473044274   -0.06753618053027118   6.164663371194086e-05
-0.052534616678618515   -0.06814704470368252   -0.00022818062972275628
-0.049672906318318485   -0.13473546029114594   -0.0009808005092519988
-0.08846319844100563   -0.06831889542710043   -0.0011121736232714789
-0.052534616678618515   -0.06814704470368252   -0.00022818062972275628
-0.08561103701416364   -0.13540062037022588   -0.002336780599404992
-0.049672906318318485   -0.13473546029114594   -0.0009808005092519988
-0.053048372473044274   -0.06753618053027118   6.164663371194086e-05
-0.0860558944063891   -0.13485116247712306   -0.0020674981254938454
-0.05019910421600625   -0.1340834722126435   -0.0006637459610983467
-0.053048372473044274   -0.06753618053027118   6.164663371194086e-05
-0.08846319844100563   -0.06831889542710043   -0.0011121736232714789
-0.0860558944063891   -0.13485116247712306   -0.0020674981254938454
-0.08885047395777516   -0.06768399833776007   -0.0008837364063130805
-0.05019910421600625   -0.1340834722126435   -0.0006637459610983467
-0.08649623056044549   -0.13428822175428212   -0.0017773336943081126
-0.08885047395777516   -0.06768399833776007   -0.0008837364063130805
-0.0860558944063891   -0.13485116247712306   -0.0020674981254938454
-0.05019910421600625   -0.1340834722126435   -0.0006637459610983467
-0.08885047395777516   -0.06768399833776007   -0.0008837364063130805
-0.053535247802757   -0.06686670000449886   0.00038076003359149895
-0.053048372473044274   -0.06753618053027118   6.164663371194086e-05
-0.05019910421600625   -0.1340834722126435   -0.0006637459610983467
-0.08885047395777516   -0.06768399833776007   -0.0008837364063130805
-0.053048372473044274   -0.06753618053027118   6.164663371194086e-05
-0.0860558944063891   -0.13485116247712306   -0.0020674981254938454
-0.08514399598623755   -0.1359396187725868   -0.0025838570650218978
-0.0876012473626969   -0.06946283582841245   -0.0015343751874176451
-0.12238123307189175   -0.1357303305579342   -0.0034746017275057877
-0.08561103701416364   -0.13540062037022588   -0.002336780599404992
-0.0876012473626969   -0.06946283582841245   -0.0015343751874176451
-0.12440881732268226   -0.06977885349510458   -0.0024879811997494715
-0.12238123307189175   -0.1357303305579342   -0.0034746017275057877
-0.12480573275527992   -0.06927695793350772   -0.002334531642852057
-0.08561103701416364   -0.13540062037022588   -0.002336780599404992
-0.12282650312712179   -0.13528820840829323   -0.0032423830710267094
-0.12480573275527992   -0.06927695793350772   -0.002334531642852057
-0.12238123307189175   -0.1357303305579342   -0.0034746017275057877
-0.08561103701416364   -0.13540062037022588   -0.002336780599404992
-0.12480573275527992   -0.06927695793350772   -0.002334531642852057
-0.08804215995360762   -0.06890601049272004   -0.0013226144153681112
-0.0876012473626969   -0.06946283582841245   -0.0015343751874176451
-0.08561103701416364   -0.13540062037022588   -0.002336780599404992
-0.12480573275527992   -0.06927695793350772   -0.002334531642852057
-0.0876012473626969   -0.06946283582841245   -0.0015343751874176451
-0.12238123307189175   -0.1357303305579342   -0.0034746017275057877
-0.08561103701416364   -0.13540062037022588   -0.002336780599404992
-0.08804215995360762   -0.06890601049272004   -0.0013226144153681112
-0.12282650312712179   -0.13528820840829323   -0.0032423830710267094
-0.0860558944063891   -0.13485116247712306   -0.0020674981254938454
-0.08804215995360762   -0.06890601049272004   -0.0013226144153681112
-0.12480573275527992   -0.06927695793350772   -0.002334531642852057
-0.12282650312712179   -0.13528820840829323   -0.0032423830710267094
-0.12515936455674262   -0.06873167116172835   -0.002186041135933538
-0.0860558944063891   -0.13485116247712306   -0.0020674981254938454
-0.12320470131187107   -0.13482158384924625   -0.002994599520199224
-0.12515936455674262   -0.06873167116172835   -0.002186041135933538
-0.12282650312712179   -0.13528820840829323   -0.0032423830710267094
-0.0860558944063891   -0.13485116247712306   -0.0020674981254938454
-0.12515936455674262   -0.06873167116172835   -0.002186041135933538
-0.08846319844100563   -0.06831889542710043   -0.0011121736232714789
-0.08804215995360762   -0.06890601049272004   -0.0013226144153681112
-0.0860558944063891   -0.13485116247712306   -0.0020674981254938454
-0.12515936455674262   -0.06873167116172835   -0.002186041135933538
-0.08804215995360762   -0.06890601049272004   -0.0013226144153681112
-0.12282650312712179   -0.13528820840829323   -0.0032423830710267094
-0.0860558944063891   -0.13485116247712306   -0.0020674981254938454
-0.08846319844100563   -0.06831889542710043   -0.0011121736232714789
-0.12320470131187107   -0.13482158384924625   -0.002994599520199224
-0.08649623056044549   -0.13428822175428212   -0.0017773336943081126
-0.08846319844100563   -0.06831889542710043   -0.0011121736232714789
-0.12515936455674262   -0.06873167116172835   -0.002186041135933538
-0.12320470131187107   -0.13482158384924625   -0.002994599520199224
-0.12547934041431763   -0.06815188808411674   -0.0020338246253055843
-0.08649623056044549   -0.13428822175428212   -0.0017773336943081126
-0.12356220683146785   -0.13434206583137284   -0.002724277255043393
-0.12547934041431763   -0.06815188808411674   -0.0020338246253055843
-0.12320470131187107   -0.13482158384924625   -0.002994599520199224
-0.08649623056044549   -0.13428822175428212   -0.0017773336943081126
-0.12547934041431763   -0.06815188808411674   -0.0020338246253055843
-0.08885047395777516   -0.06768399833776007   -0.0008837364063130805
-0.08846319844100563   -0.06831889542710043   -0.0011121736232714789
-0.08649623056044549   -0.13428822175428212   -0.0017773336943081126
-0.12547934041431763   -0.06815188808411674   -0.0020338246253055843
-0.08846319844100563   -0.06831889542710043   -0.0011121736232714789
-0.12320470131187107   -0.13482158384924625   -0.002994599520199224
-0.12238123307189175   -0.1357303305579342   -0.0034746017275057877
-0.12440881732268226   -0.06977885349510458   -0.0024879811997494715
-0.16136748953577204   -0.13538818399934635   -0.004140013108111213
-0.12282650312712179   -0.13528820840829323   -0.0032423830710267094
-0.12440881732268226   -0.06977885349510458   -0.0024879811997494715
-0.16250740711311445   -0.06981598655260154   -0.0032841831549328864
-0.16136748953577204   -0.13538818399934635   -0.004140013108111213
-0.1628500355337377   -0.06932798947607564   -0.0032200877723521895
-0.12282650312712179   -0.13528820840829323   -0.0032423830710267094
-0.16164914371829905   -0.1350142666145994   -0.0039687853990002285
-0.1628500355337377   -0.06932798947607564   -0.0032200877723521895
-0.16136748953577204   -0.13538818399934635   -0.004140013108111213
-0.12282650312712179   -0.13528820840829323   -0.0032423830710267094
-0.1628500355337377   -0.06932798947607564   -0.0032200877723521895
-0.12480573275527992   -0.06927695793350772   -0.002334531642852057
-0.12440881732268226   -0.06977885349510458   -0.0024879811997494715
-0.12282650312712179   -0.13528820840829323   -0.0032423830710267094
-0.1628500355337377   -0.06932798947607564   -0.0032200877723521895
-0.12440881732268226   -0.06977885349510458   -0.0024879811997494715
-0.16136748953577204   -0.13538818399934635   -0.004140013108111213
-0.12282650312712179   -0.13528820840829323   -0.0032423830710267094
-0.12480573275527992   -0.06927695793350772   -0.002334531642852057
-0.16164914371829905   -0.1350142666145994   -0.0039687853990002285
-0.12320470131187107   -0.13482158384924625   -0.002994599520199224
-0.12480573275527992   -0.06927695793350772   -0.002334531642852057
-0.1628500355337377   -0.06932798947607564   -0.0032200877723521895
-0.16164914371829905   -0.1350142666145994   -0.0039687853990002285
-0.16315699858390914   -0.06880176379383363   -0.003145455429134776
-0.12320470131187107   -0.13482158384924625   -0.002994599520199224
-0.16190668073810702   -0.1345923286930544   -0.0037589578561746553
-0.16315699858390914   -0.06880176379383363   -0.003145455429134776
-0.16164914371829905   -0.1350142666145994   -0.0039687853990002285
-0.12320470131187107   -0.13482158384924625   -0.002994599520199224
-0.16315699858390914   -0.06880176379383363   -0.003145455429134776
-0.12515936455674262   -0.06873167116172835   -0.002186041135933538
-0.12480573275527992   -0.06927695793350772   -0.002334531642852057
-0.12320470131187107   -0.13482158384924625   -0.002994599520199224
-0.16315699858390914   -0.06880176379383363   -0.003145455429134776
-0.12480573275527992   -0.06927695793350772   -0.002334531642852057
-0.16164914371829905   -0.1350142666145994   -0.0039687853990002285
-0.12320470131187107   -0.13482158384924625   -0.002994599520199224
-0.12515936455674262   -0.06873167116172835   -0.002186041135933538
-0.16190668073810702   -0.1345923286930544   -0.0037589578561746553
-0.12356220683146785   -0.13434206583137284   -0.002724277255043393
-0.12515936455674262   -0.06873167116172835   -0.002186041135933538
-0.16315699858390914   -0.06880176379383363   -0.003145455429134776
-0.16190668073810702   -0.1345923286930544   -0.0037589578561746553
-0.1634171897992378   -0.06824427584005685   -0.0030771797632528526
-0.12356220683146785   -0.13434206583137284   -0.002724277255043393
-0.16203701124521272   -0.13420165416831625   -0.0035204120557491766
-0.1634171897992378   -0.06824427584005685   -0.0030771797632528526
-0.16190668073810702   -0.1345923286930544   -0.0037589578561746553
-0.12356220683146785   -0.13434206583137284   -0.002724277255043393
-0.1634171897992378   -0.06824427584005685   -0.0030771797632528526
-0.12547934041431763   -0.06815188808411674   -0.0020338246253055843
-0.12515936455674262   -0.06873167116172835   -0.002186041135933538
-0.12356220683146785   -0.13434206583137284   -0.002724277255043393
-0.1634171897992378   -0.06824427584005685   -0.0030771797632528526
-0.12515936455674262   -0.06873167116172835   -0.002186041135933538
-0.16190668073810702   -0.1345923286930544   -0.0037589578561746553
0.01904492935320801   -0.06860523942072569   0.0009006764086206492
0.0   0.0   0.0
-0.017353560734387742   -0.06770036536107092   0.0004328752438060948
0.0173693486620203   -0.06771621079476119   0.0018682832797630008
0.0   0.0   0.0
-0.021856184528734012   -0.005421825755884813   -0.00021251455090513972
-0.017353560734387742   -0.06770036536107092   0.0004328752438060948
-0.023159475470129615   -0.004189643042760118   0.000528195025035823
0.0173693486620203   -0.06771621079476119   0.0018682832797630008
-0.017891898259735337   -0.0673396495871712   0.0008225054888296849
-0.023159475470129615   -0.004189643042760118   0.000528195025035823
-0.017353560734387742   -0.06770036536107092   0.0004328752438060948
0.0173693486620203   -0.06771621079476119   0.0018682832797630008
-0.023159475470129615   -0.004189643042760118   0.000528195025035823
0.0   0.0   0.0
0.0   0.0   0.0
0.0173693486620203   -0.06771621079476119   0.0018682832797630008
-0.023159475470129615   -0.004189643042760118   0.000528195025035823
0.0   0.0   0.0
-0.017353560734387742   -0.06770036536107092   0.0004328752438060948
0.0173693486620203   -0.06771621079476119   0.0018682832797630008
0.0   0.0   0.0
-0.017891898259735337   -0.0673396495871712   0.0008225054888296849
0.01638654923692425   -0.0669832381855753   0.0025923878043142006
0.0   0.0   0.0
-0.023159475470129615   -0.004189643042760118   0.000528195025035823
-0.017891898259735337   -0.0673396495871712   0.0008225054888296849
-0.02397380696229534   -0.0035926453438702723   0.00095176897798555
0.01638654923692425   -0.0669832381855753   0.0025923878043142006
-0.01859579346411486   -0.06670947897930643   0.0012945864394158706
-0.02397380696229534   -0.0035926453438702723   0.00095176897798555
-0.017891898259735337   -0.0673396495871712   0.0008225054888296849
0.01638654923692425   -0.0669832381855753   0.0025923878043142006
-0.02397380696229534   -0.0035926453438702723   0.00095176897798555
0.0   0.0   0.0
0.0   0.0   0.0
0.01638654923692425   -0.0669832381855753   0.0025923878043142006
-0.02397380696229534   -0.0035926453438702723   0.00095176897798555
0.0   0.0   0.0
-0.017891898259735337   -0.0673396495871712   0.0008225054888296849
0.01638654923692425   -0.0669832381855753   0.0025923878043142006
0.0   0.0   0.0
-0.01859579346411486   -0.06670947897930643   0.0012945864394158706
0.015129661596583879   -0.06586838332571619   0.0034205699720482327
0.0   0.0   0.0
-0.02397380696229534   -0.0035926453438702723   0.00095176897798555
-0.01859579346411486   -0.06670947897930643   0.0012945864394158706
-0.02505930959951358   -0.002801929541176333   0.0014371940416937929
0.015129661596583879   -0.06586838332571619   0.0034205699720482327
-0.01918599429107234   -0.06602970655980822   0.0017103722748795266
-0.02505930959951358   -0.002801929541176333   0.0014371940416937929
-0.01859579346411486   -0.06670947897930643   0.0012945864394158706
0.015129661596583879   -0.06586838332571619   0.0034205699720482327
-0.02505930959951358   -0.002801929541176333   0.0014371940416937929
0.0   0.0   0.0
0.0   0.0   0.0
0.015129661596583879   -0.06586838332571619   0.0034205699720482327
-0.02505930959951358   -0.002801929541176333   0.0014371940416937929
0.0   0.0   0.0
-0.01859579346411486   -0.06670947897930643   0.0012945864394158706
-0.017353560734387742   -0.06770036536107092   0.0004328752438060948
-0.021856184528734012   -0.005421825755884813   -0.00021251455090513972
-0.05204213266680506   -0.06869003604631187   -0.0005028648920345997
-0.017891898259735337   -0.0673396495871712   0.0008225054888296849
-0.021856184528734012   -0.005421825755884813   -0.00021251455090513972
-0.05361800266496814   -0.007057832266520751   -0.00024194605895106765
-0.05204213266680506   -0.06869003604631187   -0.0005028648920345997
-0.054284823079589664   -0.00637740670733304   -5.766445387225648e-05
-0.017891898259735337   -0.0673396495871712   0.0008225054888296849
-0.052534616678618515   -0.06814704470368252   -0.00022818062972275628
-0.054284823079589664   -0.00637740670733304   -5.766445387225648e-05
-0.05204213266680506   -0.06869003604631187   -0.0005028648920345997
-0.017891898259735337   -0.0673396495871712   0.0008225054888296849
-0.054284823079589664   -0.00637740670733304   -5.766445387225648e-05
-0.023159475470129615   -0.004189643042760118   0.000528195025035823
-0.021856184528734012   -0.005421825755884813   -0.00021251455090513972
-0.017891898259735337   -0.0673396495871712   0.0008225054888296849
-0.054284823079589664   -0.00637740670733304   -5.766445387225648e-05
-0.021856184528734012   -0.005421825755884813   -0.00021251455090513972
-0.05204213266680506   -0.06869003604631187   -0.0005028648920345997
-0.017891898259735337   -0.0673396495871712   0.0008225054888296849
-0.023159475470129615   -0.004189643042760118   0.000528195025035823
-0.052534616678618515   -0.06814704470368252   -0.00022818062972275628
-0.01859579346411486   -0.06670947897930643   0.0012945864394158706
-0.023159475470129615   -0.004189643042760118   0.000528195025035823
-0.054284823079589664   -0.00637740670733304   -5.766445387225648e-05
-0.052534616678618515   -0.06814704470368252   -0.00022818062972275628
-0.054947158335081674   -0.0055831476027168375   0.00027667501194115243
-0.01859579346411486   -0.06670947897930643   0.0012945864394158706
-0.053048372473044274   -0.06753618053027118   6.164663371194086e-05
-0.054947158335081674   -0.0055831476027168375   0.00027667501194115243
-0.052534616678618515   -0.06814704470368252   -0.00022818062972275628
-0.01859579346411486   -0.06670947897930643   0.0012945864394158706
-0.054947158335081674   -0.0055831476027168375   0.00027667501194115243
-0.02397380696229534   -0.0035926453438702723   0.00095176897798555
-0.023159475470129615   -0.004189643042760118   0.000528195025035823
-0.01859579346411486   -0.06670947897930643   0.0012945864394158706
-0.054947158335081674   -0.0055831476027168375   0.00027667501194115243
-0.023159475470129615   -0.004189643042760118   0.000528195025035823
-0.052534616678618515   -0.06814704470368252   -0.00022818062972275628
-0.01859579346411486   -0.06670947897930643   0.0012945864394158706
-0.02397380696229534   -0.0035926453438702723   0.00095176897798555
-0.053048372473044274   -0.06753618053027118   6.164663371194086e-05
-0.01918599429107234   -0.06602970655980822   0.0017103722748795266
-0.02397380696229534   -0.0035926453438702723   0.00095176897798555
-0.054947158335081674   -0.0055831476027168375   0.00027667501194115243
-0.053048372473044274   -0.06753618053027118   6.164663371194086e-05
-0.05567401695222382   -0.004669112797655969   0.0005941537079257689
-0.01918599429107234   -0.06602970655980822   0.0017103722748795266
-0.053535247802757   -0.06686670000449886   0.00038076003359149895
-0.05567401695222382   -0.004669112797655969   0.0005941537079257689
-0.053048372473044274   -0.06753618053027118   6.164663371194086e-05
-0.01918599429107234   -0.06602970655980822   0.0017103722748795266
-0.05567401695222382   -0.004669112797655969   0.0005941537079257689
-0.02505930959951358   -0.002801929541176333   0.0014371940416937929
-0.02397380696229534   -0.0035926453438702723   0.00095176897798555
-0.01918599429107234   -0.06602970655980822   0.0017103722748795266
-0.05567401695222382   -0.004669112797655969   0.0005941537079257689
-0.02397380696229534   -0.0035926453438702723   0.00095176897798555
-0.053048372473044274   -0.06753618053027118   6.164663371194086e-05
-0.05204213266680506   -0.06869003604631187   -0.0005028648920345997
-0.05361800266496814   -0.007057832266520751   -0.00024194605895106765
-0.0876012473626969   -0.06946283582841245   -0.0015343751874176451
-0.052534616678618515   -0.06814704470368252   -0.00022818062972275628
-0.05361800266496814   -0.007057832266520751   -0.00024194605895106765
-0.08847587399435176   -0.0074895973658200814   -0.0009103915635389558
-0.0876012473626969   -0.06946283582841245   -0.0015343751874176451
-0.08887756654254454   -0.006950879935091876   -0.0008621386621889757
-0.052534616678618515   -0.06814704470368252   -0.00022818062972275628
-0.08804215995360762   -0.06890601049272004   -0.0013226144153681112
-0.08887756654254454   -0.006950879935091876   -0.0008621386621889757
-0.0876012473626969   -0.06946283582841245   -0.0015343751874176451
-0.052534616678618515   -0.06814704470368252   -0.00022818062972275628
-0.08887756654254454   -0.006950879935091876   -0.0008621386621889757
-0.054284823079589664   -0.00637740670733304   -5.766445387225648e-05
-0.05361800266496814   -0.007057832266520751   -0.00024194605895106765
-0.052534616678618515   -0.06814704470368252   -0.00022818062972275628
-0.08887756654254454   -0.006950879935091876   -0.0008621386621889757
-0.05361800266496814   -0.007057832266520751   -0.00024194605895106765
-0.0876012473626969   -0.06946283582841245   -0.0015343751874176451
-0.052534616678618515   -0.06814704470368252   -0.00022818062972275628
-0.054284823079589664   -0.00637740670733304   -5.766445387225648e-05
-0.08804215995360762   -0.06890601049272004   -0.0013226144153681112
-0.053048372473044274   -0.06753618053027118   6.164663371194086e-05
-0.054284823079589664   -0.00637740670733304   -5.766445387225648e-05
-0.08887756654254454   -0.006950879935091876   -0.0008621386621889757
-0.08804215995360762   -0.06890601049272004   -0.0013226144153681112
-0.08929473061719258   -0.00632966678130694   -0.0007758550270033119
-0.053048372473044274   -0.06753618053027118   6.164663371194086e-05
-0.08846319844100563   -0.06831889542710043   -0.0011121736232714789
-0.08929473061719258   -0.00632966678130694   -0.0007758550270033119
-0.08804215995360762   -0.06890601049272004   -0.0013226144153681112
-0.053048372473044274   -0.06753618053027118   6.164663371194086e-05
-0.08929473061719258   -0.00632966678130694   -0.0007758550270033119
-0.054947158335081674   -0.0055831476027168375   0.00027667501194115243
-0.054284823079589664   -0.00637740670733304   -5.766445387225648e-05
-0.053048372473044274   -0.06753618053027118   6.164663371194086e-05
-0.08929473061719258   -0.00632966678130694   -0.0007758550270033119
-0.054284823079589664   -0.00637740670733304   -5.766445387225648e-05
-0.08804215995360762   -0.06890601049272004   -0.0013226144153681112
-0.053048372473044274   -0.06753618053027118   6.164663371194086e-05
-0.054947158335081674   -0.0055831476027168375   0.00027667501194115243
-0.08846319844100563   -0.06831889542710043   -0.0011121736232714789
-0.053535247802757   -0.06686670000449886   0.00038076003359149895
-0.054947158335081674   -0.0055831476027168375   0.00027667501194115243
-0.08929473061719258   -0.00632966678130694   -0.0007758550270033119
-0.08846319844100563   -0.06831889542710043   -0.0011121736232714789
-0.08968511094311246   -0.0055805672805158265   -0.0006617095913933605
-0.053535247802757   -0.06686670000449886   0.00038076003359149895
-0.08885047395777516   -0.06768399833776007   -0.0008837364063130805
-0.08968511094311246   -0.0055805672805158265   -0.0006617095913933605
-0.08846319844100563   -0.06831889542710043   -0.0011121736232714789
-0.053535247802757   -0.06686670000449886   0.00038076003359149895
-0.08968511094311246   -0.0055805672805158265   -0.0006617095913933605
-0.05567401695222382   -0.004669112797655969   0.0005941537079257689
-0.054947158335081674   -0.0055831476027168375   0.00027667501194115243
-0.053535247802757   -0.06686670000449886   0.00038076003359149895
-0.08968511094311246   -0.0055805672805158265   -0.0006617095913933605
-0.054947158335081674   -0.0055831476027168375   0.00027667501194115243
-0.08846319844100563   -0.06831889542710043   -0.0011121736232714789
-0.0876012473626969   -0.06946283582841245   -0.0015343751874176451
-0.08847587399435176   -0.0074895973658200814   -0.0009103915635389558
-0.12440881732268226   -0.06977885349510458   -0.0024879811997494715
-0.08804215995360762   -0.06890601049272004   -0.0013226144153681112
-0.08847587399435176   -0.0074895973658200814   -0.0009103915635389558
-0.12504824469648207   -0.007386406241149377   -0.0018509269280402862
-0.12440881732268226   -0.06977885349510458   -0.0024879811997494715
-0.12531880395905343   -0.006896238424529477   -0.0018306901033592184
-0.08804215995360762   -0.06890601049272004   -0.0013226144153681112
-0.12480573275527992   -0.06927695793350772   -0.002334531642852057
-0.12531880395905343   -0.006896238424529477   -0.0018306901033592184
-0.12440881732268226   -0.06977885349510458   -0.0024879811997494715
-0.08804215995360762   -0.06890601049272004   -0.0013226144153681112
-0.12531880395905343   -0.006896238424529477   -0.0018306901033592184
-0.08887756654254454   -0.006950879935091876   -0.0008621386621889757
-0.08847587399435176   -0.0074895973658200814   -0.0009103915635389558
-0.08804215995360762   -0.06890601049272004   -0.0013226144153681112
-0.12531880395905343   -0.006896238424529477   -0.0018306901033592184
-0.08847587399435176   -0.0074895973658200814   -0.0009103915635389558
-0.12440881732268226   -0.06977885349510458   -0.0024879811997494715
-0.08804215995360762   -0.06890601049272004   -0.0013226144153681112
-0.08887756654254454   -0.006950879935091876   -0.0008621386621889757
-0.12480573275527992   -0.06927695793350772   -0.002334531642852057
-0.08846319844100563   -0.06831889542710043   -0.0011121736232714789
-0.08887756654254454   -0.006950879935091876   -0.0008621386621889757
-0.12531880395905343   -0.006896238424529477   -0.0018306901033592184
-0.12480573275527992   -0.06927695793350772   -0.002334531642852057
-0.125601252853888   -0.00635455847918375   -0.0018189692660683292
-0.08846319844100563   -0.06831889542710043   -0.0011121736232714789
-0.12515936455674262   -0.06873167116172835   -0.002186041135933538
-0.125601252853888   -0.00635455847918375   -0.0018189692660683292
-0.12480573275527992   -0.06927695793350772   -0.002334531642852057
-0.08846319844100563   -0.06831889542710043   -0.0011121736232714789
-0.125601252853888   -0.00635455847918375   -0.0018189692660683292
-0.08929473061719258   -0.00632966678130694   -0.0007758550270033119
-0.08887756654254454   -0.006950879935091876   -0.0008621386621889757
-0.08846319844100563   -0.06831889542710043   -0.0011121736232714789
-0.125601252853888   -0.00635455847918375   -0.0018189692660683292
-0.08887756654254454   -0.006950879935091876   -0.0008621386621889757
-0.12480573275527992   -0.06927695793350772   -0.002334531642852057
-0.08846319844100563   -0.06831889542710043   -0.0011121736232714789
-0.08929473061719258   -0.00632966678130694   -0.0007758550270033119
-0.12515936455674262   -0.06873167116172835   -0.002186041135933538
-0.08885047395777516   -0.06768399833776007   -0.0008837364063130805
-0.08929473061719258   -0.00632966678130694   -0.0007758550270033119
-0.125601252853888   -0.00635455847918375   -0.0018189692660683292
-0.12515936455674262   -0.06873167116172835   -0.002186041135933538
-0.12581177605340907   -0.005772027541753665   -0.0018171895861509532
-0.08885047395777516   -0.06768399833776007   -0.0008837364063130805
-0.12547934041431763   -0.06815188808411674   -0.0020338246253055843
-0.12581177605340907   -0.005772027541753665   -0.0018171895861509532
-0.12515936455674262   -0.06873167116172835   -0.002186041135933538
-0.08885047395777516   -0.06768399833776007   -0.0008837364063130805
-0.12581177605340907   -0.005772027541753665   -0.0018171895861509532
-0.08968511094311246   -0.0055805672805158265   -0.0006617095913933605
-0.08929473061719258   -0.00632966678130694   -0.0007758550270033119
-0.08885047395777516   -0.06768399833776007   -0.0008837364063130805
-0.12581177605340907   -0.005772027541753665   -0.0018171895861509532
-0.08929473061719258   -0.00632966678130694   -0.0007758550270033119
-0.12515936455674262   -0.06873167116172835   -0.002186041135933538
-0.12440881732268226   -0.06977885349510458   -0.0024879811997494715
-0.12504824469648207   -0.007386406241149377   -0.0018509269280402862
-0.16250740711311445   -0.06981598655260154   -0.0032841831549328864
-0.12480573275527992   -0.06927695793350772   -0.002334531642852057
-0.12504824469648207   -0.007386406241149377   -0.0018509269280402862
-0.1626157039471667   -0.007328903345284293   -0.0027748996555513033
-0.16250740711311445   -0.06981598655260154   -0.0032841831549328864
-0.16283386165052438   -0.006795741716960729   -0.0027757769484793196
-0.12480573275527992   -0.06927695793350772   -0.002334531642852057
-0.1628500355337377   -0.06932798947607564   -0.0032200877723521895
-0.16283386165052438   -0.006795741716960729   -0.0027757769484793196
-0.16250740711311445   -0.06981598655260154   -0.0032841831549328864
-0.12480573275527992   -0.06927695793350772   -0.002334531642852057
-0.16283386165052438   -0.006795741716960729   -0.0027757769484793196
-0.12531880395905343   -0.006896238424529477   -0.0018306901033592184
-0.12504824469648207   -0.007386406241149377   -0.0018509269280402862
-0.12480573275527992   -0.06927695793350772   -0.002334531642852057
-0.16283386165052438   -0.006795741716960729   -0.0027757769484793196
-0.12504824469648207   -0.007386406241149377   -0.0018509269280402862
-0.16250740711311445   -0.06981598655260154   -0.0032841831549328864
-0.12480573275527992   -0.06927695793350772   -0.002334531642852057
-0.12531880395905343   -0.006896238424529477   -0.0018306901033592184
-0.1628500355337377   -0.06932798947607564   -0.0032200877723521895
-0.12515936455674262   -0.06873167116172835   -0.002186041135933538
-0.12531880395905343   -0.006896238424529477   -0.0018306901033592184
-0.16283386165052438   -0.006795741716960729   -0.0027757769484793196
-0.1628500355337377   -0.06932798947607564   -0.0032200877723521895
-0.16307369122750073   -0.006265745920450594   -0.002818117139564974
-0.12515936455674262   -0.06873167116172835   -0.002186041135933538
-0.16315699858390914   -0.06880176379383363   -0.003145455429134776
-0.16307369122750073   -0.006265745920450594   -0.002818117139564974
-0.1628500355337377   -0.06932798947607564   -0.0032200877723521895
-0.12515936455674262   -0.06873167116172835   -0.002186041135933538
-0.16307369122750073   -0.006265745920450594   -0.002818117139564974
-0.125601252853888   -0.00635455847918375   -0.0018189692660683292
-0.12531880395905343   -0.006896238424529477   -0.0018306901033592184
-0.12515936455674262   -0.06873167116172835   -0.002186041135933538
-0.16307369122750073   -0.006265745920450594   -0.002818117139564974
-0.12531880395905343   -0.006896238424529477   -0.0018306901033592184
-0.1628500355337377   -0.06932798947607564   -0.0032200877723521895
-0.12515936455674262   -0.06873167116172835   -0.002186041135933538
-0.125601252853888   -0.00635455847918375   -0.0018189692660683292
-0.16315699858390914   -0.06880176379383363   -0.003145455429134776
-0.12547934041431763   -0.06815188808411674   -0.0020338246253055843
-0.125601252853888   -0.00635455847918375   -0.0018189692660683292
-0.16307369122750073   -0.006265745920450594   -0.002818117139564974
-0.16315699858390914   -0.06880176379383363   -0.003145455429134776
-0.16324906885508125   -0.005690575969288622   -0.0028637564584323826
-0.12547934041431763   -0.06815188808411674   -0.0020338246253055843
-0.1634171897992378   -0.06824427584005685   -0.0030771797632528526
-0.16324906885508125   -0.005690575969288622   -0.0028637564584323826
-0.16315699858390914   -0.06880176379383363   -0.003145455429134776
-0.12547934041431763   -0.06815188808411674   -0.0020338246253055843
-0.16324906885508125   -0.005690575969288622   -0.0028637564584323826
-0.12581177605340907   -0.005772027541753665   -0.0018171895861509532
-0.125601252853888   -0.00635455847918375   -0.0018189692660683292
-0.12547934041431763   -0.06815188808411674   -0.0020338246253055843
-0.16324906885508125   -0.005690575969288622   -0.0028637564584323826
-0.125601252853888   -0.00635455847918375   -0.0018189692660683292
-0.16315699858390914   -0.06880176379383363   -0.003145455429134776
              </DataArray>   
          </PointData>  
       </Piece>  
   </UnstructuredGrid> 
</VTKFile> 
