<?xml version="1.0"?> 
<VTKFile type="UnstructuredGrid"> 
   <UnstructuredGrid> 
      <Piece NumberOfPoints="6000"  NumberOfCells="1500">  
          <Points>  
             <DataArray type="Float64" NumberOfComponents="3" format="ascii">   
-500.0   0.0   0.0
-450.0   0.0   0.0
-500.0   30.0   0.0
-500.0   0.0   16.666666666666668
-450.0   0.0   0.0
-450.0   30.0   0.0
-500.0   30.0   0.0
-450.0   30.0   16.666666666666668
-500.0   0.0   16.666666666666668
-500.0   30.0   16.666666666666668
-450.0   30.0   16.666666666666668
-500.0   30.0   0.0
-500.0   0.0   16.666666666666668
-450.0   30.0   16.666666666666668
-450.0   0.0   16.666666666666668
-450.0   0.0   0.0
-500.0   0.0   16.666666666666668
-450.0   30.0   16.666666666666668
-450.0   0.0   0.0
-500.0   30.0   0.0
-500.0   0.0   16.666666666666668
-450.0   0.0   16.666666666666668
-500.0   30.0   16.666666666666668
-500.0   0.0   33.333333333333336
-450.0   0.0   16.666666666666668
-450.0   30.0   16.666666666666668
-500.0   30.0   16.666666666666668
-450.0   30.0   33.333333333333336
-500.0   0.0   33.333333333333336
-500.0   30.0   33.333333333333336
-450.0   30.0   33.333333333333336
-500.0   30.0   16.666666666666668
-500.0   0.0   33.333333333333336
-450.0   30.0   33.333333333333336
-450.0   0.0   33.333333333333336
-450.0   0.0   16.666666666666668
-500.0   0.0   33.333333333333336
-450.0   30.0   33.333333333333336
-450.0   0.0   16.666666666666668
-500.0   30.0   16.666666666666668
-500.0   0.0   33.333333333333336
-450.0   0.0   33.333333333333336
-500.0   30.0   33.333333333333336
-500.0   0.0   50.0
-450.0   0.0   33.333333333333336
-450.0   30.0   33.333333333333336
-500.0   30.0   33.333333333333336
-450.0   30.0   50.0
-500.0   0.0   50.0
-500.0   30.0   50.0
-450.0   30.0   50.0
-500.0   30.0   33.333333333333336
-500.0   0.0   50.0
-450.0   30.0   50.0
-450.0   0.0   50.0
-450.0   0.0   33.333333333333336
-500.0   0.0   50.0
-450.0   30.0   50.0
-450.0   0.0   33.333333333333336
-500.0   30.0   33.333333333333336
-500.0   30.0   0.0
-450.0   30.0   0.0
-500.0   60.0   0.0
-500.0   30.0   16.666666666666668
-450.0   30.0   0.0
-450.0   60.0   0.0
-500.0   60.0   0.0
-450.0   60.0   16.666666666666668
-500.0   30.0   16.666666666666668
-500.0   60.0   16.666666666666668
-450.0   60.0   16.666666666666668
-500.0   60.0   0.0
-500.0   30.0   16.666666666666668
-450.0   60.0   16.666666666666668
-450.0   30.0   16.666666666666668
-450.0   30.0   0.0
-500.0   30.0   16.666666666666668
-450.0   60.0   16.666666666666668
-450.0   30.0   0.0
-500.0   60.0   0.0
-500.0   30.0   16.666666666666668
-450.0   30.0   16.666666666666668
-500.0   60.0   16.666666666666668
-500.0   30.0   33.333333333333336
-450.0   30.0   16.666666666666668
-450.0   60.0   16.666666666666668
-500.0   60.0   16.666666666666668
-450.0   60.0   33.333333333333336
-500.0   30.0   33.333333333333336
-500.0   60.0   33.333333333333336
-450.0   60.0   33.333333333333336
-500.0   60.0   16.666666666666668
-500.0   30.0   33.333333333333336
-450.0   60.0   33.333333333333336
-450.0   30.0   33.333333333333336
-450.0   30.0   16.666666666666668
-500.0   30.0   33.333333333333336
-450.0   60.0   33.333333333333336
-450.0   30.0   16.666666666666668
-500.0   60.0   16.666666666666668
-500.0   30.0   33.333333333333336
-450.0   30.0   33.333333333333336
-500.0   60.0   33.333333333333336
-500.0   30.0   50.0
-450.0   30.0   33.333333333333336
-450.0   60.0   33.333333333333336
-500.0   60.0   33.333333333333336
-450.0   60.0   50.0
-500.0   30.0   50.0
-500.0   60.0   50.0
-450.0   60.0   50.0
-500.0   60.0   33.333333333333336
-500.0   30.0   50.0
-450.0   60.0   50.0
-450.0   30.0   50.0
-450.0   30.0   33.333333333333336
-500.0   30.0   50.0
-450.0   60.0   50.0
-450.0   30.0   33.333333333333336
-500.0   60.0   33.333333333333336
-500.0   60.0   0.0
-450.0   60.0   0.0
-500.0   90.0   0.0
-500.0   60.0   16.666666666666668
-450.0   60.0   0.0
-450.0   90.0   0.0
-500.0   90.0   0.0
-450.0   90.0   16.666666666666668
-500.0   60.0   16.666666666666668
-500.0   90.0   16.666666666666668
-450.0   90.0   16.666666666666668
-500.0   90.0   0.0
-500.0   60.0   16.666666666666668
-450.0   90.0   16.666666666666668
-450.0   60.0   16.666666666666668
-450.0   60.0   0.0
-500.0   60.0   16.666666666666668
-450.0   90.0   16.666666666666668
-450.0   60.0   0.0
-500.0   90.0   0.0
-500.0   60.0   16.666666666666668
-450.0   60.0   16.666666666666668
-500.0   90.0   16.666666666666668
-500.0   60.0   33.333333333333336
-450.0   60.0   16.666666666666668
-450.0   90.0   16.666666666666668
-500.0   90.0   16.666666666666668
-450.0   90.0   33.333333333333336
-500.0   60.0   33.333333333333336
-500.0   90.0   33.333333333333336
-450.0   90.0   33.333333333333336
-500.0   90.0   16.666666666666668
-500.0   60.0   33.333333333333336
-450.0   90.0   33.333333333333336
-450.0   60.0   33.333333333333336
-450.0   60.0   16.666666666666668
-500.0   60.0   33.333333333333336
-450.0   90.0   33.333333333333336
-450.0   60.0   16.666666666666668
-500.0   90.0   16.666666666666668
-500.0   60.0   33.333333333333336
-450.0   60.0   33.333333333333336
-500.0   90.0   33.333333333333336
-500.0   60.0   50.0
-450.0   60.0   33.333333333333336
-450.0   90.0   33.333333333333336
-500.0   90.0   33.333333333333336
-450.0   90.0   50.0
-500.0   60.0   50.0
-500.0   90.0   50.0
-450.0   90.0   50.0
-500.0   90.0   33.333333333333336
-500.0   60.0   50.0
-450.0   90.0   50.0
-450.0   60.0   50.0
-450.0   60.0   33.333333333333336
-500.0   60.0   50.0
-450.0   90.0   50.0
-450.0   60.0   33.333333333333336
-500.0   90.0   33.333333333333336
-500.0   90.0   0.0
-450.0   90.0   0.0
-500.0   120.0   0.0
-500.0   90.0   16.666666666666668
-450.0   90.0   0.0
-450.0   120.0   0.0
-500.0   120.0   0.0
-450.0   120.0   16.666666666666668
-500.0   90.0   16.666666666666668
-500.0   120.0   16.666666666666668
-450.0   120.0   16.666666666666668
-500.0   120.0   0.0
-500.0   90.0   16.666666666666668
-450.0   120.0   16.666666666666668
-450.0   90.0   16.666666666666668
-450.0   90.0   0.0
-500.0   90.0   16.666666666666668
-450.0   120.0   16.666666666666668
-450.0   90.0   0.0
-500.0   120.0   0.0
-500.0   90.0   16.666666666666668
-450.0   90.0   16.666666666666668
-500.0   120.0   16.666666666666668
-500.0   90.0   33.333333333333336
-450.0   90.0   16.666666666666668
-450.0   120.0   16.666666666666668
-500.0   120.0   16.666666666666668
-450.0   120.0   33.333333333333336
-500.0   90.0   33.333333333333336
-500.0   120.0   33.333333333333336
-450.0   120.0   33.333333333333336
-500.0   120.0   16.666666666666668
-500.0   90.0   33.333333333333336
-450.0   120.0   33.333333333333336
-450.0   90.0   33.333333333333336
-450.0   90.0   16.666666666666668
-500.0   90.0   33.333333333333336
-450.0   120.0   33.333333333333336
-450.0   90.0   16.666666666666668
-500.0   120.0   16.666666666666668
-500.0   90.0   33.333333333333336
-450.0   90.0   33.333333333333336
-500.0   120.0   33.333333333333336
-500.0   90.0   50.0
-450.0   90.0   33.333333333333336
-450.0   120.0   33.333333333333336
-500.0   120.0   33.333333333333336
-450.0   120.0   50.0
-500.0   90.0   50.0
-500.0   120.0   50.0
-450.0   120.0   50.0
-500.0   120.0   33.333333333333336
-500.0   90.0   50.0
-450.0   120.0   50.0
-450.0   90.0   50.0
-450.0   90.0   33.333333333333336
-500.0   90.0   50.0
-450.0   120.0   50.0
-450.0   90.0   33.333333333333336
-500.0   120.0   33.333333333333336
-500.0   120.0   0.0
-450.0   120.0   0.0
-500.0   150.0   0.0
-500.0   120.0   16.666666666666668
-450.0   120.0   0.0
-450.0   150.0   0.0
-500.0   150.0   0.0
-450.0   150.0   16.666666666666668
-500.0   120.0   16.666666666666668
-500.0   150.0   16.666666666666668
-450.0   150.0   16.666666666666668
-500.0   150.0   0.0
-500.0   120.0   16.666666666666668
-450.0   150.0   16.666666666666668
-450.0   120.0   16.666666666666668
-450.0   120.0   0.0
-500.0   120.0   16.666666666666668
-450.0   150.0   16.666666666666668
-450.0   120.0   0.0
-500.0   150.0   0.0
-500.0   120.0   16.666666666666668
-450.0   120.0   16.666666666666668
-500.0   150.0   16.666666666666668
-500.0   120.0   33.333333333333336
-450.0   120.0   16.666666666666668
-450.0   150.0   16.666666666666668
-500.0   150.0   16.666666666666668
-450.0   150.0   33.333333333333336
-500.0   120.0   33.333333333333336
-500.0   150.0   33.333333333333336
-450.0   150.0   33.333333333333336
-500.0   150.0   16.666666666666668
-500.0   120.0   33.333333333333336
-450.0   150.0   33.333333333333336
-450.0   120.0   33.333333333333336
-450.0   120.0   16.666666666666668
-500.0   120.0   33.333333333333336
-450.0   150.0   33.333333333333336
-450.0   120.0   16.666666666666668
-500.0   150.0   16.666666666666668
-500.0   120.0   33.333333333333336
-450.0   120.0   33.333333333333336
-500.0   150.0   33.333333333333336
-500.0   120.0   50.0
-450.0   120.0   33.333333333333336
-450.0   150.0   33.333333333333336
-500.0   150.0   33.333333333333336
-450.0   150.0   50.0
-500.0   120.0   50.0
-500.0   150.0   50.0
-450.0   150.0   50.0
-500.0   150.0   33.333333333333336
-500.0   120.0   50.0
-450.0   150.0   50.0
-450.0   120.0   50.0
-450.0   120.0   33.333333333333336
-500.0   120.0   50.0
-450.0   150.0   50.0
-450.0   120.0   33.333333333333336
-500.0   150.0   33.333333333333336
-450.0   0.0   0.0
-400.0   0.0   0.0
-450.0   30.0   0.0
-450.0   0.0   16.666666666666668
-400.0   0.0   0.0
-400.0   30.0   0.0
-450.0   30.0   0.0
-400.0   30.0   16.666666666666668
-450.0   0.0   16.666666666666668
-450.0   30.0   16.666666666666668
-400.0   30.0   16.666666666666668
-450.0   30.0   0.0
-450.0   0.0   16.666666666666668
-400.0   30.0   16.666666666666668
-400.0   0.0   16.666666666666668
-400.0   0.0   0.0
-450.0   0.0   16.666666666666668
-400.0   30.0   16.666666666666668
-400.0   0.0   0.0
-450.0   30.0   0.0
-450.0   0.0   16.666666666666668
-400.0   0.0   16.666666666666668
-450.0   30.0   16.666666666666668
-450.0   0.0   33.333333333333336
-400.0   0.0   16.666666666666668
-400.0   30.0   16.666666666666668
-450.0   30.0   16.666666666666668
-400.0   30.0   33.333333333333336
-450.0   0.0   33.333333333333336
-450.0   30.0   33.333333333333336
-400.0   30.0   33.333333333333336
-450.0   30.0   16.666666666666668
-450.0   0.0   33.333333333333336
-400.0   30.0   33.333333333333336
-400.0   0.0   33.333333333333336
-400.0   0.0   16.666666666666668
-450.0   0.0   33.333333333333336
-400.0   30.0   33.333333333333336
-400.0   0.0   16.666666666666668
-450.0   30.0   16.666666666666668
-450.0   0.0   33.333333333333336
-400.0   0.0   33.333333333333336
-450.0   30.0   33.333333333333336
-450.0   0.0   50.0
-400.0   0.0   33.333333333333336
-400.0   30.0   33.333333333333336
-450.0   30.0   33.333333333333336
-400.0   30.0   50.0
-450.0   0.0   50.0
-450.0   30.0   50.0
-400.0   30.0   50.0
-450.0   30.0   33.333333333333336
-450.0   0.0   50.0
-400.0   30.0   50.0
-400.0   0.0   50.0
-400.0   0.0   33.333333333333336
-450.0   0.0   50.0
-400.0   30.0   50.0
-400.0   0.0   33.333333333333336
-450.0   30.0   33.333333333333336
-450.0   30.0   0.0
-400.0   30.0   0.0
-450.0   60.0   0.0
-450.0   30.0   16.666666666666668
-400.0   30.0   0.0
-400.0   60.0   0.0
-450.0   60.0   0.0
-400.0   60.0   16.666666666666668
-450.0   30.0   16.666666666666668
-450.0   60.0   16.666666666666668
-400.0   60.0   16.666666666666668
-450.0   60.0   0.0
-450.0   30.0   16.666666666666668
-400.0   60.0   16.666666666666668
-400.0   30.0   16.666666666666668
-400.0   30.0   0.0
-450.0   30.0   16.666666666666668
-400.0   60.0   16.666666666666668
-400.0   30.0   0.0
-450.0   60.0   0.0
-450.0   30.0   16.666666666666668
-400.0   30.0   16.666666666666668
-450.0   60.0   16.666666666666668
-450.0   30.0   33.333333333333336
-400.0   30.0   16.666666666666668
-400.0   60.0   16.666666666666668
-450.0   60.0   16.666666666666668
-400.0   60.0   33.333333333333336
-450.0   30.0   33.333333333333336
-450.0   60.0   33.333333333333336
-400.0   60.0   33.333333333333336
-450.0   60.0   16.666666666666668
-450.0   30.0   33.333333333333336
-400.0   60.0   33.333333333333336
-400.0   30.0   33.333333333333336
-400.0   30.0   16.666666666666668
-450.0   30.0   33.333333333333336
-400.0   60.0   33.333333333333336
-400.0   30.0   16.666666666666668
-450.0   60.0   16.666666666666668
-450.0   30.0   33.333333333333336
-400.0   30.0   33.333333333333336
-450.0   60.0   33.333333333333336
-450.0   30.0   50.0
-400.0   30.0   33.333333333333336
-400.0   60.0   33.333333333333336
-450.0   60.0   33.333333333333336
-400.0   60.0   50.0
-450.0   30.0   50.0
-450.0   60.0   50.0
-400.0   60.0   50.0
-450.0   60.0   33.333333333333336
-450.0   30.0   50.0
-400.0   60.0   50.0
-400.0   30.0   50.0
-400.0   30.0   33.333333333333336
-450.0   30.0   50.0
-400.0   60.0   50.0
-400.0   30.0   33.333333333333336
-450.0   60.0   33.333333333333336
-450.0   60.0   0.0
-400.0   60.0   0.0
-450.0   90.0   0.0
-450.0   60.0   16.666666666666668
-400.0   60.0   0.0
-400.0   90.0   0.0
-450.0   90.0   0.0
-400.0   90.0   16.666666666666668
-450.0   60.0   16.666666666666668
-450.0   90.0   16.666666666666668
-400.0   90.0   16.666666666666668
-450.0   90.0   0.0
-450.0   60.0   16.666666666666668
-400.0   90.0   16.666666666666668
-400.0   60.0   16.666666666666668
-400.0   60.0   0.0
-450.0   60.0   16.666666666666668
-400.0   90.0   16.666666666666668
-400.0   60.0   0.0
-450.0   90.0   0.0
-450.0   60.0   16.666666666666668
-400.0   60.0   16.666666666666668
-450.0   90.0   16.666666666666668
-450.0   60.0   33.333333333333336
-400.0   60.0   16.666666666666668
-400.0   90.0   16.666666666666668
-450.0   90.0   16.666666666666668
-400.0   90.0   33.333333333333336
-450.0   60.0   33.333333333333336
-450.0   90.0   33.333333333333336
-400.0   90.0   33.333333333333336
-450.0   90.0   16.666666666666668
-450.0   60.0   33.333333333333336
-400.0   90.0   33.333333333333336
-400.0   60.0   33.333333333333336
-400.0   60.0   16.666666666666668
-450.0   60.0   33.333333333333336
-400.0   90.0   33.333333333333336
-400.0   60.0   16.666666666666668
-450.0   90.0   16.666666666666668
-450.0   60.0   33.333333333333336
-400.0   60.0   33.333333333333336
-450.0   90.0   33.333333333333336
-450.0   60.0   50.0
-400.0   60.0   33.333333333333336
-400.0   90.0   33.333333333333336
-450.0   90.0   33.333333333333336
-400.0   90.0   50.0
-450.0   60.0   50.0
-450.0   90.0   50.0
-400.0   90.0   50.0
-450.0   90.0   33.333333333333336
-450.0   60.0   50.0
-400.0   90.0   50.0
-400.0   60.0   50.0
-400.0   60.0   33.333333333333336
-450.0   60.0   50.0
-400.0   90.0   50.0
-400.0   60.0   33.333333333333336
-450.0   90.0   33.333333333333336
-450.0   90.0   0.0
-400.0   90.0   0.0
-450.0   120.0   0.0
-450.0   90.0   16.666666666666668
-400.0   90.0   0.0
-400.0   120.0   0.0
-450.0   120.0   0.0
-400.0   120.0   16.666666666666668
-450.0   90.0   16.666666666666668
-450.0   120.0   16.666666666666668
-400.0   120.0   16.666666666666668
-450.0   120.0   0.0
-450.0   90.0   16.666666666666668
-400.0   120.0   16.666666666666668
-400.0   90.0   16.666666666666668
-400.0   90.0   0.0
-450.0   90.0   16.666666666666668
-400.0   120.0   16.666666666666668
-400.0   90.0   0.0
-450.0   120.0   0.0
-450.0   90.0   16.666666666666668
-400.0   90.0   16.666666666666668
-450.0   120.0   16.666666666666668
-450.0   90.0   33.333333333333336
-400.0   90.0   16.666666666666668
-400.0   120.0   16.666666666666668
-450.0   120.0   16.666666666666668
-400.0   120.0   33.333333333333336
-450.0   90.0   33.333333333333336
-450.0   120.0   33.333333333333336
-400.0   120.0   33.333333333333336
-450.0   120.0   16.666666666666668
-450.0   90.0   33.333333333333336
-400.0   120.0   33.333333333333336
-400.0   90.0   33.333333333333336
-400.0   90.0   16.666666666666668
-450.0   90.0   33.333333333333336
-400.0   120.0   33.333333333333336
-400.0   90.0   16.666666666666668
-450.0   120.0   16.666666666666668
-450.0   90.0   33.333333333333336
-400.0   90.0   33.333333333333336
-450.0   120.0   33.333333333333336
-450.0   90.0   50.0
-400.0   90.0   33.333333333333336
-400.0   120.0   33.333333333333336
-450.0   120.0   33.333333333333336
-400.0   120.0   50.0
-450.0   90.0   50.0
-450.0   120.0   50.0
-400.0   120.0   50.0
-450.0   120.0   33.333333333333336
-450.0   90.0   50.0
-400.0   120.0   50.0
-400.0   90.0   50.0
-400.0   90.0   33.333333333333336
-450.0   90.0   50.0
-400.0   120.0   50.0
-400.0   90.0   33.333333333333336
-450.0   120.0   33.333333333333336
-450.0   120.0   0.0
-400.0   120.0   0.0
-450.0   150.0   0.0
-450.0   120.0   16.666666666666668
-400.0   120.0   0.0
-400.0   150.0   0.0
-450.0   150.0   0.0
-400.0   150.0   16.666666666666668
-450.0   120.0   16.666666666666668
-450.0   150.0   16.666666666666668
-400.0   150.0   16.666666666666668
-450.0   150.0   0.0
-450.0   120.0   16.666666666666668
-400.0   150.0   16.666666666666668
-400.0   120.0   16.666666666666668
-400.0   120.0   0.0
-450.0   120.0   16.666666666666668
-400.0   150.0   16.666666666666668
-400.0   120.0   0.0
-450.0   150.0   0.0
-450.0   120.0   16.666666666666668
-400.0   120.0   16.666666666666668
-450.0   150.0   16.666666666666668
-450.0   120.0   33.333333333333336
-400.0   120.0   16.666666666666668
-400.0   150.0   16.666666666666668
-450.0   150.0   16.666666666666668
-400.0   150.0   33.333333333333336
-450.0   120.0   33.333333333333336
-450.0   150.0   33.333333333333336
-400.0   150.0   33.333333333333336
-450.0   150.0   16.666666666666668
-450.0   120.0   33.333333333333336
-400.0   150.0   33.333333333333336
-400.0   120.0   33.333333333333336
-400.0   120.0   16.666666666666668
-450.0   120.0   33.333333333333336
-400.0   150.0   33.333333333333336
-400.0   120.0   16.666666666666668
-450.0   150.0   16.666666666666668
-450.0   120.0   33.333333333333336
-400.0   120.0   33.333333333333336
-450.0   150.0   33.333333333333336
-450.0   120.0   50.0
-400.0   120.0   33.333333333333336
-400.0   150.0   33.333333333333336
-450.0   150.0   33.333333333333336
-400.0   150.0   50.0
-450.0   120.0   50.0
-450.0   150.0   50.0
-400.0   150.0   50.0
-450.0   150.0   33.333333333333336
-450.0   120.0   50.0
-400.0   150.0   50.0
-400.0   120.0   50.0
-400.0   120.0   33.333333333333336
-450.0   120.0   50.0
-400.0   150.0   50.0
-400.0   120.0   33.333333333333336
-450.0   150.0   33.333333333333336
-400.0   0.0   0.0
-350.0   0.0   0.0
-400.0   30.0   0.0
-400.0   0.0   16.666666666666668
-350.0   0.0   0.0
-350.0   30.0   0.0
-400.0   30.0   0.0
-350.0   30.0   16.666666666666668
-400.0   0.0   16.666666666666668
-400.0   30.0   16.666666666666668
-350.0   30.0   16.666666666666668
-400.0   30.0   0.0
-400.0   0.0   16.666666666666668
-350.0   30.0   16.666666666666668
-350.0   0.0   16.666666666666668
-350.0   0.0   0.0
-400.0   0.0   16.666666666666668
-350.0   30.0   16.666666666666668
-350.0   0.0   0.0
-400.0   30.0   0.0
-400.0   0.0   16.666666666666668
-350.0   0.0   16.666666666666668
-400.0   30.0   16.666666666666668
-400.0   0.0   33.333333333333336
-350.0   0.0   16.666666666666668
-350.0   30.0   16.666666666666668
-400.0   30.0   16.666666666666668
-350.0   30.0   33.333333333333336
-400.0   0.0   33.333333333333336
-400.0   30.0   33.333333333333336
-350.0   30.0   33.333333333333336
-400.0   30.0   16.666666666666668
-400.0   0.0   33.333333333333336
-350.0   30.0   33.333333333333336
-350.0   0.0   33.333333333333336
-350.0   0.0   16.666666666666668
-400.0   0.0   33.333333333333336
-350.0   30.0   33.333333333333336
-350.0   0.0   16.666666666666668
-400.0   30.0   16.666666666666668
-400.0   0.0   33.333333333333336
-350.0   0.0   33.333333333333336
-400.0   30.0   33.333333333333336
-400.0   0.0   50.0
-350.0   0.0   33.333333333333336
-350.0   30.0   33.333333333333336
-400.0   30.0   33.333333333333336
-350.0   30.0   50.0
-400.0   0.0   50.0
-400.0   30.0   50.0
-350.0   30.0   50.0
-400.0   30.0   33.333333333333336
-400.0   0.0   50.0
-350.0   30.0   50.0
-350.0   0.0   50.0
-350.0   0.0   33.333333333333336
-400.0   0.0   50.0
-350.0   30.0   50.0
-350.0   0.0   33.333333333333336
-400.0   30.0   33.333333333333336
-400.0   30.0   0.0
-350.0   30.0   0.0
-400.0   60.0   0.0
-400.0   30.0   16.666666666666668
-350.0   30.0   0.0
-350.0   60.0   0.0
-400.0   60.0   0.0
-350.0   60.0   16.666666666666668
-400.0   30.0   16.666666666666668
-400.0   60.0   16.666666666666668
-350.0   60.0   16.666666666666668
-400.0   60.0   0.0
-400.0   30.0   16.666666666666668
-350.0   60.0   16.666666666666668
-350.0   30.0   16.666666666666668
-350.0   30.0   0.0
-400.0   30.0   16.666666666666668
-350.0   60.0   16.666666666666668
-350.0   30.0   0.0
-400.0   60.0   0.0
-400.0   30.0   16.666666666666668
-350.0   30.0   16.666666666666668
-400.0   60.0   16.666666666666668
-400.0   30.0   33.333333333333336
-350.0   30.0   16.666666666666668
-350.0   60.0   16.666666666666668
-400.0   60.0   16.666666666666668
-350.0   60.0   33.333333333333336
-400.0   30.0   33.333333333333336
-400.0   60.0   33.333333333333336
-350.0   60.0   33.333333333333336
-400.0   60.0   16.666666666666668
-400.0   30.0   33.333333333333336
-350.0   60.0   33.333333333333336
-350.0   30.0   33.333333333333336
-350.0   30.0   16.666666666666668
-400.0   30.0   33.333333333333336
-350.0   60.0   33.333333333333336
-350.0   30.0   16.666666666666668
-400.0   60.0   16.666666666666668
-400.0   30.0   33.333333333333336
-350.0   30.0   33.333333333333336
-400.0   60.0   33.333333333333336
-400.0   30.0   50.0
-350.0   30.0   33.333333333333336
-350.0   60.0   33.333333333333336
-400.0   60.0   33.333333333333336
-350.0   60.0   50.0
-400.0   30.0   50.0
-400.0   60.0   50.0
-350.0   60.0   50.0
-400.0   60.0   33.333333333333336
-400.0   30.0   50.0
-350.0   60.0   50.0
-350.0   30.0   50.0
-350.0   30.0   33.333333333333336
-400.0   30.0   50.0
-350.0   60.0   50.0
-350.0   30.0   33.333333333333336
-400.0   60.0   33.333333333333336
-400.0   60.0   0.0
-350.0   60.0   0.0
-400.0   90.0   0.0
-400.0   60.0   16.666666666666668
-350.0   60.0   0.0
-350.0   90.0   0.0
-400.0   90.0   0.0
-350.0   90.0   16.666666666666668
-400.0   60.0   16.666666666666668
-400.0   90.0   16.666666666666668
-350.0   90.0   16.666666666666668
-400.0   90.0   0.0
-400.0   60.0   16.666666666666668
-350.0   90.0   16.666666666666668
-350.0   60.0   16.666666666666668
-350.0   60.0   0.0
-400.0   60.0   16.666666666666668
-350.0   90.0   16.666666666666668
-350.0   60.0   0.0
-400.0   90.0   0.0
-400.0   60.0   16.666666666666668
-350.0   60.0   16.666666666666668
-400.0   90.0   16.666666666666668
-400.0   60.0   33.333333333333336
-350.0   60.0   16.666666666666668
-350.0   90.0   16.666666666666668
-400.0   90.0   16.666666666666668
-350.0   90.0   33.333333333333336
-400.0   60.0   33.333333333333336
-400.0   90.0   33.333333333333336
-350.0   90.0   33.333333333333336
-400.0   90.0   16.666666666666668
-400.0   60.0   33.333333333333336
-350.0   90.0   33.333333333333336
-350.0   60.0   33.333333333333336
-350.0   60.0   16.666666666666668
-400.0   60.0   33.333333333333336
-350.0   90.0   33.333333333333336
-350.0   60.0   16.666666666666668
-400.0   90.0   16.666666666666668
-400.0   60.0   33.333333333333336
-350.0   60.0   33.333333333333336
-400.0   90.0   33.333333333333336
-400.0   60.0   50.0
-350.0   60.0   33.333333333333336
-350.0   90.0   33.333333333333336
-400.0   90.0   33.333333333333336
-350.0   90.0   50.0
-400.0   60.0   50.0
-400.0   90.0   50.0
-350.0   90.0   50.0
-400.0   90.0   33.333333333333336
-400.0   60.0   50.0
-350.0   90.0   50.0
-350.0   60.0   50.0
-350.0   60.0   33.333333333333336
-400.0   60.0   50.0
-350.0   90.0   50.0
-350.0   60.0   33.333333333333336
-400.0   90.0   33.333333333333336
-400.0   90.0   0.0
-350.0   90.0   0.0
-400.0   120.0   0.0
-400.0   90.0   16.666666666666668
-350.0   90.0   0.0
-350.0   120.0   0.0
-400.0   120.0   0.0
-350.0   120.0   16.666666666666668
-400.0   90.0   16.666666666666668
-400.0   120.0   16.666666666666668
-350.0   120.0   16.666666666666668
-400.0   120.0   0.0
-400.0   90.0   16.666666666666668
-350.0   120.0   16.666666666666668
-350.0   90.0   16.666666666666668
-350.0   90.0   0.0
-400.0   90.0   16.666666666666668
-350.0   120.0   16.666666666666668
-350.0   90.0   0.0
-400.0   120.0   0.0
-400.0   90.0   16.666666666666668
-350.0   90.0   16.666666666666668
-400.0   120.0   16.666666666666668
-400.0   90.0   33.333333333333336
-350.0   90.0   16.666666666666668
-350.0   120.0   16.666666666666668
-400.0   120.0   16.666666666666668
-350.0   120.0   33.333333333333336
-400.0   90.0   33.333333333333336
-400.0   120.0   33.333333333333336
-350.0   120.0   33.333333333333336
-400.0   120.0   16.666666666666668
-400.0   90.0   33.333333333333336
-350.0   120.0   33.333333333333336
-350.0   90.0   33.333333333333336
-350.0   90.0   16.666666666666668
-400.0   90.0   33.333333333333336
-350.0   120.0   33.333333333333336
-350.0   90.0   16.666666666666668
-400.0   120.0   16.666666666666668
-400.0   90.0   33.333333333333336
-350.0   90.0   33.333333333333336
-400.0   120.0   33.333333333333336
-400.0   90.0   50.0
-350.0   90.0   33.333333333333336
-350.0   120.0   33.333333333333336
-400.0   120.0   33.333333333333336
-350.0   120.0   50.0
-400.0   90.0   50.0
-400.0   120.0   50.0
-350.0   120.0   50.0
-400.0   120.0   33.333333333333336
-400.0   90.0   50.0
-350.0   120.0   50.0
-350.0   90.0   50.0
-350.0   90.0   33.333333333333336
-400.0   90.0   50.0
-350.0   120.0   50.0
-350.0   90.0   33.333333333333336
-400.0   120.0   33.333333333333336
-400.0   120.0   0.0
-350.0   120.0   0.0
-400.0   150.0   0.0
-400.0   120.0   16.666666666666668
-350.0   120.0   0.0
-350.0   150.0   0.0
-400.0   150.0   0.0
-350.0   150.0   16.666666666666668
-400.0   120.0   16.666666666666668
-400.0   150.0   16.666666666666668
-350.0   150.0   16.666666666666668
-400.0   150.0   0.0
-400.0   120.0   16.666666666666668
-350.0   150.0   16.666666666666668
-350.0   120.0   16.666666666666668
-350.0   120.0   0.0
-400.0   120.0   16.666666666666668
-350.0   150.0   16.666666666666668
-350.0   120.0   0.0
-400.0   150.0   0.0
-400.0   120.0   16.666666666666668
-350.0   120.0   16.666666666666668
-400.0   150.0   16.666666666666668
-400.0   120.0   33.333333333333336
-350.0   120.0   16.666666666666668
-350.0   150.0   16.666666666666668
-400.0   150.0   16.666666666666668
-350.0   150.0   33.333333333333336
-400.0   120.0   33.333333333333336
-400.0   150.0   33.333333333333336
-350.0   150.0   33.333333333333336
-400.0   150.0   16.666666666666668
-400.0   120.0   33.333333333333336
-350.0   150.0   33.333333333333336
-350.0   120.0   33.333333333333336
-350.0   120.0   16.666666666666668
-400.0   120.0   33.333333333333336
-350.0   150.0   33.333333333333336
-350.0   120.0   16.666666666666668
-400.0   150.0   16.666666666666668
-400.0   120.0   33.333333333333336
-350.0   120.0   33.333333333333336
-400.0   150.0   33.333333333333336
-400.0   120.0   50.0
-350.0   120.0   33.333333333333336
-350.0   150.0   33.333333333333336
-400.0   150.0   33.333333333333336
-350.0   150.0   50.0
-400.0   120.0   50.0
-400.0   150.0   50.0
-350.0   150.0   50.0
-400.0   150.0   33.333333333333336
-400.0   120.0   50.0
-350.0   150.0   50.0
-350.0   120.0   50.0
-350.0   120.0   33.333333333333336
-400.0   120.0   50.0
-350.0   150.0   50.0
-350.0   120.0   33.333333333333336
-400.0   150.0   33.333333333333336
-350.0   0.0   0.0
-300.0   0.0   0.0
-350.0   30.0   0.0
-350.0   0.0   16.666666666666668
-300.0   0.0   0.0
-300.0   30.0   0.0
-350.0   30.0   0.0
-300.0   30.0   16.666666666666668
-350.0   0.0   16.666666666666668
-350.0   30.0   16.666666666666668
-300.0   30.0   16.666666666666668
-350.0   30.0   0.0
-350.0   0.0   16.666666666666668
-300.0   30.0   16.666666666666668
-300.0   0.0   16.666666666666668
-300.0   0.0   0.0
-350.0   0.0   16.666666666666668
-300.0   30.0   16.666666666666668
-300.0   0.0   0.0
-350.0   30.0   0.0
-350.0   0.0   16.666666666666668
-300.0   0.0   16.666666666666668
-350.0   30.0   16.666666666666668
-350.0   0.0   33.333333333333336
-300.0   0.0   16.666666666666668
-300.0   30.0   16.666666666666668
-350.0   30.0   16.666666666666668
-300.0   30.0   33.333333333333336
-350.0   0.0   33.333333333333336
-350.0   30.0   33.333333333333336
-300.0   30.0   33.333333333333336
-350.0   30.0   16.666666666666668
-350.0   0.0   33.333333333333336
-300.0   30.0   33.333333333333336
-300.0   0.0   33.333333333333336
-300.0   0.0   16.666666666666668
-350.0   0.0   33.333333333333336
-300.0   30.0   33.333333333333336
-300.0   0.0   16.666666666666668
-350.0   30.0   16.666666666666668
-350.0   0.0   33.333333333333336
-300.0   0.0   33.333333333333336
-350.0   30.0   33.333333333333336
-350.0   0.0   50.0
-300.0   0.0   33.333333333333336
-300.0   30.0   33.333333333333336
-350.0   30.0   33.333333333333336
-300.0   30.0   50.0
-350.0   0.0   50.0
-350.0   30.0   50.0
-300.0   30.0   50.0
-350.0   30.0   33.333333333333336
-350.0   0.0   50.0
-300.0   30.0   50.0
-300.0   0.0   50.0
-300.0   0.0   33.333333333333336
-350.0   0.0   50.0
-300.0   30.0   50.0
-300.0   0.0   33.333333333333336
-350.0   30.0   33.333333333333336
-350.0   30.0   0.0
-300.0   30.0   0.0
-350.0   60.0   0.0
-350.0   30.0   16.666666666666668
-300.0   30.0   0.0
-300.0   60.0   0.0
-350.0   60.0   0.0
-300.0   60.0   16.666666666666668
-350.0   30.0   16.666666666666668
-350.0   60.0   16.666666666666668
-300.0   60.0   16.666666666666668
-350.0   60.0   0.0
-350.0   30.0   16.666666666666668
-300.0   60.0   16.666666666666668
-300.0   30.0   16.666666666666668
-300.0   30.0   0.0
-350.0   30.0   16.666666666666668
-300.0   60.0   16.666666666666668
-300.0   30.0   0.0
-350.0   60.0   0.0
-350.0   30.0   16.666666666666668
-300.0   30.0   16.666666666666668
-350.0   60.0   16.666666666666668
-350.0   30.0   33.333333333333336
-300.0   30.0   16.666666666666668
-300.0   60.0   16.666666666666668
-350.0   60.0   16.666666666666668
-300.0   60.0   33.333333333333336
-350.0   30.0   33.333333333333336
-350.0   60.0   33.333333333333336
-300.0   60.0   33.333333333333336
-350.0   60.0   16.666666666666668
-350.0   30.0   33.333333333333336
-300.0   60.0   33.333333333333336
-300.0   30.0   33.333333333333336
-300.0   30.0   16.666666666666668
-350.0   30.0   33.333333333333336
-300.0   60.0   33.333333333333336
-300.0   30.0   16.666666666666668
-350.0   60.0   16.666666666666668
-350.0   30.0   33.333333333333336
-300.0   30.0   33.333333333333336
-350.0   60.0   33.333333333333336
-350.0   30.0   50.0
-300.0   30.0   33.333333333333336
-300.0   60.0   33.333333333333336
-350.0   60.0   33.333333333333336
-300.0   60.0   50.0
-350.0   30.0   50.0
-350.0   60.0   50.0
-300.0   60.0   50.0
-350.0   60.0   33.333333333333336
-350.0   30.0   50.0
-300.0   60.0   50.0
-300.0   30.0   50.0
-300.0   30.0   33.333333333333336
-350.0   30.0   50.0
-300.0   60.0   50.0
-300.0   30.0   33.333333333333336
-350.0   60.0   33.333333333333336
-350.0   60.0   0.0
-300.0   60.0   0.0
-350.0   90.0   0.0
-350.0   60.0   16.666666666666668
-300.0   60.0   0.0
-300.0   90.0   0.0
-350.0   90.0   0.0
-300.0   90.0   16.666666666666668
-350.0   60.0   16.666666666666668
-350.0   90.0   16.666666666666668
-300.0   90.0   16.666666666666668
-350.0   90.0   0.0
-350.0   60.0   16.666666666666668
-300.0   90.0   16.666666666666668
-300.0   60.0   16.666666666666668
-300.0   60.0   0.0
-350.0   60.0   16.666666666666668
-300.0   90.0   16.666666666666668
-300.0   60.0   0.0
-350.0   90.0   0.0
-350.0   60.0   16.666666666666668
-300.0   60.0   16.666666666666668
-350.0   90.0   16.666666666666668
-350.0   60.0   33.333333333333336
-300.0   60.0   16.666666666666668
-300.0   90.0   16.666666666666668
-350.0   90.0   16.666666666666668
-300.0   90.0   33.333333333333336
-350.0   60.0   33.333333333333336
-350.0   90.0   33.333333333333336
-300.0   90.0   33.333333333333336
-350.0   90.0   16.666666666666668
-350.0   60.0   33.333333333333336
-300.0   90.0   33.333333333333336
-300.0   60.0   33.333333333333336
-300.0   60.0   16.666666666666668
-350.0   60.0   33.333333333333336
-300.0   90.0   33.333333333333336
-300.0   60.0   16.666666666666668
-350.0   90.0   16.666666666666668
-350.0   60.0   33.333333333333336
-300.0   60.0   33.333333333333336
-350.0   90.0   33.333333333333336
-350.0   60.0   50.0
-300.0   60.0   33.333333333333336
-300.0   90.0   33.333333333333336
-350.0   90.0   33.333333333333336
-300.0   90.0   50.0
-350.0   60.0   50.0
-350.0   90.0   50.0
-300.0   90.0   50.0
-350.0   90.0   33.333333333333336
-350.0   60.0   50.0
-300.0   90.0   50.0
-300.0   60.0   50.0
-300.0   60.0   33.333333333333336
-350.0   60.0   50.0
-300.0   90.0   50.0
-300.0   60.0   33.333333333333336
-350.0   90.0   33.333333333333336
-350.0   90.0   0.0
-300.0   90.0   0.0
-350.0   120.0   0.0
-350.0   90.0   16.666666666666668
-300.0   90.0   0.0
-300.0   120.0   0.0
-350.0   120.0   0.0
-300.0   120.0   16.666666666666668
-350.0   90.0   16.666666666666668
-350.0   120.0   16.666666666666668
-300.0   120.0   16.666666666666668
-350.0   120.0   0.0
-350.0   90.0   16.666666666666668
-300.0   120.0   16.666666666666668
-300.0   90.0   16.666666666666668
-300.0   90.0   0.0
-350.0   90.0   16.666666666666668
-300.0   120.0   16.666666666666668
-300.0   90.0   0.0
-350.0   120.0   0.0
-350.0   90.0   16.666666666666668
-300.0   90.0   16.666666666666668
-350.0   120.0   16.666666666666668
-350.0   90.0   33.333333333333336
-300.0   90.0   16.666666666666668
-300.0   120.0   16.666666666666668
-350.0   120.0   16.666666666666668
-300.0   120.0   33.333333333333336
-350.0   90.0   33.333333333333336
-350.0   120.0   33.333333333333336
-300.0   120.0   33.333333333333336
-350.0   120.0   16.666666666666668
-350.0   90.0   33.333333333333336
-300.0   120.0   33.333333333333336
-300.0   90.0   33.333333333333336
-300.0   90.0   16.666666666666668
-350.0   90.0   33.333333333333336
-300.0   120.0   33.333333333333336
-300.0   90.0   16.666666666666668
-350.0   120.0   16.666666666666668
-350.0   90.0   33.333333333333336
-300.0   90.0   33.333333333333336
-350.0   120.0   33.333333333333336
-350.0   90.0   50.0
-300.0   90.0   33.333333333333336
-300.0   120.0   33.333333333333336
-350.0   120.0   33.333333333333336
-300.0   120.0   50.0
-350.0   90.0   50.0
-350.0   120.0   50.0
-300.0   120.0   50.0
-350.0   120.0   33.333333333333336
-350.0   90.0   50.0
-300.0   120.0   50.0
-300.0   90.0   50.0
-300.0   90.0   33.333333333333336
-350.0   90.0   50.0
-300.0   120.0   50.0
-300.0   90.0   33.333333333333336
-350.0   120.0   33.333333333333336
-350.0   120.0   0.0
-300.0   120.0   0.0
-350.0   150.0   0.0
-350.0   120.0   16.666666666666668
-300.0   120.0   0.0
-300.0   150.0   0.0
-350.0   150.0   0.0
-300.0   150.0   16.666666666666668
-350.0   120.0   16.666666666666668
-350.0   150.0   16.666666666666668
-300.0   150.0   16.666666666666668
-350.0   150.0   0.0
-350.0   120.0   16.666666666666668
-300.0   150.0   16.666666666666668
-300.0   120.0   16.666666666666668
-300.0   120.0   0.0
-350.0   120.0   16.666666666666668
-300.0   150.0   16.666666666666668
-300.0   120.0   0.0
-350.0   150.0   0.0
-350.0   120.0   16.666666666666668
-300.0   120.0   16.666666666666668
-350.0   150.0   16.666666666666668
-350.0   120.0   33.333333333333336
-300.0   120.0   16.666666666666668
-300.0   150.0   16.666666666666668
-350.0   150.0   16.666666666666668
-300.0   150.0   33.333333333333336
-350.0   120.0   33.333333333333336
-350.0   150.0   33.333333333333336
-300.0   150.0   33.333333333333336
-350.0   150.0   16.666666666666668
-350.0   120.0   33.333333333333336
-300.0   150.0   33.333333333333336
-300.0   120.0   33.333333333333336
-300.0   120.0   16.666666666666668
-350.0   120.0   33.333333333333336
-300.0   150.0   33.333333333333336
-300.0   120.0   16.666666666666668
-350.0   150.0   16.666666666666668
-350.0   120.0   33.333333333333336
-300.0   120.0   33.333333333333336
-350.0   150.0   33.333333333333336
-350.0   120.0   50.0
-300.0   120.0   33.333333333333336
-300.0   150.0   33.333333333333336
-350.0   150.0   33.333333333333336
-300.0   150.0   50.0
-350.0   120.0   50.0
-350.0   150.0   50.0
-300.0   150.0   50.0
-350.0   150.0   33.333333333333336
-350.0   120.0   50.0
-300.0   150.0   50.0
-300.0   120.0   50.0
-300.0   120.0   33.333333333333336
-350.0   120.0   50.0
-300.0   150.0   50.0
-300.0   120.0   33.333333333333336
-350.0   150.0   33.333333333333336
-300.0   0.0   0.0
-250.0   0.0   0.0
-300.0   30.0   0.0
-300.0   0.0   16.666666666666668
-250.0   0.0   0.0
-250.0   30.0   0.0
-300.0   30.0   0.0
-250.0   30.0   16.666666666666668
-300.0   0.0   16.666666666666668
-300.0   30.0   16.666666666666668
-250.0   30.0   16.666666666666668
-300.0   30.0   0.0
-300.0   0.0   16.666666666666668
-250.0   30.0   16.666666666666668
-250.0   0.0   16.666666666666668
-250.0   0.0   0.0
-300.0   0.0   16.666666666666668
-250.0   30.0   16.666666666666668
-250.0   0.0   0.0
-300.0   30.0   0.0
-300.0   0.0   16.666666666666668
-250.0   0.0   16.666666666666668
-300.0   30.0   16.666666666666668
-300.0   0.0   33.333333333333336
-250.0   0.0   16.666666666666668
-250.0   30.0   16.666666666666668
-300.0   30.0   16.666666666666668
-250.0   30.0   33.333333333333336
-300.0   0.0   33.333333333333336
-300.0   30.0   33.333333333333336
-250.0   30.0   33.333333333333336
-300.0   30.0   16.666666666666668
-300.0   0.0   33.333333333333336
-250.0   30.0   33.333333333333336
-250.0   0.0   33.333333333333336
-250.0   0.0   16.666666666666668
-300.0   0.0   33.333333333333336
-250.0   30.0   33.333333333333336
-250.0   0.0   16.666666666666668
-300.0   30.0   16.666666666666668
-300.0   0.0   33.333333333333336
-250.0   0.0   33.333333333333336
-300.0   30.0   33.333333333333336
-300.0   0.0   50.0
-250.0   0.0   33.333333333333336
-250.0   30.0   33.333333333333336
-300.0   30.0   33.333333333333336
-250.0   30.0   50.0
-300.0   0.0   50.0
-300.0   30.0   50.0
-250.0   30.0   50.0
-300.0   30.0   33.333333333333336
-300.0   0.0   50.0
-250.0   30.0   50.0
-250.0   0.0   50.0
-250.0   0.0   33.333333333333336
-300.0   0.0   50.0
-250.0   30.0   50.0
-250.0   0.0   33.333333333333336
-300.0   30.0   33.333333333333336
-300.0   30.0   0.0
-250.0   30.0   0.0
-300.0   60.0   0.0
-300.0   30.0   16.666666666666668
-250.0   30.0   0.0
-250.0   60.0   0.0
-300.0   60.0   0.0
-250.0   60.0   16.666666666666668
-300.0   30.0   16.666666666666668
-300.0   60.0   16.666666666666668
-250.0   60.0   16.666666666666668
-300.0   60.0   0.0
-300.0   30.0   16.666666666666668
-250.0   60.0   16.666666666666668
-250.0   30.0   16.666666666666668
-250.0   30.0   0.0
-300.0   30.0   16.666666666666668
-250.0   60.0   16.666666666666668
-250.0   30.0   0.0
-300.0   60.0   0.0
-300.0   30.0   16.666666666666668
-250.0   30.0   16.666666666666668
-300.0   60.0   16.666666666666668
-300.0   30.0   33.333333333333336
-250.0   30.0   16.666666666666668
-250.0   60.0   16.666666666666668
-300.0   60.0   16.666666666666668
-250.0   60.0   33.333333333333336
-300.0   30.0   33.333333333333336
-300.0   60.0   33.333333333333336
-250.0   60.0   33.333333333333336
-300.0   60.0   16.666666666666668
-300.0   30.0   33.333333333333336
-250.0   60.0   33.333333333333336
-250.0   30.0   33.333333333333336
-250.0   30.0   16.666666666666668
-300.0   30.0   33.333333333333336
-250.0   60.0   33.333333333333336
-250.0   30.0   16.666666666666668
-300.0   60.0   16.666666666666668
-300.0   30.0   33.333333333333336
-250.0   30.0   33.333333333333336
-300.0   60.0   33.333333333333336
-300.0   30.0   50.0
-250.0   30.0   33.333333333333336
-250.0   60.0   33.333333333333336
-300.0   60.0   33.333333333333336
-250.0   60.0   50.0
-300.0   30.0   50.0
-300.0   60.0   50.0
-250.0   60.0   50.0
-300.0   60.0   33.333333333333336
-300.0   30.0   50.0
-250.0   60.0   50.0
-250.0   30.0   50.0
-250.0   30.0   33.333333333333336
-300.0   30.0   50.0
-250.0   60.0   50.0
-250.0   30.0   33.333333333333336
-300.0   60.0   33.333333333333336
-300.0   60.0   0.0
-250.0   60.0   0.0
-300.0   90.0   0.0
-300.0   60.0   16.666666666666668
-250.0   60.0   0.0
-250.0   90.0   0.0
-300.0   90.0   0.0
-250.0   90.0   16.666666666666668
-300.0   60.0   16.666666666666668
-300.0   90.0   16.666666666666668
-250.0   90.0   16.666666666666668
-300.0   90.0   0.0
-300.0   60.0   16.666666666666668
-250.0   90.0   16.666666666666668
-250.0   60.0   16.666666666666668
-250.0   60.0   0.0
-300.0   60.0   16.666666666666668
-250.0   90.0   16.666666666666668
-250.0   60.0   0.0
-300.0   90.0   0.0
-300.0   60.0   16.666666666666668
-250.0   60.0   16.666666666666668
-300.0   90.0   16.666666666666668
-300.0   60.0   33.333333333333336
-250.0   60.0   16.666666666666668
-250.0   90.0   16.666666666666668
-300.0   90.0   16.666666666666668
-250.0   90.0   33.333333333333336
-300.0   60.0   33.333333333333336
-300.0   90.0   33.333333333333336
-250.0   90.0   33.333333333333336
-300.0   90.0   16.666666666666668
-300.0   60.0   33.333333333333336
-250.0   90.0   33.333333333333336
-250.0   60.0   33.333333333333336
-250.0   60.0   16.666666666666668
-300.0   60.0   33.333333333333336
-250.0   90.0   33.333333333333336
-250.0   60.0   16.666666666666668
-300.0   90.0   16.666666666666668
-300.0   60.0   33.333333333333336
-250.0   60.0   33.333333333333336
-300.0   90.0   33.333333333333336
-300.0   60.0   50.0
-250.0   60.0   33.333333333333336
-250.0   90.0   33.333333333333336
-300.0   90.0   33.333333333333336
-250.0   90.0   50.0
-300.0   60.0   50.0
-300.0   90.0   50.0
-250.0   90.0   50.0
-300.0   90.0   33.333333333333336
-300.0   60.0   50.0
-250.0   90.0   50.0
-250.0   60.0   50.0
-250.0   60.0   33.333333333333336
-300.0   60.0   50.0
-250.0   90.0   50.0
-250.0   60.0   33.333333333333336
-300.0   90.0   33.333333333333336
-300.0   90.0   0.0
-250.0   90.0   0.0
-300.0   120.0   0.0
-300.0   90.0   16.666666666666668
-250.0   90.0   0.0
-250.0   120.0   0.0
-300.0   120.0   0.0
-250.0   120.0   16.666666666666668
-300.0   90.0   16.666666666666668
-300.0   120.0   16.666666666666668
-250.0   120.0   16.666666666666668
-300.0   120.0   0.0
-300.0   90.0   16.666666666666668
-250.0   120.0   16.666666666666668
-250.0   90.0   16.666666666666668
-250.0   90.0   0.0
-300.0   90.0   16.666666666666668
-250.0   120.0   16.666666666666668
-250.0   90.0   0.0
-300.0   120.0   0.0
-300.0   90.0   16.666666666666668
-250.0   90.0   16.666666666666668
-300.0   120.0   16.666666666666668
-300.0   90.0   33.333333333333336
-250.0   90.0   16.666666666666668
-250.0   120.0   16.666666666666668
-300.0   120.0   16.666666666666668
-250.0   120.0   33.333333333333336
-300.0   90.0   33.333333333333336
-300.0   120.0   33.333333333333336
-250.0   120.0   33.333333333333336
-300.0   120.0   16.666666666666668
-300.0   90.0   33.333333333333336
-250.0   120.0   33.333333333333336
-250.0   90.0   33.333333333333336
-250.0   90.0   16.666666666666668
-300.0   90.0   33.333333333333336
-250.0   120.0   33.333333333333336
-250.0   90.0   16.666666666666668
-300.0   120.0   16.666666666666668
-300.0   90.0   33.333333333333336
-250.0   90.0   33.333333333333336
-300.0   120.0   33.333333333333336
-300.0   90.0   50.0
-250.0   90.0   33.333333333333336
-250.0   120.0   33.333333333333336
-300.0   120.0   33.333333333333336
-250.0   120.0   50.0
-300.0   90.0   50.0
-300.0   120.0   50.0
-250.0   120.0   50.0
-300.0   120.0   33.333333333333336
-300.0   90.0   50.0
-250.0   120.0   50.0
-250.0   90.0   50.0
-250.0   90.0   33.333333333333336
-300.0   90.0   50.0
-250.0   120.0   50.0
-250.0   90.0   33.333333333333336
-300.0   120.0   33.333333333333336
-300.0   120.0   0.0
-250.0   120.0   0.0
-300.0   150.0   0.0
-300.0   120.0   16.666666666666668
-250.0   120.0   0.0
-250.0   150.0   0.0
-300.0   150.0   0.0
-250.0   150.0   16.666666666666668
-300.0   120.0   16.666666666666668
-300.0   150.0   16.666666666666668
-250.0   150.0   16.666666666666668
-300.0   150.0   0.0
-300.0   120.0   16.666666666666668
-250.0   150.0   16.666666666666668
-250.0   120.0   16.666666666666668
-250.0   120.0   0.0
-300.0   120.0   16.666666666666668
-250.0   150.0   16.666666666666668
-250.0   120.0   0.0
-300.0   150.0   0.0
-300.0   120.0   16.666666666666668
-250.0   120.0   16.666666666666668
-300.0   150.0   16.666666666666668
-300.0   120.0   33.333333333333336
-250.0   120.0   16.666666666666668
-250.0   150.0   16.666666666666668
-300.0   150.0   16.666666666666668
-250.0   150.0   33.333333333333336
-300.0   120.0   33.333333333333336
-300.0   150.0   33.333333333333336
-250.0   150.0   33.333333333333336
-300.0   150.0   16.666666666666668
-300.0   120.0   33.333333333333336
-250.0   150.0   33.333333333333336
-250.0   120.0   33.333333333333336
-250.0   120.0   16.666666666666668
-300.0   120.0   33.333333333333336
-250.0   150.0   33.333333333333336
-250.0   120.0   16.666666666666668
-300.0   150.0   16.666666666666668
-300.0   120.0   33.333333333333336
-250.0   120.0   33.333333333333336
-300.0   150.0   33.333333333333336
-300.0   120.0   50.0
-250.0   120.0   33.333333333333336
-250.0   150.0   33.333333333333336
-300.0   150.0   33.333333333333336
-250.0   150.0   50.0
-300.0   120.0   50.0
-300.0   150.0   50.0
-250.0   150.0   50.0
-300.0   150.0   33.333333333333336
-300.0   120.0   50.0
-250.0   150.0   50.0
-250.0   120.0   50.0
-250.0   120.0   33.333333333333336
-300.0   120.0   50.0
-250.0   150.0   50.0
-250.0   120.0   33.333333333333336
-300.0   150.0   33.333333333333336
-250.0   0.0   0.0
-200.0   0.0   0.0
-250.0   30.0   0.0
-250.0   0.0   16.666666666666668
-200.0   0.0   0.0
-200.0   30.0   0.0
-250.0   30.0   0.0
-200.0   30.0   16.666666666666668
-250.0   0.0   16.666666666666668
-250.0   30.0   16.666666666666668
-200.0   30.0   16.666666666666668
-250.0   30.0   0.0
-250.0   0.0   16.666666666666668
-200.0   30.0   16.666666666666668
-200.0   0.0   16.666666666666668
-200.0   0.0   0.0
-250.0   0.0   16.666666666666668
-200.0   30.0   16.666666666666668
-200.0   0.0   0.0
-250.0   30.0   0.0
-250.0   0.0   16.666666666666668
-200.0   0.0   16.666666666666668
-250.0   30.0   16.666666666666668
-250.0   0.0   33.333333333333336
-200.0   0.0   16.666666666666668
-200.0   30.0   16.666666666666668
-250.0   30.0   16.666666666666668
-200.0   30.0   33.333333333333336
-250.0   0.0   33.333333333333336
-250.0   30.0   33.333333333333336
-200.0   30.0   33.333333333333336
-250.0   30.0   16.666666666666668
-250.0   0.0   33.333333333333336
-200.0   30.0   33.333333333333336
-200.0   0.0   33.333333333333336
-200.0   0.0   16.666666666666668
-250.0   0.0   33.333333333333336
-200.0   30.0   33.333333333333336
-200.0   0.0   16.666666666666668
-250.0   30.0   16.666666666666668
-250.0   0.0   33.333333333333336
-200.0   0.0   33.333333333333336
-250.0   30.0   33.333333333333336
-250.0   0.0   50.0
-200.0   0.0   33.333333333333336
-200.0   30.0   33.333333333333336
-250.0   30.0   33.333333333333336
-200.0   30.0   50.0
-250.0   0.0   50.0
-250.0   30.0   50.0
-200.0   30.0   50.0
-250.0   30.0   33.333333333333336
-250.0   0.0   50.0
-200.0   30.0   50.0
-200.0   0.0   50.0
-200.0   0.0   33.333333333333336
-250.0   0.0   50.0
-200.0   30.0   50.0
-200.0   0.0   33.333333333333336
-250.0   30.0   33.333333333333336
-250.0   30.0   0.0
-200.0   30.0   0.0
-250.0   60.0   0.0
-250.0   30.0   16.666666666666668
-200.0   30.0   0.0
-200.0   60.0   0.0
-250.0   60.0   0.0
-200.0   60.0   16.666666666666668
-250.0   30.0   16.666666666666668
-250.0   60.0   16.666666666666668
-200.0   60.0   16.666666666666668
-250.0   60.0   0.0
-250.0   30.0   16.666666666666668
-200.0   60.0   16.666666666666668
-200.0   30.0   16.666666666666668
-200.0   30.0   0.0
-250.0   30.0   16.666666666666668
-200.0   60.0   16.666666666666668
-200.0   30.0   0.0
-250.0   60.0   0.0
-250.0   30.0   16.666666666666668
-200.0   30.0   16.666666666666668
-250.0   60.0   16.666666666666668
-250.0   30.0   33.333333333333336
-200.0   30.0   16.666666666666668
-200.0   60.0   16.666666666666668
-250.0   60.0   16.666666666666668
-200.0   60.0   33.333333333333336
-250.0   30.0   33.333333333333336
-250.0   60.0   33.333333333333336
-200.0   60.0   33.333333333333336
-250.0   60.0   16.666666666666668
-250.0   30.0   33.333333333333336
-200.0   60.0   33.333333333333336
-200.0   30.0   33.333333333333336
-200.0   30.0   16.666666666666668
-250.0   30.0   33.333333333333336
-200.0   60.0   33.333333333333336
-200.0   30.0   16.666666666666668
-250.0   60.0   16.666666666666668
-250.0   30.0   33.333333333333336
-200.0   30.0   33.333333333333336
-250.0   60.0   33.333333333333336
-250.0   30.0   50.0
-200.0   30.0   33.333333333333336
-200.0   60.0   33.333333333333336
-250.0   60.0   33.333333333333336
-200.0   60.0   50.0
-250.0   30.0   50.0
-250.0   60.0   50.0
-200.0   60.0   50.0
-250.0   60.0   33.333333333333336
-250.0   30.0   50.0
-200.0   60.0   50.0
-200.0   30.0   50.0
-200.0   30.0   33.333333333333336
-250.0   30.0   50.0
-200.0   60.0   50.0
-200.0   30.0   33.333333333333336
-250.0   60.0   33.333333333333336
-250.0   60.0   0.0
-200.0   60.0   0.0
-250.0   90.0   0.0
-250.0   60.0   16.666666666666668
-200.0   60.0   0.0
-200.0   90.0   0.0
-250.0   90.0   0.0
-200.0   90.0   16.666666666666668
-250.0   60.0   16.666666666666668
-250.0   90.0   16.666666666666668
-200.0   90.0   16.666666666666668
-250.0   90.0   0.0
-250.0   60.0   16.666666666666668
-200.0   90.0   16.666666666666668
-200.0   60.0   16.666666666666668
-200.0   60.0   0.0
-250.0   60.0   16.666666666666668
-200.0   90.0   16.666666666666668
-200.0   60.0   0.0
-250.0   90.0   0.0
-250.0   60.0   16.666666666666668
-200.0   60.0   16.666666666666668
-250.0   90.0   16.666666666666668
-250.0   60.0   33.333333333333336
-200.0   60.0   16.666666666666668
-200.0   90.0   16.666666666666668
-250.0   90.0   16.666666666666668
-200.0   90.0   33.333333333333336
-250.0   60.0   33.333333333333336
-250.0   90.0   33.333333333333336
-200.0   90.0   33.333333333333336
-250.0   90.0   16.666666666666668
-250.0   60.0   33.333333333333336
-200.0   90.0   33.333333333333336
-200.0   60.0   33.333333333333336
-200.0   60.0   16.666666666666668
-250.0   60.0   33.333333333333336
-200.0   90.0   33.333333333333336
-200.0   60.0   16.666666666666668
-250.0   90.0   16.666666666666668
-250.0   60.0   33.333333333333336
-200.0   60.0   33.333333333333336
-250.0   90.0   33.333333333333336
-250.0   60.0   50.0
-200.0   60.0   33.333333333333336
-200.0   90.0   33.333333333333336
-250.0   90.0   33.333333333333336
-200.0   90.0   50.0
-250.0   60.0   50.0
-250.0   90.0   50.0
-200.0   90.0   50.0
-250.0   90.0   33.333333333333336
-250.0   60.0   50.0
-200.0   90.0   50.0
-200.0   60.0   50.0
-200.0   60.0   33.333333333333336
-250.0   60.0   50.0
-200.0   90.0   50.0
-200.0   60.0   33.333333333333336
-250.0   90.0   33.333333333333336
-250.0   90.0   0.0
-200.0   90.0   0.0
-250.0   120.0   0.0
-250.0   90.0   16.666666666666668
-200.0   90.0   0.0
-200.0   120.0   0.0
-250.0   120.0   0.0
-200.0   120.0   16.666666666666668
-250.0   90.0   16.666666666666668
-250.0   120.0   16.666666666666668
-200.0   120.0   16.666666666666668
-250.0   120.0   0.0
-250.0   90.0   16.666666666666668
-200.0   120.0   16.666666666666668
-200.0   90.0   16.666666666666668
-200.0   90.0   0.0
-250.0   90.0   16.666666666666668
-200.0   120.0   16.666666666666668
-200.0   90.0   0.0
-250.0   120.0   0.0
-250.0   90.0   16.666666666666668
-200.0   90.0   16.666666666666668
-250.0   120.0   16.666666666666668
-250.0   90.0   33.333333333333336
-200.0   90.0   16.666666666666668
-200.0   120.0   16.666666666666668
-250.0   120.0   16.666666666666668
-200.0   120.0   33.333333333333336
-250.0   90.0   33.333333333333336
-250.0   120.0   33.333333333333336
-200.0   120.0   33.333333333333336
-250.0   120.0   16.666666666666668
-250.0   90.0   33.333333333333336
-200.0   120.0   33.333333333333336
-200.0   90.0   33.333333333333336
-200.0   90.0   16.666666666666668
-250.0   90.0   33.333333333333336
-200.0   120.0   33.333333333333336
-200.0   90.0   16.666666666666668
-250.0   120.0   16.666666666666668
-250.0   90.0   33.333333333333336
-200.0   90.0   33.333333333333336
-250.0   120.0   33.333333333333336
-250.0   90.0   50.0
-200.0   90.0   33.333333333333336
-200.0   120.0   33.333333333333336
-250.0   120.0   33.333333333333336
-200.0   120.0   50.0
-250.0   90.0   50.0
-250.0   120.0   50.0
-200.0   120.0   50.0
-250.0   120.0   33.333333333333336
-250.0   90.0   50.0
-200.0   120.0   50.0
-200.0   90.0   50.0
-200.0   90.0   33.333333333333336
-250.0   90.0   50.0
-200.0   120.0   50.0
-200.0   90.0   33.333333333333336
-250.0   120.0   33.333333333333336
-250.0   120.0   0.0
-200.0   120.0   0.0
-250.0   150.0   0.0
-250.0   120.0   16.666666666666668
-200.0   120.0   0.0
-200.0   150.0   0.0
-250.0   150.0   0.0
-200.0   150.0   16.666666666666668
-250.0   120.0   16.666666666666668
-250.0   150.0   16.666666666666668
-200.0   150.0   16.666666666666668
-250.0   150.0   0.0
-250.0   120.0   16.666666666666668
-200.0   150.0   16.666666666666668
-200.0   120.0   16.666666666666668
-200.0   120.0   0.0
-250.0   120.0   16.666666666666668
-200.0   150.0   16.666666666666668
-200.0   120.0   0.0
-250.0   150.0   0.0
-250.0   120.0   16.666666666666668
-200.0   120.0   16.666666666666668
-250.0   150.0   16.666666666666668
-250.0   120.0   33.333333333333336
-200.0   120.0   16.666666666666668
-200.0   150.0   16.666666666666668
-250.0   150.0   16.666666666666668
-200.0   150.0   33.333333333333336
-250.0   120.0   33.333333333333336
-250.0   150.0   33.333333333333336
-200.0   150.0   33.333333333333336
-250.0   150.0   16.666666666666668
-250.0   120.0   33.333333333333336
-200.0   150.0   33.333333333333336
-200.0   120.0   33.333333333333336
-200.0   120.0   16.666666666666668
-250.0   120.0   33.333333333333336
-200.0   150.0   33.333333333333336
-200.0   120.0   16.666666666666668
-250.0   150.0   16.666666666666668
-250.0   120.0   33.333333333333336
-200.0   120.0   33.333333333333336
-250.0   150.0   33.333333333333336
-250.0   120.0   50.0
-200.0   120.0   33.333333333333336
-200.0   150.0   33.333333333333336
-250.0   150.0   33.333333333333336
-200.0   150.0   50.0
-250.0   120.0   50.0
-250.0   150.0   50.0
-200.0   150.0   50.0
-250.0   150.0   33.333333333333336
-250.0   120.0   50.0
-200.0   150.0   50.0
-200.0   120.0   50.0
-200.0   120.0   33.333333333333336
-250.0   120.0   50.0
-200.0   150.0   50.0
-200.0   120.0   33.333333333333336
-250.0   150.0   33.333333333333336
-200.0   0.0   0.0
-150.0   0.0   0.0
-200.0   30.0   0.0
-200.0   0.0   16.666666666666668
-150.0   0.0   0.0
-150.0   30.0   0.0
-200.0   30.0   0.0
-150.0   30.0   16.666666666666668
-200.0   0.0   16.666666666666668
-200.0   30.0   16.666666666666668
-150.0   30.0   16.666666666666668
-200.0   30.0   0.0
-200.0   0.0   16.666666666666668
-150.0   30.0   16.666666666666668
-150.0   0.0   16.666666666666668
-150.0   0.0   0.0
-200.0   0.0   16.666666666666668
-150.0   30.0   16.666666666666668
-150.0   0.0   0.0
-200.0   30.0   0.0
-200.0   0.0   16.666666666666668
-150.0   0.0   16.666666666666668
-200.0   30.0   16.666666666666668
-200.0   0.0   33.333333333333336
-150.0   0.0   16.666666666666668
-150.0   30.0   16.666666666666668
-200.0   30.0   16.666666666666668
-150.0   30.0   33.333333333333336
-200.0   0.0   33.333333333333336
-200.0   30.0   33.333333333333336
-150.0   30.0   33.333333333333336
-200.0   30.0   16.666666666666668
-200.0   0.0   33.333333333333336
-150.0   30.0   33.333333333333336
-150.0   0.0   33.333333333333336
-150.0   0.0   16.666666666666668
-200.0   0.0   33.333333333333336
-150.0   30.0   33.333333333333336
-150.0   0.0   16.666666666666668
-200.0   30.0   16.666666666666668
-200.0   0.0   33.333333333333336
-150.0   0.0   33.333333333333336
-200.0   30.0   33.333333333333336
-200.0   0.0   50.0
-150.0   0.0   33.333333333333336
-150.0   30.0   33.333333333333336
-200.0   30.0   33.333333333333336
-150.0   30.0   50.0
-200.0   0.0   50.0
-200.0   30.0   50.0
-150.0   30.0   50.0
-200.0   30.0   33.333333333333336
-200.0   0.0   50.0
-150.0   30.0   50.0
-150.0   0.0   50.0
-150.0   0.0   33.333333333333336
-200.0   0.0   50.0
-150.0   30.0   50.0
-150.0   0.0   33.333333333333336
-200.0   30.0   33.333333333333336
-200.0   30.0   0.0
-150.0   30.0   0.0
-200.0   60.0   0.0
-200.0   30.0   16.666666666666668
-150.0   30.0   0.0
-150.0   60.0   0.0
-200.0   60.0   0.0
-150.0   60.0   16.666666666666668
-200.0   30.0   16.666666666666668
-200.0   60.0   16.666666666666668
-150.0   60.0   16.666666666666668
-200.0   60.0   0.0
-200.0   30.0   16.666666666666668
-150.0   60.0   16.666666666666668
-150.0   30.0   16.666666666666668
-150.0   30.0   0.0
-200.0   30.0   16.666666666666668
-150.0   60.0   16.666666666666668
-150.0   30.0   0.0
-200.0   60.0   0.0
-200.0   30.0   16.666666666666668
-150.0   30.0   16.666666666666668
-200.0   60.0   16.666666666666668
-200.0   30.0   33.333333333333336
-150.0   30.0   16.666666666666668
-150.0   60.0   16.666666666666668
-200.0   60.0   16.666666666666668
-150.0   60.0   33.333333333333336
-200.0   30.0   33.333333333333336
-200.0   60.0   33.333333333333336
-150.0   60.0   33.333333333333336
-200.0   60.0   16.666666666666668
-200.0   30.0   33.333333333333336
-150.0   60.0   33.333333333333336
-150.0   30.0   33.333333333333336
-150.0   30.0   16.666666666666668
-200.0   30.0   33.333333333333336
-150.0   60.0   33.333333333333336
-150.0   30.0   16.666666666666668
-200.0   60.0   16.666666666666668
-200.0   30.0   33.333333333333336
-150.0   30.0   33.333333333333336
-200.0   60.0   33.333333333333336
-200.0   30.0   50.0
-150.0   30.0   33.333333333333336
-150.0   60.0   33.333333333333336
-200.0   60.0   33.333333333333336
-150.0   60.0   50.0
-200.0   30.0   50.0
-200.0   60.0   50.0
-150.0   60.0   50.0
-200.0   60.0   33.333333333333336
-200.0   30.0   50.0
-150.0   60.0   50.0
-150.0   30.0   50.0
-150.0   30.0   33.333333333333336
-200.0   30.0   50.0
-150.0   60.0   50.0
-150.0   30.0   33.333333333333336
-200.0   60.0   33.333333333333336
-200.0   60.0   0.0
-150.0   60.0   0.0
-200.0   90.0   0.0
-200.0   60.0   16.666666666666668
-150.0   60.0   0.0
-150.0   90.0   0.0
-200.0   90.0   0.0
-150.0   90.0   16.666666666666668
-200.0   60.0   16.666666666666668
-200.0   90.0   16.666666666666668
-150.0   90.0   16.666666666666668
-200.0   90.0   0.0
-200.0   60.0   16.666666666666668
-150.0   90.0   16.666666666666668
-150.0   60.0   16.666666666666668
-150.0   60.0   0.0
-200.0   60.0   16.666666666666668
-150.0   90.0   16.666666666666668
-150.0   60.0   0.0
-200.0   90.0   0.0
-200.0   60.0   16.666666666666668
-150.0   60.0   16.666666666666668
-200.0   90.0   16.666666666666668
-200.0   60.0   33.333333333333336
-150.0   60.0   16.666666666666668
-150.0   90.0   16.666666666666668
-200.0   90.0   16.666666666666668
-150.0   90.0   33.333333333333336
-200.0   60.0   33.333333333333336
-200.0   90.0   33.333333333333336
-150.0   90.0   33.333333333333336
-200.0   90.0   16.666666666666668
-200.0   60.0   33.333333333333336
-150.0   90.0   33.333333333333336
-150.0   60.0   33.333333333333336
-150.0   60.0   16.666666666666668
-200.0   60.0   33.333333333333336
-150.0   90.0   33.333333333333336
-150.0   60.0   16.666666666666668
-200.0   90.0   16.666666666666668
-200.0   60.0   33.333333333333336
-150.0   60.0   33.333333333333336
-200.0   90.0   33.333333333333336
-200.0   60.0   50.0
-150.0   60.0   33.333333333333336
-150.0   90.0   33.333333333333336
-200.0   90.0   33.333333333333336
-150.0   90.0   50.0
-200.0   60.0   50.0
-200.0   90.0   50.0
-150.0   90.0   50.0
-200.0   90.0   33.333333333333336
-200.0   60.0   50.0
-150.0   90.0   50.0
-150.0   60.0   50.0
-150.0   60.0   33.333333333333336
-200.0   60.0   50.0
-150.0   90.0   50.0
-150.0   60.0   33.333333333333336
-200.0   90.0   33.333333333333336
-200.0   90.0   0.0
-150.0   90.0   0.0
-200.0   120.0   0.0
-200.0   90.0   16.666666666666668
-150.0   90.0   0.0
-150.0   120.0   0.0
-200.0   120.0   0.0
-150.0   120.0   16.666666666666668
-200.0   90.0   16.666666666666668
-200.0   120.0   16.666666666666668
-150.0   120.0   16.666666666666668
-200.0   120.0   0.0
-200.0   90.0   16.666666666666668
-150.0   120.0   16.666666666666668
-150.0   90.0   16.666666666666668
-150.0   90.0   0.0
-200.0   90.0   16.666666666666668
-150.0   120.0   16.666666666666668
-150.0   90.0   0.0
-200.0   120.0   0.0
-200.0   90.0   16.666666666666668
-150.0   90.0   16.666666666666668
-200.0   120.0   16.666666666666668
-200.0   90.0   33.333333333333336
-150.0   90.0   16.666666666666668
-150.0   120.0   16.666666666666668
-200.0   120.0   16.666666666666668
-150.0   120.0   33.333333333333336
-200.0   90.0   33.333333333333336
-200.0   120.0   33.333333333333336
-150.0   120.0   33.333333333333336
-200.0   120.0   16.666666666666668
-200.0   90.0   33.333333333333336
-150.0   120.0   33.333333333333336
-150.0   90.0   33.333333333333336
-150.0   90.0   16.666666666666668
-200.0   90.0   33.333333333333336
-150.0   120.0   33.333333333333336
-150.0   90.0   16.666666666666668
-200.0   120.0   16.666666666666668
-200.0   90.0   33.333333333333336
-150.0   90.0   33.333333333333336
-200.0   120.0   33.333333333333336
-200.0   90.0   50.0
-150.0   90.0   33.333333333333336
-150.0   120.0   33.333333333333336
-200.0   120.0   33.333333333333336
-150.0   120.0   50.0
-200.0   90.0   50.0
-200.0   120.0   50.0
-150.0   120.0   50.0
-200.0   120.0   33.333333333333336
-200.0   90.0   50.0
-150.0   120.0   50.0
-150.0   90.0   50.0
-150.0   90.0   33.333333333333336
-200.0   90.0   50.0
-150.0   120.0   50.0
-150.0   90.0   33.333333333333336
-200.0   120.0   33.333333333333336
-200.0   120.0   0.0
-150.0   120.0   0.0
-200.0   150.0   0.0
-200.0   120.0   16.666666666666668
-150.0   120.0   0.0
-150.0   150.0   0.0
-200.0   150.0   0.0
-150.0   150.0   16.666666666666668
-200.0   120.0   16.666666666666668
-200.0   150.0   16.666666666666668
-150.0   150.0   16.666666666666668
-200.0   150.0   0.0
-200.0   120.0   16.666666666666668
-150.0   150.0   16.666666666666668
-150.0   120.0   16.666666666666668
-150.0   120.0   0.0
-200.0   120.0   16.666666666666668
-150.0   150.0   16.666666666666668
-150.0   120.0   0.0
-200.0   150.0   0.0
-200.0   120.0   16.666666666666668
-150.0   120.0   16.666666666666668
-200.0   150.0   16.666666666666668
-200.0   120.0   33.333333333333336
-150.0   120.0   16.666666666666668
-150.0   150.0   16.666666666666668
-200.0   150.0   16.666666666666668
-150.0   150.0   33.333333333333336
-200.0   120.0   33.333333333333336
-200.0   150.0   33.333333333333336
-150.0   150.0   33.333333333333336
-200.0   150.0   16.666666666666668
-200.0   120.0   33.333333333333336
-150.0   150.0   33.333333333333336
-150.0   120.0   33.333333333333336
-150.0   120.0   16.666666666666668
-200.0   120.0   33.333333333333336
-150.0   150.0   33.333333333333336
-150.0   120.0   16.666666666666668
-200.0   150.0   16.666666666666668
-200.0   120.0   33.333333333333336
-150.0   120.0   33.333333333333336
-200.0   150.0   33.333333333333336
-200.0   120.0   50.0
-150.0   120.0   33.333333333333336
-150.0   150.0   33.333333333333336
-200.0   150.0   33.333333333333336
-150.0   150.0   50.0
-200.0   120.0   50.0
-200.0   150.0   50.0
-150.0   150.0   50.0
-200.0   150.0   33.333333333333336
-200.0   120.0   50.0
-150.0   150.0   50.0
-150.0   120.0   50.0
-150.0   120.0   33.333333333333336
-200.0   120.0   50.0
-150.0   150.0   50.0
-150.0   120.0   33.333333333333336
-200.0   150.0   33.333333333333336
-150.0   0.0   0.0
-100.0   0.0   0.0
-150.0   30.0   0.0
-150.0   0.0   16.666666666666668
-100.0   0.0   0.0
-100.0   30.0   0.0
-150.0   30.0   0.0
-100.0   30.0   16.666666666666668
-150.0   0.0   16.666666666666668
-150.0   30.0   16.666666666666668
-100.0   30.0   16.666666666666668
-150.0   30.0   0.0
-150.0   0.0   16.666666666666668
-100.0   30.0   16.666666666666668
-100.0   0.0   16.666666666666668
-100.0   0.0   0.0
-150.0   0.0   16.666666666666668
-100.0   30.0   16.666666666666668
-100.0   0.0   0.0
-150.0   30.0   0.0
-150.0   0.0   16.666666666666668
-100.0   0.0   16.666666666666668
-150.0   30.0   16.666666666666668
-150.0   0.0   33.333333333333336
-100.0   0.0   16.666666666666668
-100.0   30.0   16.666666666666668
-150.0   30.0   16.666666666666668
-100.0   30.0   33.333333333333336
-150.0   0.0   33.333333333333336
-150.0   30.0   33.333333333333336
-100.0   30.0   33.333333333333336
-150.0   30.0   16.666666666666668
-150.0   0.0   33.333333333333336
-100.0   30.0   33.333333333333336
-100.0   0.0   33.333333333333336
-100.0   0.0   16.666666666666668
-150.0   0.0   33.333333333333336
-100.0   30.0   33.333333333333336
-100.0   0.0   16.666666666666668
-150.0   30.0   16.666666666666668
-150.0   0.0   33.333333333333336
-100.0   0.0   33.333333333333336
-150.0   30.0   33.333333333333336
-150.0   0.0   50.0
-100.0   0.0   33.333333333333336
-100.0   30.0   33.333333333333336
-150.0   30.0   33.333333333333336
-100.0   30.0   50.0
-150.0   0.0   50.0
-150.0   30.0   50.0
-100.0   30.0   50.0
-150.0   30.0   33.333333333333336
-150.0   0.0   50.0
-100.0   30.0   50.0
-100.0   0.0   50.0
-100.0   0.0   33.333333333333336
-150.0   0.0   50.0
-100.0   30.0   50.0
-100.0   0.0   33.333333333333336
-150.0   30.0   33.333333333333336
-150.0   30.0   0.0
-100.0   30.0   0.0
-150.0   60.0   0.0
-150.0   30.0   16.666666666666668
-100.0   30.0   0.0
-100.0   60.0   0.0
-150.0   60.0   0.0
-100.0   60.0   16.666666666666668
-150.0   30.0   16.666666666666668
-150.0   60.0   16.666666666666668
-100.0   60.0   16.666666666666668
-150.0   60.0   0.0
-150.0   30.0   16.666666666666668
-100.0   60.0   16.666666666666668
-100.0   30.0   16.666666666666668
-100.0   30.0   0.0
-150.0   30.0   16.666666666666668
-100.0   60.0   16.666666666666668
-100.0   30.0   0.0
-150.0   60.0   0.0
-150.0   30.0   16.666666666666668
-100.0   30.0   16.666666666666668
-150.0   60.0   16.666666666666668
-150.0   30.0   33.333333333333336
-100.0   30.0   16.666666666666668
-100.0   60.0   16.666666666666668
-150.0   60.0   16.666666666666668
-100.0   60.0   33.333333333333336
-150.0   30.0   33.333333333333336
-150.0   60.0   33.333333333333336
-100.0   60.0   33.333333333333336
-150.0   60.0   16.666666666666668
-150.0   30.0   33.333333333333336
-100.0   60.0   33.333333333333336
-100.0   30.0   33.333333333333336
-100.0   30.0   16.666666666666668
-150.0   30.0   33.333333333333336
-100.0   60.0   33.333333333333336
-100.0   30.0   16.666666666666668
-150.0   60.0   16.666666666666668
-150.0   30.0   33.333333333333336
-100.0   30.0   33.333333333333336
-150.0   60.0   33.333333333333336
-150.0   30.0   50.0
-100.0   30.0   33.333333333333336
-100.0   60.0   33.333333333333336
-150.0   60.0   33.333333333333336
-100.0   60.0   50.0
-150.0   30.0   50.0
-150.0   60.0   50.0
-100.0   60.0   50.0
-150.0   60.0   33.333333333333336
-150.0   30.0   50.0
-100.0   60.0   50.0
-100.0   30.0   50.0
-100.0   30.0   33.333333333333336
-150.0   30.0   50.0
-100.0   60.0   50.0
-100.0   30.0   33.333333333333336
-150.0   60.0   33.333333333333336
-150.0   60.0   0.0
-100.0   60.0   0.0
-150.0   90.0   0.0
-150.0   60.0   16.666666666666668
-100.0   60.0   0.0
-100.0   90.0   0.0
-150.0   90.0   0.0
-100.0   90.0   16.666666666666668
-150.0   60.0   16.666666666666668
-150.0   90.0   16.666666666666668
-100.0   90.0   16.666666666666668
-150.0   90.0   0.0
-150.0   60.0   16.666666666666668
-100.0   90.0   16.666666666666668
-100.0   60.0   16.666666666666668
-100.0   60.0   0.0
-150.0   60.0   16.666666666666668
-100.0   90.0   16.666666666666668
-100.0   60.0   0.0
-150.0   90.0   0.0
-150.0   60.0   16.666666666666668
-100.0   60.0   16.666666666666668
-150.0   90.0   16.666666666666668
-150.0   60.0   33.333333333333336
-100.0   60.0   16.666666666666668
-100.0   90.0   16.666666666666668
-150.0   90.0   16.666666666666668
-100.0   90.0   33.333333333333336
-150.0   60.0   33.333333333333336
-150.0   90.0   33.333333333333336
-100.0   90.0   33.333333333333336
-150.0   90.0   16.666666666666668
-150.0   60.0   33.333333333333336
-100.0   90.0   33.333333333333336
-100.0   60.0   33.333333333333336
-100.0   60.0   16.666666666666668
-150.0   60.0   33.333333333333336
-100.0   90.0   33.333333333333336
-100.0   60.0   16.666666666666668
-150.0   90.0   16.666666666666668
-150.0   60.0   33.333333333333336
-100.0   60.0   33.333333333333336
-150.0   90.0   33.333333333333336
-150.0   60.0   50.0
-100.0   60.0   33.333333333333336
-100.0   90.0   33.333333333333336
-150.0   90.0   33.333333333333336
-100.0   90.0   50.0
-150.0   60.0   50.0
-150.0   90.0   50.0
-100.0   90.0   50.0
-150.0   90.0   33.333333333333336
-150.0   60.0   50.0
-100.0   90.0   50.0
-100.0   60.0   50.0
-100.0   60.0   33.333333333333336
-150.0   60.0   50.0
-100.0   90.0   50.0
-100.0   60.0   33.333333333333336
-150.0   90.0   33.333333333333336
-150.0   90.0   0.0
-100.0   90.0   0.0
-150.0   120.0   0.0
-150.0   90.0   16.666666666666668
-100.0   90.0   0.0
-100.0   120.0   0.0
-150.0   120.0   0.0
-100.0   120.0   16.666666666666668
-150.0   90.0   16.666666666666668
-150.0   120.0   16.666666666666668
-100.0   120.0   16.666666666666668
-150.0   120.0   0.0
-150.0   90.0   16.666666666666668
-100.0   120.0   16.666666666666668
-100.0   90.0   16.666666666666668
-100.0   90.0   0.0
-150.0   90.0   16.666666666666668
-100.0   120.0   16.666666666666668
-100.0   90.0   0.0
-150.0   120.0   0.0
-150.0   90.0   16.666666666666668
-100.0   90.0   16.666666666666668
-150.0   120.0   16.666666666666668
-150.0   90.0   33.333333333333336
-100.0   90.0   16.666666666666668
-100.0   120.0   16.666666666666668
-150.0   120.0   16.666666666666668
-100.0   120.0   33.333333333333336
-150.0   90.0   33.333333333333336
-150.0   120.0   33.333333333333336
-100.0   120.0   33.333333333333336
-150.0   120.0   16.666666666666668
-150.0   90.0   33.333333333333336
-100.0   120.0   33.333333333333336
-100.0   90.0   33.333333333333336
-100.0   90.0   16.666666666666668
-150.0   90.0   33.333333333333336
-100.0   120.0   33.333333333333336
-100.0   90.0   16.666666666666668
-150.0   120.0   16.666666666666668
-150.0   90.0   33.333333333333336
-100.0   90.0   33.333333333333336
-150.0   120.0   33.333333333333336
-150.0   90.0   50.0
-100.0   90.0   33.333333333333336
-100.0   120.0   33.333333333333336
-150.0   120.0   33.333333333333336
-100.0   120.0   50.0
-150.0   90.0   50.0
-150.0   120.0   50.0
-100.0   120.0   50.0
-150.0   120.0   33.333333333333336
-150.0   90.0   50.0
-100.0   120.0   50.0
-100.0   90.0   50.0
-100.0   90.0   33.333333333333336
-150.0   90.0   50.0
-100.0   120.0   50.0
-100.0   90.0   33.333333333333336
-150.0   120.0   33.333333333333336
-150.0   120.0   0.0
-100.0   120.0   0.0
-150.0   150.0   0.0
-150.0   120.0   16.666666666666668
-100.0   120.0   0.0
-100.0   150.0   0.0
-150.0   150.0   0.0
-100.0   150.0   16.666666666666668
-150.0   120.0   16.666666666666668
-150.0   150.0   16.666666666666668
-100.0   150.0   16.666666666666668
-150.0   150.0   0.0
-150.0   120.0   16.666666666666668
-100.0   150.0   16.666666666666668
-100.0   120.0   16.666666666666668
-100.0   120.0   0.0
-150.0   120.0   16.666666666666668
-100.0   150.0   16.666666666666668
-100.0   120.0   0.0
-150.0   150.0   0.0
-150.0   120.0   16.666666666666668
-100.0   120.0   16.666666666666668
-150.0   150.0   16.666666666666668
-150.0   120.0   33.333333333333336
-100.0   120.0   16.666666666666668
-100.0   150.0   16.666666666666668
-150.0   150.0   16.666666666666668
-100.0   150.0   33.333333333333336
-150.0   120.0   33.333333333333336
-150.0   150.0   33.333333333333336
-100.0   150.0   33.333333333333336
-150.0   150.0   16.666666666666668
-150.0   120.0   33.333333333333336
-100.0   150.0   33.333333333333336
-100.0   120.0   33.333333333333336
-100.0   120.0   16.666666666666668
-150.0   120.0   33.333333333333336
-100.0   150.0   33.333333333333336
-100.0   120.0   16.666666666666668
-150.0   150.0   16.666666666666668
-150.0   120.0   33.333333333333336
-100.0   120.0   33.333333333333336
-150.0   150.0   33.333333333333336
-150.0   120.0   50.0
-100.0   120.0   33.333333333333336
-100.0   150.0   33.333333333333336
-150.0   150.0   33.333333333333336
-100.0   150.0   50.0
-150.0   120.0   50.0
-150.0   150.0   50.0
-100.0   150.0   50.0
-150.0   150.0   33.333333333333336
-150.0   120.0   50.0
-100.0   150.0   50.0
-100.0   120.0   50.0
-100.0   120.0   33.333333333333336
-150.0   120.0   50.0
-100.0   150.0   50.0
-100.0   120.0   33.333333333333336
-150.0   150.0   33.333333333333336
-100.0   0.0   0.0
-50.0   0.0   0.0
-100.0   30.0   0.0
-100.0   0.0   16.666666666666668
-50.0   0.0   0.0
-50.0   30.0   0.0
-100.0   30.0   0.0
-50.0   30.0   16.666666666666668
-100.0   0.0   16.666666666666668
-100.0   30.0   16.666666666666668
-50.0   30.0   16.666666666666668
-100.0   30.0   0.0
-100.0   0.0   16.666666666666668
-50.0   30.0   16.666666666666668
-50.0   0.0   16.666666666666668
-50.0   0.0   0.0
-100.0   0.0   16.666666666666668
-50.0   30.0   16.666666666666668
-50.0   0.0   0.0
-100.0   30.0   0.0
-100.0   0.0   16.666666666666668
-50.0   0.0   16.666666666666668
-100.0   30.0   16.666666666666668
-100.0   0.0   33.333333333333336
-50.0   0.0   16.666666666666668
-50.0   30.0   16.666666666666668
-100.0   30.0   16.666666666666668
-50.0   30.0   33.333333333333336
-100.0   0.0   33.333333333333336
-100.0   30.0   33.333333333333336
-50.0   30.0   33.333333333333336
-100.0   30.0   16.666666666666668
-100.0   0.0   33.333333333333336
-50.0   30.0   33.333333333333336
-50.0   0.0   33.333333333333336
-50.0   0.0   16.666666666666668
-100.0   0.0   33.333333333333336
-50.0   30.0   33.333333333333336
-50.0   0.0   16.666666666666668
-100.0   30.0   16.666666666666668
-100.0   0.0   33.333333333333336
-50.0   0.0   33.333333333333336
-100.0   30.0   33.333333333333336
-100.0   0.0   50.0
-50.0   0.0   33.333333333333336
-50.0   30.0   33.333333333333336
-100.0   30.0   33.333333333333336
-50.0   30.0   50.0
-100.0   0.0   50.0
-100.0   30.0   50.0
-50.0   30.0   50.0
-100.0   30.0   33.333333333333336
-100.0   0.0   50.0
-50.0   30.0   50.0
-50.0   0.0   50.0
-50.0   0.0   33.333333333333336
-100.0   0.0   50.0
-50.0   30.0   50.0
-50.0   0.0   33.333333333333336
-100.0   30.0   33.333333333333336
-100.0   30.0   0.0
-50.0   30.0   0.0
-100.0   60.0   0.0
-100.0   30.0   16.666666666666668
-50.0   30.0   0.0
-50.0   60.0   0.0
-100.0   60.0   0.0
-50.0   60.0   16.666666666666668
-100.0   30.0   16.666666666666668
-100.0   60.0   16.666666666666668
-50.0   60.0   16.666666666666668
-100.0   60.0   0.0
-100.0   30.0   16.666666666666668
-50.0   60.0   16.666666666666668
-50.0   30.0   16.666666666666668
-50.0   30.0   0.0
-100.0   30.0   16.666666666666668
-50.0   60.0   16.666666666666668
-50.0   30.0   0.0
-100.0   60.0   0.0
-100.0   30.0   16.666666666666668
-50.0   30.0   16.666666666666668
-100.0   60.0   16.666666666666668
-100.0   30.0   33.333333333333336
-50.0   30.0   16.666666666666668
-50.0   60.0   16.666666666666668
-100.0   60.0   16.666666666666668
-50.0   60.0   33.333333333333336
-100.0   30.0   33.333333333333336
-100.0   60.0   33.333333333333336
-50.0   60.0   33.333333333333336
-100.0   60.0   16.666666666666668
-100.0   30.0   33.333333333333336
-50.0   60.0   33.333333333333336
-50.0   30.0   33.333333333333336
-50.0   30.0   16.666666666666668
-100.0   30.0   33.333333333333336
-50.0   60.0   33.333333333333336
-50.0   30.0   16.666666666666668
-100.0   60.0   16.666666666666668
-100.0   30.0   33.333333333333336
-50.0   30.0   33.333333333333336
-100.0   60.0   33.333333333333336
-100.0   30.0   50.0
-50.0   30.0   33.333333333333336
-50.0   60.0   33.333333333333336
-100.0   60.0   33.333333333333336
-50.0   60.0   50.0
-100.0   30.0   50.0
-100.0   60.0   50.0
-50.0   60.0   50.0
-100.0   60.0   33.333333333333336
-100.0   30.0   50.0
-50.0   60.0   50.0
-50.0   30.0   50.0
-50.0   30.0   33.333333333333336
-100.0   30.0   50.0
-50.0   60.0   50.0
-50.0   30.0   33.333333333333336
-100.0   60.0   33.333333333333336
-100.0   60.0   0.0
-50.0   60.0   0.0
-100.0   90.0   0.0
-100.0   60.0   16.666666666666668
-50.0   60.0   0.0
-50.0   90.0   0.0
-100.0   90.0   0.0
-50.0   90.0   16.666666666666668
-100.0   60.0   16.666666666666668
-100.0   90.0   16.666666666666668
-50.0   90.0   16.666666666666668
-100.0   90.0   0.0
-100.0   60.0   16.666666666666668
-50.0   90.0   16.666666666666668
-50.0   60.0   16.666666666666668
-50.0   60.0   0.0
-100.0   60.0   16.666666666666668
-50.0   90.0   16.666666666666668
-50.0   60.0   0.0
-100.0   90.0   0.0
-100.0   60.0   16.666666666666668
-50.0   60.0   16.666666666666668
-100.0   90.0   16.666666666666668
-100.0   60.0   33.333333333333336
-50.0   60.0   16.666666666666668
-50.0   90.0   16.666666666666668
-100.0   90.0   16.666666666666668
-50.0   90.0   33.333333333333336
-100.0   60.0   33.333333333333336
-100.0   90.0   33.333333333333336
-50.0   90.0   33.333333333333336
-100.0   90.0   16.666666666666668
-100.0   60.0   33.333333333333336
-50.0   90.0   33.333333333333336
-50.0   60.0   33.333333333333336
-50.0   60.0   16.666666666666668
-100.0   60.0   33.333333333333336
-50.0   90.0   33.333333333333336
-50.0   60.0   16.666666666666668
-100.0   90.0   16.666666666666668
-100.0   60.0   33.333333333333336
-50.0   60.0   33.333333333333336
-100.0   90.0   33.333333333333336
-100.0   60.0   50.0
-50.0   60.0   33.333333333333336
-50.0   90.0   33.333333333333336
-100.0   90.0   33.333333333333336
-50.0   90.0   50.0
-100.0   60.0   50.0
-100.0   90.0   50.0
-50.0   90.0   50.0
-100.0   90.0   33.333333333333336
-100.0   60.0   50.0
-50.0   90.0   50.0
-50.0   60.0   50.0
-50.0   60.0   33.333333333333336
-100.0   60.0   50.0
-50.0   90.0   50.0
-50.0   60.0   33.333333333333336
-100.0   90.0   33.333333333333336
-100.0   90.0   0.0
-50.0   90.0   0.0
-100.0   120.0   0.0
-100.0   90.0   16.666666666666668
-50.0   90.0   0.0
-50.0   120.0   0.0
-100.0   120.0   0.0
-50.0   120.0   16.666666666666668
-100.0   90.0   16.666666666666668
-100.0   120.0   16.666666666666668
-50.0   120.0   16.666666666666668
-100.0   120.0   0.0
-100.0   90.0   16.666666666666668
-50.0   120.0   16.666666666666668
-50.0   90.0   16.666666666666668
-50.0   90.0   0.0
-100.0   90.0   16.666666666666668
-50.0   120.0   16.666666666666668
-50.0   90.0   0.0
-100.0   120.0   0.0
-100.0   90.0   16.666666666666668
-50.0   90.0   16.666666666666668
-100.0   120.0   16.666666666666668
-100.0   90.0   33.333333333333336
-50.0   90.0   16.666666666666668
-50.0   120.0   16.666666666666668
-100.0   120.0   16.666666666666668
-50.0   120.0   33.333333333333336
-100.0   90.0   33.333333333333336
-100.0   120.0   33.333333333333336
-50.0   120.0   33.333333333333336
-100.0   120.0   16.666666666666668
-100.0   90.0   33.333333333333336
-50.0   120.0   33.333333333333336
-50.0   90.0   33.333333333333336
-50.0   90.0   16.666666666666668
-100.0   90.0   33.333333333333336
-50.0   120.0   33.333333333333336
-50.0   90.0   16.666666666666668
-100.0   120.0   16.666666666666668
-100.0   90.0   33.333333333333336
-50.0   90.0   33.333333333333336
-100.0   120.0   33.333333333333336
-100.0   90.0   50.0
-50.0   90.0   33.333333333333336
-50.0   120.0   33.333333333333336
-100.0   120.0   33.333333333333336
-50.0   120.0   50.0
-100.0   90.0   50.0
-100.0   120.0   50.0
-50.0   120.0   50.0
-100.0   120.0   33.333333333333336
-100.0   90.0   50.0
-50.0   120.0   50.0
-50.0   90.0   50.0
-50.0   90.0   33.333333333333336
-100.0   90.0   50.0
-50.0   120.0   50.0
-50.0   90.0   33.333333333333336
-100.0   120.0   33.333333333333336
-100.0   120.0   0.0
-50.0   120.0   0.0
-100.0   150.0   0.0
-100.0   120.0   16.666666666666668
-50.0   120.0   0.0
-50.0   150.0   0.0
-100.0   150.0   0.0
-50.0   150.0   16.666666666666668
-100.0   120.0   16.666666666666668
-100.0   150.0   16.666666666666668
-50.0   150.0   16.666666666666668
-100.0   150.0   0.0
-100.0   120.0   16.666666666666668
-50.0   150.0   16.666666666666668
-50.0   120.0   16.666666666666668
-50.0   120.0   0.0
-100.0   120.0   16.666666666666668
-50.0   150.0   16.666666666666668
-50.0   120.0   0.0
-100.0   150.0   0.0
-100.0   120.0   16.666666666666668
-50.0   120.0   16.666666666666668
-100.0   150.0   16.666666666666668
-100.0   120.0   33.333333333333336
-50.0   120.0   16.666666666666668
-50.0   150.0   16.666666666666668
-100.0   150.0   16.666666666666668
-50.0   150.0   33.333333333333336
-100.0   120.0   33.333333333333336
-100.0   150.0   33.333333333333336
-50.0   150.0   33.333333333333336
-100.0   150.0   16.666666666666668
-100.0   120.0   33.333333333333336
-50.0   150.0   33.333333333333336
-50.0   120.0   33.333333333333336
-50.0   120.0   16.666666666666668
-100.0   120.0   33.333333333333336
-50.0   150.0   33.333333333333336
-50.0   120.0   16.666666666666668
-100.0   150.0   16.666666666666668
-100.0   120.0   33.333333333333336
-50.0   120.0   33.333333333333336
-100.0   150.0   33.333333333333336
-100.0   120.0   50.0
-50.0   120.0   33.333333333333336
-50.0   150.0   33.333333333333336
-100.0   150.0   33.333333333333336
-50.0   150.0   50.0
-100.0   120.0   50.0
-100.0   150.0   50.0
-50.0   150.0   50.0
-100.0   150.0   33.333333333333336
-100.0   120.0   50.0
-50.0   150.0   50.0
-50.0   120.0   50.0
-50.0   120.0   33.333333333333336
-100.0   120.0   50.0
-50.0   150.0   50.0
-50.0   120.0   33.333333333333336
-100.0   150.0   33.333333333333336
-50.0   0.0   0.0
0.0   0.0   0.0
-50.0   30.0   0.0
-50.0   0.0   16.666666666666668
0.0   0.0   0.0
0.0   30.0   0.0
-50.0   30.0   0.0
0.0   30.0   16.666666666666668
-50.0   0.0   16.666666666666668
-50.0   30.0   16.666666666666668
0.0   30.0   16.666666666666668
-50.0   30.0   0.0
-50.0   0.0   16.666666666666668
0.0   30.0   16.666666666666668
0.0   0.0   16.666666666666668
0.0   0.0   0.0
-50.0   0.0   16.666666666666668
0.0   30.0   16.666666666666668
0.0   0.0   0.0
-50.0   30.0   0.0
-50.0   0.0   16.666666666666668
0.0   0.0   16.666666666666668
-50.0   30.0   16.666666666666668
-50.0   0.0   33.333333333333336
0.0   0.0   16.666666666666668
0.0   30.0   16.666666666666668
-50.0   30.0   16.666666666666668
0.0   30.0   33.333333333333336
-50.0   0.0   33.333333333333336
-50.0   30.0   33.333333333333336
0.0   30.0   33.333333333333336
-50.0   30.0   16.666666666666668
-50.0   0.0   33.333333333333336
0.0   30.0   33.333333333333336
0.0   0.0   33.333333333333336
0.0   0.0   16.666666666666668
-50.0   0.0   33.333333333333336
0.0   30.0   33.333333333333336
0.0   0.0   16.666666666666668
-50.0   30.0   16.666666666666668
-50.0   0.0   33.333333333333336
0.0   0.0   33.333333333333336
-50.0   30.0   33.333333333333336
-50.0   0.0   50.0
0.0   0.0   33.333333333333336
0.0   30.0   33.333333333333336
-50.0   30.0   33.333333333333336
0.0   30.0   50.0
-50.0   0.0   50.0
-50.0   30.0   50.0
0.0   30.0   50.0
-50.0   30.0   33.333333333333336
-50.0   0.0   50.0
0.0   30.0   50.0
0.0   0.0   50.0
0.0   0.0   33.333333333333336
-50.0   0.0   50.0
0.0   30.0   50.0
0.0   0.0   33.333333333333336
-50.0   30.0   33.333333333333336
-50.0   30.0   0.0
0.0   30.0   0.0
-50.0   60.0   0.0
-50.0   30.0   16.666666666666668
0.0   30.0   0.0
0.0   60.0   0.0
-50.0   60.0   0.0
0.0   60.0   16.666666666666668
-50.0   30.0   16.666666666666668
-50.0   60.0   16.666666666666668
0.0   60.0   16.666666666666668
-50.0   60.0   0.0
-50.0   30.0   16.666666666666668
0.0   60.0   16.666666666666668
0.0   30.0   16.666666666666668
0.0   30.0   0.0
-50.0   30.0   16.666666666666668
0.0   60.0   16.666666666666668
0.0   30.0   0.0
-50.0   60.0   0.0
-50.0   30.0   16.666666666666668
0.0   30.0   16.666666666666668
-50.0   60.0   16.666666666666668
-50.0   30.0   33.333333333333336
0.0   30.0   16.666666666666668
0.0   60.0   16.666666666666668
-50.0   60.0   16.666666666666668
0.0   60.0   33.333333333333336
-50.0   30.0   33.333333333333336
-50.0   60.0   33.333333333333336
0.0   60.0   33.333333333333336
-50.0   60.0   16.666666666666668
-50.0   30.0   33.333333333333336
0.0   60.0   33.333333333333336
0.0   30.0   33.333333333333336
0.0   30.0   16.666666666666668
-50.0   30.0   33.333333333333336
0.0   60.0   33.333333333333336
0.0   30.0   16.666666666666668
-50.0   60.0   16.666666666666668
-50.0   30.0   33.333333333333336
0.0   30.0   33.333333333333336
-50.0   60.0   33.333333333333336
-50.0   30.0   50.0
0.0   30.0   33.333333333333336
0.0   60.0   33.333333333333336
-50.0   60.0   33.333333333333336
0.0   60.0   50.0
-50.0   30.0   50.0
-50.0   60.0   50.0
0.0   60.0   50.0
-50.0   60.0   33.333333333333336
-50.0   30.0   50.0
0.0   60.0   50.0
0.0   30.0   50.0
0.0   30.0   33.333333333333336
-50.0   30.0   50.0
0.0   60.0   50.0
0.0   30.0   33.333333333333336
-50.0   60.0   33.333333333333336
-50.0   60.0   0.0
0.0   60.0   0.0
-50.0   90.0   0.0
-50.0   60.0   16.666666666666668
0.0   60.0   0.0
0.0   90.0   0.0
-50.0   90.0   0.0
0.0   90.0   16.666666666666668
-50.0   60.0   16.666666666666668
-50.0   90.0   16.666666666666668
0.0   90.0   16.666666666666668
-50.0   90.0   0.0
-50.0   60.0   16.666666666666668
0.0   90.0   16.666666666666668
0.0   60.0   16.666666666666668
0.0   60.0   0.0
-50.0   60.0   16.666666666666668
0.0   90.0   16.666666666666668
0.0   60.0   0.0
-50.0   90.0   0.0
-50.0   60.0   16.666666666666668
0.0   60.0   16.666666666666668
-50.0   90.0   16.666666666666668
-50.0   60.0   33.333333333333336
0.0   60.0   16.666666666666668
0.0   90.0   16.666666666666668
-50.0   90.0   16.666666666666668
0.0   90.0   33.333333333333336
-50.0   60.0   33.333333333333336
-50.0   90.0   33.333333333333336
0.0   90.0   33.333333333333336
-50.0   90.0   16.666666666666668
-50.0   60.0   33.333333333333336
0.0   90.0   33.333333333333336
0.0   60.0   33.333333333333336
0.0   60.0   16.666666666666668
-50.0   60.0   33.333333333333336
0.0   90.0   33.333333333333336
0.0   60.0   16.666666666666668
-50.0   90.0   16.666666666666668
-50.0   60.0   33.333333333333336
0.0   60.0   33.333333333333336
-50.0   90.0   33.333333333333336
-50.0   60.0   50.0
0.0   60.0   33.333333333333336
0.0   90.0   33.333333333333336
-50.0   90.0   33.333333333333336
0.0   90.0   50.0
-50.0   60.0   50.0
-50.0   90.0   50.0
0.0   90.0   50.0
-50.0   90.0   33.333333333333336
-50.0   60.0   50.0
0.0   90.0   50.0
0.0   60.0   50.0
0.0   60.0   33.333333333333336
-50.0   60.0   50.0
0.0   90.0   50.0
0.0   60.0   33.333333333333336
-50.0   90.0   33.333333333333336
-50.0   90.0   0.0
0.0   90.0   0.0
-50.0   120.0   0.0
-50.0   90.0   16.666666666666668
0.0   90.0   0.0
0.0   120.0   0.0
-50.0   120.0   0.0
0.0   120.0   16.666666666666668
-50.0   90.0   16.666666666666668
-50.0   120.0   16.666666666666668
0.0   120.0   16.666666666666668
-50.0   120.0   0.0
-50.0   90.0   16.666666666666668
0.0   120.0   16.666666666666668
0.0   90.0   16.666666666666668
0.0   90.0   0.0
-50.0   90.0   16.666666666666668
0.0   120.0   16.666666666666668
0.0   90.0   0.0
-50.0   120.0   0.0
-50.0   90.0   16.666666666666668
0.0   90.0   16.666666666666668
-50.0   120.0   16.666666666666668
-50.0   90.0   33.333333333333336
0.0   90.0   16.666666666666668
0.0   120.0   16.666666666666668
-50.0   120.0   16.666666666666668
0.0   120.0   33.333333333333336
-50.0   90.0   33.333333333333336
-50.0   120.0   33.333333333333336
0.0   120.0   33.333333333333336
-50.0   120.0   16.666666666666668
-50.0   90.0   33.333333333333336
0.0   120.0   33.333333333333336
0.0   90.0   33.333333333333336
0.0   90.0   16.666666666666668
-50.0   90.0   33.333333333333336
0.0   120.0   33.333333333333336
0.0   90.0   16.666666666666668
-50.0   120.0   16.666666666666668
-50.0   90.0   33.333333333333336
0.0   90.0   33.333333333333336
-50.0   120.0   33.333333333333336
-50.0   90.0   50.0
0.0   90.0   33.333333333333336
0.0   120.0   33.333333333333336
-50.0   120.0   33.333333333333336
0.0   120.0   50.0
-50.0   90.0   50.0
-50.0   120.0   50.0
0.0   120.0   50.0
-50.0   120.0   33.333333333333336
-50.0   90.0   50.0
0.0   120.0   50.0
0.0   90.0   50.0
0.0   90.0   33.333333333333336
-50.0   90.0   50.0
0.0   120.0   50.0
0.0   90.0   33.333333333333336
-50.0   120.0   33.333333333333336
-50.0   120.0   0.0
0.0   120.0   0.0
-50.0   150.0   0.0
-50.0   120.0   16.666666666666668
0.0   120.0   0.0
0.0   150.0   0.0
-50.0   150.0   0.0
0.0   150.0   16.666666666666668
-50.0   120.0   16.666666666666668
-50.0   150.0   16.666666666666668
0.0   150.0   16.666666666666668
-50.0   150.0   0.0
-50.0   120.0   16.666666666666668
0.0   150.0   16.666666666666668
0.0   120.0   16.666666666666668
0.0   120.0   0.0
-50.0   120.0   16.666666666666668
0.0   150.0   16.666666666666668
0.0   120.0   0.0
-50.0   150.0   0.0
-50.0   120.0   16.666666666666668
0.0   120.0   16.666666666666668
-50.0   150.0   16.666666666666668
-50.0   120.0   33.333333333333336
0.0   120.0   16.666666666666668
0.0   150.0   16.666666666666668
-50.0   150.0   16.666666666666668
0.0   150.0   33.333333333333336
-50.0   120.0   33.333333333333336
-50.0   150.0   33.333333333333336
0.0   150.0   33.333333333333336
-50.0   150.0   16.666666666666668
-50.0   120.0   33.333333333333336
0.0   150.0   33.333333333333336
0.0   120.0   33.333333333333336
0.0   120.0   16.666666666666668
-50.0   120.0   33.333333333333336
0.0   150.0   33.333333333333336
0.0   120.0   16.666666666666668
-50.0   150.0   16.666666666666668
-50.0   120.0   33.333333333333336
0.0   120.0   33.333333333333336
-50.0   150.0   33.333333333333336
-50.0   120.0   50.0
0.0   120.0   33.333333333333336
0.0   150.0   33.333333333333336
-50.0   150.0   33.333333333333336
0.0   150.0   50.0
-50.0   120.0   50.0
-50.0   150.0   50.0
0.0   150.0   50.0
-50.0   150.0   33.333333333333336
-50.0   120.0   50.0
0.0   150.0   50.0
0.0   120.0   50.0
0.0   120.0   33.333333333333336
-50.0   120.0   50.0
0.0   150.0   50.0
0.0   120.0   33.333333333333336
-50.0   150.0   33.333333333333336
0.0   0.0   0.0
50.0   0.0   0.0
0.0   30.0   0.0
0.0   0.0   16.666666666666668
50.0   0.0   0.0
50.0   30.0   0.0
0.0   30.0   0.0
50.0   30.0   16.666666666666668
0.0   0.0   16.666666666666668
0.0   30.0   16.666666666666668
50.0   30.0   16.666666666666668
0.0   30.0   0.0
0.0   0.0   16.666666666666668
50.0   30.0   16.666666666666668
50.0   0.0   16.666666666666668
50.0   0.0   0.0
0.0   0.0   16.666666666666668
50.0   30.0   16.666666666666668
50.0   0.0   0.0
0.0   30.0   0.0
0.0   0.0   16.666666666666668
50.0   0.0   16.666666666666668
0.0   30.0   16.666666666666668
0.0   0.0   33.333333333333336
50.0   0.0   16.666666666666668
50.0   30.0   16.666666666666668
0.0   30.0   16.666666666666668
50.0   30.0   33.333333333333336
0.0   0.0   33.333333333333336
0.0   30.0   33.333333333333336
50.0   30.0   33.333333333333336
0.0   30.0   16.666666666666668
0.0   0.0   33.333333333333336
50.0   30.0   33.333333333333336
50.0   0.0   33.333333333333336
50.0   0.0   16.666666666666668
0.0   0.0   33.333333333333336
50.0   30.0   33.333333333333336
50.0   0.0   16.666666666666668
0.0   30.0   16.666666666666668
0.0   0.0   33.333333333333336
50.0   0.0   33.333333333333336
0.0   30.0   33.333333333333336
0.0   0.0   50.0
50.0   0.0   33.333333333333336
50.0   30.0   33.333333333333336
0.0   30.0   33.333333333333336
50.0   30.0   50.0
0.0   0.0   50.0
0.0   30.0   50.0
50.0   30.0   50.0
0.0   30.0   33.333333333333336
0.0   0.0   50.0
50.0   30.0   50.0
50.0   0.0   50.0
50.0   0.0   33.333333333333336
0.0   0.0   50.0
50.0   30.0   50.0
50.0   0.0   33.333333333333336
0.0   30.0   33.333333333333336
0.0   30.0   0.0
50.0   30.0   0.0
0.0   60.0   0.0
0.0   30.0   16.666666666666668
50.0   30.0   0.0
50.0   60.0   0.0
0.0   60.0   0.0
50.0   60.0   16.666666666666668
0.0   30.0   16.666666666666668
0.0   60.0   16.666666666666668
50.0   60.0   16.666666666666668
0.0   60.0   0.0
0.0   30.0   16.666666666666668
50.0   60.0   16.666666666666668
50.0   30.0   16.666666666666668
50.0   30.0   0.0
0.0   30.0   16.666666666666668
50.0   60.0   16.666666666666668
50.0   30.0   0.0
0.0   60.0   0.0
0.0   30.0   16.666666666666668
50.0   30.0   16.666666666666668
0.0   60.0   16.666666666666668
0.0   30.0   33.333333333333336
50.0   30.0   16.666666666666668
50.0   60.0   16.666666666666668
0.0   60.0   16.666666666666668
50.0   60.0   33.333333333333336
0.0   30.0   33.333333333333336
0.0   60.0   33.333333333333336
50.0   60.0   33.333333333333336
0.0   60.0   16.666666666666668
0.0   30.0   33.333333333333336
50.0   60.0   33.333333333333336
50.0   30.0   33.333333333333336
50.0   30.0   16.666666666666668
0.0   30.0   33.333333333333336
50.0   60.0   33.333333333333336
50.0   30.0   16.666666666666668
0.0   60.0   16.666666666666668
0.0   30.0   33.333333333333336
50.0   30.0   33.333333333333336
0.0   60.0   33.333333333333336
0.0   30.0   50.0
50.0   30.0   33.333333333333336
50.0   60.0   33.333333333333336
0.0   60.0   33.333333333333336
50.0   60.0   50.0
0.0   30.0   50.0
0.0   60.0   50.0
50.0   60.0   50.0
0.0   60.0   33.333333333333336
0.0   30.0   50.0
50.0   60.0   50.0
50.0   30.0   50.0
50.0   30.0   33.333333333333336
0.0   30.0   50.0
50.0   60.0   50.0
50.0   30.0   33.333333333333336
0.0   60.0   33.333333333333336
0.0   60.0   0.0
50.0   60.0   0.0
0.0   90.0   0.0
0.0   60.0   16.666666666666668
50.0   60.0   0.0
50.0   90.0   0.0
0.0   90.0   0.0
50.0   90.0   16.666666666666668
0.0   60.0   16.666666666666668
0.0   90.0   16.666666666666668
50.0   90.0   16.666666666666668
0.0   90.0   0.0
0.0   60.0   16.666666666666668
50.0   90.0   16.666666666666668
50.0   60.0   16.666666666666668
50.0   60.0   0.0
0.0   60.0   16.666666666666668
50.0   90.0   16.666666666666668
50.0   60.0   0.0
0.0   90.0   0.0
0.0   60.0   16.666666666666668
50.0   60.0   16.666666666666668
0.0   90.0   16.666666666666668
0.0   60.0   33.333333333333336
50.0   60.0   16.666666666666668
50.0   90.0   16.666666666666668
0.0   90.0   16.666666666666668
50.0   90.0   33.333333333333336
0.0   60.0   33.333333333333336
0.0   90.0   33.333333333333336
50.0   90.0   33.333333333333336
0.0   90.0   16.666666666666668
0.0   60.0   33.333333333333336
50.0   90.0   33.333333333333336
50.0   60.0   33.333333333333336
50.0   60.0   16.666666666666668
0.0   60.0   33.333333333333336
50.0   90.0   33.333333333333336
50.0   60.0   16.666666666666668
0.0   90.0   16.666666666666668
0.0   60.0   33.333333333333336
50.0   60.0   33.333333333333336
0.0   90.0   33.333333333333336
0.0   60.0   50.0
50.0   60.0   33.333333333333336
50.0   90.0   33.333333333333336
0.0   90.0   33.333333333333336
50.0   90.0   50.0
0.0   60.0   50.0
0.0   90.0   50.0
50.0   90.0   50.0
0.0   90.0   33.333333333333336
0.0   60.0   50.0
50.0   90.0   50.0
50.0   60.0   50.0
50.0   60.0   33.333333333333336
0.0   60.0   50.0
50.0   90.0   50.0
50.0   60.0   33.333333333333336
0.0   90.0   33.333333333333336
0.0   90.0   0.0
50.0   90.0   0.0
0.0   120.0   0.0
0.0   90.0   16.666666666666668
50.0   90.0   0.0
50.0   120.0   0.0
0.0   120.0   0.0
50.0   120.0   16.666666666666668
0.0   90.0   16.666666666666668
0.0   120.0   16.666666666666668
50.0   120.0   16.666666666666668
0.0   120.0   0.0
0.0   90.0   16.666666666666668
50.0   120.0   16.666666666666668
50.0   90.0   16.666666666666668
50.0   90.0   0.0
0.0   90.0   16.666666666666668
50.0   120.0   16.666666666666668
50.0   90.0   0.0
0.0   120.0   0.0
0.0   90.0   16.666666666666668
50.0   90.0   16.666666666666668
0.0   120.0   16.666666666666668
0.0   90.0   33.333333333333336
50.0   90.0   16.666666666666668
50.0   120.0   16.666666666666668
0.0   120.0   16.666666666666668
50.0   120.0   33.333333333333336
0.0   90.0   33.333333333333336
0.0   120.0   33.333333333333336
50.0   120.0   33.333333333333336
0.0   120.0   16.666666666666668
0.0   90.0   33.333333333333336
50.0   120.0   33.333333333333336
50.0   90.0   33.333333333333336
50.0   90.0   16.666666666666668
0.0   90.0   33.333333333333336
50.0   120.0   33.333333333333336
50.0   90.0   16.666666666666668
0.0   120.0   16.666666666666668
0.0   90.0   33.333333333333336
50.0   90.0   33.333333333333336
0.0   120.0   33.333333333333336
0.0   90.0   50.0
50.0   90.0   33.333333333333336
50.0   120.0   33.333333333333336
0.0   120.0   33.333333333333336
50.0   120.0   50.0
0.0   90.0   50.0
0.0   120.0   50.0
50.0   120.0   50.0
0.0   120.0   33.333333333333336
0.0   90.0   50.0
50.0   120.0   50.0
50.0   90.0   50.0
50.0   90.0   33.333333333333336
0.0   90.0   50.0
50.0   120.0   50.0
50.0   90.0   33.333333333333336
0.0   120.0   33.333333333333336
0.0   120.0   0.0
50.0   120.0   0.0
0.0   150.0   0.0
0.0   120.0   16.666666666666668
50.0   120.0   0.0
50.0   150.0   0.0
0.0   150.0   0.0
50.0   150.0   16.666666666666668
0.0   120.0   16.666666666666668
0.0   150.0   16.666666666666668
50.0   150.0   16.666666666666668
0.0   150.0   0.0
0.0   120.0   16.666666666666668
50.0   150.0   16.666666666666668
50.0   120.0   16.666666666666668
50.0   120.0   0.0
0.0   120.0   16.666666666666668
50.0   150.0   16.666666666666668
50.0   120.0   0.0
0.0   150.0   0.0
0.0   120.0   16.666666666666668
50.0   120.0   16.666666666666668
0.0   150.0   16.666666666666668
0.0   120.0   33.333333333333336
50.0   120.0   16.666666666666668
50.0   150.0   16.666666666666668
0.0   150.0   16.666666666666668
50.0   150.0   33.333333333333336
0.0   120.0   33.333333333333336
0.0   150.0   33.333333333333336
50.0   150.0   33.333333333333336
0.0   150.0   16.666666666666668
0.0   120.0   33.333333333333336
50.0   150.0   33.333333333333336
50.0   120.0   33.333333333333336
50.0   120.0   16.666666666666668
0.0   120.0   33.333333333333336
50.0   150.0   33.333333333333336
50.0   120.0   16.666666666666668
0.0   150.0   16.666666666666668
0.0   120.0   33.333333333333336
50.0   120.0   33.333333333333336
0.0   150.0   33.333333333333336
0.0   120.0   50.0
50.0   120.0   33.333333333333336
50.0   150.0   33.333333333333336
0.0   150.0   33.333333333333336
50.0   150.0   50.0
0.0   120.0   50.0
0.0   150.0   50.0
50.0   150.0   50.0
0.0   150.0   33.333333333333336
0.0   120.0   50.0
50.0   150.0   50.0
50.0   120.0   50.0
50.0   120.0   33.333333333333336
0.0   120.0   50.0
50.0   150.0   50.0
50.0   120.0   33.333333333333336
0.0   150.0   33.333333333333336
50.0   0.0   0.0
100.0   0.0   0.0
50.0   30.0   0.0
50.0   0.0   16.666666666666668
100.0   0.0   0.0
100.0   30.0   0.0
50.0   30.0   0.0
100.0   30.0   16.666666666666668
50.0   0.0   16.666666666666668
50.0   30.0   16.666666666666668
100.0   30.0   16.666666666666668
50.0   30.0   0.0
50.0   0.0   16.666666666666668
100.0   30.0   16.666666666666668
100.0   0.0   16.666666666666668
100.0   0.0   0.0
50.0   0.0   16.666666666666668
100.0   30.0   16.666666666666668
100.0   0.0   0.0
50.0   30.0   0.0
50.0   0.0   16.666666666666668
100.0   0.0   16.666666666666668
50.0   30.0   16.666666666666668
50.0   0.0   33.333333333333336
100.0   0.0   16.666666666666668
100.0   30.0   16.666666666666668
50.0   30.0   16.666666666666668
100.0   30.0   33.333333333333336
50.0   0.0   33.333333333333336
50.0   30.0   33.333333333333336
100.0   30.0   33.333333333333336
50.0   30.0   16.666666666666668
50.0   0.0   33.333333333333336
100.0   30.0   33.333333333333336
100.0   0.0   33.333333333333336
100.0   0.0   16.666666666666668
50.0   0.0   33.333333333333336
100.0   30.0   33.333333333333336
100.0   0.0   16.666666666666668
50.0   30.0   16.666666666666668
50.0   0.0   33.333333333333336
100.0   0.0   33.333333333333336
50.0   30.0   33.333333333333336
50.0   0.0   50.0
100.0   0.0   33.333333333333336
100.0   30.0   33.333333333333336
50.0   30.0   33.333333333333336
100.0   30.0   50.0
50.0   0.0   50.0
50.0   30.0   50.0
100.0   30.0   50.0
50.0   30.0   33.333333333333336
50.0   0.0   50.0
100.0   30.0   50.0
100.0   0.0   50.0
100.0   0.0   33.333333333333336
50.0   0.0   50.0
100.0   30.0   50.0
100.0   0.0   33.333333333333336
50.0   30.0   33.333333333333336
50.0   30.0   0.0
100.0   30.0   0.0
50.0   60.0   0.0
50.0   30.0   16.666666666666668
100.0   30.0   0.0
100.0   60.0   0.0
50.0   60.0   0.0
100.0   60.0   16.666666666666668
50.0   30.0   16.666666666666668
50.0   60.0   16.666666666666668
100.0   60.0   16.666666666666668
50.0   60.0   0.0
50.0   30.0   16.666666666666668
100.0   60.0   16.666666666666668
100.0   30.0   16.666666666666668
100.0   30.0   0.0
50.0   30.0   16.666666666666668
100.0   60.0   16.666666666666668
100.0   30.0   0.0
50.0   60.0   0.0
50.0   30.0   16.666666666666668
100.0   30.0   16.666666666666668
50.0   60.0   16.666666666666668
50.0   30.0   33.333333333333336
100.0   30.0   16.666666666666668
100.0   60.0   16.666666666666668
50.0   60.0   16.666666666666668
100.0   60.0   33.333333333333336
50.0   30.0   33.333333333333336
50.0   60.0   33.333333333333336
100.0   60.0   33.333333333333336
50.0   60.0   16.666666666666668
50.0   30.0   33.333333333333336
100.0   60.0   33.333333333333336
100.0   30.0   33.333333333333336
100.0   30.0   16.666666666666668
50.0   30.0   33.333333333333336
100.0   60.0   33.333333333333336
100.0   30.0   16.666666666666668
50.0   60.0   16.666666666666668
50.0   30.0   33.333333333333336
100.0   30.0   33.333333333333336
50.0   60.0   33.333333333333336
50.0   30.0   50.0
100.0   30.0   33.333333333333336
100.0   60.0   33.333333333333336
50.0   60.0   33.333333333333336
100.0   60.0   50.0
50.0   30.0   50.0
50.0   60.0   50.0
100.0   60.0   50.0
50.0   60.0   33.333333333333336
50.0   30.0   50.0
100.0   60.0   50.0
100.0   30.0   50.0
100.0   30.0   33.333333333333336
50.0   30.0   50.0
100.0   60.0   50.0
100.0   30.0   33.333333333333336
50.0   60.0   33.333333333333336
50.0   60.0   0.0
100.0   60.0   0.0
50.0   90.0   0.0
50.0   60.0   16.666666666666668
100.0   60.0   0.0
100.0   90.0   0.0
50.0   90.0   0.0
100.0   90.0   16.666666666666668
50.0   60.0   16.666666666666668
50.0   90.0   16.666666666666668
100.0   90.0   16.666666666666668
50.0   90.0   0.0
50.0   60.0   16.666666666666668
100.0   90.0   16.666666666666668
100.0   60.0   16.666666666666668
100.0   60.0   0.0
50.0   60.0   16.666666666666668
100.0   90.0   16.666666666666668
100.0   60.0   0.0
50.0   90.0   0.0
50.0   60.0   16.666666666666668
100.0   60.0   16.666666666666668
50.0   90.0   16.666666666666668
50.0   60.0   33.333333333333336
100.0   60.0   16.666666666666668
100.0   90.0   16.666666666666668
50.0   90.0   16.666666666666668
100.0   90.0   33.333333333333336
50.0   60.0   33.333333333333336
50.0   90.0   33.333333333333336
100.0   90.0   33.333333333333336
50.0   90.0   16.666666666666668
50.0   60.0   33.333333333333336
100.0   90.0   33.333333333333336
100.0   60.0   33.333333333333336
100.0   60.0   16.666666666666668
50.0   60.0   33.333333333333336
100.0   90.0   33.333333333333336
100.0   60.0   16.666666666666668
50.0   90.0   16.666666666666668
50.0   60.0   33.333333333333336
100.0   60.0   33.333333333333336
50.0   90.0   33.333333333333336
50.0   60.0   50.0
100.0   60.0   33.333333333333336
100.0   90.0   33.333333333333336
50.0   90.0   33.333333333333336
100.0   90.0   50.0
50.0   60.0   50.0
50.0   90.0   50.0
100.0   90.0   50.0
50.0   90.0   33.333333333333336
50.0   60.0   50.0
100.0   90.0   50.0
100.0   60.0   50.0
100.0   60.0   33.333333333333336
50.0   60.0   50.0
100.0   90.0   50.0
100.0   60.0   33.333333333333336
50.0   90.0   33.333333333333336
50.0   90.0   0.0
100.0   90.0   0.0
50.0   120.0   0.0
50.0   90.0   16.666666666666668
100.0   90.0   0.0
100.0   120.0   0.0
50.0   120.0   0.0
100.0   120.0   16.666666666666668
50.0   90.0   16.666666666666668
50.0   120.0   16.666666666666668
100.0   120.0   16.666666666666668
50.0   120.0   0.0
50.0   90.0   16.666666666666668
100.0   120.0   16.666666666666668
100.0   90.0   16.666666666666668
100.0   90.0   0.0
50.0   90.0   16.666666666666668
100.0   120.0   16.666666666666668
100.0   90.0   0.0
50.0   120.0   0.0
50.0   90.0   16.666666666666668
100.0   90.0   16.666666666666668
50.0   120.0   16.666666666666668
50.0   90.0   33.333333333333336
100.0   90.0   16.666666666666668
100.0   120.0   16.666666666666668
50.0   120.0   16.666666666666668
100.0   120.0   33.333333333333336
50.0   90.0   33.333333333333336
50.0   120.0   33.333333333333336
100.0   120.0   33.333333333333336
50.0   120.0   16.666666666666668
50.0   90.0   33.333333333333336
100.0   120.0   33.333333333333336
100.0   90.0   33.333333333333336
100.0   90.0   16.666666666666668
50.0   90.0   33.333333333333336
100.0   120.0   33.333333333333336
100.0   90.0   16.666666666666668
50.0   120.0   16.666666666666668
50.0   90.0   33.333333333333336
100.0   90.0   33.333333333333336
50.0   120.0   33.333333333333336
50.0   90.0   50.0
100.0   90.0   33.333333333333336
100.0   120.0   33.333333333333336
50.0   120.0   33.333333333333336
100.0   120.0   50.0
50.0   90.0   50.0
50.0   120.0   50.0
100.0   120.0   50.0
50.0   120.0   33.333333333333336
50.0   90.0   50.0
100.0   120.0   50.0
100.0   90.0   50.0
100.0   90.0   33.333333333333336
50.0   90.0   50.0
100.0   120.0   50.0
100.0   90.0   33.333333333333336
50.0   120.0   33.333333333333336
50.0   120.0   0.0
100.0   120.0   0.0
50.0   150.0   0.0
50.0   120.0   16.666666666666668
100.0   120.0   0.0
100.0   150.0   0.0
50.0   150.0   0.0
100.0   150.0   16.666666666666668
50.0   120.0   16.666666666666668
50.0   150.0   16.666666666666668
100.0   150.0   16.666666666666668
50.0   150.0   0.0
50.0   120.0   16.666666666666668
100.0   150.0   16.666666666666668
100.0   120.0   16.666666666666668
100.0   120.0   0.0
50.0   120.0   16.666666666666668
100.0   150.0   16.666666666666668
100.0   120.0   0.0
50.0   150.0   0.0
50.0   120.0   16.666666666666668
100.0   120.0   16.666666666666668
50.0   150.0   16.666666666666668
50.0   120.0   33.333333333333336
100.0   120.0   16.666666666666668
100.0   150.0   16.666666666666668
50.0   150.0   16.666666666666668
100.0   150.0   33.333333333333336
50.0   120.0   33.333333333333336
50.0   150.0   33.333333333333336
100.0   150.0   33.333333333333336
50.0   150.0   16.666666666666668
50.0   120.0   33.333333333333336
100.0   150.0   33.333333333333336
100.0   120.0   33.333333333333336
100.0   120.0   16.666666666666668
50.0   120.0   33.333333333333336
100.0   150.0   33.333333333333336
100.0   120.0   16.666666666666668
50.0   150.0   16.666666666666668
50.0   120.0   33.333333333333336
100.0   120.0   33.333333333333336
50.0   150.0   33.333333333333336
50.0   120.0   50.0
100.0   120.0   33.333333333333336
100.0   150.0   33.333333333333336
50.0   150.0   33.333333333333336
100.0   150.0   50.0
50.0   120.0   50.0
50.0   150.0   50.0
100.0   150.0   50.0
50.0   150.0   33.333333333333336
50.0   120.0   50.0
100.0   150.0   50.0
100.0   120.0   50.0
100.0   120.0   33.333333333333336
50.0   120.0   50.0
100.0   150.0   50.0
100.0   120.0   33.333333333333336
50.0   150.0   33.333333333333336
100.0   0.0   0.0
150.0   0.0   0.0
100.0   30.0   0.0
100.0   0.0   16.666666666666668
150.0   0.0   0.0
150.0   30.0   0.0
100.0   30.0   0.0
150.0   30.0   16.666666666666668
100.0   0.0   16.666666666666668
100.0   30.0   16.666666666666668
150.0   30.0   16.666666666666668
100.0   30.0   0.0
100.0   0.0   16.666666666666668
150.0   30.0   16.666666666666668
150.0   0.0   16.666666666666668
150.0   0.0   0.0
100.0   0.0   16.666666666666668
150.0   30.0   16.666666666666668
150.0   0.0   0.0
100.0   30.0   0.0
100.0   0.0   16.666666666666668
150.0   0.0   16.666666666666668
100.0   30.0   16.666666666666668
100.0   0.0   33.333333333333336
150.0   0.0   16.666666666666668
150.0   30.0   16.666666666666668
100.0   30.0   16.666666666666668
150.0   30.0   33.333333333333336
100.0   0.0   33.333333333333336
100.0   30.0   33.333333333333336
150.0   30.0   33.333333333333336
100.0   30.0   16.666666666666668
100.0   0.0   33.333333333333336
150.0   30.0   33.333333333333336
150.0   0.0   33.333333333333336
150.0   0.0   16.666666666666668
100.0   0.0   33.333333333333336
150.0   30.0   33.333333333333336
150.0   0.0   16.666666666666668
100.0   30.0   16.666666666666668
100.0   0.0   33.333333333333336
150.0   0.0   33.333333333333336
100.0   30.0   33.333333333333336
100.0   0.0   50.0
150.0   0.0   33.333333333333336
150.0   30.0   33.333333333333336
100.0   30.0   33.333333333333336
150.0   30.0   50.0
100.0   0.0   50.0
100.0   30.0   50.0
150.0   30.0   50.0
100.0   30.0   33.333333333333336
100.0   0.0   50.0
150.0   30.0   50.0
150.0   0.0   50.0
150.0   0.0   33.333333333333336
100.0   0.0   50.0
150.0   30.0   50.0
150.0   0.0   33.333333333333336
100.0   30.0   33.333333333333336
100.0   30.0   0.0
150.0   30.0   0.0
100.0   60.0   0.0
100.0   30.0   16.666666666666668
150.0   30.0   0.0
150.0   60.0   0.0
100.0   60.0   0.0
150.0   60.0   16.666666666666668
100.0   30.0   16.666666666666668
100.0   60.0   16.666666666666668
150.0   60.0   16.666666666666668
100.0   60.0   0.0
100.0   30.0   16.666666666666668
150.0   60.0   16.666666666666668
150.0   30.0   16.666666666666668
150.0   30.0   0.0
100.0   30.0   16.666666666666668
150.0   60.0   16.666666666666668
150.0   30.0   0.0
100.0   60.0   0.0
100.0   30.0   16.666666666666668
150.0   30.0   16.666666666666668
100.0   60.0   16.666666666666668
100.0   30.0   33.333333333333336
150.0   30.0   16.666666666666668
150.0   60.0   16.666666666666668
100.0   60.0   16.666666666666668
150.0   60.0   33.333333333333336
100.0   30.0   33.333333333333336
100.0   60.0   33.333333333333336
150.0   60.0   33.333333333333336
100.0   60.0   16.666666666666668
100.0   30.0   33.333333333333336
150.0   60.0   33.333333333333336
150.0   30.0   33.333333333333336
150.0   30.0   16.666666666666668
100.0   30.0   33.333333333333336
150.0   60.0   33.333333333333336
150.0   30.0   16.666666666666668
100.0   60.0   16.666666666666668
100.0   30.0   33.333333333333336
150.0   30.0   33.333333333333336
100.0   60.0   33.333333333333336
100.0   30.0   50.0
150.0   30.0   33.333333333333336
150.0   60.0   33.333333333333336
100.0   60.0   33.333333333333336
150.0   60.0   50.0
100.0   30.0   50.0
100.0   60.0   50.0
150.0   60.0   50.0
100.0   60.0   33.333333333333336
100.0   30.0   50.0
150.0   60.0   50.0
150.0   30.0   50.0
150.0   30.0   33.333333333333336
100.0   30.0   50.0
150.0   60.0   50.0
150.0   30.0   33.333333333333336
100.0   60.0   33.333333333333336
100.0   60.0   0.0
150.0   60.0   0.0
100.0   90.0   0.0
100.0   60.0   16.666666666666668
150.0   60.0   0.0
150.0   90.0   0.0
100.0   90.0   0.0
150.0   90.0   16.666666666666668
100.0   60.0   16.666666666666668
100.0   90.0   16.666666666666668
150.0   90.0   16.666666666666668
100.0   90.0   0.0
100.0   60.0   16.666666666666668
150.0   90.0   16.666666666666668
150.0   60.0   16.666666666666668
150.0   60.0   0.0
100.0   60.0   16.666666666666668
150.0   90.0   16.666666666666668
150.0   60.0   0.0
100.0   90.0   0.0
100.0   60.0   16.666666666666668
150.0   60.0   16.666666666666668
100.0   90.0   16.666666666666668
100.0   60.0   33.333333333333336
150.0   60.0   16.666666666666668
150.0   90.0   16.666666666666668
100.0   90.0   16.666666666666668
150.0   90.0   33.333333333333336
100.0   60.0   33.333333333333336
100.0   90.0   33.333333333333336
150.0   90.0   33.333333333333336
100.0   90.0   16.666666666666668
100.0   60.0   33.333333333333336
150.0   90.0   33.333333333333336
150.0   60.0   33.333333333333336
150.0   60.0   16.666666666666668
100.0   60.0   33.333333333333336
150.0   90.0   33.333333333333336
150.0   60.0   16.666666666666668
100.0   90.0   16.666666666666668
100.0   60.0   33.333333333333336
150.0   60.0   33.333333333333336
100.0   90.0   33.333333333333336
100.0   60.0   50.0
150.0   60.0   33.333333333333336
150.0   90.0   33.333333333333336
100.0   90.0   33.333333333333336
150.0   90.0   50.0
100.0   60.0   50.0
100.0   90.0   50.0
150.0   90.0   50.0
100.0   90.0   33.333333333333336
100.0   60.0   50.0
150.0   90.0   50.0
150.0   60.0   50.0
150.0   60.0   33.333333333333336
100.0   60.0   50.0
150.0   90.0   50.0
150.0   60.0   33.333333333333336
100.0   90.0   33.333333333333336
100.0   90.0   0.0
150.0   90.0   0.0
100.0   120.0   0.0
100.0   90.0   16.666666666666668
150.0   90.0   0.0
150.0   120.0   0.0
100.0   120.0   0.0
150.0   120.0   16.666666666666668
100.0   90.0   16.666666666666668
100.0   120.0   16.666666666666668
150.0   120.0   16.666666666666668
100.0   120.0   0.0
100.0   90.0   16.666666666666668
150.0   120.0   16.666666666666668
150.0   90.0   16.666666666666668
150.0   90.0   0.0
100.0   90.0   16.666666666666668
150.0   120.0   16.666666666666668
150.0   90.0   0.0
100.0   120.0   0.0
100.0   90.0   16.666666666666668
150.0   90.0   16.666666666666668
100.0   120.0   16.666666666666668
100.0   90.0   33.333333333333336
150.0   90.0   16.666666666666668
150.0   120.0   16.666666666666668
100.0   120.0   16.666666666666668
150.0   120.0   33.333333333333336
100.0   90.0   33.333333333333336
100.0   120.0   33.333333333333336
150.0   120.0   33.333333333333336
100.0   120.0   16.666666666666668
100.0   90.0   33.333333333333336
150.0   120.0   33.333333333333336
150.0   90.0   33.333333333333336
150.0   90.0   16.666666666666668
100.0   90.0   33.333333333333336
150.0   120.0   33.333333333333336
150.0   90.0   16.666666666666668
100.0   120.0   16.666666666666668
100.0   90.0   33.333333333333336
150.0   90.0   33.333333333333336
100.0   120.0   33.333333333333336
100.0   90.0   50.0
150.0   90.0   33.333333333333336
150.0   120.0   33.333333333333336
100.0   120.0   33.333333333333336
150.0   120.0   50.0
100.0   90.0   50.0
100.0   120.0   50.0
150.0   120.0   50.0
100.0   120.0   33.333333333333336
100.0   90.0   50.0
150.0   120.0   50.0
150.0   90.0   50.0
150.0   90.0   33.333333333333336
100.0   90.0   50.0
150.0   120.0   50.0
150.0   90.0   33.333333333333336
100.0   120.0   33.333333333333336
100.0   120.0   0.0
150.0   120.0   0.0
100.0   150.0   0.0
100.0   120.0   16.666666666666668
150.0   120.0   0.0
150.0   150.0   0.0
100.0   150.0   0.0
150.0   150.0   16.666666666666668
100.0   120.0   16.666666666666668
100.0   150.0   16.666666666666668
150.0   150.0   16.666666666666668
100.0   150.0   0.0
100.0   120.0   16.666666666666668
150.0   150.0   16.666666666666668
150.0   120.0   16.666666666666668
150.0   120.0   0.0
100.0   120.0   16.666666666666668
150.0   150.0   16.666666666666668
150.0   120.0   0.0
100.0   150.0   0.0
100.0   120.0   16.666666666666668
150.0   120.0   16.666666666666668
100.0   150.0   16.666666666666668
100.0   120.0   33.333333333333336
150.0   120.0   16.666666666666668
150.0   150.0   16.666666666666668
100.0   150.0   16.666666666666668
150.0   150.0   33.333333333333336
100.0   120.0   33.333333333333336
100.0   150.0   33.333333333333336
150.0   150.0   33.333333333333336
100.0   150.0   16.666666666666668
100.0   120.0   33.333333333333336
150.0   150.0   33.333333333333336
150.0   120.0   33.333333333333336
150.0   120.0   16.666666666666668
100.0   120.0   33.333333333333336
150.0   150.0   33.333333333333336
150.0   120.0   16.666666666666668
100.0   150.0   16.666666666666668
100.0   120.0   33.333333333333336
150.0   120.0   33.333333333333336
100.0   150.0   33.333333333333336
100.0   120.0   50.0
150.0   120.0   33.333333333333336
150.0   150.0   33.333333333333336
100.0   150.0   33.333333333333336
150.0   150.0   50.0
100.0   120.0   50.0
100.0   150.0   50.0
150.0   150.0   50.0
100.0   150.0   33.333333333333336
100.0   120.0   50.0
150.0   150.0   50.0
150.0   120.0   50.0
150.0   120.0   33.333333333333336
100.0   120.0   50.0
150.0   150.0   50.0
150.0   120.0   33.333333333333336
100.0   150.0   33.333333333333336
150.0   0.0   0.0
200.0   0.0   0.0
150.0   30.0   0.0
150.0   0.0   16.666666666666668
200.0   0.0   0.0
200.0   30.0   0.0
150.0   30.0   0.0
200.0   30.0   16.666666666666668
150.0   0.0   16.666666666666668
150.0   30.0   16.666666666666668
200.0   30.0   16.666666666666668
150.0   30.0   0.0
150.0   0.0   16.666666666666668
200.0   30.0   16.666666666666668
200.0   0.0   16.666666666666668
200.0   0.0   0.0
150.0   0.0   16.666666666666668
200.0   30.0   16.666666666666668
200.0   0.0   0.0
150.0   30.0   0.0
150.0   0.0   16.666666666666668
200.0   0.0   16.666666666666668
150.0   30.0   16.666666666666668
150.0   0.0   33.333333333333336
200.0   0.0   16.666666666666668
200.0   30.0   16.666666666666668
150.0   30.0   16.666666666666668
200.0   30.0   33.333333333333336
150.0   0.0   33.333333333333336
150.0   30.0   33.333333333333336
200.0   30.0   33.333333333333336
150.0   30.0   16.666666666666668
150.0   0.0   33.333333333333336
200.0   30.0   33.333333333333336
200.0   0.0   33.333333333333336
200.0   0.0   16.666666666666668
150.0   0.0   33.333333333333336
200.0   30.0   33.333333333333336
200.0   0.0   16.666666666666668
150.0   30.0   16.666666666666668
150.0   0.0   33.333333333333336
200.0   0.0   33.333333333333336
150.0   30.0   33.333333333333336
150.0   0.0   50.0
200.0   0.0   33.333333333333336
200.0   30.0   33.333333333333336
150.0   30.0   33.333333333333336
200.0   30.0   50.0
150.0   0.0   50.0
150.0   30.0   50.0
200.0   30.0   50.0
150.0   30.0   33.333333333333336
150.0   0.0   50.0
200.0   30.0   50.0
200.0   0.0   50.0
200.0   0.0   33.333333333333336
150.0   0.0   50.0
200.0   30.0   50.0
200.0   0.0   33.333333333333336
150.0   30.0   33.333333333333336
150.0   30.0   0.0
200.0   30.0   0.0
150.0   60.0   0.0
150.0   30.0   16.666666666666668
200.0   30.0   0.0
200.0   60.0   0.0
150.0   60.0   0.0
200.0   60.0   16.666666666666668
150.0   30.0   16.666666666666668
150.0   60.0   16.666666666666668
200.0   60.0   16.666666666666668
150.0   60.0   0.0
150.0   30.0   16.666666666666668
200.0   60.0   16.666666666666668
200.0   30.0   16.666666666666668
200.0   30.0   0.0
150.0   30.0   16.666666666666668
200.0   60.0   16.666666666666668
200.0   30.0   0.0
150.0   60.0   0.0
150.0   30.0   16.666666666666668
200.0   30.0   16.666666666666668
150.0   60.0   16.666666666666668
150.0   30.0   33.333333333333336
200.0   30.0   16.666666666666668
200.0   60.0   16.666666666666668
150.0   60.0   16.666666666666668
200.0   60.0   33.333333333333336
150.0   30.0   33.333333333333336
150.0   60.0   33.333333333333336
200.0   60.0   33.333333333333336
150.0   60.0   16.666666666666668
150.0   30.0   33.333333333333336
200.0   60.0   33.333333333333336
200.0   30.0   33.333333333333336
200.0   30.0   16.666666666666668
150.0   30.0   33.333333333333336
200.0   60.0   33.333333333333336
200.0   30.0   16.666666666666668
150.0   60.0   16.666666666666668
150.0   30.0   33.333333333333336
200.0   30.0   33.333333333333336
150.0   60.0   33.333333333333336
150.0   30.0   50.0
200.0   30.0   33.333333333333336
200.0   60.0   33.333333333333336
150.0   60.0   33.333333333333336
200.0   60.0   50.0
150.0   30.0   50.0
150.0   60.0   50.0
200.0   60.0   50.0
150.0   60.0   33.333333333333336
150.0   30.0   50.0
200.0   60.0   50.0
200.0   30.0   50.0
200.0   30.0   33.333333333333336
150.0   30.0   50.0
200.0   60.0   50.0
200.0   30.0   33.333333333333336
150.0   60.0   33.333333333333336
150.0   60.0   0.0
200.0   60.0   0.0
150.0   90.0   0.0
150.0   60.0   16.666666666666668
200.0   60.0   0.0
200.0   90.0   0.0
150.0   90.0   0.0
200.0   90.0   16.666666666666668
150.0   60.0   16.666666666666668
150.0   90.0   16.666666666666668
200.0   90.0   16.666666666666668
150.0   90.0   0.0
150.0   60.0   16.666666666666668
200.0   90.0   16.666666666666668
200.0   60.0   16.666666666666668
200.0   60.0   0.0
150.0   60.0   16.666666666666668
200.0   90.0   16.666666666666668
200.0   60.0   0.0
150.0   90.0   0.0
150.0   60.0   16.666666666666668
200.0   60.0   16.666666666666668
150.0   90.0   16.666666666666668
150.0   60.0   33.333333333333336
200.0   60.0   16.666666666666668
200.0   90.0   16.666666666666668
150.0   90.0   16.666666666666668
200.0   90.0   33.333333333333336
150.0   60.0   33.333333333333336
150.0   90.0   33.333333333333336
200.0   90.0   33.333333333333336
150.0   90.0   16.666666666666668
150.0   60.0   33.333333333333336
200.0   90.0   33.333333333333336
200.0   60.0   33.333333333333336
200.0   60.0   16.666666666666668
150.0   60.0   33.333333333333336
200.0   90.0   33.333333333333336
200.0   60.0   16.666666666666668
150.0   90.0   16.666666666666668
150.0   60.0   33.333333333333336
200.0   60.0   33.333333333333336
150.0   90.0   33.333333333333336
150.0   60.0   50.0
200.0   60.0   33.333333333333336
200.0   90.0   33.333333333333336
150.0   90.0   33.333333333333336
200.0   90.0   50.0
150.0   60.0   50.0
150.0   90.0   50.0
200.0   90.0   50.0
150.0   90.0   33.333333333333336
150.0   60.0   50.0
200.0   90.0   50.0
200.0   60.0   50.0
200.0   60.0   33.333333333333336
150.0   60.0   50.0
200.0   90.0   50.0
200.0   60.0   33.333333333333336
150.0   90.0   33.333333333333336
150.0   90.0   0.0
200.0   90.0   0.0
150.0   120.0   0.0
150.0   90.0   16.666666666666668
200.0   90.0   0.0
200.0   120.0   0.0
150.0   120.0   0.0
200.0   120.0   16.666666666666668
150.0   90.0   16.666666666666668
150.0   120.0   16.666666666666668
200.0   120.0   16.666666666666668
150.0   120.0   0.0
150.0   90.0   16.666666666666668
200.0   120.0   16.666666666666668
200.0   90.0   16.666666666666668
200.0   90.0   0.0
150.0   90.0   16.666666666666668
200.0   120.0   16.666666666666668
200.0   90.0   0.0
150.0   120.0   0.0
150.0   90.0   16.666666666666668
200.0   90.0   16.666666666666668
150.0   120.0   16.666666666666668
150.0   90.0   33.333333333333336
200.0   90.0   16.666666666666668
200.0   120.0   16.666666666666668
150.0   120.0   16.666666666666668
200.0   120.0   33.333333333333336
150.0   90.0   33.333333333333336
150.0   120.0   33.333333333333336
200.0   120.0   33.333333333333336
150.0   120.0   16.666666666666668
150.0   90.0   33.333333333333336
200.0   120.0   33.333333333333336
200.0   90.0   33.333333333333336
200.0   90.0   16.666666666666668
150.0   90.0   33.333333333333336
200.0   120.0   33.333333333333336
200.0   90.0   16.666666666666668
150.0   120.0   16.666666666666668
150.0   90.0   33.333333333333336
200.0   90.0   33.333333333333336
150.0   120.0   33.333333333333336
150.0   90.0   50.0
200.0   90.0   33.333333333333336
200.0   120.0   33.333333333333336
150.0   120.0   33.333333333333336
200.0   120.0   50.0
150.0   90.0   50.0
150.0   120.0   50.0
200.0   120.0   50.0
150.0   120.0   33.333333333333336
150.0   90.0   50.0
200.0   120.0   50.0
200.0   90.0   50.0
200.0   90.0   33.333333333333336
150.0   90.0   50.0
200.0   120.0   50.0
200.0   90.0   33.333333333333336
150.0   120.0   33.333333333333336
150.0   120.0   0.0
200.0   120.0   0.0
150.0   150.0   0.0
150.0   120.0   16.666666666666668
200.0   120.0   0.0
200.0   150.0   0.0
150.0   150.0   0.0
200.0   150.0   16.666666666666668
150.0   120.0   16.666666666666668
150.0   150.0   16.666666666666668
200.0   150.0   16.666666666666668
150.0   150.0   0.0
150.0   120.0   16.666666666666668
200.0   150.0   16.666666666666668
200.0   120.0   16.666666666666668
200.0   120.0   0.0
150.0   120.0   16.666666666666668
200.0   150.0   16.666666666666668
200.0   120.0   0.0
150.0   150.0   0.0
150.0   120.0   16.666666666666668
200.0   120.0   16.666666666666668
150.0   150.0   16.666666666666668
150.0   120.0   33.333333333333336
200.0   120.0   16.666666666666668
200.0   150.0   16.666666666666668
150.0   150.0   16.666666666666668
200.0   150.0   33.333333333333336
150.0   120.0   33.333333333333336
150.0   150.0   33.333333333333336
200.0   150.0   33.333333333333336
150.0   150.0   16.666666666666668
150.0   120.0   33.333333333333336
200.0   150.0   33.333333333333336
200.0   120.0   33.333333333333336
200.0   120.0   16.666666666666668
150.0   120.0   33.333333333333336
200.0   150.0   33.333333333333336
200.0   120.0   16.666666666666668
150.0   150.0   16.666666666666668
150.0   120.0   33.333333333333336
200.0   120.0   33.333333333333336
150.0   150.0   33.333333333333336
150.0   120.0   50.0
200.0   120.0   33.333333333333336
200.0   150.0   33.333333333333336
150.0   150.0   33.333333333333336
200.0   150.0   50.0
150.0   120.0   50.0
150.0   150.0   50.0
200.0   150.0   50.0
150.0   150.0   33.333333333333336
150.0   120.0   50.0
200.0   150.0   50.0
200.0   120.0   50.0
200.0   120.0   33.333333333333336
150.0   120.0   50.0
200.0   150.0   50.0
200.0   120.0   33.333333333333336
150.0   150.0   33.333333333333336
200.0   0.0   0.0
250.0   0.0   0.0
200.0   30.0   0.0
200.0   0.0   16.666666666666668
250.0   0.0   0.0
250.0   30.0   0.0
200.0   30.0   0.0
250.0   30.0   16.666666666666668
200.0   0.0   16.666666666666668
200.0   30.0   16.666666666666668
250.0   30.0   16.666666666666668
200.0   30.0   0.0
200.0   0.0   16.666666666666668
250.0   30.0   16.666666666666668
250.0   0.0   16.666666666666668
250.0   0.0   0.0
200.0   0.0   16.666666666666668
250.0   30.0   16.666666666666668
250.0   0.0   0.0
200.0   30.0   0.0
200.0   0.0   16.666666666666668
250.0   0.0   16.666666666666668
200.0   30.0   16.666666666666668
200.0   0.0   33.333333333333336
250.0   0.0   16.666666666666668
250.0   30.0   16.666666666666668
200.0   30.0   16.666666666666668
250.0   30.0   33.333333333333336
200.0   0.0   33.333333333333336
200.0   30.0   33.333333333333336
250.0   30.0   33.333333333333336
200.0   30.0   16.666666666666668
200.0   0.0   33.333333333333336
250.0   30.0   33.333333333333336
250.0   0.0   33.333333333333336
250.0   0.0   16.666666666666668
200.0   0.0   33.333333333333336
250.0   30.0   33.333333333333336
250.0   0.0   16.666666666666668
200.0   30.0   16.666666666666668
200.0   0.0   33.333333333333336
250.0   0.0   33.333333333333336
200.0   30.0   33.333333333333336
200.0   0.0   50.0
250.0   0.0   33.333333333333336
250.0   30.0   33.333333333333336
200.0   30.0   33.333333333333336
250.0   30.0   50.0
200.0   0.0   50.0
200.0   30.0   50.0
250.0   30.0   50.0
200.0   30.0   33.333333333333336
200.0   0.0   50.0
250.0   30.0   50.0
250.0   0.0   50.0
250.0   0.0   33.333333333333336
200.0   0.0   50.0
250.0   30.0   50.0
250.0   0.0   33.333333333333336
200.0   30.0   33.333333333333336
200.0   30.0   0.0
250.0   30.0   0.0
200.0   60.0   0.0
200.0   30.0   16.666666666666668
250.0   30.0   0.0
250.0   60.0   0.0
200.0   60.0   0.0
250.0   60.0   16.666666666666668
200.0   30.0   16.666666666666668
200.0   60.0   16.666666666666668
250.0   60.0   16.666666666666668
200.0   60.0   0.0
200.0   30.0   16.666666666666668
250.0   60.0   16.666666666666668
250.0   30.0   16.666666666666668
250.0   30.0   0.0
200.0   30.0   16.666666666666668
250.0   60.0   16.666666666666668
250.0   30.0   0.0
200.0   60.0   0.0
200.0   30.0   16.666666666666668
250.0   30.0   16.666666666666668
200.0   60.0   16.666666666666668
200.0   30.0   33.333333333333336
250.0   30.0   16.666666666666668
250.0   60.0   16.666666666666668
200.0   60.0   16.666666666666668
250.0   60.0   33.333333333333336
200.0   30.0   33.333333333333336
200.0   60.0   33.333333333333336
250.0   60.0   33.333333333333336
200.0   60.0   16.666666666666668
200.0   30.0   33.333333333333336
250.0   60.0   33.333333333333336
250.0   30.0   33.333333333333336
250.0   30.0   16.666666666666668
200.0   30.0   33.333333333333336
250.0   60.0   33.333333333333336
250.0   30.0   16.666666666666668
200.0   60.0   16.666666666666668
200.0   30.0   33.333333333333336
250.0   30.0   33.333333333333336
200.0   60.0   33.333333333333336
200.0   30.0   50.0
250.0   30.0   33.333333333333336
250.0   60.0   33.333333333333336
200.0   60.0   33.333333333333336
250.0   60.0   50.0
200.0   30.0   50.0
200.0   60.0   50.0
250.0   60.0   50.0
200.0   60.0   33.333333333333336
200.0   30.0   50.0
250.0   60.0   50.0
250.0   30.0   50.0
250.0   30.0   33.333333333333336
200.0   30.0   50.0
250.0   60.0   50.0
250.0   30.0   33.333333333333336
200.0   60.0   33.333333333333336
200.0   60.0   0.0
250.0   60.0   0.0
200.0   90.0   0.0
200.0   60.0   16.666666666666668
250.0   60.0   0.0
250.0   90.0   0.0
200.0   90.0   0.0
250.0   90.0   16.666666666666668
200.0   60.0   16.666666666666668
200.0   90.0   16.666666666666668
250.0   90.0   16.666666666666668
200.0   90.0   0.0
200.0   60.0   16.666666666666668
250.0   90.0   16.666666666666668
250.0   60.0   16.666666666666668
250.0   60.0   0.0
200.0   60.0   16.666666666666668
250.0   90.0   16.666666666666668
250.0   60.0   0.0
200.0   90.0   0.0
200.0   60.0   16.666666666666668
250.0   60.0   16.666666666666668
200.0   90.0   16.666666666666668
200.0   60.0   33.333333333333336
250.0   60.0   16.666666666666668
250.0   90.0   16.666666666666668
200.0   90.0   16.666666666666668
250.0   90.0   33.333333333333336
200.0   60.0   33.333333333333336
200.0   90.0   33.333333333333336
250.0   90.0   33.333333333333336
200.0   90.0   16.666666666666668
200.0   60.0   33.333333333333336
250.0   90.0   33.333333333333336
250.0   60.0   33.333333333333336
250.0   60.0   16.666666666666668
200.0   60.0   33.333333333333336
250.0   90.0   33.333333333333336
250.0   60.0   16.666666666666668
200.0   90.0   16.666666666666668
200.0   60.0   33.333333333333336
250.0   60.0   33.333333333333336
200.0   90.0   33.333333333333336
200.0   60.0   50.0
250.0   60.0   33.333333333333336
250.0   90.0   33.333333333333336
200.0   90.0   33.333333333333336
250.0   90.0   50.0
200.0   60.0   50.0
200.0   90.0   50.0
250.0   90.0   50.0
200.0   90.0   33.333333333333336
200.0   60.0   50.0
250.0   90.0   50.0
250.0   60.0   50.0
250.0   60.0   33.333333333333336
200.0   60.0   50.0
250.0   90.0   50.0
250.0   60.0   33.333333333333336
200.0   90.0   33.333333333333336
200.0   90.0   0.0
250.0   90.0   0.0
200.0   120.0   0.0
200.0   90.0   16.666666666666668
250.0   90.0   0.0
250.0   120.0   0.0
200.0   120.0   0.0
250.0   120.0   16.666666666666668
200.0   90.0   16.666666666666668
200.0   120.0   16.666666666666668
250.0   120.0   16.666666666666668
200.0   120.0   0.0
200.0   90.0   16.666666666666668
250.0   120.0   16.666666666666668
250.0   90.0   16.666666666666668
250.0   90.0   0.0
200.0   90.0   16.666666666666668
250.0   120.0   16.666666666666668
250.0   90.0   0.0
200.0   120.0   0.0
200.0   90.0   16.666666666666668
250.0   90.0   16.666666666666668
200.0   120.0   16.666666666666668
200.0   90.0   33.333333333333336
250.0   90.0   16.666666666666668
250.0   120.0   16.666666666666668
200.0   120.0   16.666666666666668
250.0   120.0   33.333333333333336
200.0   90.0   33.333333333333336
200.0   120.0   33.333333333333336
250.0   120.0   33.333333333333336
200.0   120.0   16.666666666666668
200.0   90.0   33.333333333333336
250.0   120.0   33.333333333333336
250.0   90.0   33.333333333333336
250.0   90.0   16.666666666666668
200.0   90.0   33.333333333333336
250.0   120.0   33.333333333333336
250.0   90.0   16.666666666666668
200.0   120.0   16.666666666666668
200.0   90.0   33.333333333333336
250.0   90.0   33.333333333333336
200.0   120.0   33.333333333333336
200.0   90.0   50.0
250.0   90.0   33.333333333333336
250.0   120.0   33.333333333333336
200.0   120.0   33.333333333333336
250.0   120.0   50.0
200.0   90.0   50.0
200.0   120.0   50.0
250.0   120.0   50.0
200.0   120.0   33.333333333333336
200.0   90.0   50.0
250.0   120.0   50.0
250.0   90.0   50.0
250.0   90.0   33.333333333333336
200.0   90.0   50.0
250.0   120.0   50.0
250.0   90.0   33.333333333333336
200.0   120.0   33.333333333333336
200.0   120.0   0.0
250.0   120.0   0.0
200.0   150.0   0.0
200.0   120.0   16.666666666666668
250.0   120.0   0.0
250.0   150.0   0.0
200.0   150.0   0.0
250.0   150.0   16.666666666666668
200.0   120.0   16.666666666666668
200.0   150.0   16.666666666666668
250.0   150.0   16.666666666666668
200.0   150.0   0.0
200.0   120.0   16.666666666666668
250.0   150.0   16.666666666666668
250.0   120.0   16.666666666666668
250.0   120.0   0.0
200.0   120.0   16.666666666666668
250.0   150.0   16.666666666666668
250.0   120.0   0.0
200.0   150.0   0.0
200.0   120.0   16.666666666666668
250.0   120.0   16.666666666666668
200.0   150.0   16.666666666666668
200.0   120.0   33.333333333333336
250.0   120.0   16.666666666666668
250.0   150.0   16.666666666666668
200.0   150.0   16.666666666666668
250.0   150.0   33.333333333333336
200.0   120.0   33.333333333333336
200.0   150.0   33.333333333333336
250.0   150.0   33.333333333333336
200.0   150.0   16.666666666666668
200.0   120.0   33.333333333333336
250.0   150.0   33.333333333333336
250.0   120.0   33.333333333333336
250.0   120.0   16.666666666666668
200.0   120.0   33.333333333333336
250.0   150.0   33.333333333333336
250.0   120.0   16.666666666666668
200.0   150.0   16.666666666666668
200.0   120.0   33.333333333333336
250.0   120.0   33.333333333333336
200.0   150.0   33.333333333333336
200.0   120.0   50.0
250.0   120.0   33.333333333333336
250.0   150.0   33.333333333333336
200.0   150.0   33.333333333333336
250.0   150.0   50.0
200.0   120.0   50.0
200.0   150.0   50.0
250.0   150.0   50.0
200.0   150.0   33.333333333333336
200.0   120.0   50.0
250.0   150.0   50.0
250.0   120.0   50.0
250.0   120.0   33.333333333333336
200.0   120.0   50.0
250.0   150.0   50.0
250.0   120.0   33.333333333333336
200.0   150.0   33.333333333333336
250.0   0.0   0.0
300.0   0.0   0.0
250.0   30.0   0.0
250.0   0.0   16.666666666666668
300.0   0.0   0.0
300.0   30.0   0.0
250.0   30.0   0.0
300.0   30.0   16.666666666666668
250.0   0.0   16.666666666666668
250.0   30.0   16.666666666666668
300.0   30.0   16.666666666666668
250.0   30.0   0.0
250.0   0.0   16.666666666666668
300.0   30.0   16.666666666666668
300.0   0.0   16.666666666666668
300.0   0.0   0.0
250.0   0.0   16.666666666666668
300.0   30.0   16.666666666666668
300.0   0.0   0.0
250.0   30.0   0.0
250.0   0.0   16.666666666666668
300.0   0.0   16.666666666666668
250.0   30.0   16.666666666666668
250.0   0.0   33.333333333333336
300.0   0.0   16.666666666666668
300.0   30.0   16.666666666666668
250.0   30.0   16.666666666666668
300.0   30.0   33.333333333333336
250.0   0.0   33.333333333333336
250.0   30.0   33.333333333333336
300.0   30.0   33.333333333333336
250.0   30.0   16.666666666666668
250.0   0.0   33.333333333333336
300.0   30.0   33.333333333333336
300.0   0.0   33.333333333333336
300.0   0.0   16.666666666666668
250.0   0.0   33.333333333333336
300.0   30.0   33.333333333333336
300.0   0.0   16.666666666666668
250.0   30.0   16.666666666666668
250.0   0.0   33.333333333333336
300.0   0.0   33.333333333333336
250.0   30.0   33.333333333333336
250.0   0.0   50.0
300.0   0.0   33.333333333333336
300.0   30.0   33.333333333333336
250.0   30.0   33.333333333333336
300.0   30.0   50.0
250.0   0.0   50.0
250.0   30.0   50.0
300.0   30.0   50.0
250.0   30.0   33.333333333333336
250.0   0.0   50.0
300.0   30.0   50.0
300.0   0.0   50.0
300.0   0.0   33.333333333333336
250.0   0.0   50.0
300.0   30.0   50.0
300.0   0.0   33.333333333333336
250.0   30.0   33.333333333333336
250.0   30.0   0.0
300.0   30.0   0.0
250.0   60.0   0.0
250.0   30.0   16.666666666666668
300.0   30.0   0.0
300.0   60.0   0.0
250.0   60.0   0.0
300.0   60.0   16.666666666666668
250.0   30.0   16.666666666666668
250.0   60.0   16.666666666666668
300.0   60.0   16.666666666666668
250.0   60.0   0.0
250.0   30.0   16.666666666666668
300.0   60.0   16.666666666666668
300.0   30.0   16.666666666666668
300.0   30.0   0.0
250.0   30.0   16.666666666666668
300.0   60.0   16.666666666666668
300.0   30.0   0.0
250.0   60.0   0.0
250.0   30.0   16.666666666666668
300.0   30.0   16.666666666666668
250.0   60.0   16.666666666666668
250.0   30.0   33.333333333333336
300.0   30.0   16.666666666666668
300.0   60.0   16.666666666666668
250.0   60.0   16.666666666666668
300.0   60.0   33.333333333333336
250.0   30.0   33.333333333333336
250.0   60.0   33.333333333333336
300.0   60.0   33.333333333333336
250.0   60.0   16.666666666666668
250.0   30.0   33.333333333333336
300.0   60.0   33.333333333333336
300.0   30.0   33.333333333333336
300.0   30.0   16.666666666666668
250.0   30.0   33.333333333333336
300.0   60.0   33.333333333333336
300.0   30.0   16.666666666666668
250.0   60.0   16.666666666666668
250.0   30.0   33.333333333333336
300.0   30.0   33.333333333333336
250.0   60.0   33.333333333333336
250.0   30.0   50.0
300.0   30.0   33.333333333333336
300.0   60.0   33.333333333333336
250.0   60.0   33.333333333333336
300.0   60.0   50.0
250.0   30.0   50.0
250.0   60.0   50.0
300.0   60.0   50.0
250.0   60.0   33.333333333333336
250.0   30.0   50.0
300.0   60.0   50.0
300.0   30.0   50.0
300.0   30.0   33.333333333333336
250.0   30.0   50.0
300.0   60.0   50.0
300.0   30.0   33.333333333333336
250.0   60.0   33.333333333333336
250.0   60.0   0.0
300.0   60.0   0.0
250.0   90.0   0.0
250.0   60.0   16.666666666666668
300.0   60.0   0.0
300.0   90.0   0.0
250.0   90.0   0.0
300.0   90.0   16.666666666666668
250.0   60.0   16.666666666666668
250.0   90.0   16.666666666666668
300.0   90.0   16.666666666666668
250.0   90.0   0.0
250.0   60.0   16.666666666666668
300.0   90.0   16.666666666666668
300.0   60.0   16.666666666666668
300.0   60.0   0.0
250.0   60.0   16.666666666666668
300.0   90.0   16.666666666666668
300.0   60.0   0.0
250.0   90.0   0.0
250.0   60.0   16.666666666666668
300.0   60.0   16.666666666666668
250.0   90.0   16.666666666666668
250.0   60.0   33.333333333333336
300.0   60.0   16.666666666666668
300.0   90.0   16.666666666666668
250.0   90.0   16.666666666666668
300.0   90.0   33.333333333333336
250.0   60.0   33.333333333333336
250.0   90.0   33.333333333333336
300.0   90.0   33.333333333333336
250.0   90.0   16.666666666666668
250.0   60.0   33.333333333333336
300.0   90.0   33.333333333333336
300.0   60.0   33.333333333333336
300.0   60.0   16.666666666666668
250.0   60.0   33.333333333333336
300.0   90.0   33.333333333333336
300.0   60.0   16.666666666666668
250.0   90.0   16.666666666666668
250.0   60.0   33.333333333333336
300.0   60.0   33.333333333333336
250.0   90.0   33.333333333333336
250.0   60.0   50.0
300.0   60.0   33.333333333333336
300.0   90.0   33.333333333333336
250.0   90.0   33.333333333333336
300.0   90.0   50.0
250.0   60.0   50.0
250.0   90.0   50.0
300.0   90.0   50.0
250.0   90.0   33.333333333333336
250.0   60.0   50.0
300.0   90.0   50.0
300.0   60.0   50.0
300.0   60.0   33.333333333333336
250.0   60.0   50.0
300.0   90.0   50.0
300.0   60.0   33.333333333333336
250.0   90.0   33.333333333333336
250.0   90.0   0.0
300.0   90.0   0.0
250.0   120.0   0.0
250.0   90.0   16.666666666666668
300.0   90.0   0.0
300.0   120.0   0.0
250.0   120.0   0.0
300.0   120.0   16.666666666666668
250.0   90.0   16.666666666666668
250.0   120.0   16.666666666666668
300.0   120.0   16.666666666666668
250.0   120.0   0.0
250.0   90.0   16.666666666666668
300.0   120.0   16.666666666666668
300.0   90.0   16.666666666666668
300.0   90.0   0.0
250.0   90.0   16.666666666666668
300.0   120.0   16.666666666666668
300.0   90.0   0.0
250.0   120.0   0.0
250.0   90.0   16.666666666666668
300.0   90.0   16.666666666666668
250.0   120.0   16.666666666666668
250.0   90.0   33.333333333333336
300.0   90.0   16.666666666666668
300.0   120.0   16.666666666666668
250.0   120.0   16.666666666666668
300.0   120.0   33.333333333333336
250.0   90.0   33.333333333333336
250.0   120.0   33.333333333333336
300.0   120.0   33.333333333333336
250.0   120.0   16.666666666666668
250.0   90.0   33.333333333333336
300.0   120.0   33.333333333333336
300.0   90.0   33.333333333333336
300.0   90.0   16.666666666666668
250.0   90.0   33.333333333333336
300.0   120.0   33.333333333333336
300.0   90.0   16.666666666666668
250.0   120.0   16.666666666666668
250.0   90.0   33.333333333333336
300.0   90.0   33.333333333333336
250.0   120.0   33.333333333333336
250.0   90.0   50.0
300.0   90.0   33.333333333333336
300.0   120.0   33.333333333333336
250.0   120.0   33.333333333333336
300.0   120.0   50.0
250.0   90.0   50.0
250.0   120.0   50.0
300.0   120.0   50.0
250.0   120.0   33.333333333333336
250.0   90.0   50.0
300.0   120.0   50.0
300.0   90.0   50.0
300.0   90.0   33.333333333333336
250.0   90.0   50.0
300.0   120.0   50.0
300.0   90.0   33.333333333333336
250.0   120.0   33.333333333333336
250.0   120.0   0.0
300.0   120.0   0.0
250.0   150.0   0.0
250.0   120.0   16.666666666666668
300.0   120.0   0.0
300.0   150.0   0.0
250.0   150.0   0.0
300.0   150.0   16.666666666666668
250.0   120.0   16.666666666666668
250.0   150.0   16.666666666666668
300.0   150.0   16.666666666666668
250.0   150.0   0.0
250.0   120.0   16.666666666666668
300.0   150.0   16.666666666666668
300.0   120.0   16.666666666666668
300.0   120.0   0.0
250.0   120.0   16.666666666666668
300.0   150.0   16.666666666666668
300.0   120.0   0.0
250.0   150.0   0.0
250.0   120.0   16.666666666666668
300.0   120.0   16.666666666666668
250.0   150.0   16.666666666666668
250.0   120.0   33.333333333333336
300.0   120.0   16.666666666666668
300.0   150.0   16.666666666666668
250.0   150.0   16.666666666666668
300.0   150.0   33.333333333333336
250.0   120.0   33.333333333333336
250.0   150.0   33.333333333333336
300.0   150.0   33.333333333333336
250.0   150.0   16.666666666666668
250.0   120.0   33.333333333333336
300.0   150.0   33.333333333333336
300.0   120.0   33.333333333333336
300.0   120.0   16.666666666666668
250.0   120.0   33.333333333333336
300.0   150.0   33.333333333333336
300.0   120.0   16.666666666666668
250.0   150.0   16.666666666666668
250.0   120.0   33.333333333333336
300.0   120.0   33.333333333333336
250.0   150.0   33.333333333333336
250.0   120.0   50.0
300.0   120.0   33.333333333333336
300.0   150.0   33.333333333333336
250.0   150.0   33.333333333333336
300.0   150.0   50.0
250.0   120.0   50.0
250.0   150.0   50.0
300.0   150.0   50.0
250.0   150.0   33.333333333333336
250.0   120.0   50.0
300.0   150.0   50.0
300.0   120.0   50.0
300.0   120.0   33.333333333333336
250.0   120.0   50.0
300.0   150.0   50.0
300.0   120.0   33.333333333333336
250.0   150.0   33.333333333333336
300.0   0.0   0.0
350.0   0.0   0.0
300.0   30.0   0.0
300.0   0.0   16.666666666666668
350.0   0.0   0.0
350.0   30.0   0.0
300.0   30.0   0.0
350.0   30.0   16.666666666666668
300.0   0.0   16.666666666666668
300.0   30.0   16.666666666666668
350.0   30.0   16.666666666666668
300.0   30.0   0.0
300.0   0.0   16.666666666666668
350.0   30.0   16.666666666666668
350.0   0.0   16.666666666666668
350.0   0.0   0.0
300.0   0.0   16.666666666666668
350.0   30.0   16.666666666666668
350.0   0.0   0.0
300.0   30.0   0.0
300.0   0.0   16.666666666666668
350.0   0.0   16.666666666666668
300.0   30.0   16.666666666666668
300.0   0.0   33.333333333333336
350.0   0.0   16.666666666666668
350.0   30.0   16.666666666666668
300.0   30.0   16.666666666666668
350.0   30.0   33.333333333333336
300.0   0.0   33.333333333333336
300.0   30.0   33.333333333333336
350.0   30.0   33.333333333333336
300.0   30.0   16.666666666666668
300.0   0.0   33.333333333333336
350.0   30.0   33.333333333333336
350.0   0.0   33.333333333333336
350.0   0.0   16.666666666666668
300.0   0.0   33.333333333333336
350.0   30.0   33.333333333333336
350.0   0.0   16.666666666666668
300.0   30.0   16.666666666666668
300.0   0.0   33.333333333333336
350.0   0.0   33.333333333333336
300.0   30.0   33.333333333333336
300.0   0.0   50.0
350.0   0.0   33.333333333333336
350.0   30.0   33.333333333333336
300.0   30.0   33.333333333333336
350.0   30.0   50.0
300.0   0.0   50.0
300.0   30.0   50.0
350.0   30.0   50.0
300.0   30.0   33.333333333333336
300.0   0.0   50.0
350.0   30.0   50.0
350.0   0.0   50.0
350.0   0.0   33.333333333333336
300.0   0.0   50.0
350.0   30.0   50.0
350.0   0.0   33.333333333333336
300.0   30.0   33.333333333333336
300.0   30.0   0.0
350.0   30.0   0.0
300.0   60.0   0.0
300.0   30.0   16.666666666666668
350.0   30.0   0.0
350.0   60.0   0.0
300.0   60.0   0.0
350.0   60.0   16.666666666666668
300.0   30.0   16.666666666666668
300.0   60.0   16.666666666666668
350.0   60.0   16.666666666666668
300.0   60.0   0.0
300.0   30.0   16.666666666666668
350.0   60.0   16.666666666666668
350.0   30.0   16.666666666666668
350.0   30.0   0.0
300.0   30.0   16.666666666666668
350.0   60.0   16.666666666666668
350.0   30.0   0.0
300.0   60.0   0.0
300.0   30.0   16.666666666666668
350.0   30.0   16.666666666666668
300.0   60.0   16.666666666666668
300.0   30.0   33.333333333333336
350.0   30.0   16.666666666666668
350.0   60.0   16.666666666666668
300.0   60.0   16.666666666666668
350.0   60.0   33.333333333333336
300.0   30.0   33.333333333333336
300.0   60.0   33.333333333333336
350.0   60.0   33.333333333333336
300.0   60.0   16.666666666666668
300.0   30.0   33.333333333333336
350.0   60.0   33.333333333333336
350.0   30.0   33.333333333333336
350.0   30.0   16.666666666666668
300.0   30.0   33.333333333333336
350.0   60.0   33.333333333333336
350.0   30.0   16.666666666666668
300.0   60.0   16.666666666666668
300.0   30.0   33.333333333333336
350.0   30.0   33.333333333333336
300.0   60.0   33.333333333333336
300.0   30.0   50.0
350.0   30.0   33.333333333333336
350.0   60.0   33.333333333333336
300.0   60.0   33.333333333333336
350.0   60.0   50.0
300.0   30.0   50.0
300.0   60.0   50.0
350.0   60.0   50.0
300.0   60.0   33.333333333333336
300.0   30.0   50.0
350.0   60.0   50.0
350.0   30.0   50.0
350.0   30.0   33.333333333333336
300.0   30.0   50.0
350.0   60.0   50.0
350.0   30.0   33.333333333333336
300.0   60.0   33.333333333333336
300.0   60.0   0.0
350.0   60.0   0.0
300.0   90.0   0.0
300.0   60.0   16.666666666666668
350.0   60.0   0.0
350.0   90.0   0.0
300.0   90.0   0.0
350.0   90.0   16.666666666666668
300.0   60.0   16.666666666666668
300.0   90.0   16.666666666666668
350.0   90.0   16.666666666666668
300.0   90.0   0.0
300.0   60.0   16.666666666666668
350.0   90.0   16.666666666666668
350.0   60.0   16.666666666666668
350.0   60.0   0.0
300.0   60.0   16.666666666666668
350.0   90.0   16.666666666666668
350.0   60.0   0.0
300.0   90.0   0.0
300.0   60.0   16.666666666666668
350.0   60.0   16.666666666666668
300.0   90.0   16.666666666666668
300.0   60.0   33.333333333333336
350.0   60.0   16.666666666666668
350.0   90.0   16.666666666666668
300.0   90.0   16.666666666666668
350.0   90.0   33.333333333333336
300.0   60.0   33.333333333333336
300.0   90.0   33.333333333333336
350.0   90.0   33.333333333333336
300.0   90.0   16.666666666666668
300.0   60.0   33.333333333333336
350.0   90.0   33.333333333333336
350.0   60.0   33.333333333333336
350.0   60.0   16.666666666666668
300.0   60.0   33.333333333333336
350.0   90.0   33.333333333333336
350.0   60.0   16.666666666666668
300.0   90.0   16.666666666666668
300.0   60.0   33.333333333333336
350.0   60.0   33.333333333333336
300.0   90.0   33.333333333333336
300.0   60.0   50.0
350.0   60.0   33.333333333333336
350.0   90.0   33.333333333333336
300.0   90.0   33.333333333333336
350.0   90.0   50.0
300.0   60.0   50.0
300.0   90.0   50.0
350.0   90.0   50.0
300.0   90.0   33.333333333333336
300.0   60.0   50.0
350.0   90.0   50.0
350.0   60.0   50.0
350.0   60.0   33.333333333333336
300.0   60.0   50.0
350.0   90.0   50.0
350.0   60.0   33.333333333333336
300.0   90.0   33.333333333333336
300.0   90.0   0.0
350.0   90.0   0.0
300.0   120.0   0.0
300.0   90.0   16.666666666666668
350.0   90.0   0.0
350.0   120.0   0.0
300.0   120.0   0.0
350.0   120.0   16.666666666666668
300.0   90.0   16.666666666666668
300.0   120.0   16.666666666666668
350.0   120.0   16.666666666666668
300.0   120.0   0.0
300.0   90.0   16.666666666666668
350.0   120.0   16.666666666666668
350.0   90.0   16.666666666666668
350.0   90.0   0.0
300.0   90.0   16.666666666666668
350.0   120.0   16.666666666666668
350.0   90.0   0.0
300.0   120.0   0.0
300.0   90.0   16.666666666666668
350.0   90.0   16.666666666666668
300.0   120.0   16.666666666666668
300.0   90.0   33.333333333333336
350.0   90.0   16.666666666666668
350.0   120.0   16.666666666666668
300.0   120.0   16.666666666666668
350.0   120.0   33.333333333333336
300.0   90.0   33.333333333333336
300.0   120.0   33.333333333333336
350.0   120.0   33.333333333333336
300.0   120.0   16.666666666666668
300.0   90.0   33.333333333333336
350.0   120.0   33.333333333333336
350.0   90.0   33.333333333333336
350.0   90.0   16.666666666666668
300.0   90.0   33.333333333333336
350.0   120.0   33.333333333333336
350.0   90.0   16.666666666666668
300.0   120.0   16.666666666666668
300.0   90.0   33.333333333333336
350.0   90.0   33.333333333333336
300.0   120.0   33.333333333333336
300.0   90.0   50.0
350.0   90.0   33.333333333333336
350.0   120.0   33.333333333333336
300.0   120.0   33.333333333333336
350.0   120.0   50.0
300.0   90.0   50.0
300.0   120.0   50.0
350.0   120.0   50.0
300.0   120.0   33.333333333333336
300.0   90.0   50.0
350.0   120.0   50.0
350.0   90.0   50.0
350.0   90.0   33.333333333333336
300.0   90.0   50.0
350.0   120.0   50.0
350.0   90.0   33.333333333333336
300.0   120.0   33.333333333333336
300.0   120.0   0.0
350.0   120.0   0.0
300.0   150.0   0.0
300.0   120.0   16.666666666666668
350.0   120.0   0.0
350.0   150.0   0.0
300.0   150.0   0.0
350.0   150.0   16.666666666666668
300.0   120.0   16.666666666666668
300.0   150.0   16.666666666666668
350.0   150.0   16.666666666666668
300.0   150.0   0.0
300.0   120.0   16.666666666666668
350.0   150.0   16.666666666666668
350.0   120.0   16.666666666666668
350.0   120.0   0.0
300.0   120.0   16.666666666666668
350.0   150.0   16.666666666666668
350.0   120.0   0.0
300.0   150.0   0.0
300.0   120.0   16.666666666666668
350.0   120.0   16.666666666666668
300.0   150.0   16.666666666666668
300.0   120.0   33.333333333333336
350.0   120.0   16.666666666666668
350.0   150.0   16.666666666666668
300.0   150.0   16.666666666666668
350.0   150.0   33.333333333333336
300.0   120.0   33.333333333333336
300.0   150.0   33.333333333333336
350.0   150.0   33.333333333333336
300.0   150.0   16.666666666666668
300.0   120.0   33.333333333333336
350.0   150.0   33.333333333333336
350.0   120.0   33.333333333333336
350.0   120.0   16.666666666666668
300.0   120.0   33.333333333333336
350.0   150.0   33.333333333333336
350.0   120.0   16.666666666666668
300.0   150.0   16.666666666666668
300.0   120.0   33.333333333333336
350.0   120.0   33.333333333333336
300.0   150.0   33.333333333333336
300.0   120.0   50.0
350.0   120.0   33.333333333333336
350.0   150.0   33.333333333333336
300.0   150.0   33.333333333333336
350.0   150.0   50.0
300.0   120.0   50.0
300.0   150.0   50.0
350.0   150.0   50.0
300.0   150.0   33.333333333333336
300.0   120.0   50.0
350.0   150.0   50.0
350.0   120.0   50.0
350.0   120.0   33.333333333333336
300.0   120.0   50.0
350.0   150.0   50.0
350.0   120.0   33.333333333333336
300.0   150.0   33.333333333333336
350.0   0.0   0.0
400.0   0.0   0.0
350.0   30.0   0.0
350.0   0.0   16.666666666666668
400.0   0.0   0.0
400.0   30.0   0.0
350.0   30.0   0.0
400.0   30.0   16.666666666666668
350.0   0.0   16.666666666666668
350.0   30.0   16.666666666666668
400.0   30.0   16.666666666666668
350.0   30.0   0.0
350.0   0.0   16.666666666666668
400.0   30.0   16.666666666666668
400.0   0.0   16.666666666666668
400.0   0.0   0.0
350.0   0.0   16.666666666666668
400.0   30.0   16.666666666666668
400.0   0.0   0.0
350.0   30.0   0.0
350.0   0.0   16.666666666666668
400.0   0.0   16.666666666666668
350.0   30.0   16.666666666666668
350.0   0.0   33.333333333333336
400.0   0.0   16.666666666666668
400.0   30.0   16.666666666666668
350.0   30.0   16.666666666666668
400.0   30.0   33.333333333333336
350.0   0.0   33.333333333333336
350.0   30.0   33.333333333333336
400.0   30.0   33.333333333333336
350.0   30.0   16.666666666666668
350.0   0.0   33.333333333333336
400.0   30.0   33.333333333333336
400.0   0.0   33.333333333333336
400.0   0.0   16.666666666666668
350.0   0.0   33.333333333333336
400.0   30.0   33.333333333333336
400.0   0.0   16.666666666666668
350.0   30.0   16.666666666666668
350.0   0.0   33.333333333333336
400.0   0.0   33.333333333333336
350.0   30.0   33.333333333333336
350.0   0.0   50.0
400.0   0.0   33.333333333333336
400.0   30.0   33.333333333333336
350.0   30.0   33.333333333333336
400.0   30.0   50.0
350.0   0.0   50.0
350.0   30.0   50.0
400.0   30.0   50.0
350.0   30.0   33.333333333333336
350.0   0.0   50.0
400.0   30.0   50.0
400.0   0.0   50.0
400.0   0.0   33.333333333333336
350.0   0.0   50.0
400.0   30.0   50.0
400.0   0.0   33.333333333333336
350.0   30.0   33.333333333333336
350.0   30.0   0.0
400.0   30.0   0.0
350.0   60.0   0.0
350.0   30.0   16.666666666666668
400.0   30.0   0.0
400.0   60.0   0.0
350.0   60.0   0.0
400.0   60.0   16.666666666666668
350.0   30.0   16.666666666666668
350.0   60.0   16.666666666666668
400.0   60.0   16.666666666666668
350.0   60.0   0.0
350.0   30.0   16.666666666666668
400.0   60.0   16.666666666666668
400.0   30.0   16.666666666666668
400.0   30.0   0.0
350.0   30.0   16.666666666666668
400.0   60.0   16.666666666666668
400.0   30.0   0.0
350.0   60.0   0.0
350.0   30.0   16.666666666666668
400.0   30.0   16.666666666666668
350.0   60.0   16.666666666666668
350.0   30.0   33.333333333333336
400.0   30.0   16.666666666666668
400.0   60.0   16.666666666666668
350.0   60.0   16.666666666666668
400.0   60.0   33.333333333333336
350.0   30.0   33.333333333333336
350.0   60.0   33.333333333333336
400.0   60.0   33.333333333333336
350.0   60.0   16.666666666666668
350.0   30.0   33.333333333333336
400.0   60.0   33.333333333333336
400.0   30.0   33.333333333333336
400.0   30.0   16.666666666666668
350.0   30.0   33.333333333333336
400.0   60.0   33.333333333333336
400.0   30.0   16.666666666666668
350.0   60.0   16.666666666666668
350.0   30.0   33.333333333333336
400.0   30.0   33.333333333333336
350.0   60.0   33.333333333333336
350.0   30.0   50.0
400.0   30.0   33.333333333333336
400.0   60.0   33.333333333333336
350.0   60.0   33.333333333333336
400.0   60.0   50.0
350.0   30.0   50.0
350.0   60.0   50.0
400.0   60.0   50.0
350.0   60.0   33.333333333333336
350.0   30.0   50.0
400.0   60.0   50.0
400.0   30.0   50.0
400.0   30.0   33.333333333333336
350.0   30.0   50.0
400.0   60.0   50.0
400.0   30.0   33.333333333333336
350.0   60.0   33.333333333333336
350.0   60.0   0.0
400.0   60.0   0.0
350.0   90.0   0.0
350.0   60.0   16.666666666666668
400.0   60.0   0.0
400.0   90.0   0.0
350.0   90.0   0.0
400.0   90.0   16.666666666666668
350.0   60.0   16.666666666666668
350.0   90.0   16.666666666666668
400.0   90.0   16.666666666666668
350.0   90.0   0.0
350.0   60.0   16.666666666666668
400.0   90.0   16.666666666666668
400.0   60.0   16.666666666666668
400.0   60.0   0.0
350.0   60.0   16.666666666666668
400.0   90.0   16.666666666666668
400.0   60.0   0.0
350.0   90.0   0.0
350.0   60.0   16.666666666666668
400.0   60.0   16.666666666666668
350.0   90.0   16.666666666666668
350.0   60.0   33.333333333333336
400.0   60.0   16.666666666666668
400.0   90.0   16.666666666666668
350.0   90.0   16.666666666666668
400.0   90.0   33.333333333333336
350.0   60.0   33.333333333333336
350.0   90.0   33.333333333333336
400.0   90.0   33.333333333333336
350.0   90.0   16.666666666666668
350.0   60.0   33.333333333333336
400.0   90.0   33.333333333333336
400.0   60.0   33.333333333333336
400.0   60.0   16.666666666666668
350.0   60.0   33.333333333333336
400.0   90.0   33.333333333333336
400.0   60.0   16.666666666666668
350.0   90.0   16.666666666666668
350.0   60.0   33.333333333333336
400.0   60.0   33.333333333333336
350.0   90.0   33.333333333333336
350.0   60.0   50.0
400.0   60.0   33.333333333333336
400.0   90.0   33.333333333333336
350.0   90.0   33.333333333333336
400.0   90.0   50.0
350.0   60.0   50.0
350.0   90.0   50.0
400.0   90.0   50.0
350.0   90.0   33.333333333333336
350.0   60.0   50.0
400.0   90.0   50.0
400.0   60.0   50.0
400.0   60.0   33.333333333333336
350.0   60.0   50.0
400.0   90.0   50.0
400.0   60.0   33.333333333333336
350.0   90.0   33.333333333333336
350.0   90.0   0.0
400.0   90.0   0.0
350.0   120.0   0.0
350.0   90.0   16.666666666666668
400.0   90.0   0.0
400.0   120.0   0.0
350.0   120.0   0.0
400.0   120.0   16.666666666666668
350.0   90.0   16.666666666666668
350.0   120.0   16.666666666666668
400.0   120.0   16.666666666666668
350.0   120.0   0.0
350.0   90.0   16.666666666666668
400.0   120.0   16.666666666666668
400.0   90.0   16.666666666666668
400.0   90.0   0.0
350.0   90.0   16.666666666666668
400.0   120.0   16.666666666666668
400.0   90.0   0.0
350.0   120.0   0.0
350.0   90.0   16.666666666666668
400.0   90.0   16.666666666666668
350.0   120.0   16.666666666666668
350.0   90.0   33.333333333333336
400.0   90.0   16.666666666666668
400.0   120.0   16.666666666666668
350.0   120.0   16.666666666666668
400.0   120.0   33.333333333333336
350.0   90.0   33.333333333333336
350.0   120.0   33.333333333333336
400.0   120.0   33.333333333333336
350.0   120.0   16.666666666666668
350.0   90.0   33.333333333333336
400.0   120.0   33.333333333333336
400.0   90.0   33.333333333333336
400.0   90.0   16.666666666666668
350.0   90.0   33.333333333333336
400.0   120.0   33.333333333333336
400.0   90.0   16.666666666666668
350.0   120.0   16.666666666666668
350.0   90.0   33.333333333333336
400.0   90.0   33.333333333333336
350.0   120.0   33.333333333333336
350.0   90.0   50.0
400.0   90.0   33.333333333333336
400.0   120.0   33.333333333333336
350.0   120.0   33.333333333333336
400.0   120.0   50.0
350.0   90.0   50.0
350.0   120.0   50.0
400.0   120.0   50.0
350.0   120.0   33.333333333333336
350.0   90.0   50.0
400.0   120.0   50.0
400.0   90.0   50.0
400.0   90.0   33.333333333333336
350.0   90.0   50.0
400.0   120.0   50.0
400.0   90.0   33.333333333333336
350.0   120.0   33.333333333333336
350.0   120.0   0.0
400.0   120.0   0.0
350.0   150.0   0.0
350.0   120.0   16.666666666666668
400.0   120.0   0.0
400.0   150.0   0.0
350.0   150.0   0.0
400.0   150.0   16.666666666666668
350.0   120.0   16.666666666666668
350.0   150.0   16.666666666666668
400.0   150.0   16.666666666666668
350.0   150.0   0.0
350.0   120.0   16.666666666666668
400.0   150.0   16.666666666666668
400.0   120.0   16.666666666666668
400.0   120.0   0.0
350.0   120.0   16.666666666666668
400.0   150.0   16.666666666666668
400.0   120.0   0.0
350.0   150.0   0.0
350.0   120.0   16.666666666666668
400.0   120.0   16.666666666666668
350.0   150.0   16.666666666666668
350.0   120.0   33.333333333333336
400.0   120.0   16.666666666666668
400.0   150.0   16.666666666666668
350.0   150.0   16.666666666666668
400.0   150.0   33.333333333333336
350.0   120.0   33.333333333333336
350.0   150.0   33.333333333333336
400.0   150.0   33.333333333333336
350.0   150.0   16.666666666666668
350.0   120.0   33.333333333333336
400.0   150.0   33.333333333333336
400.0   120.0   33.333333333333336
400.0   120.0   16.666666666666668
350.0   120.0   33.333333333333336
400.0   150.0   33.333333333333336
400.0   120.0   16.666666666666668
350.0   150.0   16.666666666666668
350.0   120.0   33.333333333333336
400.0   120.0   33.333333333333336
350.0   150.0   33.333333333333336
350.0   120.0   50.0
400.0   120.0   33.333333333333336
400.0   150.0   33.333333333333336
350.0   150.0   33.333333333333336
400.0   150.0   50.0
350.0   120.0   50.0
350.0   150.0   50.0
400.0   150.0   50.0
350.0   150.0   33.333333333333336
350.0   120.0   50.0
400.0   150.0   50.0
400.0   120.0   50.0
400.0   120.0   33.333333333333336
350.0   120.0   50.0
400.0   150.0   50.0
400.0   120.0   33.333333333333336
350.0   150.0   33.333333333333336
400.0   0.0   0.0
450.0   0.0   0.0
400.0   30.0   0.0
400.0   0.0   16.666666666666668
450.0   0.0   0.0
450.0   30.0   0.0
400.0   30.0   0.0
450.0   30.0   16.666666666666668
400.0   0.0   16.666666666666668
400.0   30.0   16.666666666666668
450.0   30.0   16.666666666666668
400.0   30.0   0.0
400.0   0.0   16.666666666666668
450.0   30.0   16.666666666666668
450.0   0.0   16.666666666666668
450.0   0.0   0.0
400.0   0.0   16.666666666666668
450.0   30.0   16.666666666666668
450.0   0.0   0.0
400.0   30.0   0.0
400.0   0.0   16.666666666666668
450.0   0.0   16.666666666666668
400.0   30.0   16.666666666666668
400.0   0.0   33.333333333333336
450.0   0.0   16.666666666666668
450.0   30.0   16.666666666666668
400.0   30.0   16.666666666666668
450.0   30.0   33.333333333333336
400.0   0.0   33.333333333333336
400.0   30.0   33.333333333333336
450.0   30.0   33.333333333333336
400.0   30.0   16.666666666666668
400.0   0.0   33.333333333333336
450.0   30.0   33.333333333333336
450.0   0.0   33.333333333333336
450.0   0.0   16.666666666666668
400.0   0.0   33.333333333333336
450.0   30.0   33.333333333333336
450.0   0.0   16.666666666666668
400.0   30.0   16.666666666666668
400.0   0.0   33.333333333333336
450.0   0.0   33.333333333333336
400.0   30.0   33.333333333333336
400.0   0.0   50.0
450.0   0.0   33.333333333333336
450.0   30.0   33.333333333333336
400.0   30.0   33.333333333333336
450.0   30.0   50.0
400.0   0.0   50.0
400.0   30.0   50.0
450.0   30.0   50.0
400.0   30.0   33.333333333333336
400.0   0.0   50.0
450.0   30.0   50.0
450.0   0.0   50.0
450.0   0.0   33.333333333333336
400.0   0.0   50.0
450.0   30.0   50.0
450.0   0.0   33.333333333333336
400.0   30.0   33.333333333333336
400.0   30.0   0.0
450.0   30.0   0.0
400.0   60.0   0.0
400.0   30.0   16.666666666666668
450.0   30.0   0.0
450.0   60.0   0.0
400.0   60.0   0.0
450.0   60.0   16.666666666666668
400.0   30.0   16.666666666666668
400.0   60.0   16.666666666666668
450.0   60.0   16.666666666666668
400.0   60.0   0.0
400.0   30.0   16.666666666666668
450.0   60.0   16.666666666666668
450.0   30.0   16.666666666666668
450.0   30.0   0.0
400.0   30.0   16.666666666666668
450.0   60.0   16.666666666666668
450.0   30.0   0.0
400.0   60.0   0.0
400.0   30.0   16.666666666666668
450.0   30.0   16.666666666666668
400.0   60.0   16.666666666666668
400.0   30.0   33.333333333333336
450.0   30.0   16.666666666666668
450.0   60.0   16.666666666666668
400.0   60.0   16.666666666666668
450.0   60.0   33.333333333333336
400.0   30.0   33.333333333333336
400.0   60.0   33.333333333333336
450.0   60.0   33.333333333333336
400.0   60.0   16.666666666666668
400.0   30.0   33.333333333333336
450.0   60.0   33.333333333333336
450.0   30.0   33.333333333333336
450.0   30.0   16.666666666666668
400.0   30.0   33.333333333333336
450.0   60.0   33.333333333333336
450.0   30.0   16.666666666666668
400.0   60.0   16.666666666666668
400.0   30.0   33.333333333333336
450.0   30.0   33.333333333333336
400.0   60.0   33.333333333333336
400.0   30.0   50.0
450.0   30.0   33.333333333333336
450.0   60.0   33.333333333333336
400.0   60.0   33.333333333333336
450.0   60.0   50.0
400.0   30.0   50.0
400.0   60.0   50.0
450.0   60.0   50.0
400.0   60.0   33.333333333333336
400.0   30.0   50.0
450.0   60.0   50.0
450.0   30.0   50.0
450.0   30.0   33.333333333333336
400.0   30.0   50.0
450.0   60.0   50.0
450.0   30.0   33.333333333333336
400.0   60.0   33.333333333333336
400.0   60.0   0.0
450.0   60.0   0.0
400.0   90.0   0.0
400.0   60.0   16.666666666666668
450.0   60.0   0.0
450.0   90.0   0.0
400.0   90.0   0.0
450.0   90.0   16.666666666666668
400.0   60.0   16.666666666666668
400.0   90.0   16.666666666666668
450.0   90.0   16.666666666666668
400.0   90.0   0.0
400.0   60.0   16.666666666666668
450.0   90.0   16.666666666666668
450.0   60.0   16.666666666666668
450.0   60.0   0.0
400.0   60.0   16.666666666666668
450.0   90.0   16.666666666666668
450.0   60.0   0.0
400.0   90.0   0.0
400.0   60.0   16.666666666666668
450.0   60.0   16.666666666666668
400.0   90.0   16.666666666666668
400.0   60.0   33.333333333333336
450.0   60.0   16.666666666666668
450.0   90.0   16.666666666666668
400.0   90.0   16.666666666666668
450.0   90.0   33.333333333333336
400.0   60.0   33.333333333333336
400.0   90.0   33.333333333333336
450.0   90.0   33.333333333333336
400.0   90.0   16.666666666666668
400.0   60.0   33.333333333333336
450.0   90.0   33.333333333333336
450.0   60.0   33.333333333333336
450.0   60.0   16.666666666666668
400.0   60.0   33.333333333333336
450.0   90.0   33.333333333333336
450.0   60.0   16.666666666666668
400.0   90.0   16.666666666666668
400.0   60.0   33.333333333333336
450.0   60.0   33.333333333333336
400.0   90.0   33.333333333333336
400.0   60.0   50.0
450.0   60.0   33.333333333333336
450.0   90.0   33.333333333333336
400.0   90.0   33.333333333333336
450.0   90.0   50.0
400.0   60.0   50.0
400.0   90.0   50.0
450.0   90.0   50.0
400.0   90.0   33.333333333333336
400.0   60.0   50.0
450.0   90.0   50.0
450.0   60.0   50.0
450.0   60.0   33.333333333333336
400.0   60.0   50.0
450.0   90.0   50.0
450.0   60.0   33.333333333333336
400.0   90.0   33.333333333333336
400.0   90.0   0.0
450.0   90.0   0.0
400.0   120.0   0.0
400.0   90.0   16.666666666666668
450.0   90.0   0.0
450.0   120.0   0.0
400.0   120.0   0.0
450.0   120.0   16.666666666666668
400.0   90.0   16.666666666666668
400.0   120.0   16.666666666666668
450.0   120.0   16.666666666666668
400.0   120.0   0.0
400.0   90.0   16.666666666666668
450.0   120.0   16.666666666666668
450.0   90.0   16.666666666666668
450.0   90.0   0.0
400.0   90.0   16.666666666666668
450.0   120.0   16.666666666666668
450.0   90.0   0.0
400.0   120.0   0.0
400.0   90.0   16.666666666666668
450.0   90.0   16.666666666666668
400.0   120.0   16.666666666666668
400.0   90.0   33.333333333333336
450.0   90.0   16.666666666666668
450.0   120.0   16.666666666666668
400.0   120.0   16.666666666666668
450.0   120.0   33.333333333333336
400.0   90.0   33.333333333333336
400.0   120.0   33.333333333333336
450.0   120.0   33.333333333333336
400.0   120.0   16.666666666666668
400.0   90.0   33.333333333333336
450.0   120.0   33.333333333333336
450.0   90.0   33.333333333333336
450.0   90.0   16.666666666666668
400.0   90.0   33.333333333333336
450.0   120.0   33.333333333333336
450.0   90.0   16.666666666666668
400.0   120.0   16.666666666666668
400.0   90.0   33.333333333333336
450.0   90.0   33.333333333333336
400.0   120.0   33.333333333333336
400.0   90.0   50.0
450.0   90.0   33.333333333333336
450.0   120.0   33.333333333333336
400.0   120.0   33.333333333333336
450.0   120.0   50.0
400.0   90.0   50.0
400.0   120.0   50.0
450.0   120.0   50.0
400.0   120.0   33.333333333333336
400.0   90.0   50.0
450.0   120.0   50.0
450.0   90.0   50.0
450.0   90.0   33.333333333333336
400.0   90.0   50.0
450.0   120.0   50.0
450.0   90.0   33.333333333333336
400.0   120.0   33.333333333333336
400.0   120.0   0.0
450.0   120.0   0.0
400.0   150.0   0.0
400.0   120.0   16.666666666666668
450.0   120.0   0.0
450.0   150.0   0.0
400.0   150.0   0.0
450.0   150.0   16.666666666666668
400.0   120.0   16.666666666666668
400.0   150.0   16.666666666666668
450.0   150.0   16.666666666666668
400.0   150.0   0.0
400.0   120.0   16.666666666666668
450.0   150.0   16.666666666666668
450.0   120.0   16.666666666666668
450.0   120.0   0.0
400.0   120.0   16.666666666666668
450.0   150.0   16.666666666666668
450.0   120.0   0.0
400.0   150.0   0.0
400.0   120.0   16.666666666666668
450.0   120.0   16.666666666666668
400.0   150.0   16.666666666666668
400.0   120.0   33.333333333333336
450.0   120.0   16.666666666666668
450.0   150.0   16.666666666666668
400.0   150.0   16.666666666666668
450.0   150.0   33.333333333333336
400.0   120.0   33.333333333333336
400.0   150.0   33.333333333333336
450.0   150.0   33.333333333333336
400.0   150.0   16.666666666666668
400.0   120.0   33.333333333333336
450.0   150.0   33.333333333333336
450.0   120.0   33.333333333333336
450.0   120.0   16.666666666666668
400.0   120.0   33.333333333333336
450.0   150.0   33.333333333333336
450.0   120.0   16.666666666666668
400.0   150.0   16.666666666666668
400.0   120.0   33.333333333333336
450.0   120.0   33.333333333333336
400.0   150.0   33.333333333333336
400.0   120.0   50.0
450.0   120.0   33.333333333333336
450.0   150.0   33.333333333333336
400.0   150.0   33.333333333333336
450.0   150.0   50.0
400.0   120.0   50.0
400.0   150.0   50.0
450.0   150.0   50.0
400.0   150.0   33.333333333333336
400.0   120.0   50.0
450.0   150.0   50.0
450.0   120.0   50.0
450.0   120.0   33.333333333333336
400.0   120.0   50.0
450.0   150.0   50.0
450.0   120.0   33.333333333333336
400.0   150.0   33.333333333333336
450.0   0.0   0.0
500.0   0.0   0.0
450.0   30.0   0.0
450.0   0.0   16.666666666666668
500.0   0.0   0.0
500.0   30.0   0.0
450.0   30.0   0.0
500.0   30.0   16.666666666666668
450.0   0.0   16.666666666666668
450.0   30.0   16.666666666666668
500.0   30.0   16.666666666666668
450.0   30.0   0.0
450.0   0.0   16.666666666666668
500.0   30.0   16.666666666666668
500.0   0.0   16.666666666666668
500.0   0.0   0.0
450.0   0.0   16.666666666666668
500.0   30.0   16.666666666666668
500.0   0.0   0.0
450.0   30.0   0.0
450.0   0.0   16.666666666666668
500.0   0.0   16.666666666666668
450.0   30.0   16.666666666666668
450.0   0.0   33.333333333333336
500.0   0.0   16.666666666666668
500.0   30.0   16.666666666666668
450.0   30.0   16.666666666666668
500.0   30.0   33.333333333333336
450.0   0.0   33.333333333333336
450.0   30.0   33.333333333333336
500.0   30.0   33.333333333333336
450.0   30.0   16.666666666666668
450.0   0.0   33.333333333333336
500.0   30.0   33.333333333333336
500.0   0.0   33.333333333333336
500.0   0.0   16.666666666666668
450.0   0.0   33.333333333333336
500.0   30.0   33.333333333333336
500.0   0.0   16.666666666666668
450.0   30.0   16.666666666666668
450.0   0.0   33.333333333333336
500.0   0.0   33.333333333333336
450.0   30.0   33.333333333333336
450.0   0.0   50.0
500.0   0.0   33.333333333333336
500.0   30.0   33.333333333333336
450.0   30.0   33.333333333333336
500.0   30.0   50.0
450.0   0.0   50.0
450.0   30.0   50.0
500.0   30.0   50.0
450.0   30.0   33.333333333333336
450.0   0.0   50.0
500.0   30.0   50.0
500.0   0.0   50.0
500.0   0.0   33.333333333333336
450.0   0.0   50.0
500.0   30.0   50.0
500.0   0.0   33.333333333333336
450.0   30.0   33.333333333333336
450.0   30.0   0.0
500.0   30.0   0.0
450.0   60.0   0.0
450.0   30.0   16.666666666666668
500.0   30.0   0.0
500.0   60.0   0.0
450.0   60.0   0.0
500.0   60.0   16.666666666666668
450.0   30.0   16.666666666666668
450.0   60.0   16.666666666666668
500.0   60.0   16.666666666666668
450.0   60.0   0.0
450.0   30.0   16.666666666666668
500.0   60.0   16.666666666666668
500.0   30.0   16.666666666666668
500.0   30.0   0.0
450.0   30.0   16.666666666666668
500.0   60.0   16.666666666666668
500.0   30.0   0.0
450.0   60.0   0.0
450.0   30.0   16.666666666666668
500.0   30.0   16.666666666666668
450.0   60.0   16.666666666666668
450.0   30.0   33.333333333333336
500.0   30.0   16.666666666666668
500.0   60.0   16.666666666666668
450.0   60.0   16.666666666666668
500.0   60.0   33.333333333333336
450.0   30.0   33.333333333333336
450.0   60.0   33.333333333333336
500.0   60.0   33.333333333333336
450.0   60.0   16.666666666666668
450.0   30.0   33.333333333333336
500.0   60.0   33.333333333333336
500.0   30.0   33.333333333333336
500.0   30.0   16.666666666666668
450.0   30.0   33.333333333333336
500.0   60.0   33.333333333333336
500.0   30.0   16.666666666666668
450.0   60.0   16.666666666666668
450.0   30.0   33.333333333333336
500.0   30.0   33.333333333333336
450.0   60.0   33.333333333333336
450.0   30.0   50.0
500.0   30.0   33.333333333333336
500.0   60.0   33.333333333333336
450.0   60.0   33.333333333333336
500.0   60.0   50.0
450.0   30.0   50.0
450.0   60.0   50.0
500.0   60.0   50.0
450.0   60.0   33.333333333333336
450.0   30.0   50.0
500.0   60.0   50.0
500.0   30.0   50.0
500.0   30.0   33.333333333333336
450.0   30.0   50.0
500.0   60.0   50.0
500.0   30.0   33.333333333333336
450.0   60.0   33.333333333333336
450.0   60.0   0.0
500.0   60.0   0.0
450.0   90.0   0.0
450.0   60.0   16.666666666666668
500.0   60.0   0.0
500.0   90.0   0.0
450.0   90.0   0.0
500.0   90.0   16.666666666666668
450.0   60.0   16.666666666666668
450.0   90.0   16.666666666666668
500.0   90.0   16.666666666666668
450.0   90.0   0.0
450.0   60.0   16.666666666666668
500.0   90.0   16.666666666666668
500.0   60.0   16.666666666666668
500.0   60.0   0.0
450.0   60.0   16.666666666666668
500.0   90.0   16.666666666666668
500.0   60.0   0.0
450.0   90.0   0.0
450.0   60.0   16.666666666666668
500.0   60.0   16.666666666666668
450.0   90.0   16.666666666666668
450.0   60.0   33.333333333333336
500.0   60.0   16.666666666666668
500.0   90.0   16.666666666666668
450.0   90.0   16.666666666666668
500.0   90.0   33.333333333333336
450.0   60.0   33.333333333333336
450.0   90.0   33.333333333333336
500.0   90.0   33.333333333333336
450.0   90.0   16.666666666666668
450.0   60.0   33.333333333333336
500.0   90.0   33.333333333333336
500.0   60.0   33.333333333333336
500.0   60.0   16.666666666666668
450.0   60.0   33.333333333333336
500.0   90.0   33.333333333333336
500.0   60.0   16.666666666666668
450.0   90.0   16.666666666666668
450.0   60.0   33.333333333333336
500.0   60.0   33.333333333333336
450.0   90.0   33.333333333333336
450.0   60.0   50.0
500.0   60.0   33.333333333333336
500.0   90.0   33.333333333333336
450.0   90.0   33.333333333333336
500.0   90.0   50.0
450.0   60.0   50.0
450.0   90.0   50.0
500.0   90.0   50.0
450.0   90.0   33.333333333333336
450.0   60.0   50.0
500.0   90.0   50.0
500.0   60.0   50.0
500.0   60.0   33.333333333333336
450.0   60.0   50.0
500.0   90.0   50.0
500.0   60.0   33.333333333333336
450.0   90.0   33.333333333333336
450.0   90.0   0.0
500.0   90.0   0.0
450.0   120.0   0.0
450.0   90.0   16.666666666666668
500.0   90.0   0.0
500.0   120.0   0.0
450.0   120.0   0.0
500.0   120.0   16.666666666666668
450.0   90.0   16.666666666666668
450.0   120.0   16.666666666666668
500.0   120.0   16.666666666666668
450.0   120.0   0.0
450.0   90.0   16.666666666666668
500.0   120.0   16.666666666666668
500.0   90.0   16.666666666666668
500.0   90.0   0.0
450.0   90.0   16.666666666666668
500.0   120.0   16.666666666666668
500.0   90.0   0.0
450.0   120.0   0.0
450.0   90.0   16.666666666666668
500.0   90.0   16.666666666666668
450.0   120.0   16.666666666666668
450.0   90.0   33.333333333333336
500.0   90.0   16.666666666666668
500.0   120.0   16.666666666666668
450.0   120.0   16.666666666666668
500.0   120.0   33.333333333333336
450.0   90.0   33.333333333333336
450.0   120.0   33.333333333333336
500.0   120.0   33.333333333333336
450.0   120.0   16.666666666666668
450.0   90.0   33.333333333333336
500.0   120.0   33.333333333333336
500.0   90.0   33.333333333333336
500.0   90.0   16.666666666666668
450.0   90.0   33.333333333333336
500.0   120.0   33.333333333333336
500.0   90.0   16.666666666666668
450.0   120.0   16.666666666666668
450.0   90.0   33.333333333333336
500.0   90.0   33.333333333333336
450.0   120.0   33.333333333333336
450.0   90.0   50.0
500.0   90.0   33.333333333333336
500.0   120.0   33.333333333333336
450.0   120.0   33.333333333333336
500.0   120.0   50.0
450.0   90.0   50.0
450.0   120.0   50.0
500.0   120.0   50.0
450.0   120.0   33.333333333333336
450.0   90.0   50.0
500.0   120.0   50.0
500.0   90.0   50.0
500.0   90.0   33.333333333333336
450.0   90.0   50.0
500.0   120.0   50.0
500.0   90.0   33.333333333333336
450.0   120.0   33.333333333333336
450.0   120.0   0.0
500.0   120.0   0.0
450.0   150.0   0.0
450.0   120.0   16.666666666666668
500.0   120.0   0.0
500.0   150.0   0.0
450.0   150.0   0.0
500.0   150.0   16.666666666666668
450.0   120.0   16.666666666666668
450.0   150.0   16.666666666666668
500.0   150.0   16.666666666666668
450.0   150.0   0.0
450.0   120.0   16.666666666666668
500.0   150.0   16.666666666666668
500.0   120.0   16.666666666666668
500.0   120.0   0.0
450.0   120.0   16.666666666666668
500.0   150.0   16.666666666666668
500.0   120.0   0.0
450.0   150.0   0.0
450.0   120.0   16.666666666666668
500.0   120.0   16.666666666666668
450.0   150.0   16.666666666666668
450.0   120.0   33.333333333333336
500.0   120.0   16.666666666666668
500.0   150.0   16.666666666666668
450.0   150.0   16.666666666666668
500.0   150.0   33.333333333333336
450.0   120.0   33.333333333333336
450.0   150.0   33.333333333333336
500.0   150.0   33.333333333333336
450.0   150.0   16.666666666666668
450.0   120.0   33.333333333333336
500.0   150.0   33.333333333333336
500.0   120.0   33.333333333333336
500.0   120.0   16.666666666666668
450.0   120.0   33.333333333333336
500.0   150.0   33.333333333333336
500.0   120.0   16.666666666666668
450.0   150.0   16.666666666666668
450.0   120.0   33.333333333333336
500.0   120.0   33.333333333333336
450.0   150.0   33.333333333333336
450.0   120.0   50.0
500.0   120.0   33.333333333333336
500.0   150.0   33.333333333333336
450.0   150.0   33.333333333333336
500.0   150.0   50.0
450.0   120.0   50.0
450.0   150.0   50.0
500.0   150.0   50.0
450.0   150.0   33.333333333333336
450.0   120.0   50.0
500.0   150.0   50.0
500.0   120.0   50.0
500.0   120.0   33.333333333333336
450.0   120.0   50.0
500.0   150.0   50.0
500.0   120.0   33.333333333333336
450.0   150.0   33.333333333333336
             </DataArray>   
          </Points>  
          <Cells>  
             <DataArray type="Int32" Name="connectivity" format="ascii">   
0   1   2   3
4   5   6   7
8   9   10   11
12   13   14   15
16   17   18   19
20   21   22   23
24   25   26   27
28   29   30   31
32   33   34   35
36   37   38   39
40   41   42   43
44   45   46   47
48   49   50   51
52   53   54   55
56   57   58   59
60   61   62   63
64   65   66   67
68   69   70   71
72   73   74   75
76   77   78   79
80   81   82   83
84   85   86   87
88   89   90   91
92   93   94   95
96   97   98   99
100   101   102   103
104   105   106   107
108   109   110   111
112   113   114   115
116   117   118   119
120   121   122   123
124   125   126   127
128   129   130   131
132   133   134   135
136   137   138   139
140   141   142   143
144   145   146   147
148   149   150   151
152   153   154   155
156   157   158   159
160   161   162   163
164   165   166   167
168   169   170   171
172   173   174   175
176   177   178   179
180   181   182   183
184   185   186   187
188   189   190   191
192   193   194   195
196   197   198   199
200   201   202   203
204   205   206   207
208   209   210   211
212   213   214   215
216   217   218   219
220   221   222   223
224   225   226   227
228   229   230   231
232   233   234   235
236   237   238   239
240   241   242   243
244   245   246   247
248   249   250   251
252   253   254   255
256   257   258   259
260   261   262   263
264   265   266   267
268   269   270   271
272   273   274   275
276   277   278   279
280   281   282   283
284   285   286   287
288   289   290   291
292   293   294   295
296   297   298   299
300   301   302   303
304   305   306   307
308   309   310   311
312   313   314   315
316   317   318   319
320   321   322   323
324   325   326   327
328   329   330   331
332   333   334   335
336   337   338   339
340   341   342   343
344   345   346   347
348   349   350   351
352   353   354   355
356   357   358   359
360   361   362   363
364   365   366   367
368   369   370   371
372   373   374   375
376   377   378   379
380   381   382   383
384   385   386   387
388   389   390   391
392   393   394   395
396   397   398   399
400   401   402   403
404   405   406   407
408   409   410   411
412   413   414   415
416   417   418   419
420   421   422   423
424   425   426   427
428   429   430   431
432   433   434   435
436   437   438   439
440   441   442   443
444   445   446   447
448   449   450   451
452   453   454   455
456   457   458   459
460   461   462   463
464   465   466   467
468   469   470   471
472   473   474   475
476   477   478   479
480   481   482   483
484   485   486   487
488   489   490   491
492   493   494   495
496   497   498   499
500   501   502   503
504   505   506   507
508   509   510   511
512   513   514   515
516   517   518   519
520   521   522   523
524   525   526   527
528   529   530   531
532   533   534   535
536   537   538   539
540   541   542   543
544   545   546   547
548   549   550   551
552   553   554   555
556   557   558   559
560   561   562   563
564   565   566   567
568   569   570   571
572   573   574   575
576   577   578   579
580   581   582   583
584   585   586   587
588   589   590   591
592   593   594   595
596   597   598   599
600   601   602   603
604   605   606   607
608   609   610   611
612   613   614   615
616   617   618   619
620   621   622   623
624   625   626   627
628   629   630   631
632   633   634   635
636   637   638   639
640   641   642   643
644   645   646   647
648   649   650   651
652   653   654   655
656   657   658   659
660   661   662   663
664   665   666   667
668   669   670   671
672   673   674   675
676   677   678   679
680   681   682   683
684   685   686   687
688   689   690   691
692   693   694   695
696   697   698   699
700   701   702   703
704   705   706   707
708   709   710   711
712   713   714   715
716   717   718   719
720   721   722   723
724   725   726   727
728   729   730   731
732   733   734   735
736   737   738   739
740   741   742   743
744   745   746   747
748   749   750   751
752   753   754   755
756   757   758   759
760   761   762   763
764   765   766   767
768   769   770   771
772   773   774   775
776   777   778   779
780   781   782   783
784   785   786   787
788   789   790   791
792   793   794   795
796   797   798   799
800   801   802   803
804   805   806   807
808   809   810   811
812   813   814   815
816   817   818   819
820   821   822   823
824   825   826   827
828   829   830   831
832   833   834   835
836   837   838   839
840   841   842   843
844   845   846   847
848   849   850   851
852   853   854   855
856   857   858   859
860   861   862   863
864   865   866   867
868   869   870   871
872   873   874   875
876   877   878   879
880   881   882   883
884   885   886   887
888   889   890   891
892   893   894   895
896   897   898   899
900   901   902   903
904   905   906   907
908   909   910   911
912   913   914   915
916   917   918   919
920   921   922   923
924   925   926   927
928   929   930   931
932   933   934   935
936   937   938   939
940   941   942   943
944   945   946   947
948   949   950   951
952   953   954   955
956   957   958   959
960   961   962   963
964   965   966   967
968   969   970   971
972   973   974   975
976   977   978   979
980   981   982   983
984   985   986   987
988   989   990   991
992   993   994   995
996   997   998   999
1000   1001   1002   1003
1004   1005   1006   1007
1008   1009   1010   1011
1012   1013   1014   1015
1016   1017   1018   1019
1020   1021   1022   1023
1024   1025   1026   1027
1028   1029   1030   1031
1032   1033   1034   1035
1036   1037   1038   1039
1040   1041   1042   1043
1044   1045   1046   1047
1048   1049   1050   1051
1052   1053   1054   1055
1056   1057   1058   1059
1060   1061   1062   1063
1064   1065   1066   1067
1068   1069   1070   1071
1072   1073   1074   1075
1076   1077   1078   1079
1080   1081   1082   1083
1084   1085   1086   1087
1088   1089   1090   1091
1092   1093   1094   1095
1096   1097   1098   1099
1100   1101   1102   1103
1104   1105   1106   1107
1108   1109   1110   1111
1112   1113   1114   1115
1116   1117   1118   1119
1120   1121   1122   1123
1124   1125   1126   1127
1128   1129   1130   1131
1132   1133   1134   1135
1136   1137   1138   1139
1140   1141   1142   1143
1144   1145   1146   1147
1148   1149   1150   1151
1152   1153   1154   1155
1156   1157   1158   1159
1160   1161   1162   1163
1164   1165   1166   1167
1168   1169   1170   1171
1172   1173   1174   1175
1176   1177   1178   1179
1180   1181   1182   1183
1184   1185   1186   1187
1188   1189   1190   1191
1192   1193   1194   1195
1196   1197   1198   1199
1200   1201   1202   1203
1204   1205   1206   1207
1208   1209   1210   1211
1212   1213   1214   1215
1216   1217   1218   1219
1220   1221   1222   1223
1224   1225   1226   1227
1228   1229   1230   1231
1232   1233   1234   1235
1236   1237   1238   1239
1240   1241   1242   1243
1244   1245   1246   1247
1248   1249   1250   1251
1252   1253   1254   1255
1256   1257   1258   1259
1260   1261   1262   1263
1264   1265   1266   1267
1268   1269   1270   1271
1272   1273   1274   1275
1276   1277   1278   1279
1280   1281   1282   1283
1284   1285   1286   1287
1288   1289   1290   1291
1292   1293   1294   1295
1296   1297   1298   1299
1300   1301   1302   1303
1304   1305   1306   1307
1308   1309   1310   1311
1312   1313   1314   1315
1316   1317   1318   1319
1320   1321   1322   1323
1324   1325   1326   1327
1328   1329   1330   1331
1332   1333   1334   1335
1336   1337   1338   1339
1340   1341   1342   1343
1344   1345   1346   1347
1348   1349   1350   1351
1352   1353   1354   1355
1356   1357   1358   1359
1360   1361   1362   1363
1364   1365   1366   1367
1368   1369   1370   1371
1372   1373   1374   1375
1376   1377   1378   1379
1380   1381   1382   1383
1384   1385   1386   1387
1388   1389   1390   1391
1392   1393   1394   1395
1396   1397   1398   1399
1400   1401   1402   1403
1404   1405   1406   1407
1408   1409   1410   1411
1412   1413   1414   1415
1416   1417   1418   1419
1420   1421   1422   1423
1424   1425   1426   1427
1428   1429   1430   1431
1432   1433   1434   1435
1436   1437   1438   1439
1440   1441   1442   1443
1444   1445   1446   1447
1448   1449   1450   1451
1452   1453   1454   1455
1456   1457   1458   1459
1460   1461   1462   1463
1464   1465   1466   1467
1468   1469   1470   1471
1472   1473   1474   1475
1476   1477   1478   1479
1480   1481   1482   1483
1484   1485   1486   1487
1488   1489   1490   1491
1492   1493   1494   1495
1496   1497   1498   1499
1500   1501   1502   1503
1504   1505   1506   1507
1508   1509   1510   1511
1512   1513   1514   1515
1516   1517   1518   1519
1520   1521   1522   1523
1524   1525   1526   1527
1528   1529   1530   1531
1532   1533   1534   1535
1536   1537   1538   1539
1540   1541   1542   1543
1544   1545   1546   1547
1548   1549   1550   1551
1552   1553   1554   1555
1556   1557   1558   1559
1560   1561   1562   1563
1564   1565   1566   1567
1568   1569   1570   1571
1572   1573   1574   1575
1576   1577   1578   1579
1580   1581   1582   1583
1584   1585   1586   1587
1588   1589   1590   1591
1592   1593   1594   1595
1596   1597   1598   1599
1600   1601   1602   1603
1604   1605   1606   1607
1608   1609   1610   1611
1612   1613   1614   1615
1616   1617   1618   1619
1620   1621   1622   1623
1624   1625   1626   1627
1628   1629   1630   1631
1632   1633   1634   1635
1636   1637   1638   1639
1640   1641   1642   1643
1644   1645   1646   1647
1648   1649   1650   1651
1652   1653   1654   1655
1656   1657   1658   1659
1660   1661   1662   1663
1664   1665   1666   1667
1668   1669   1670   1671
1672   1673   1674   1675
1676   1677   1678   1679
1680   1681   1682   1683
1684   1685   1686   1687
1688   1689   1690   1691
1692   1693   1694   1695
1696   1697   1698   1699
1700   1701   1702   1703
1704   1705   1706   1707
1708   1709   1710   1711
1712   1713   1714   1715
1716   1717   1718   1719
1720   1721   1722   1723
1724   1725   1726   1727
1728   1729   1730   1731
1732   1733   1734   1735
1736   1737   1738   1739
1740   1741   1742   1743
1744   1745   1746   1747
1748   1749   1750   1751
1752   1753   1754   1755
1756   1757   1758   1759
1760   1761   1762   1763
1764   1765   1766   1767
1768   1769   1770   1771
1772   1773   1774   1775
1776   1777   1778   1779
1780   1781   1782   1783
1784   1785   1786   1787
1788   1789   1790   1791
1792   1793   1794   1795
1796   1797   1798   1799
1800   1801   1802   1803
1804   1805   1806   1807
1808   1809   1810   1811
1812   1813   1814   1815
1816   1817   1818   1819
1820   1821   1822   1823
1824   1825   1826   1827
1828   1829   1830   1831
1832   1833   1834   1835
1836   1837   1838   1839
1840   1841   1842   1843
1844   1845   1846   1847
1848   1849   1850   1851
1852   1853   1854   1855
1856   1857   1858   1859
1860   1861   1862   1863
1864   1865   1866   1867
1868   1869   1870   1871
1872   1873   1874   1875
1876   1877   1878   1879
1880   1881   1882   1883
1884   1885   1886   1887
1888   1889   1890   1891
1892   1893   1894   1895
1896   1897   1898   1899
1900   1901   1902   1903
1904   1905   1906   1907
1908   1909   1910   1911
1912   1913   1914   1915
1916   1917   1918   1919
1920   1921   1922   1923
1924   1925   1926   1927
1928   1929   1930   1931
1932   1933   1934   1935
1936   1937   1938   1939
1940   1941   1942   1943
1944   1945   1946   1947
1948   1949   1950   1951
1952   1953   1954   1955
1956   1957   1958   1959
1960   1961   1962   1963
1964   1965   1966   1967
1968   1969   1970   1971
1972   1973   1974   1975
1976   1977   1978   1979
1980   1981   1982   1983
1984   1985   1986   1987
1988   1989   1990   1991
1992   1993   1994   1995
1996   1997   1998   1999
2000   2001   2002   2003
2004   2005   2006   2007
2008   2009   2010   2011
2012   2013   2014   2015
2016   2017   2018   2019
2020   2021   2022   2023
2024   2025   2026   2027
2028   2029   2030   2031
2032   2033   2034   2035
2036   2037   2038   2039
2040   2041   2042   2043
2044   2045   2046   2047
2048   2049   2050   2051
2052   2053   2054   2055
2056   2057   2058   2059
2060   2061   2062   2063
2064   2065   2066   2067
2068   2069   2070   2071
2072   2073   2074   2075
2076   2077   2078   2079
2080   2081   2082   2083
2084   2085   2086   2087
2088   2089   2090   2091
2092   2093   2094   2095
2096   2097   2098   2099
2100   2101   2102   2103
2104   2105   2106   2107
2108   2109   2110   2111
2112   2113   2114   2115
2116   2117   2118   2119
2120   2121   2122   2123
2124   2125   2126   2127
2128   2129   2130   2131
2132   2133   2134   2135
2136   2137   2138   2139
2140   2141   2142   2143
2144   2145   2146   2147
2148   2149   2150   2151
2152   2153   2154   2155
2156   2157   2158   2159
2160   2161   2162   2163
2164   2165   2166   2167
2168   2169   2170   2171
2172   2173   2174   2175
2176   2177   2178   2179
2180   2181   2182   2183
2184   2185   2186   2187
2188   2189   2190   2191
2192   2193   2194   2195
2196   2197   2198   2199
2200   2201   2202   2203
2204   2205   2206   2207
2208   2209   2210   2211
2212   2213   2214   2215
2216   2217   2218   2219
2220   2221   2222   2223
2224   2225   2226   2227
2228   2229   2230   2231
2232   2233   2234   2235
2236   2237   2238   2239
2240   2241   2242   2243
2244   2245   2246   2247
2248   2249   2250   2251
2252   2253   2254   2255
2256   2257   2258   2259
2260   2261   2262   2263
2264   2265   2266   2267
2268   2269   2270   2271
2272   2273   2274   2275
2276   2277   2278   2279
2280   2281   2282   2283
2284   2285   2286   2287
2288   2289   2290   2291
2292   2293   2294   2295
2296   2297   2298   2299
2300   2301   2302   2303
2304   2305   2306   2307
2308   2309   2310   2311
2312   2313   2314   2315
2316   2317   2318   2319
2320   2321   2322   2323
2324   2325   2326   2327
2328   2329   2330   2331
2332   2333   2334   2335
2336   2337   2338   2339
2340   2341   2342   2343
2344   2345   2346   2347
2348   2349   2350   2351
2352   2353   2354   2355
2356   2357   2358   2359
2360   2361   2362   2363
2364   2365   2366   2367
2368   2369   2370   2371
2372   2373   2374   2375
2376   2377   2378   2379
2380   2381   2382   2383
2384   2385   2386   2387
2388   2389   2390   2391
2392   2393   2394   2395
2396   2397   2398   2399
2400   2401   2402   2403
2404   2405   2406   2407
2408   2409   2410   2411
2412   2413   2414   2415
2416   2417   2418   2419
2420   2421   2422   2423
2424   2425   2426   2427
2428   2429   2430   2431
2432   2433   2434   2435
2436   2437   2438   2439
2440   2441   2442   2443
2444   2445   2446   2447
2448   2449   2450   2451
2452   2453   2454   2455
2456   2457   2458   2459
2460   2461   2462   2463
2464   2465   2466   2467
2468   2469   2470   2471
2472   2473   2474   2475
2476   2477   2478   2479
2480   2481   2482   2483
2484   2485   2486   2487
2488   2489   2490   2491
2492   2493   2494   2495
2496   2497   2498   2499
2500   2501   2502   2503
2504   2505   2506   2507
2508   2509   2510   2511
2512   2513   2514   2515
2516   2517   2518   2519
2520   2521   2522   2523
2524   2525   2526   2527
2528   2529   2530   2531
2532   2533   2534   2535
2536   2537   2538   2539
2540   2541   2542   2543
2544   2545   2546   2547
2548   2549   2550   2551
2552   2553   2554   2555
2556   2557   2558   2559
2560   2561   2562   2563
2564   2565   2566   2567
2568   2569   2570   2571
2572   2573   2574   2575
2576   2577   2578   2579
2580   2581   2582   2583
2584   2585   2586   2587
2588   2589   2590   2591
2592   2593   2594   2595
2596   2597   2598   2599
2600   2601   2602   2603
2604   2605   2606   2607
2608   2609   2610   2611
2612   2613   2614   2615
2616   2617   2618   2619
2620   2621   2622   2623
2624   2625   2626   2627
2628   2629   2630   2631
2632   2633   2634   2635
2636   2637   2638   2639
2640   2641   2642   2643
2644   2645   2646   2647
2648   2649   2650   2651
2652   2653   2654   2655
2656   2657   2658   2659
2660   2661   2662   2663
2664   2665   2666   2667
2668   2669   2670   2671
2672   2673   2674   2675
2676   2677   2678   2679
2680   2681   2682   2683
2684   2685   2686   2687
2688   2689   2690   2691
2692   2693   2694   2695
2696   2697   2698   2699
2700   2701   2702   2703
2704   2705   2706   2707
2708   2709   2710   2711
2712   2713   2714   2715
2716   2717   2718   2719
2720   2721   2722   2723
2724   2725   2726   2727
2728   2729   2730   2731
2732   2733   2734   2735
2736   2737   2738   2739
2740   2741   2742   2743
2744   2745   2746   2747
2748   2749   2750   2751
2752   2753   2754   2755
2756   2757   2758   2759
2760   2761   2762   2763
2764   2765   2766   2767
2768   2769   2770   2771
2772   2773   2774   2775
2776   2777   2778   2779
2780   2781   2782   2783
2784   2785   2786   2787
2788   2789   2790   2791
2792   2793   2794   2795
2796   2797   2798   2799
2800   2801   2802   2803
2804   2805   2806   2807
2808   2809   2810   2811
2812   2813   2814   2815
2816   2817   2818   2819
2820   2821   2822   2823
2824   2825   2826   2827
2828   2829   2830   2831
2832   2833   2834   2835
2836   2837   2838   2839
2840   2841   2842   2843
2844   2845   2846   2847
2848   2849   2850   2851
2852   2853   2854   2855
2856   2857   2858   2859
2860   2861   2862   2863
2864   2865   2866   2867
2868   2869   2870   2871
2872   2873   2874   2875
2876   2877   2878   2879
2880   2881   2882   2883
2884   2885   2886   2887
2888   2889   2890   2891
2892   2893   2894   2895
2896   2897   2898   2899
2900   2901   2902   2903
2904   2905   2906   2907
2908   2909   2910   2911
2912   2913   2914   2915
2916   2917   2918   2919
2920   2921   2922   2923
2924   2925   2926   2927
2928   2929   2930   2931
2932   2933   2934   2935
2936   2937   2938   2939
2940   2941   2942   2943
2944   2945   2946   2947
2948   2949   2950   2951
2952   2953   2954   2955
2956   2957   2958   2959
2960   2961   2962   2963
2964   2965   2966   2967
2968   2969   2970   2971
2972   2973   2974   2975
2976   2977   2978   2979
2980   2981   2982   2983
2984   2985   2986   2987
2988   2989   2990   2991
2992   2993   2994   2995
2996   2997   2998   2999
3000   3001   3002   3003
3004   3005   3006   3007
3008   3009   3010   3011
3012   3013   3014   3015
3016   3017   3018   3019
3020   3021   3022   3023
3024   3025   3026   3027
3028   3029   3030   3031
3032   3033   3034   3035
3036   3037   3038   3039
3040   3041   3042   3043
3044   3045   3046   3047
3048   3049   3050   3051
3052   3053   3054   3055
3056   3057   3058   3059
3060   3061   3062   3063
3064   3065   3066   3067
3068   3069   3070   3071
3072   3073   3074   3075
3076   3077   3078   3079
3080   3081   3082   3083
3084   3085   3086   3087
3088   3089   3090   3091
3092   3093   3094   3095
3096   3097   3098   3099
3100   3101   3102   3103
3104   3105   3106   3107
3108   3109   3110   3111
3112   3113   3114   3115
3116   3117   3118   3119
3120   3121   3122   3123
3124   3125   3126   3127
3128   3129   3130   3131
3132   3133   3134   3135
3136   3137   3138   3139
3140   3141   3142   3143
3144   3145   3146   3147
3148   3149   3150   3151
3152   3153   3154   3155
3156   3157   3158   3159
3160   3161   3162   3163
3164   3165   3166   3167
3168   3169   3170   3171
3172   3173   3174   3175
3176   3177   3178   3179
3180   3181   3182   3183
3184   3185   3186   3187
3188   3189   3190   3191
3192   3193   3194   3195
3196   3197   3198   3199
3200   3201   3202   3203
3204   3205   3206   3207
3208   3209   3210   3211
3212   3213   3214   3215
3216   3217   3218   3219
3220   3221   3222   3223
3224   3225   3226   3227
3228   3229   3230   3231
3232   3233   3234   3235
3236   3237   3238   3239
3240   3241   3242   3243
3244   3245   3246   3247
3248   3249   3250   3251
3252   3253   3254   3255
3256   3257   3258   3259
3260   3261   3262   3263
3264   3265   3266   3267
3268   3269   3270   3271
3272   3273   3274   3275
3276   3277   3278   3279
3280   3281   3282   3283
3284   3285   3286   3287
3288   3289   3290   3291
3292   3293   3294   3295
3296   3297   3298   3299
3300   3301   3302   3303
3304   3305   3306   3307
3308   3309   3310   3311
3312   3313   3314   3315
3316   3317   3318   3319
3320   3321   3322   3323
3324   3325   3326   3327
3328   3329   3330   3331
3332   3333   3334   3335
3336   3337   3338   3339
3340   3341   3342   3343
3344   3345   3346   3347
3348   3349   3350   3351
3352   3353   3354   3355
3356   3357   3358   3359
3360   3361   3362   3363
3364   3365   3366   3367
3368   3369   3370   3371
3372   3373   3374   3375
3376   3377   3378   3379
3380   3381   3382   3383
3384   3385   3386   3387
3388   3389   3390   3391
3392   3393   3394   3395
3396   3397   3398   3399
3400   3401   3402   3403
3404   3405   3406   3407
3408   3409   3410   3411
3412   3413   3414   3415
3416   3417   3418   3419
3420   3421   3422   3423
3424   3425   3426   3427
3428   3429   3430   3431
3432   3433   3434   3435
3436   3437   3438   3439
3440   3441   3442   3443
3444   3445   3446   3447
3448   3449   3450   3451
3452   3453   3454   3455
3456   3457   3458   3459
3460   3461   3462   3463
3464   3465   3466   3467
3468   3469   3470   3471
3472   3473   3474   3475
3476   3477   3478   3479
3480   3481   3482   3483
3484   3485   3486   3487
3488   3489   3490   3491
3492   3493   3494   3495
3496   3497   3498   3499
3500   3501   3502   3503
3504   3505   3506   3507
3508   3509   3510   3511
3512   3513   3514   3515
3516   3517   3518   3519
3520   3521   3522   3523
3524   3525   3526   3527
3528   3529   3530   3531
3532   3533   3534   3535
3536   3537   3538   3539
3540   3541   3542   3543
3544   3545   3546   3547
3548   3549   3550   3551
3552   3553   3554   3555
3556   3557   3558   3559
3560   3561   3562   3563
3564   3565   3566   3567
3568   3569   3570   3571
3572   3573   3574   3575
3576   3577   3578   3579
3580   3581   3582   3583
3584   3585   3586   3587
3588   3589   3590   3591
3592   3593   3594   3595
3596   3597   3598   3599
3600   3601   3602   3603
3604   3605   3606   3607
3608   3609   3610   3611
3612   3613   3614   3615
3616   3617   3618   3619
3620   3621   3622   3623
3624   3625   3626   3627
3628   3629   3630   3631
3632   3633   3634   3635
3636   3637   3638   3639
3640   3641   3642   3643
3644   3645   3646   3647
3648   3649   3650   3651
3652   3653   3654   3655
3656   3657   3658   3659
3660   3661   3662   3663
3664   3665   3666   3667
3668   3669   3670   3671
3672   3673   3674   3675
3676   3677   3678   3679
3680   3681   3682   3683
3684   3685   3686   3687
3688   3689   3690   3691
3692   3693   3694   3695
3696   3697   3698   3699
3700   3701   3702   3703
3704   3705   3706   3707
3708   3709   3710   3711
3712   3713   3714   3715
3716   3717   3718   3719
3720   3721   3722   3723
3724   3725   3726   3727
3728   3729   3730   3731
3732   3733   3734   3735
3736   3737   3738   3739
3740   3741   3742   3743
3744   3745   3746   3747
3748   3749   3750   3751
3752   3753   3754   3755
3756   3757   3758   3759
3760   3761   3762   3763
3764   3765   3766   3767
3768   3769   3770   3771
3772   3773   3774   3775
3776   3777   3778   3779
3780   3781   3782   3783
3784   3785   3786   3787
3788   3789   3790   3791
3792   3793   3794   3795
3796   3797   3798   3799
3800   3801   3802   3803
3804   3805   3806   3807
3808   3809   3810   3811
3812   3813   3814   3815
3816   3817   3818   3819
3820   3821   3822   3823
3824   3825   3826   3827
3828   3829   3830   3831
3832   3833   3834   3835
3836   3837   3838   3839
3840   3841   3842   3843
3844   3845   3846   3847
3848   3849   3850   3851
3852   3853   3854   3855
3856   3857   3858   3859
3860   3861   3862   3863
3864   3865   3866   3867
3868   3869   3870   3871
3872   3873   3874   3875
3876   3877   3878   3879
3880   3881   3882   3883
3884   3885   3886   3887
3888   3889   3890   3891
3892   3893   3894   3895
3896   3897   3898   3899
3900   3901   3902   3903
3904   3905   3906   3907
3908   3909   3910   3911
3912   3913   3914   3915
3916   3917   3918   3919
3920   3921   3922   3923
3924   3925   3926   3927
3928   3929   3930   3931
3932   3933   3934   3935
3936   3937   3938   3939
3940   3941   3942   3943
3944   3945   3946   3947
3948   3949   3950   3951
3952   3953   3954   3955
3956   3957   3958   3959
3960   3961   3962   3963
3964   3965   3966   3967
3968   3969   3970   3971
3972   3973   3974   3975
3976   3977   3978   3979
3980   3981   3982   3983
3984   3985   3986   3987
3988   3989   3990   3991
3992   3993   3994   3995
3996   3997   3998   3999
4000   4001   4002   4003
4004   4005   4006   4007
4008   4009   4010   4011
4012   4013   4014   4015
4016   4017   4018   4019
4020   4021   4022   4023
4024   4025   4026   4027
4028   4029   4030   4031
4032   4033   4034   4035
4036   4037   4038   4039
4040   4041   4042   4043
4044   4045   4046   4047
4048   4049   4050   4051
4052   4053   4054   4055
4056   4057   4058   4059
4060   4061   4062   4063
4064   4065   4066   4067
4068   4069   4070   4071
4072   4073   4074   4075
4076   4077   4078   4079
4080   4081   4082   4083
4084   4085   4086   4087
4088   4089   4090   4091
4092   4093   4094   4095
4096   4097   4098   4099
4100   4101   4102   4103
4104   4105   4106   4107
4108   4109   4110   4111
4112   4113   4114   4115
4116   4117   4118   4119
4120   4121   4122   4123
4124   4125   4126   4127
4128   4129   4130   4131
4132   4133   4134   4135
4136   4137   4138   4139
4140   4141   4142   4143
4144   4145   4146   4147
4148   4149   4150   4151
4152   4153   4154   4155
4156   4157   4158   4159
4160   4161   4162   4163
4164   4165   4166   4167
4168   4169   4170   4171
4172   4173   4174   4175
4176   4177   4178   4179
4180   4181   4182   4183
4184   4185   4186   4187
4188   4189   4190   4191
4192   4193   4194   4195
4196   4197   4198   4199
4200   4201   4202   4203
4204   4205   4206   4207
4208   4209   4210   4211
4212   4213   4214   4215
4216   4217   4218   4219
4220   4221   4222   4223
4224   4225   4226   4227
4228   4229   4230   4231
4232   4233   4234   4235
4236   4237   4238   4239
4240   4241   4242   4243
4244   4245   4246   4247
4248   4249   4250   4251
4252   4253   4254   4255
4256   4257   4258   4259
4260   4261   4262   4263
4264   4265   4266   4267
4268   4269   4270   4271
4272   4273   4274   4275
4276   4277   4278   4279
4280   4281   4282   4283
4284   4285   4286   4287
4288   4289   4290   4291
4292   4293   4294   4295
4296   4297   4298   4299
4300   4301   4302   4303
4304   4305   4306   4307
4308   4309   4310   4311
4312   4313   4314   4315
4316   4317   4318   4319
4320   4321   4322   4323
4324   4325   4326   4327
4328   4329   4330   4331
4332   4333   4334   4335
4336   4337   4338   4339
4340   4341   4342   4343
4344   4345   4346   4347
4348   4349   4350   4351
4352   4353   4354   4355
4356   4357   4358   4359
4360   4361   4362   4363
4364   4365   4366   4367
4368   4369   4370   4371
4372   4373   4374   4375
4376   4377   4378   4379
4380   4381   4382   4383
4384   4385   4386   4387
4388   4389   4390   4391
4392   4393   4394   4395
4396   4397   4398   4399
4400   4401   4402   4403
4404   4405   4406   4407
4408   4409   4410   4411
4412   4413   4414   4415
4416   4417   4418   4419
4420   4421   4422   4423
4424   4425   4426   4427
4428   4429   4430   4431
4432   4433   4434   4435
4436   4437   4438   4439
4440   4441   4442   4443
4444   4445   4446   4447
4448   4449   4450   4451
4452   4453   4454   4455
4456   4457   4458   4459
4460   4461   4462   4463
4464   4465   4466   4467
4468   4469   4470   4471
4472   4473   4474   4475
4476   4477   4478   4479
4480   4481   4482   4483
4484   4485   4486   4487
4488   4489   4490   4491
4492   4493   4494   4495
4496   4497   4498   4499
4500   4501   4502   4503
4504   4505   4506   4507
4508   4509   4510   4511
4512   4513   4514   4515
4516   4517   4518   4519
4520   4521   4522   4523
4524   4525   4526   4527
4528   4529   4530   4531
4532   4533   4534   4535
4536   4537   4538   4539
4540   4541   4542   4543
4544   4545   4546   4547
4548   4549   4550   4551
4552   4553   4554   4555
4556   4557   4558   4559
4560   4561   4562   4563
4564   4565   4566   4567
4568   4569   4570   4571
4572   4573   4574   4575
4576   4577   4578   4579
4580   4581   4582   4583
4584   4585   4586   4587
4588   4589   4590   4591
4592   4593   4594   4595
4596   4597   4598   4599
4600   4601   4602   4603
4604   4605   4606   4607
4608   4609   4610   4611
4612   4613   4614   4615
4616   4617   4618   4619
4620   4621   4622   4623
4624   4625   4626   4627
4628   4629   4630   4631
4632   4633   4634   4635
4636   4637   4638   4639
4640   4641   4642   4643
4644   4645   4646   4647
4648   4649   4650   4651
4652   4653   4654   4655
4656   4657   4658   4659
4660   4661   4662   4663
4664   4665   4666   4667
4668   4669   4670   4671
4672   4673   4674   4675
4676   4677   4678   4679
4680   4681   4682   4683
4684   4685   4686   4687
4688   4689   4690   4691
4692   4693   4694   4695
4696   4697   4698   4699
4700   4701   4702   4703
4704   4705   4706   4707
4708   4709   4710   4711
4712   4713   4714   4715
4716   4717   4718   4719
4720   4721   4722   4723
4724   4725   4726   4727
4728   4729   4730   4731
4732   4733   4734   4735
4736   4737   4738   4739
4740   4741   4742   4743
4744   4745   4746   4747
4748   4749   4750   4751
4752   4753   4754   4755
4756   4757   4758   4759
4760   4761   4762   4763
4764   4765   4766   4767
4768   4769   4770   4771
4772   4773   4774   4775
4776   4777   4778   4779
4780   4781   4782   4783
4784   4785   4786   4787
4788   4789   4790   4791
4792   4793   4794   4795
4796   4797   4798   4799
4800   4801   4802   4803
4804   4805   4806   4807
4808   4809   4810   4811
4812   4813   4814   4815
4816   4817   4818   4819
4820   4821   4822   4823
4824   4825   4826   4827
4828   4829   4830   4831
4832   4833   4834   4835
4836   4837   4838   4839
4840   4841   4842   4843
4844   4845   4846   4847
4848   4849   4850   4851
4852   4853   4854   4855
4856   4857   4858   4859
4860   4861   4862   4863
4864   4865   4866   4867
4868   4869   4870   4871
4872   4873   4874   4875
4876   4877   4878   4879
4880   4881   4882   4883
4884   4885   4886   4887
4888   4889   4890   4891
4892   4893   4894   4895
4896   4897   4898   4899
4900   4901   4902   4903
4904   4905   4906   4907
4908   4909   4910   4911
4912   4913   4914   4915
4916   4917   4918   4919
4920   4921   4922   4923
4924   4925   4926   4927
4928   4929   4930   4931
4932   4933   4934   4935
4936   4937   4938   4939
4940   4941   4942   4943
4944   4945   4946   4947
4948   4949   4950   4951
4952   4953   4954   4955
4956   4957   4958   4959
4960   4961   4962   4963
4964   4965   4966   4967
4968   4969   4970   4971
4972   4973   4974   4975
4976   4977   4978   4979
4980   4981   4982   4983
4984   4985   4986   4987
4988   4989   4990   4991
4992   4993   4994   4995
4996   4997   4998   4999
5000   5001   5002   5003
5004   5005   5006   5007
5008   5009   5010   5011
5012   5013   5014   5015
5016   5017   5018   5019
5020   5021   5022   5023
5024   5025   5026   5027
5028   5029   5030   5031
5032   5033   5034   5035
5036   5037   5038   5039
5040   5041   5042   5043
5044   5045   5046   5047
5048   5049   5050   5051
5052   5053   5054   5055
5056   5057   5058   5059
5060   5061   5062   5063
5064   5065   5066   5067
5068   5069   5070   5071
5072   5073   5074   5075
5076   5077   5078   5079
5080   5081   5082   5083
5084   5085   5086   5087
5088   5089   5090   5091
5092   5093   5094   5095
5096   5097   5098   5099
5100   5101   5102   5103
5104   5105   5106   5107
5108   5109   5110   5111
5112   5113   5114   5115
5116   5117   5118   5119
5120   5121   5122   5123
5124   5125   5126   5127
5128   5129   5130   5131
5132   5133   5134   5135
5136   5137   5138   5139
5140   5141   5142   5143
5144   5145   5146   5147
5148   5149   5150   5151
5152   5153   5154   5155
5156   5157   5158   5159
5160   5161   5162   5163
5164   5165   5166   5167
5168   5169   5170   5171
5172   5173   5174   5175
5176   5177   5178   5179
5180   5181   5182   5183
5184   5185   5186   5187
5188   5189   5190   5191
5192   5193   5194   5195
5196   5197   5198   5199
5200   5201   5202   5203
5204   5205   5206   5207
5208   5209   5210   5211
5212   5213   5214   5215
5216   5217   5218   5219
5220   5221   5222   5223
5224   5225   5226   5227
5228   5229   5230   5231
5232   5233   5234   5235
5236   5237   5238   5239
5240   5241   5242   5243
5244   5245   5246   5247
5248   5249   5250   5251
5252   5253   5254   5255
5256   5257   5258   5259
5260   5261   5262   5263
5264   5265   5266   5267
5268   5269   5270   5271
5272   5273   5274   5275
5276   5277   5278   5279
5280   5281   5282   5283
5284   5285   5286   5287
5288   5289   5290   5291
5292   5293   5294   5295
5296   5297   5298   5299
5300   5301   5302   5303
5304   5305   5306   5307
5308   5309   5310   5311
5312   5313   5314   5315
5316   5317   5318   5319
5320   5321   5322   5323
5324   5325   5326   5327
5328   5329   5330   5331
5332   5333   5334   5335
5336   5337   5338   5339
5340   5341   5342   5343
5344   5345   5346   5347
5348   5349   5350   5351
5352   5353   5354   5355
5356   5357   5358   5359
5360   5361   5362   5363
5364   5365   5366   5367
5368   5369   5370   5371
5372   5373   5374   5375
5376   5377   5378   5379
5380   5381   5382   5383
5384   5385   5386   5387
5388   5389   5390   5391
5392   5393   5394   5395
5396   5397   5398   5399
5400   5401   5402   5403
5404   5405   5406   5407
5408   5409   5410   5411
5412   5413   5414   5415
5416   5417   5418   5419
5420   5421   5422   5423
5424   5425   5426   5427
5428   5429   5430   5431
5432   5433   5434   5435
5436   5437   5438   5439
5440   5441   5442   5443
5444   5445   5446   5447
5448   5449   5450   5451
5452   5453   5454   5455
5456   5457   5458   5459
5460   5461   5462   5463
5464   5465   5466   5467
5468   5469   5470   5471
5472   5473   5474   5475
5476   5477   5478   5479
5480   5481   5482   5483
5484   5485   5486   5487
5488   5489   5490   5491
5492   5493   5494   5495
5496   5497   5498   5499
5500   5501   5502   5503
5504   5505   5506   5507
5508   5509   5510   5511
5512   5513   5514   5515
5516   5517   5518   5519
5520   5521   5522   5523
5524   5525   5526   5527
5528   5529   5530   5531
5532   5533   5534   5535
5536   5537   5538   5539
5540   5541   5542   5543
5544   5545   5546   5547
5548   5549   5550   5551
5552   5553   5554   5555
5556   5557   5558   5559
5560   5561   5562   5563
5564   5565   5566   5567
5568   5569   5570   5571
5572   5573   5574   5575
5576   5577   5578   5579
5580   5581   5582   5583
5584   5585   5586   5587
5588   5589   5590   5591
5592   5593   5594   5595
5596   5597   5598   5599
5600   5601   5602   5603
5604   5605   5606   5607
5608   5609   5610   5611
5612   5613   5614   5615
5616   5617   5618   5619
5620   5621   5622   5623
5624   5625   5626   5627
5628   5629   5630   5631
5632   5633   5634   5635
5636   5637   5638   5639
5640   5641   5642   5643
5644   5645   5646   5647
5648   5649   5650   5651
5652   5653   5654   5655
5656   5657   5658   5659
5660   5661   5662   5663
5664   5665   5666   5667
5668   5669   5670   5671
5672   5673   5674   5675
5676   5677   5678   5679
5680   5681   5682   5683
5684   5685   5686   5687
5688   5689   5690   5691
5692   5693   5694   5695
5696   5697   5698   5699
5700   5701   5702   5703
5704   5705   5706   5707
5708   5709   5710   5711
5712   5713   5714   5715
5716   5717   5718   5719
5720   5721   5722   5723
5724   5725   5726   5727
5728   5729   5730   5731
5732   5733   5734   5735
5736   5737   5738   5739
5740   5741   5742   5743
5744   5745   5746   5747
5748   5749   5750   5751
5752   5753   5754   5755
5756   5757   5758   5759
5760   5761   5762   5763
5764   5765   5766   5767
5768   5769   5770   5771
5772   5773   5774   5775
5776   5777   5778   5779
5780   5781   5782   5783
5784   5785   5786   5787
5788   5789   5790   5791
5792   5793   5794   5795
5796   5797   5798   5799
5800   5801   5802   5803
5804   5805   5806   5807
5808   5809   5810   5811
5812   5813   5814   5815
5816   5817   5818   5819
5820   5821   5822   5823
5824   5825   5826   5827
5828   5829   5830   5831
5832   5833   5834   5835
5836   5837   5838   5839
5840   5841   5842   5843
5844   5845   5846   5847
5848   5849   5850   5851
5852   5853   5854   5855
5856   5857   5858   5859
5860   5861   5862   5863
5864   5865   5866   5867
5868   5869   5870   5871
5872   5873   5874   5875
5876   5877   5878   5879
5880   5881   5882   5883
5884   5885   5886   5887
5888   5889   5890   5891
5892   5893   5894   5895
5896   5897   5898   5899
5900   5901   5902   5903
5904   5905   5906   5907
5908   5909   5910   5911
5912   5913   5914   5915
5916   5917   5918   5919
5920   5921   5922   5923
5924   5925   5926   5927
5928   5929   5930   5931
5932   5933   5934   5935
5936   5937   5938   5939
5940   5941   5942   5943
5944   5945   5946   5947
5948   5949   5950   5951
5952   5953   5954   5955
5956   5957   5958   5959
5960   5961   5962   5963
5964   5965   5966   5967
5968   5969   5970   5971
5972   5973   5974   5975
5976   5977   5978   5979
5980   5981   5982   5983
5984   5985   5986   5987
5988   5989   5990   5991
5992   5993   5994   5995
5996   5997   5998   5999
              </DataArray>   
              <DataArray type="Int32" Name="offsets" format="ascii">   
4
8
12
16
20
24
28
32
36
40
44
48
52
56
60
64
68
72
76
80
84
88
92
96
100
104
108
112
116
120
124
128
132
136
140
144
148
152
156
160
164
168
172
176
180
184
188
192
196
200
204
208
212
216
220
224
228
232
236
240
244
248
252
256
260
264
268
272
276
280
284
288
292
296
300
304
308
312
316
320
324
328
332
336
340
344
348
352
356
360
364
368
372
376
380
384
388
392
396
400
404
408
412
416
420
424
428
432
436
440
444
448
452
456
460
464
468
472
476
480
484
488
492
496
500
504
508
512
516
520
524
528
532
536
540
544
548
552
556
560
564
568
572
576
580
584
588
592
596
600
604
608
612
616
620
624
628
632
636
640
644
648
652
656
660
664
668
672
676
680
684
688
692
696
700
704
708
712
716
720
724
728
732
736
740
744
748
752
756
760
764
768
772
776
780
784
788
792
796
800
804
808
812
816
820
824
828
832
836
840
844
848
852
856
860
864
868
872
876
880
884
888
892
896
900
904
908
912
916
920
924
928
932
936
940
944
948
952
956
960
964
968
972
976
980
984
988
992
996
1000
1004
1008
1012
1016
1020
1024
1028
1032
1036
1040
1044
1048
1052
1056
1060
1064
1068
1072
1076
1080
1084
1088
1092
1096
1100
1104
1108
1112
1116
1120
1124
1128
1132
1136
1140
1144
1148
1152
1156
1160
1164
1168
1172
1176
1180
1184
1188
1192
1196
1200
1204
1208
1212
1216
1220
1224
1228
1232
1236
1240
1244
1248
1252
1256
1260
1264
1268
1272
1276
1280
1284
1288
1292
1296
1300
1304
1308
1312
1316
1320
1324
1328
1332
1336
1340
1344
1348
1352
1356
1360
1364
1368
1372
1376
1380
1384
1388
1392
1396
1400
1404
1408
1412
1416
1420
1424
1428
1432
1436
1440
1444
1448
1452
1456
1460
1464
1468
1472
1476
1480
1484
1488
1492
1496
1500
1504
1508
1512
1516
1520
1524
1528
1532
1536
1540
1544
1548
1552
1556
1560
1564
1568
1572
1576
1580
1584
1588
1592
1596
1600
1604
1608
1612
1616
1620
1624
1628
1632
1636
1640
1644
1648
1652
1656
1660
1664
1668
1672
1676
1680
1684
1688
1692
1696
1700
1704
1708
1712
1716
1720
1724
1728
1732
1736
1740
1744
1748
1752
1756
1760
1764
1768
1772
1776
1780
1784
1788
1792
1796
1800
1804
1808
1812
1816
1820
1824
1828
1832
1836
1840
1844
1848
1852
1856
1860
1864
1868
1872
1876
1880
1884
1888
1892
1896
1900
1904
1908
1912
1916
1920
1924
1928
1932
1936
1940
1944
1948
1952
1956
1960
1964
1968
1972
1976
1980
1984
1988
1992
1996
2000
2004
2008
2012
2016
2020
2024
2028
2032
2036
2040
2044
2048
2052
2056
2060
2064
2068
2072
2076
2080
2084
2088
2092
2096
2100
2104
2108
2112
2116
2120
2124
2128
2132
2136
2140
2144
2148
2152
2156
2160
2164
2168
2172
2176
2180
2184
2188
2192
2196
2200
2204
2208
2212
2216
2220
2224
2228
2232
2236
2240
2244
2248
2252
2256
2260
2264
2268
2272
2276
2280
2284
2288
2292
2296
2300
2304
2308
2312
2316
2320
2324
2328
2332
2336
2340
2344
2348
2352
2356
2360
2364
2368
2372
2376
2380
2384
2388
2392
2396
2400
2404
2408
2412
2416
2420
2424
2428
2432
2436
2440
2444
2448
2452
2456
2460
2464
2468
2472
2476
2480
2484
2488
2492
2496
2500
2504
2508
2512
2516
2520
2524
2528
2532
2536
2540
2544
2548
2552
2556
2560
2564
2568
2572
2576
2580
2584
2588
2592
2596
2600
2604
2608
2612
2616
2620
2624
2628
2632
2636
2640
2644
2648
2652
2656
2660
2664
2668
2672
2676
2680
2684
2688
2692
2696
2700
2704
2708
2712
2716
2720
2724
2728
2732
2736
2740
2744
2748
2752
2756
2760
2764
2768
2772
2776
2780
2784
2788
2792
2796
2800
2804
2808
2812
2816
2820
2824
2828
2832
2836
2840
2844
2848
2852
2856
2860
2864
2868
2872
2876
2880
2884
2888
2892
2896
2900
2904
2908
2912
2916
2920
2924
2928
2932
2936
2940
2944
2948
2952
2956
2960
2964
2968
2972
2976
2980
2984
2988
2992
2996
3000
3004
3008
3012
3016
3020
3024
3028
3032
3036
3040
3044
3048
3052
3056
3060
3064
3068
3072
3076
3080
3084
3088
3092
3096
3100
3104
3108
3112
3116
3120
3124
3128
3132
3136
3140
3144
3148
3152
3156
3160
3164
3168
3172
3176
3180
3184
3188
3192
3196
3200
3204
3208
3212
3216
3220
3224
3228
3232
3236
3240
3244
3248
3252
3256
3260
3264
3268
3272
3276
3280
3284
3288
3292
3296
3300
3304
3308
3312
3316
3320
3324
3328
3332
3336
3340
3344
3348
3352
3356
3360
3364
3368
3372
3376
3380
3384
3388
3392
3396
3400
3404
3408
3412
3416
3420
3424
3428
3432
3436
3440
3444
3448
3452
3456
3460
3464
3468
3472
3476
3480
3484
3488
3492
3496
3500
3504
3508
3512
3516
3520
3524
3528
3532
3536
3540
3544
3548
3552
3556
3560
3564
3568
3572
3576
3580
3584
3588
3592
3596
3600
3604
3608
3612
3616
3620
3624
3628
3632
3636
3640
3644
3648
3652
3656
3660
3664
3668
3672
3676
3680
3684
3688
3692
3696
3700
3704
3708
3712
3716
3720
3724
3728
3732
3736
3740
3744
3748
3752
3756
3760
3764
3768
3772
3776
3780
3784
3788
3792
3796
3800
3804
3808
3812
3816
3820
3824
3828
3832
3836
3840
3844
3848
3852
3856
3860
3864
3868
3872
3876
3880
3884
3888
3892
3896
3900
3904
3908
3912
3916
3920
3924
3928
3932
3936
3940
3944
3948
3952
3956
3960
3964
3968
3972
3976
3980
3984
3988
3992
3996
4000
4004
4008
4012
4016
4020
4024
4028
4032
4036
4040
4044
4048
4052
4056
4060
4064
4068
4072
4076
4080
4084
4088
4092
4096
4100
4104
4108
4112
4116
4120
4124
4128
4132
4136
4140
4144
4148
4152
4156
4160
4164
4168
4172
4176
4180
4184
4188
4192
4196
4200
4204
4208
4212
4216
4220
4224
4228
4232
4236
4240
4244
4248
4252
4256
4260
4264
4268
4272
4276
4280
4284
4288
4292
4296
4300
4304
4308
4312
4316
4320
4324
4328
4332
4336
4340
4344
4348
4352
4356
4360
4364
4368
4372
4376
4380
4384
4388
4392
4396
4400
4404
4408
4412
4416
4420
4424
4428
4432
4436
4440
4444
4448
4452
4456
4460
4464
4468
4472
4476
4480
4484
4488
4492
4496
4500
4504
4508
4512
4516
4520
4524
4528
4532
4536
4540
4544
4548
4552
4556
4560
4564
4568
4572
4576
4580
4584
4588
4592
4596
4600
4604
4608
4612
4616
4620
4624
4628
4632
4636
4640
4644
4648
4652
4656
4660
4664
4668
4672
4676
4680
4684
4688
4692
4696
4700
4704
4708
4712
4716
4720
4724
4728
4732
4736
4740
4744
4748
4752
4756
4760
4764
4768
4772
4776
4780
4784
4788
4792
4796
4800
4804
4808
4812
4816
4820
4824
4828
4832
4836
4840
4844
4848
4852
4856
4860
4864
4868
4872
4876
4880
4884
4888
4892
4896
4900
4904
4908
4912
4916
4920
4924
4928
4932
4936
4940
4944
4948
4952
4956
4960
4964
4968
4972
4976
4980
4984
4988
4992
4996
5000
5004
5008
5012
5016
5020
5024
5028
5032
5036
5040
5044
5048
5052
5056
5060
5064
5068
5072
5076
5080
5084
5088
5092
5096
5100
5104
5108
5112
5116
5120
5124
5128
5132
5136
5140
5144
5148
5152
5156
5160
5164
5168
5172
5176
5180
5184
5188
5192
5196
5200
5204
5208
5212
5216
5220
5224
5228
5232
5236
5240
5244
5248
5252
5256
5260
5264
5268
5272
5276
5280
5284
5288
5292
5296
5300
5304
5308
5312
5316
5320
5324
5328
5332
5336
5340
5344
5348
5352
5356
5360
5364
5368
5372
5376
5380
5384
5388
5392
5396
5400
5404
5408
5412
5416
5420
5424
5428
5432
5436
5440
5444
5448
5452
5456
5460
5464
5468
5472
5476
5480
5484
5488
5492
5496
5500
5504
5508
5512
5516
5520
5524
5528
5532
5536
5540
5544
5548
5552
5556
5560
5564
5568
5572
5576
5580
5584
5588
5592
5596
5600
5604
5608
5612
5616
5620
5624
5628
5632
5636
5640
5644
5648
5652
5656
5660
5664
5668
5672
5676
5680
5684
5688
5692
5696
5700
5704
5708
5712
5716
5720
5724
5728
5732
5736
5740
5744
5748
5752
5756
5760
5764
5768
5772
5776
5780
5784
5788
5792
5796
5800
5804
5808
5812
5816
5820
5824
5828
5832
5836
5840
5844
5848
5852
5856
5860
5864
5868
5872
5876
5880
5884
5888
5892
5896
5900
5904
5908
5912
5916
5920
5924
5928
5932
5936
5940
5944
5948
5952
5956
5960
5964
5968
5972
5976
5980
5984
5988
5992
5996
6000
              </DataArray>   
              <DataArray type="UInt8" Name="types" format="ascii">   
10
10
10
10
10
10
10
10
10
10
10
10
10
10
10
10
10
10
10
10
10
10
10
10
10
10
10
10
10
10
10
10
10
10
10
10
10
10
10
10
10
10
10
10
10
10
10
10
10
10
10
10
10
10
10
10
10
10
10
10
10
10
10
10
10
10
10
10
10
10
10
10
10
10
10
10
10
10
10
10
10
10
10
10
10
10
10
10
10
10
10
10
10
10
10
10
10
10
10
10
10
10
10
10
10
10
10
10
10
10
10
10
10
10
10
10
10
10
10
10
10
10
10
10
10
10
10
10
10
10
10
10
10
10
10
10
10
10
10
10
10
10
10
10
10
10
10
10
10
10
10
10
10
10
10
10
10
10
10
10
10
10
10
10
10
10
10
10
10
10
10
10
10
10
10
10
10
10
10
10
10
10
10
10
10
10
10
10
10
10
10
10
10
10
10
10
10
10
10
10
10
10
10
10
10
10
10
10
10
10
10
10
10
10
10
10
10
10
10
10
10
10
10
10
10
10
10
10
10
10
10
10
10
10
10
10
10
10
10
10
10
10
10
10
10
10
10
10
10
10
10
10
10
10
10
10
10
10
10
10
10
10
10
10
10
10
10
10
10
10
10
10
10
10
10
10
10
10
10
10
10
10
10
10
10
10
10
10
10
10
10
10
10
10
10
10
10
10
10
10
10
10
10
10
10
10
10
10
10
10
10
10
10
10
10
10
10
10
10
10
10
10
10
10
10
10
10
10
10
10
10
10
10
10
10
10
10
10
10
10
10
10
10
10
10
10
10
10
10
10
10
10
10
10
10
10
10
10
10
10
10
10
10
10
10
10
10
10
10
10
10
10
10
10
10
10
10
10
10
10
10
10
10
10
10
10
10
10
10
10
10
10
10
10
10
10
10
10
10
10
10
10
10
10
10
10
10
10
10
10
10
10
10
10
10
10
10
10
10
10
10
10
10
10
10
10
10
10
10
10
10
10
10
10
10
10
10
10
10
10
10
10
10
10
10
10
10
10
10
10
10
10
10
10
10
10
10
10
10
10
10
10
10
10
10
10
10
10
10
10
10
10
10
10
10
10
10
10
10
10
10
10
10
10
10
10
10
10
10
10
10
10
10
10
10
10
10
10
10
10
10
10
10
10
10
10
10
10
10
10
10
10
10
10
10
10
10
10
10
10
10
10
10
10
10
10
10
10
10
10
10
10
10
10
10
10
10
10
10
10
10
10
10
10
10
10
10
10
10
10
10
10
10
10
10
10
10
10
10
10
10
10
10
10
10
10
10
10
10
10
10
10
10
10
10
10
10
10
10
10
10
10
10
10
10
10
10
10
10
10
10
10
10
10
10
10
10
10
10
10
10
10
10
10
10
10
10
10
10
10
10
10
10
10
10
10
10
10
10
10
10
10
10
10
10
10
10
10
10
10
10
10
10
10
10
10
10
10
10
10
10
10
10
10
10
10
10
10
10
10
10
10
10
10
10
10
10
10
10
10
10
10
10
10
10
10
10
10
10
10
10
10
10
10
10
10
10
10
10
10
10
10
10
10
10
10
10
10
10
10
10
10
10
10
10
10
10
10
10
10
10
10
10
10
10
10
10
10
10
10
10
10
10
10
10
10
10
10
10
10
10
10
10
10
10
10
10
10
10
10
10
10
10
10
10
10
10
10
10
10
10
10
10
10
10
10
10
10
10
10
10
10
10
10
10
10
10
10
10
10
10
10
10
10
10
10
10
10
10
10
10
10
10
10
10
10
10
10
10
10
10
10
10
10
10
10
10
10
10
10
10
10
10
10
10
10
10
10
10
10
10
10
10
10
10
10
10
10
10
10
10
10
10
10
10
10
10
10
10
10
10
10
10
10
10
10
10
10
10
10
10
10
10
10
10
10
10
10
10
10
10
10
10
10
10
10
10
10
10
10
10
10
10
10
10
10
10
10
10
10
10
10
10
10
10
10
10
10
10
10
10
10
10
10
10
10
10
10
10
10
10
10
10
10
10
10
10
10
10
10
10
10
10
10
10
10
10
10
10
10
10
10
10
10
10
10
10
10
10
10
10
10
10
10
10
10
10
10
10
10
10
10
10
10
10
10
10
10
10
10
10
10
10
10
10
10
10
10
10
10
10
10
10
10
10
10
10
10
10
10
10
10
10
10
10
10
10
10
10
10
10
10
10
10
10
10
10
10
10
10
10
10
10
10
10
10
10
10
10
10
10
10
10
10
10
10
10
10
10
10
10
10
10
10
10
10
10
10
10
10
10
10
10
10
10
10
10
10
10
10
10
10
10
10
10
10
10
10
10
10
10
10
10
10
10
10
10
10
10
10
10
10
10
10
10
10
10
10
10
10
10
10
10
10
10
10
10
10
10
10
10
10
10
10
10
10
10
10
10
10
10
10
10
10
10
10
10
10
10
10
10
10
10
10
10
10
10
10
10
10
10
10
10
10
10
10
10
10
10
10
10
10
10
10
10
10
10
10
10
10
10
10
10
10
10
10
10
10
10
10
10
10
10
10
10
10
10
10
10
10
10
10
10
10
10
10
10
10
10
10
10
10
10
10
10
10
10
10
10
10
10
10
10
10
10
10
10
10
10
10
10
10
10
10
10
10
10
10
10
10
10
10
10
10
10
10
10
10
10
10
10
10
10
10
10
10
10
10
10
10
10
10
10
10
10
10
10
10
10
10
10
10
10
10
10
10
10
10
10
10
10
10
10
10
10
10
10
10
10
10
10
10
10
10
10
10
10
10
10
10
10
10
10
10
10
10
10
10
10
10
10
10
10
10
10
10
10
10
10
10
10
10
10
10
10
10
10
10
10
10
10
10
10
10
10
10
10
10
10
10
10
10
10
10
10
10
10
10
10
10
10
10
10
10
10
10
10
10
10
10
10
10
10
10
10
10
10
10
10
10
10
10
10
10
10
10
10
10
10
10
10
10
10
10
10
10
10
10
10
10
10
10
10
10
10
10
10
10
10
10
10
10
10
10
10
10
10
10
10
10
10
10
10
10
10
10
10
10
10
10
10
10
10
10
10
10
10
10
10
10
10
10
10
10
10
10
10
10
10
10
10
10
10
10
10
10
10
10
10
10
10
10
10
10
10
10
10
10
10
10
10
10
10
10
10
10
10
10
10
10
10
10
10
10
10
10
10
10
10
10
10
10
10
10
10
10
10
10
10
10
10
10
10
10
10
10
10
10
10
10
10
10
10
10
10
10
10
10
10
10
10
10
10
10
10
10
10
10
10
10
10
10
10
10
10
10
10
10
10
10
10
10
10
10
10
10
10
10
10
10
10
10
10
10
10
10
10
10
10
10
10
10
10
10
10
10
10
10
10
10
10
10
10
10
10
10
10
10
10
10
10
10
10
10
10
10
10
10
10
10
              </DataArray>   
          </Cells>  
          <PointData>  
             <DataArray type="Float64" NumberOfComponents="3" Name="Strains" format="ascii">   
-0.00025083817552188514   0.0   -0.00016419242898767664
-0.00025083817552188514   0.0   -0.00016419242898767664
-0.00025083817552188514   0.0   -0.00016419242898767664
-0.00025083817552188514   0.0   -0.00016419242898767664
-0.00015965603400304318   2.7845528887236607e-05   4.485124209401643e-06
-0.00015965603400304318   2.7845528887236607e-05   4.485124209401643e-06
-0.00015965603400304318   2.7845528887236607e-05   4.485124209401643e-06
-0.00015965603400304318   2.7845528887236607e-05   4.485124209401643e-06
-0.0001565286521680221   0.0   -0.00015490821910645622
-0.0001565286521680221   0.0   -0.00015490821910645622
-0.0001565286521680221   0.0   -0.00015490821910645622
-0.0001565286521680221   0.0   -0.00015490821910645622
-0.00026255124108473   3.338863344758711e-05   1.7629156861720028e-06
-0.00026255124108473   3.338863344758711e-05   1.7629156861720028e-06
-0.00026255124108473   3.338863344758711e-05   1.7629156861720028e-06
-0.00026255124108473   3.338863344758711e-05   1.7629156861720028e-06
-0.00020368341384495328   7.736841567683672e-06   -8.09590545855137e-05
-0.00020368341384495328   7.736841567683672e-06   -8.09590545855137e-05
-0.00020368341384495328   7.736841567683672e-06   -8.09590545855137e-05
-0.00020368341384495328   7.736841567683672e-06   -8.09590545855137e-05
-0.00026255124108473044   0.0   -0.00017494139917500852
-0.00026255124108473044   0.0   -0.00017494139917500852
-0.00026255124108473044   0.0   -0.00017494139917500852
-0.00026255124108473044   0.0   -0.00017494139917500852
-0.0001565286521680221   3.338863344758716e-05   2.1796095754724333e-05
-0.0001565286521680221   3.338863344758716e-05   2.1796095754724333e-05
-0.0001565286521680221   3.338863344758716e-05   2.1796095754724333e-05
-0.0001565286521680221   3.338863344758716e-05   2.1796095754724333e-05
-0.00015700263631484914   0.0   -0.00015870858805390646
-0.00015700263631484914   0.0   -0.00015870858805390646
-0.00015700263631484914   0.0   -0.00015870858805390646
-0.00015700263631484914   0.0   -0.00015870858805390646
-0.000270792153322536   3.576341856248932e-05   9.482555821412118e-06
-0.000270792153322536   3.576341856248932e-05   9.482555821412118e-06
-0.000270792153322536   3.576341856248932e-05   9.482555821412118e-06
-0.000270792153322536   3.576341856248932e-05   9.482555821412118e-06
-0.00020977693869978945   1.3527342600918387e-05   -7.886782297288953e-05
-0.00020977693869978945   1.3527342600918387e-05   -7.886782297288953e-05
-0.00020977693869978945   1.3527342600918387e-05   -7.886782297288953e-05
-0.00020977693869978945   1.3527342600918387e-05   -7.886782297288953e-05
-0.0002707921533225365   0.0   -0.00018016663919140008
-0.0002707921533225365   0.0   -0.00018016663919140008
-0.0002707921533225365   0.0   -0.00018016663919140008
-0.0002707921533225365   0.0   -0.00018016663919140008
-0.00015700263631484914   3.576341856248937e-05   3.094060695890574e-05
-0.00015700263631484914   3.576341856248937e-05   3.094060695890574e-05
-0.00015700263631484914   3.576341856248937e-05   3.094060695890574e-05
-0.00015700263631484914   3.576341856248937e-05   3.094060695890574e-05
-0.00015695680029805328   0.0   -0.00015967999919685885
-0.00015695680029805328   0.0   -0.00015967999919685885
-0.00015695680029805328   0.0   -0.00015967999919685885
-0.00015695680029805328   0.0   -0.00015967999919685885
-0.0002885130505926143   4.0718537230148035e-05   3.5149295622654664e-05
-0.0002885130505926143   4.0718537230148035e-05   3.5149295622654664e-05
-0.0002885130505926143   4.0718537230148035e-05   3.5149295622654664e-05
-0.0002885130505926143   4.0718537230148035e-05   3.5149295622654664e-05
-0.0002138744768102945   1.7072199995451002e-05   -7.506052500705996e-05
-0.0002138744768102945   1.7072199995451002e-05   -7.506052500705996e-05
-0.0002138744768102945   1.7072199995451002e-05   -7.506052500705996e-05
-0.0002138744768102945   1.7072199995451002e-05   -7.506052500705996e-05
-0.00015965603400304345   0.0   -0.00014748511165533465
-0.00015965603400304345   0.0   -0.00014748511165533465
-0.00015965603400304345   0.0   -0.00014748511165533465
-0.00015965603400304345   0.0   -0.00014748511165533465
-7.267058456789121e-05   1.0223733362352955e-05   3.624877420664097e-06
-7.267058456789121e-05   1.0223733362352955e-05   3.624877420664097e-06
-7.267058456789121e-05   1.0223733362352955e-05   3.624877420664097e-06
-7.267058456789121e-05   1.0223733362352955e-05   3.624877420664097e-06
-6.992526038604346e-05   0.0   -0.000146186320630583
-6.992526038604346e-05   0.0   -0.000146186320630583
-6.992526038604346e-05   0.0   -0.000146186320630583
-6.992526038604346e-05   0.0   -0.000146186320630583
-0.0001565286521680221   1.4536497459788665e-05   -1.0569232803158465e-05
-0.0001565286521680221   1.4536497459788665e-05   -1.0569232803158465e-05
-0.0001565286521680221   1.4536497459788665e-05   -1.0569232803158465e-05
-0.0001565286521680221   1.4536497459788665e-05   -1.0569232803158465e-05
-0.00011479064719454327   1.0823258539597013e-06   -7.206007146212535e-05
-0.00011479064719454327   1.0823258539597013e-06   -7.206007146212535e-05
-0.00011479064719454327   1.0823258539597013e-06   -7.206007146212535e-05
-0.00011479064719454327   1.0823258539597013e-06   -7.206007146212535e-05
-0.00015652865216802197   0.0   -0.00015490821910645608
-0.00015652865216802197   0.0   -0.00015490821910645608
-0.00015652865216802197   0.0   -0.00015490821910645608
-0.00015652865216802197   0.0   -0.00015490821910645608
-6.992526038604346e-05   1.4536497459788665e-05   -1.8473343272852686e-06
-6.992526038604346e-05   1.4536497459788665e-05   -1.8473343272852686e-06
-6.992526038604346e-05   1.4536497459788665e-05   -1.8473343272852686e-06
-6.992526038604346e-05   1.4536497459788665e-05   -1.8473343272852686e-06
-6.839670564081223e-05   0.0   -0.00014802808383461002
-6.839670564081223e-05   0.0   -0.00014802808383461002
-6.839670564081223e-05   0.0   -0.00014802808383461002
-6.839670564081223e-05   0.0   -0.00014802808383461002
-0.00015700263631484914   1.7800840365494043e-05   -1.1032036930511667e-05
-0.00015700263631484914   1.7800840365494043e-05   -1.1032036930511667e-05
-0.00015700263631484914   1.7800840365494043e-05   -1.1032036930511667e-05
-0.00015700263631484914   1.7800840365494043e-05   -1.1032036930511667e-05
-0.00011246267890441695   5.733446059871827e-06   -7.802486269785794e-05
-0.00011246267890441695   5.733446059871827e-06   -7.802486269785794e-05
-0.00011246267890441695   5.733446059871827e-06   -7.802486269785794e-05
-0.00011246267890441695   5.733446059871827e-06   -7.802486269785794e-05
-0.00015700263631484914   0.0   -0.00015870858805390646
-0.00015700263631484914   0.0   -0.00015870858805390646
-0.00015700263631484914   0.0   -0.00015870858805390646
-0.00015700263631484914   0.0   -0.00015870858805390646
-6.839670564081223e-05   1.7800840365494043e-05   -3.515327112152113e-07
-6.839670564081223e-05   1.7800840365494043e-05   -3.515327112152113e-07
-6.839670564081223e-05   1.7800840365494043e-05   -3.515327112152113e-07
-6.839670564081223e-05   1.7800840365494043e-05   -3.515327112152113e-07
-6.70102131745577e-05   0.0   -0.00014725661788464
-6.70102131745577e-05   0.0   -0.00014725661788464
-6.70102131745577e-05   0.0   -0.00014725661788464
-6.70102131745577e-05   0.0   -0.00014725661788464
-0.00015695680029805288   2.0705635520364455e-05   -9.769020657699422e-06
-0.00015695680029805288   2.0705635520364455e-05   -9.769020657699422e-06
-0.00015695680029805288   2.0705635520364455e-05   -9.769020657699422e-06
-0.00015695680029805288   2.0705635520364455e-05   -9.769020657699422e-06
-0.00011200642474470338   9.543308474388597e-06   -7.798891701903039e-05
-0.00011200642474470338   9.543308474388597e-06   -7.798891701903039e-05
-0.00011200642474470338   9.543308474388597e-06   -7.798891701903039e-05
-0.00011200642474470338   9.543308474388597e-06   -7.798891701903039e-05
-7.267058456789133e-05   0.0   -0.00014135087163792288
-7.267058456789133e-05   0.0   -0.00014135087163792288
-7.267058456789133e-05   0.0   -0.00014135087163792288
-7.267058456789133e-05   0.0   -0.00014135087163792288
9.542139031588631e-06   -1.3014648624035282e-06   -5.110544556231569e-06
9.542139031588631e-06   -1.3014648624035282e-06   -5.110544556231569e-06
9.542139031588631e-06   -1.3014648624035282e-06   -5.110544556231569e-06
9.542139031588631e-06   -1.3014648624035282e-06   -5.110544556231569e-06
1.1279388201036876e-05   0.0   -0.0001446422503535694
1.1279388201036876e-05   0.0   -0.0001446422503535694
1.1279388201036876e-05   0.0   -0.0001446422503535694
1.1279388201036876e-05   0.0   -0.0001446422503535694
-6.992526038604334e-05   2.573450461688503e-06   -1.084523965211572e-05
-6.992526038604334e-05   2.573450461688503e-06   -1.084523965211572e-05
-6.992526038604334e-05   2.573450461688503e-06   -1.084523965211572e-05
-6.992526038604334e-05   2.573450461688503e-06   -1.084523965211572e-05
-3.06955981834271e-05   -2.742815596372511e-06   -7.303825035497255e-05
-3.06955981834271e-05   -2.742815596372511e-06   -7.303825035497255e-05
-3.06955981834271e-05   -2.742815596372511e-06   -7.303825035497255e-05
-3.06955981834271e-05   -2.742815596372511e-06   -7.303825035497255e-05
-6.992526038604346e-05   0.0   -0.000146186320630583
-6.992526038604346e-05   0.0   -0.000146186320630583
-6.992526038604346e-05   0.0   -0.000146186320630583
-6.992526038604346e-05   0.0   -0.000146186320630583
1.1279388201036897e-05   2.573450461688503e-06   -9.301169375102605e-06
1.1279388201036897e-05   2.573450461688503e-06   -9.301169375102605e-06
1.1279388201036897e-05   2.573450461688503e-06   -9.301169375102605e-06
1.1279388201036897e-05   2.573450461688503e-06   -9.301169375102605e-06
1.264623366603832e-05   0.0   -0.00014443781708604563
1.264623366603832e-05   0.0   -0.00014443781708604563
1.264623366603832e-05   0.0   -0.00014443781708604563
1.264623366603832e-05   0.0   -0.00014443781708604563
-6.8396705640812e-05   5.983777914273566e-06   -1.295651832319238e-05
-6.8396705640812e-05   5.983777914273566e-06   -1.295651832319238e-05
-6.8396705640812e-05   5.983777914273566e-06   -1.295651832319238e-05
-6.8396705640812e-05   5.983777914273566e-06   -1.295651832319238e-05
-2.863951336000251e-05   1.4570862871142774e-06   -7.650249048157942e-05
-2.863951336000251e-05   1.4570862871142774e-06   -7.650249048157942e-05
-2.863951336000251e-05   1.4570862871142774e-06   -7.650249048157942e-05
-2.863951336000251e-05   1.4570862871142774e-06   -7.650249048157942e-05
-6.839670564081223e-05   0.0   -0.00014802808383461002
-6.839670564081223e-05   0.0   -0.00014802808383461002
-6.839670564081223e-05   0.0   -0.00014802808383461002
-6.839670564081223e-05   0.0   -0.00014802808383461002
1.2646233666038342e-05   5.983777914273593e-06   -9.366251574628264e-06
1.2646233666038342e-05   5.983777914273593e-06   -9.366251574628264e-06
1.2646233666038342e-05   5.983777914273593e-06   -9.366251574628264e-06
1.2646233666038342e-05   5.983777914273593e-06   -9.366251574628264e-06
1.449613449659605e-05   0.0   -0.0001412951730979771
1.449613449659605e-05   0.0   -0.0001412951730979771
1.449613449659605e-05   0.0   -0.0001412951730979771
1.449613449659605e-05   0.0   -0.0001412951730979771
-6.701021317455753e-05   9.935741311104576e-06   -1.1412705099383752e-05
-6.701021317455753e-05   9.935741311104576e-06   -1.1412705099383752e-05
-6.701021317455753e-05   9.935741311104576e-06   -1.1412705099383752e-05
-6.701021317455753e-05   9.935741311104576e-06   -1.1412705099383752e-05
-2.6950285572108032e-05   5.610758947193864e-06   -7.55842616851199e-05
-2.6950285572108032e-05   5.610758947193864e-06   -7.55842616851199e-05
-2.6950285572108032e-05   5.610758947193864e-06   -7.55842616851199e-05
-2.6950285572108032e-05   5.610758947193864e-06   -7.55842616851199e-05
9.542139031588648e-06   0.0   -0.00014213175055536497
9.542139031588648e-06   0.0   -0.00014213175055536497
9.542139031588648e-06   0.0   -0.00014213175055536497
9.542139031588648e-06   0.0   -0.00014213175055536497
9.87551175238329e-05   -1.1582795109894346e-05   -3.931301342277561e-07
9.87551175238329e-05   -1.1582795109894346e-05   -3.931301342277561e-07
9.87551175238329e-05   -1.1582795109894346e-05   -3.931301342277561e-07
9.87551175238329e-05   -1.1582795109894346e-05   -3.931301342277561e-07
9.888832796903781e-05   0.0   -0.00014988689139946543
9.888832796903781e-05   0.0   -0.00014988689139946543
9.888832796903781e-05   0.0   -0.00014988689139946543
9.888832796903781e-05   0.0   -0.00014988689139946543
1.1279388201036917e-05   -8.74106840982589e-06   1.372649259764905e-06
1.1279388201036917e-05   -8.74106840982589e-06   1.372649259764905e-06
1.1279388201036917e-05   -8.74106840982589e-06   1.372649259764905e-06
1.1279388201036917e-05   -8.74106840982589e-06   1.372649259764905e-06
5.421523350031323e-05   -6.462617370083719e-06   -7.155416352954085e-05
5.421523350031323e-05   -6.462617370083719e-06   -7.155416352954085e-05
5.421523350031323e-05   -6.462617370083719e-06   -7.155416352954085e-05
5.421523350031323e-05   -6.462617370083719e-06   -7.155416352954085e-05
1.1279388201036917e-05   0.0   -0.0001446422503535699
1.1279388201036917e-05   0.0   -0.0001446422503535699
1.1279388201036917e-05   0.0   -0.0001446422503535699
1.1279388201036917e-05   0.0   -0.0001446422503535699
9.888832796903781e-05   -8.74106840982589e-06   -3.871991786130616e-06
9.888832796903781e-05   -8.74106840982589e-06   -3.871991786130616e-06
9.888832796903781e-05   -8.74106840982589e-06   -3.871991786130616e-06
9.888832796903781e-05   -8.74106840982589e-06   -3.871991786130616e-06
9.842827031917252e-05   0.0   -0.00014774625947494273
9.842827031917252e-05   0.0   -0.00014774625947494273
9.842827031917252e-05   0.0   -0.00014774625947494273
9.842827031917252e-05   0.0   -0.00014774625947494273
1.2646233666038342e-05   -5.514070648161422e-06   -1.467755997488943e-06
1.2646233666038342e-05   -5.514070648161422e-06   -1.467755997488943e-06
1.2646233666038342e-05   -5.514070648161422e-06   -1.467755997488943e-06
1.2646233666038342e-05   -5.514070648161422e-06   -1.467755997488943e-06
5.485382926010472e-05   -2.586674267810685e-06   -7.357018648247661e-05
5.485382926010472e-05   -2.586674267810685e-06   -7.357018648247661e-05
5.485382926010472e-05   -2.586674267810685e-06   -7.357018648247661e-05
5.485382926010472e-05   -2.586674267810685e-06   -7.357018648247661e-05
1.2646233666038332e-05   0.0   -0.00014443781708604574
1.2646233666038332e-05   0.0   -0.00014443781708604574
1.2646233666038332e-05   0.0   -0.00014443781708604574
1.2646233666038332e-05   0.0   -0.00014443781708604574
9.842827031917252e-05   -5.514070648161422e-06   -4.7761983863857794e-06
9.842827031917252e-05   -5.514070648161422e-06   -4.7761983863857794e-06
9.842827031917252e-05   -5.514070648161422e-06   -4.7761983863857794e-06
9.842827031917252e-05   -5.514070648161422e-06   -4.7761983863857794e-06
0.00010029942610712212   0.0   -0.0001420004610404063
0.00010029942610712212   0.0   -0.0001420004610404063
0.00010029942610712212   0.0   -0.0001420004610404063
0.00010029942610712212   0.0   -0.0001420004610404063
1.4496134496596075e-05   -1.1754799040482376e-06   1.7103129195660242e-06
1.4496134496596075e-05   -1.1754799040482376e-06   1.7103129195660242e-06
1.4496134496596075e-05   -1.1754799040482376e-06   1.7103129195660242e-06
1.4496134496596075e-05   -1.1754799040482376e-06   1.7103129195660242e-06
5.647282988658019e-05   2.0311300380329757e-06   -7.01748120289895e-05
5.647282988658019e-05   2.0311300380329757e-06   -7.01748120289895e-05
5.647282988658019e-05   2.0311300380329757e-06   -7.01748120289895e-05
5.647282988658019e-05   2.0311300380329757e-06   -7.01748120289895e-05
9.87551175238329e-05   0.0   -0.0001490814276213016
9.87551175238329e-05   0.0   -0.0001490814276213016
9.87551175238329e-05   0.0   -0.0001490814276213016
9.87551175238329e-05   0.0   -0.0001490814276213016
0.00022272963278030243   -2.9333812896313995e-05   3.994247673502711e-05
0.00022272963278030243   -2.9333812896313995e-05   3.994247673502711e-05
0.00022272963278030243   -2.9333812896313995e-05   3.994247673502711e-05
0.00022272963278030243   -2.9333812896313995e-05   3.994247673502711e-05
0.00020912400383971914   0.0   -0.00016487537003929018
0.00020912400383971914   0.0   -0.00016487537003929018
0.00020912400383971914   0.0   -0.00016487537003929018
0.00020912400383971914   0.0   -0.00016487537003929018
9.888832796903781e-05   -2.4980797733041267e-05   3.3839235051670076e-05
9.888832796903781e-05   -2.4980797733041267e-05   3.3839235051670076e-05
9.888832796903781e-05   -2.4980797733041267e-05   3.3839235051670076e-05
9.888832796903781e-05   -2.4980797733041267e-05   3.3839235051670076e-05
0.000153939560681776   -1.316161868165718e-05   -6.500432690039063e-05
0.000153939560681776   -1.316161868165718e-05   -6.500432690039063e-05
0.000153939560681776   -1.316161868165718e-05   -6.500432690039063e-05
0.000153939560681776   -1.316161868165718e-05   -6.500432690039063e-05
9.888832796903773e-05   0.0   -0.0001498868913994653
9.888832796903773e-05   0.0   -0.0001498868913994653
9.888832796903773e-05   0.0   -0.0001498868913994653
9.888832796903773e-05   0.0   -0.0001498868913994653
0.0002091240038397184   -2.4980797733041213e-05   1.8850756411845212e-05
0.0002091240038397184   -2.4980797733041213e-05   1.8850756411845212e-05
0.0002091240038397184   -2.4980797733041213e-05   1.8850756411845212e-05
0.0002091240038397184   -2.4980797733041213e-05   1.8850756411845212e-05
0.0002028334026059428   0.0   -0.00016144712038842514
0.0002028334026059428   0.0   -0.00016144712038842514
0.0002028334026059428   0.0   -0.00016144712038842514
0.0002028334026059428   0.0   -0.00016144712038842514
9.842827031917252e-05   -2.283476818913736e-05   2.6262294336341067e-05
9.842827031917252e-05   -2.283476818913736e-05   2.6262294336341067e-05
9.842827031917252e-05   -2.283476818913736e-05   2.6262294336341067e-05
9.842827031917252e-05   -2.283476818913736e-05   2.6262294336341067e-05
0.0001508608652874902   -9.63352415746642e-06   -6.904611036319099e-05
0.0001508608652874902   -9.63352415746642e-06   -6.904611036319099e-05
0.0001508608652874902   -9.63352415746642e-06   -6.904611036319099e-05
0.0001508608652874902   -9.63352415746642e-06   -6.904611036319099e-05
9.842827031917252e-05   0.0   -0.00014774625947494273
9.842827031917252e-05   0.0   -0.00014774625947494273
9.842827031917252e-05   0.0   -0.00014774625947494273
9.842827031917252e-05   0.0   -0.00014774625947494273
0.0002028334026059421   -2.2834768189137252e-05   1.2561433422858602e-05
0.0002028334026059421   -2.2834768189137252e-05   1.2561433422858602e-05
0.0002028334026059421   -2.2834768189137252e-05   1.2561433422858602e-05
0.0002028334026059421   -2.2834768189137252e-05   1.2561433422858602e-05
0.0001934940014925785   0.0   -0.00015266489116976418
0.0001934940014925785   0.0   -0.00015266489116976418
0.0001934940014925785   0.0   -0.00015266489116976418
0.0001934940014925785   0.0   -0.00015266489116976418
0.00010029942610712212   -1.7774050215596868e-05   1.3323831268688196e-05
0.00010029942610712212   -1.7774050215596868e-05   1.3323831268688196e-05
0.00010029942610712212   -1.7774050215596868e-05   1.3323831268688196e-05
0.00010029942610712212   -1.7774050215596868e-05   1.3323831268688196e-05
0.00014596113590587567   -4.098859745684761e-06   -7.098413267784828e-05
0.00014596113590587567   -4.098859745684761e-06   -7.098413267784828e-05
0.00014596113590587567   -4.098859745684761e-06   -7.098413267784828e-05
0.00014596113590587567   -4.098859745684761e-06   -7.098413267784828e-05
-0.0002179584001585018   2.7845528887236552e-05   -0.00014272083000447855
-0.0002179584001585018   2.7845528887236552e-05   -0.00014272083000447855
-0.0002179584001585018   2.7845528887236552e-05   -0.00014272083000447855
-0.0002179584001585018   2.7845528887236552e-05   -0.00014272083000447855
-0.0001395717456996698   2.5060419081338894e-05   -1.3747471789963802e-05
-0.0001395717456996698   2.5060419081338894e-05   -1.3747471789963802e-05
-0.0001395717456996698   2.5060419081338894e-05   -1.3747471789963802e-05
-0.0001395717456996698   2.5060419081338894e-05   -1.3747471789963802e-05
-0.00014310152719818094   3.338863344758711e-05   -0.00011983523674083028
-0.00014310152719818094   3.338863344758711e-05   -0.00011983523674083028
-0.00014310152719818094   3.338863344758711e-05   -0.00011983523674083028
-0.00014310152719818094   3.338863344758711e-05   -0.00011983523674083028
-0.00022035572379543926   3.0060535321504078e-05   1.09186164635838e-05
-0.00022035572379543926   3.0060535321504078e-05   1.09186164635838e-05
-0.00022035572379543926   3.0060535321504078e-05   1.09186164635838e-05
-0.00022035572379543926   3.0060535321504078e-05   1.09186164635838e-05
-0.00017310973997940838   2.9076676390081806e-05   -6.723437453761533e-05
-0.00017310973997940838   2.9076676390081806e-05   -6.723437453761533e-05
-0.00017310973997940838   2.9076676390081806e-05   -6.723437453761533e-05
-0.00017310973997940838   2.9076676390081806e-05   -6.723437453761533e-05
-0.00022035572379543926   3.338863344758711e-05   -0.00011783837786518041
-0.00022035572379543926   3.338863344758711e-05   -0.00011783837786518041
-0.00022035572379543926   3.338863344758711e-05   -0.00011783837786518041
-0.00022035572379543926   3.338863344758711e-05   -0.00011783837786518041
-0.00014310152719818148   3.0060535321504186e-05   8.921757587934123e-06
-0.00014310152719818148   3.0060535321504186e-05   8.921757587934123e-06
-0.00014310152719818148   3.0060535321504186e-05   8.921757587934123e-06
-0.00014310152719818148   3.0060535321504186e-05   8.921757587934123e-06
-0.00014386014226535932   3.5763418562489264e-05   -0.00010771886752150063
-0.00014386014226535932   3.5763418562489264e-05   -0.00010771886752150063
-0.00014386014226535932   3.5763418562489264e-05   -0.00010771886752150063
-0.00014386014226535932   3.5763418562489264e-05   -0.00010771886752150063
-0.00022193922796036146   3.231654164608368e-05   2.4481068120012044e-05
-0.00022193922796036146   3.231654164608368e-05   2.4481068120012044e-05
-0.00022193922796036146   3.231654164608368e-05   2.4481068120012044e-05
-0.00022193922796036146   3.231654164608368e-05   2.4481068120012044e-05
-0.00017822446898491014   3.222155116507856e-05   -4.831986921713632e-05
-0.00017822446898491014   3.222155116507856e-05   -4.831986921713632e-05
-0.00017822446898491014   3.222155116507856e-05   -4.831986921713632e-05
-0.00017822446898491014   3.222155116507856e-05   -4.831986921713632e-05
-0.00022193922796036103   3.5763418562489264e-05   -0.00010565074137165731
-0.00022193922796036103   3.5763418562489264e-05   -0.00010565074137165731
-0.00022193922796036103   3.5763418562489264e-05   -0.00010565074137165731
-0.00022193922796036103   3.5763418562489264e-05   -0.00010565074137165731
-0.00014386014226535956   3.231654164608368e-05   2.241294197016878e-05
-0.00014386014226535956   3.231654164608368e-05   2.241294197016878e-05
-0.00014386014226535956   3.231654164608368e-05   2.241294197016878e-05
-0.00014386014226535956   3.231654164608368e-05   2.241294197016878e-05
-0.0001430641221319867   4.071853723014798e-05   -7.953090159959757e-05
-0.0001430641221319867   4.071853723014798e-05   -7.953090159959757e-05
-0.0001430641221319867   4.071853723014798e-05   -7.953090159959757e-05
-0.0001430641221319867   4.071853723014798e-05   -7.953090159959757e-05
-0.00021583263955495837   3.410097313936999e-05   4.572049922648813e-05
-0.00021583263955495837   3.410097313936999e-05   4.572049922648813e-05
-0.00021583263955495837   3.410097313936999e-05   4.572049922648813e-05
-0.00021583263955495837   3.410097313936999e-05   4.572049922648813e-05
-0.0001736183084027371   3.533149258570995e-05   -2.537503102835112e-05
-0.0001736183084027371   3.533149258570995e-05   -2.537503102835112e-05
-0.0001736183084027371   3.533149258570995e-05   -2.537503102835112e-05
-0.0001736183084027371   3.533149258570995e-05   -2.537503102835112e-05
-0.0001395717456996698   1.0223733362352955e-05   -0.00015138638269416647
-0.0001395717456996698   1.0223733362352955e-05   -0.00015138638269416647
-0.0001395717456996698   1.0223733362352955e-05   -0.00015138638269416647
-0.0001395717456996698   1.0223733362352955e-05   -0.00015138638269416647
-6.608555489375886e-05   1.1660389783136682e-05   -2.804740416517775e-05
-6.608555489375886e-05   1.1660389783136682e-05   -2.804740416517775e-05
-6.608555489375886e-05   1.1660389783136682e-05   -2.804740416517775e-05
-6.608555489375886e-05   1.1660389783136682e-05   -2.804740416517775e-05
-6.768374242085892e-05   1.4536497459788638e-05   -0.00015116722161351726
-6.768374242085892e-05   1.4536497459788638e-05   -0.00015116722161351726
-6.768374242085892e-05   1.4536497459788638e-05   -0.00015116722161351726
-6.768374242085892e-05   1.4536497459788638e-05   -0.00015116722161351726
-0.00014310152719818094   1.6258736935114717e-05   -2.650425733650931e-05
-0.00014310152719818094   1.6258736935114717e-05   -2.650425733650931e-05
-0.00014310152719818094   1.6258736935114717e-05   -2.650425733650931e-05
-0.00014310152719818094   1.6258736935114717e-05   -2.650425733650931e-05
-0.0001038187728868513   1.3093385274352669e-05   -9.007630352560224e-05
-0.0001038187728868513   1.3093385274352669e-05   -9.007630352560224e-05
-0.0001038187728868513   1.3093385274352669e-05   -9.007630352560224e-05
-0.0001038187728868513   1.3093385274352669e-05   -9.007630352560224e-05
-0.00014310152719818086   1.4536497459788638e-05   -0.00015220056529871272
-0.00014310152719818086   1.4536497459788638e-05   -0.00015220056529871272
-0.00014310152719818086   1.4536497459788638e-05   -0.00015220056529871272
-0.00014310152719818086   1.4536497459788638e-05   -0.00015220056529871272
-6.768374242085904e-05   1.6258736935114825e-05   -2.5470913651313614e-05
-6.768374242085904e-05   1.6258736935114825e-05   -2.5470913651313614e-05
-6.768374242085904e-05   1.6258736935114825e-05   -2.5470913651313614e-05
-6.768374242085904e-05   1.6258736935114825e-05   -2.5470913651313614e-05
-6.820137627106177e-05   1.780084036549399e-05   -0.0001483343635714754
-6.820137627106177e-05   1.780084036549399e-05   -0.0001483343635714754
-6.820137627106177e-05   1.780084036549399e-05   -0.0001483343635714754
-6.820137627106177e-05   1.780084036549399e-05   -0.0001483343635714754
-0.00014386014226535932   2.0062753431231628e-05   -2.3593568087088793e-05
-0.00014386014226535932   2.0062753431231628e-05   -2.3593568087088793e-05
-0.00014386014226535932   2.0062753431231628e-05   -2.3593568087088793e-05
-0.00014386014226535932   2.0062753431231628e-05   -2.3593568087088793e-05
-0.00010465018228859237   1.6609199668591993e-05   -8.68713691241164e-05
-0.00010465018228859237   1.6609199668591993e-05   -8.68713691241164e-05
-0.00010465018228859237   1.6609199668591993e-05   -8.68713691241164e-05
-0.00010465018228859237   1.6609199668591993e-05   -8.68713691241164e-05
-0.00014386014226535932   1.780084036549399e-05   -0.0001496915114109179
-0.00014386014226535932   1.780084036549399e-05   -0.0001496915114109179
-0.00014386014226535932   1.780084036549399e-05   -0.0001496915114109179
-0.00014386014226535932   1.780084036549399e-05   -0.0001496915114109179
-6.8201376271062e-05   2.0062753431231628e-05   -2.223642024764633e-05
-6.8201376271062e-05   2.0062753431231628e-05   -2.223642024764633e-05
-6.8201376271062e-05   2.0062753431231628e-05   -2.223642024764633e-05
-6.8201376271062e-05   2.0062753431231628e-05   -2.223642024764633e-05
-6.805596573007562e-05   2.0705635520364455e-05   -0.00014681139854820106
-6.805596573007562e-05   2.0705635520364455e-05   -0.00014681139854820106
-6.805596573007562e-05   2.0705635520364455e-05   -0.00014681139854820106
-6.805596573007562e-05   2.0705635520364455e-05   -0.00014681139854820106
-0.0001430641221319866   2.415387163676305e-05   -2.3866746214855307e-05
-0.0001430641221319866   2.415387163676305e-05   -2.3866746214855307e-05
-0.0001430641221319866   2.415387163676305e-05   -2.3866746214855307e-05
-0.0001430641221319866   2.415387163676305e-05   -2.3866746214855307e-05
-0.00010528772577298827   1.9791309148722803e-05   -8.420986932036213e-05
-0.00010528772577298827   1.9791309148722803e-05   -8.420986932036213e-05
-0.00010528772577298827   1.9791309148722803e-05   -8.420986932036213e-05
-0.00010528772577298827   1.9791309148722803e-05   -8.420986932036213e-05
-6.608555489375875e-05   -1.301464862403501e-06   -0.00015847893190114982
-6.608555489375875e-05   -1.301464862403501e-06   -0.00015847893190114982
-6.608555489375875e-05   -1.301464862403501e-06   -0.00015847893190114982
-6.608555489375875e-05   -1.301464862403501e-06   -0.00015847893190114982
6.476961905926285e-06   -3.4217924543421437e-07   -3.696583253149312e-05
6.476961905926285e-06   -3.4217924543421437e-07   -3.696583253149312e-05
6.476961905926285e-06   -3.4217924543421437e-07   -3.696583253149312e-05
6.476961905926285e-06   -3.4217924543421437e-07   -3.696583253149312e-05
6.158393220877461e-06   2.573450461688503e-06   -0.0001593730733185256
6.158393220877461e-06   2.573450461688503e-06   -0.0001593730733185256
6.158393220877461e-06   2.573450461688503e-06   -0.0001593730733185256
6.158393220877461e-06   2.573450461688503e-06   -0.0001593730733185256
-6.768374242085892e-05   3.893539828059246e-06   -3.709490086878676e-05
-6.768374242085892e-05   3.893539828059246e-06   -3.709490086878676e-05
-6.768374242085892e-05   3.893539828059246e-06   -3.709490086878676e-05
-6.768374242085892e-05   3.893539828059246e-06   -3.709490086878676e-05
-3.046761834264045e-05   1.2909791357177997e-06   -9.756023791707976e-05
-3.046761834264045e-05   1.2909791357177997e-06   -9.756023791707976e-05
-3.046761834264045e-05   1.2909791357177997e-06   -9.756023791707976e-05
-3.046761834264045e-05   1.2909791357177997e-06   -9.756023791707976e-05
-6.768374242085892e-05   2.573450461688503e-06   -0.00016016512693834773
-6.768374242085892e-05   2.573450461688503e-06   -0.00016016512693834773
-6.768374242085892e-05   2.573450461688503e-06   -0.00016016512693834773
-6.768374242085892e-05   2.573450461688503e-06   -0.00016016512693834773
6.158393220877461e-06   3.8935398280591374e-06   -3.6302847248964473e-05
6.158393220877461e-06   3.8935398280591374e-06   -3.6302847248964473e-05
6.158393220877461e-06   3.8935398280591374e-06   -3.6302847248964473e-05
6.158393220877461e-06   3.8935398280591374e-06   -3.6302847248964473e-05
5.730248756474804e-06   5.983777914273593e-06   -0.0001597107223143152
5.730248756474804e-06   5.983777914273593e-06   -0.0001597107223143152
5.730248756474804e-06   5.983777914273593e-06   -0.0001597107223143152
5.730248756474804e-06   5.983777914273593e-06   -0.0001597107223143152
-6.820137627106177e-05   8.031489362835768e-06   -3.7719974137558456e-05
-6.820137627106177e-05   8.031489362835768e-06   -3.7719974137558456e-05
-6.820137627106177e-05   8.031489362835768e-06   -3.7719974137558456e-05
-6.820137627106177e-05   8.031489362835768e-06   -3.7719974137558456e-05
-3.105760147230695e-05   4.881880930549735e-06   -9.773650040944442e-05
-3.105760147230695e-05   4.881880930549735e-06   -9.773650040944442e-05
-3.105760147230695e-05   4.881880930549735e-06   -9.773650040944442e-05
-3.105760147230695e-05   4.881880930549735e-06   -9.773650040944442e-05
-6.820137627106177e-05   5.983777914273593e-06   -0.00016093934918345255
-6.820137627106177e-05   5.983777914273593e-06   -0.00016093934918345255
-6.820137627106177e-05   5.983777914273593e-06   -0.00016093934918345255
-6.820137627106177e-05   5.983777914273593e-06   -0.00016093934918345255
5.730248756474813e-06   8.031489362835768e-06   -3.649134726842109e-05
5.730248756474813e-06   8.031489362835768e-06   -3.649134726842109e-05
5.730248756474813e-06   8.031489362835768e-06   -3.649134726842109e-05
5.730248756474813e-06   8.031489362835768e-06   -3.649134726842109e-05
4.891157277839989e-06   9.935741311104603e-06   -0.0001594337410941891
4.891157277839989e-06   9.935741311104603e-06   -0.0001594337410941891
4.891157277839989e-06   9.935741311104603e-06   -0.0001594337410941891
4.891157277839989e-06   9.935741311104603e-06   -0.0001594337410941891
-6.80559657300757e-05   1.2343613324296461e-05   -3.929992595557821e-05
-6.80559657300757e-05   1.2343613324296461e-05   -3.929992595557821e-05
-6.80559657300757e-05   1.2343613324296461e-05   -3.929992595557821e-05
-6.80559657300757e-05   1.2343613324296461e-05   -3.929992595557821e-05
-3.142340531445927e-05   8.570810292209694e-06   -9.809051149568675e-05
-3.142340531445927e-05   8.570810292209694e-06   -9.809051149568675e-05
-3.142340531445927e-05   8.570810292209694e-06   -9.809051149568675e-05
-3.142340531445927e-05   8.570810292209694e-06   -9.809051149568675e-05
6.476961905926285e-06   -1.1582795109894319e-05   -0.00014623626904302782
6.476961905926285e-06   -1.1582795109894319e-05   -0.00014623626904302782
6.476961905926285e-06   -1.1582795109894319e-05   -0.00014623626904302782
6.476961905926285e-06   -1.1582795109894319e-05   -0.00014623626904302782
8.125466856935811e-05   -1.1909880070344126e-05   -2.180300891357792e-05
8.125466856935811e-05   -1.1909880070344126e-05   -2.180300891357792e-05
8.125466856935811e-05   -1.1909880070344126e-05   -2.180300891357792e-05
8.125466856935811e-05   -1.1909880070344126e-05   -2.180300891357792e-05
8.189652660630215e-05   -8.741068409825835e-06   -0.00014829349767658278
8.189652660630215e-05   -8.741068409825835e-06   -0.00014829349767658278
8.189652660630215e-05   -8.741068409825835e-06   -0.00014829349767658278
8.189652660630215e-05   -8.741068409825835e-06   -0.00014829349767658278
6.158393220877461e-06   -8.064806731367807e-06   -2.246903237461617e-05
6.158393220877461e-06   -8.064806731367807e-06   -2.246903237461617e-05
6.158393220877461e-06   -8.064806731367807e-06   -2.246903237461617e-05
6.158393220877461e-06   -8.064806731367807e-06   -2.246903237461617e-05
4.338472489399261e-05   -9.648457393040394e-06   -8.356272809947144e-05
4.338472489399261e-05   -9.648457393040394e-06   -8.356272809947144e-05
4.338472489399261e-05   -9.648457393040394e-06   -8.356272809947144e-05
4.338472489399261e-05   -9.648457393040394e-06   -8.356272809947144e-05
6.158393220877454e-06   -8.741068409825835e-06   -0.00014869925468365784
6.158393220877454e-06   -8.741068409825835e-06   -0.00014869925468365784
6.158393220877454e-06   -8.741068409825835e-06   -0.00014869925468365784
6.158393220877454e-06   -8.741068409825835e-06   -0.00014869925468365784
8.189652660630227e-05   -8.064806731367807e-06   -2.2063275367541278e-05
8.189652660630227e-05   -8.064806731367807e-06   -2.2063275367541278e-05
8.189652660630227e-05   -8.064806731367807e-06   -2.2063275367541278e-05
8.189652660630227e-05   -8.064806731367807e-06   -2.2063275367541278e-05
8.146629017082691e-05   -5.514070648161368e-06   -0.0001510814933027126
8.146629017082691e-05   -5.514070648161368e-06   -0.0001510814933027126
8.146629017082691e-05   -5.514070648161368e-06   -0.0001510814933027126
8.146629017082691e-05   -5.514070648161368e-06   -0.0001510814933027126
5.730248756474804e-06   -4.296181590723023e-06   -2.558549104658895e-05
5.730248756474804e-06   -4.296181590723023e-06   -2.558549104658895e-05
5.730248756474804e-06   -4.296181590723023e-06   -2.558549104658895e-05
5.730248756474804e-06   -4.296181590723023e-06   -2.558549104658895e-05
4.28988901384189e-05   -6.575402940891086e-06   -8.616569387306141e-05
4.28988901384189e-05   -6.575402940891086e-06   -8.616569387306141e-05
4.28988901384189e-05   -6.575402940891086e-06   -8.616569387306141e-05
4.28988901384189e-05   -6.575402940891086e-06   -8.616569387306141e-05
5.730248756474798e-06   -5.514070648161422e-06   -0.00015181222673717564
5.730248756474798e-06   -5.514070648161422e-06   -0.00015181222673717564
5.730248756474798e-06   -5.514070648161422e-06   -0.00015181222673717564
5.730248756474798e-06   -5.514070648161422e-06   -0.00015181222673717564
8.14662901708272e-05   -4.296181590723023e-06   -2.4854757612125964e-05
8.14662901708272e-05   -4.296181590723023e-06   -2.4854757612125964e-05
8.14662901708272e-05   -4.296181590723023e-06   -2.4854757612125964e-05
8.14662901708272e-05   -4.296181590723023e-06   -2.4854757612125964e-05
7.906503109840127e-05   -1.1754799040482105e-06   -0.0001513461560261845
7.906503109840127e-05   -1.1754799040482105e-06   -0.0001513461560261845
7.906503109840127e-05   -1.1754799040482105e-06   -0.0001513461560261845
7.906503109840127e-05   -1.1754799040482105e-06   -0.0001513461560261845
4.891157277839989e-06   3.67873155480568e-07   -2.864904482763322e-05
4.891157277839989e-06   3.67873155480568e-07   -2.864904482763322e-05
4.891157277839989e-06   3.67873155480568e-07   -2.864904482763322e-05
4.891157277839989e-06   3.67873155480568e-07   -2.864904482763322e-05
4.2408267406134045e-05   -2.985903791100932e-06   -8.916529554017418e-05
4.2408267406134045e-05   -2.985903791100932e-06   -8.916529554017418e-05
4.2408267406134045e-05   -2.985903791100932e-06   -8.916529554017418e-05
4.2408267406134045e-05   -2.985903791100932e-06   -8.916529554017418e-05
8.125466856935811e-05   -2.9333812896313995e-05   -8.84966254122544e-05
8.125466856935811e-05   -2.9333812896313995e-05   -8.84966254122544e-05
8.125466856935811e-05   -2.9333812896313995e-05   -8.84966254122544e-05
8.125466856935811e-05   -2.9333812896313995e-05   -8.84966254122544e-05
0.00015509897343564204   -2.2153679446932652e-05   3.888529610118069e-05
0.00015509897343564204   -2.2153679446932652e-05   3.888529610118069e-05
0.00015509897343564204   -2.2153679446932652e-05   3.888529610118069e-05
0.00015509897343564204   -2.2153679446932652e-05   3.888529610118069e-05
0.00016093757161579324   -2.4980797733041267e-05   -0.00010766277047163429
0.00016093757161579324   -2.4980797733041267e-05   -0.00010766277047163429
0.00016093757161579324   -2.4980797733041267e-05   -0.00010766277047163429
0.00016093757161579324   -2.4980797733041267e-05   -0.00010766277047163429
8.189652660630243e-05   -2.0114963787794043e-05   2.115280417703581e-05
8.189652660630243e-05   -2.0114963787794043e-05   2.115280417703581e-05
8.189652660630243e-05   -2.0114963787794043e-05   2.115280417703581e-05
8.189652660630243e-05   -2.0114963787794043e-05   2.115280417703581e-05
0.00011422670039968125   -2.4047371495009365e-05   -3.0371374187599916e-05
0.00011422670039968125   -2.4047371495009365e-05   -3.0371374187599916e-05
0.00011422670039968125   -2.4047371495009365e-05   -3.0371374187599916e-05
0.00011422670039968125   -2.4047371495009365e-05   -3.0371374187599916e-05
8.189652660630223e-05   -2.4980797733041213e-05   -0.00011058227083878214
8.189652660630223e-05   -2.4980797733041213e-05   -0.00011058227083878214
8.189652660630223e-05   -2.4980797733041213e-05   -0.00011058227083878214
8.189652660630223e-05   -2.4980797733041213e-05   -0.00011058227083878214
0.00016093757161579324   -2.0114963787794043e-05   2.4072304544184124e-05
0.00016093757161579324   -2.0114963787794043e-05   2.4072304544184124e-05
0.00016093757161579324   -2.0114963787794043e-05   2.4072304544184124e-05
0.00016093757161579324   -2.0114963787794043e-05   2.4072304544184124e-05
0.00016029376074591582   -2.283476818913736e-05   -0.00011710958687648893
0.00016029376074591582   -2.283476818913736e-05   -0.00011710958687648893
0.00016029376074591582   -2.283476818913736e-05   -0.00011710958687648893
0.00016029376074591582   -2.283476818913736e-05   -0.00011710958687648893
8.14662901708272e-05   -1.7945745349974996e-05   1.133611704516119e-05
8.14662901708272e-05   -1.7945745349974996e-05   1.133611704516119e-05
8.14662901708272e-05   -1.7945745349974996e-05   1.133611704516119e-05
8.14662901708272e-05   -1.7945745349974996e-05   1.133611704516119e-05
0.00011817987188415347   -2.1249235792634644e-05   -4.787109154478673e-05
0.00011817987188415347   -2.1249235792634644e-05   -4.787109154478673e-05
0.00011817987188415347   -2.1249235792634644e-05   -4.787109154478673e-05
0.00011817987188415347   -2.1249235792634644e-05   -4.787109154478673e-05
8.146629017082706e-05   -2.2834768189137252e-05   -0.00012004300057998611
8.146629017082706e-05   -2.2834768189137252e-05   -0.00012004300057998611
8.146629017082706e-05   -2.2834768189137252e-05   -0.00012004300057998611
8.146629017082706e-05   -2.2834768189137252e-05   -0.00012004300057998611
0.00016029376074591582   -1.7945745349974996e-05   1.4269530748658478e-05
0.00016029376074591582   -1.7945745349974996e-05   1.4269530748658478e-05
0.00016029376074591582   -1.7945745349974996e-05   1.4269530748658478e-05
0.00016029376074591582   -1.7945745349974996e-05   1.4269530748658478e-05
0.0001592763292079323   -1.7774050215596868e-05   -0.00013632858341863443
0.0001592763292079323   -1.7774050215596868e-05   -0.00013632858341863443
0.0001592763292079323   -1.7774050215596868e-05   -0.00013632858341863443
0.0001592763292079323   -1.7774050215596868e-05   -0.00013632858341863443
7.906503109840155e-05   -1.3276106355597722e-05   -5.34185288541617e-06
7.906503109840155e-05   -1.3276106355597722e-05   -5.34185288541617e-06
7.906503109840155e-05   -1.3276106355597722e-05   -5.34185288541617e-06
7.906503109840155e-05   -1.3276106355597722e-05   -5.34185288541617e-06
0.00011476603123872296   -1.830551031608283e-05   -6.182587740966071e-05
0.00011476603123872296   -1.830551031608283e-05   -6.182587740966071e-05
0.00011476603123872296   -1.830551031608283e-05   -6.182587740966071e-05
0.00011476603123872296   -1.830551031608283e-05   -6.182587740966071e-05
-0.00017388735696544197   2.5060419081338785e-05   -0.00011982590754561315
-0.00017388735696544197   2.5060419081338785e-05   -0.00011982590754561315
-0.00017388735696544197   2.5060419081338785e-05   -0.00011982590754561315
-0.00017388735696544197   2.5060419081338785e-05   -0.00011982590754561315
-0.0001139353560696137   1.917153459042218e-05   -2.3439236747116205e-05
-0.0001139353560696137   1.917153459042218e-05   -2.3439236747116205e-05
-0.0001139353560696137   1.917153459042218e-05   -2.3439236747116205e-05
-0.0001139353560696137   1.917153459042218e-05   -2.3439236747116205e-05
-0.00011449754174763354   3.0060535321504078e-05   -9.947993559471387e-05
-0.00011449754174763354   3.0060535321504078e-05   -9.947993559471387e-05
-0.00011449754174763354   3.0060535321504078e-05   -9.947993559471387e-05
-0.00011449754174763354   3.0060535321504078e-05   -9.947993559471387e-05
-0.00017128580901471261   2.317968992257926e-05   -7.043162435606612e-07
-0.00017128580901471261   2.317968992257926e-05   -7.043162435606612e-07
-0.00017128580901471261   2.317968992257926e-05   -7.043162435606612e-07
-0.00017128580901471261   2.317968992257926e-05   -7.043162435606612e-07
-0.0001373384545883915   2.54765794712084e-05   -5.866137401660707e-05
-0.0001373384545883915   2.54765794712084e-05   -5.866137401660707e-05
-0.0001373384545883915   2.54765794712084e-05   -5.866137401660707e-05
-0.0001373384545883915   2.54765794712084e-05   -5.866137401660707e-05
-0.00017128580901471261   3.0060535321504078e-05   -9.535142835535908e-05
-0.00017128580901471261   3.0060535321504078e-05   -9.535142835535908e-05
-0.00017128580901471261   3.0060535321504078e-05   -9.535142835535908e-05
-0.00017128580901471261   3.0060535321504078e-05   -9.535142835535908e-05
-0.00011449754174763354   2.317968992257926e-05   -4.8328234829151284e-06
-0.00011449754174763354   2.317968992257926e-05   -4.8328234829151284e-06
-0.00011449754174763354   2.317968992257926e-05   -4.8328234829151284e-06
-0.00011449754174763354   2.317968992257926e-05   -4.8328234829151284e-06
-0.00011439365899314848   3.231654164608368e-05   -8.509758675032402e-05
-0.00011439365899314848   3.231654164608368e-05   -8.509758675032402e-05
-0.00011439365899314848   3.231654164608368e-05   -8.509758675032402e-05
-0.00011439365899314848   3.231654164608368e-05   -8.509758675032402e-05
-0.00016874363760563057   2.493856154402543e-05   9.912498998380535e-06
-0.00016874363760563057   2.493856154402543e-05   9.912498998380535e-06
-0.00016874363760563057   2.493856154402543e-05   9.912498998380535e-06
-0.00016874363760563057   2.493856154402543e-05   9.912498998380535e-06
-0.00013854382540956934   2.7800327059209493e-05   -4.2137580637496776e-05
-0.00013854382540956934   2.7800327059209493e-05   -4.2137580637496776e-05
-0.00013854382540956934   2.7800327059209493e-05   -4.2137580637496776e-05
-0.00013854382540956934   2.7800327059209493e-05   -4.2137580637496776e-05
-0.00016874363760563057   3.231654164608368e-05   -8.067079868908901e-05
-0.00016874363760563057   3.231654164608368e-05   -8.067079868908901e-05
-0.00016874363760563057   3.231654164608368e-05   -8.067079868908901e-05
-0.00016874363760563057   3.231654164608368e-05   -8.067079868908901e-05
-0.00011439365899314864   2.493856154402543e-05   5.485710937146399e-06
-0.00011439365899314864   2.493856154402543e-05   5.485710937146399e-06
-0.00011439365899314864   2.493856154402543e-05   5.485710937146399e-06
-0.00011439365899314864   2.493856154402543e-05   5.485710937146399e-06
-0.00011451918136769277   3.410097313936999e-05   -6.494000162739948e-05
-0.00011451918136769277   3.410097313936999e-05   -6.494000162739948e-05
-0.00011451918136769277   3.410097313936999e-05   -6.494000162739948e-05
-0.00011451918136769277   3.410097313936999e-05   -6.494000162739948e-05
-0.0001654150941720505   2.6662784274977206e-05   2.434943303183121e-05
-0.0001654150941720505   2.6662784274977206e-05   2.434943303183121e-05
-0.0001654150941720505   2.6662784274977206e-05   2.434943303183121e-05
-0.0001654150941720505   2.6662784274977206e-05   2.434943303183121e-05
-0.00013540332697923983   2.901752575685244e-05   -2.7083023845309636e-05
-0.00013540332697923983   2.901752575685244e-05   -2.7083023845309636e-05
-0.00013540332697923983   2.901752575685244e-05   -2.7083023845309636e-05
-0.00013540332697923983   2.901752575685244e-05   -2.7083023845309636e-05
-0.0001139353560696137   1.1660389783136682e-05   -0.00013852116446784745
-0.0001139353560696137   1.1660389783136682e-05   -0.00013852116446784745
-0.0001139353560696137   1.1660389783136682e-05   -0.00013852116446784745
-0.0001139353560696137   1.1660389783136682e-05   -0.00013852116446784745
-5.791978129829681e-05   9.550888100433785e-06   -4.642757419194094e-05
-5.791978129829681e-05   9.550888100433785e-06   -4.642757419194094e-05
-5.791978129829681e-05   9.550888100433785e-06   -4.642757419194094e-05
-5.791978129829681e-05   9.550888100433785e-06   -4.642757419194094e-05
-5.863279658990418e-05   1.6258736935114717e-05   -0.0001365665694548989
-5.863279658990418e-05   1.6258736935114717e-05   -0.0001365665694548989
-5.863279658990418e-05   1.6258736935114717e-05   -0.0001365665694548989
-5.863279658990418e-05   1.6258736935114717e-05   -0.0001365665694548989
-0.00011449754174763338   1.3491038708878574e-05   -4.179804192294147e-05
-0.00011449754174763338   1.3491038708878574e-05   -4.179804192294147e-05
-0.00011449754174763338   1.3491038708878574e-05   -4.179804192294147e-05
-0.00011449754174763338   1.3491038708878574e-05   -4.179804192294147e-05
-8.55093081706402e-05   1.343625876125301e-05   -9.007889658268836e-05
-8.55093081706402e-05   1.343625876125301e-05   -9.007889658268836e-05
-8.55093081706402e-05   1.343625876125301e-05   -9.007889658268836e-05
-8.55093081706402e-05   1.343625876125301e-05   -9.007889658268836e-05
-0.00011449754174763349   1.6258736935114717e-05   -0.00013490595051915687
-0.00011449754174763349   1.6258736935114717e-05   -0.00013490595051915687
-0.00011449754174763349   1.6258736935114717e-05   -0.00013490595051915687
-0.00011449754174763349   1.6258736935114717e-05   -0.00013490595051915687
-5.863279658990426e-05   1.3491038708878791e-05   -4.3458660858683006e-05
-5.863279658990426e-05   1.3491038708878791e-05   -4.3458660858683006e-05
-5.863279658990426e-05   1.3491038708878791e-05   -4.3458660858683006e-05
-5.863279658990426e-05   1.3491038708878791e-05   -4.3458660858683006e-05
-5.90984617340381e-05   2.0062753431231628e-05   -0.00013294845286387588
-5.90984617340381e-05   2.0062753431231628e-05   -0.00013294845286387588
-5.90984617340381e-05   2.0062753431231628e-05   -0.00013294845286387588
-5.90984617340381e-05   2.0062753431231628e-05   -0.00013294845286387588
-0.00011439365899314848   1.6988826670740658e-05   -3.894543470906494e-05
-0.00011439365899314848   1.6988826670740658e-05   -3.894543470906494e-05
-0.00011439365899314848   1.6988826670740658e-05   -3.894543470906494e-05
-0.00011439365899314848   1.6988826670740658e-05   -3.894543470906494e-05
-8.56762416863189e-05   1.667599307780582e-05   -8.662009673135142e-05
-8.56762416863189e-05   1.667599307780582e-05   -8.662009673135142e-05
-8.56762416863189e-05   1.667599307780582e-05   -8.662009673135142e-05
-8.56762416863189e-05   1.667599307780582e-05   -8.662009673135142e-05
-0.00011439365899314848   2.0062753431231628e-05   -0.0001311040968075817
-0.00011439365899314848   2.0062753431231628e-05   -0.0001311040968075817
-0.00011439365899314848   2.0062753431231628e-05   -0.0001311040968075817
-0.00011439365899314848   2.0062753431231628e-05   -0.0001311040968075817
-5.9098461734038315e-05   1.6988826670740875e-05   -4.07897907653588e-05
-5.9098461734038315e-05   1.6988826670740875e-05   -4.07897907653588e-05
-5.9098461734038315e-05   1.6988826670740875e-05   -4.07897907653588e-05
-5.9098461734038315e-05   1.6988826670740875e-05   -4.07897907653588e-05
-5.969748902746717e-05   2.4153871636763157e-05   -0.0001326249902763413
-5.969748902746717e-05   2.4153871636763157e-05   -0.0001326249902763413
-5.969748902746717e-05   2.4153871636763157e-05   -0.0001326249902763413
-5.969748902746717e-05   2.4153871636763157e-05   -0.0001326249902763413
-0.00011451918136769267   2.0706735533321642e-05   -3.918722138056719e-05
-0.00011451918136769267   2.0706735533321642e-05   -3.918722138056719e-05
-0.00011451918136769267   2.0706735533321642e-05   -3.918722138056719e-05
-0.00011451918136769267   2.0706735533321642e-05   -3.918722138056719e-05
-8.670055058177163e-05   1.988250289743131e-05   -8.50570664422338e-05
-8.670055058177163e-05   1.988250289743131e-05   -8.50570664422338e-05
-8.670055058177163e-05   1.988250289743131e-05   -8.50570664422338e-05
-8.670055058177163e-05   1.988250289743131e-05   -8.50570664422338e-05
-5.79197812982967e-05   -3.4217924543421437e-07   -0.00014928086521396607
-5.79197812982967e-05   -3.4217924543421437e-07   -0.00014928086521396607
-5.79197812982967e-05   -3.4217924543421437e-07   -0.00014928086521396607
-5.79197812982967e-05   -3.4217924543421437e-07   -0.00014928086521396607
-2.541061995392408e-06   5.067977632562237e-07   -5.647361350391122e-05
-2.541061995392408e-06   5.067977632562237e-07   -5.647361350391122e-05
-2.541061995392408e-06   5.067977632562237e-07   -5.647361350391122e-05
-2.541061995392408e-06   5.067977632562237e-07   -5.647361350391122e-05
-3.1143670515087545e-06   3.8935398280591374e-06   -0.00014789698434284758
-3.1143670515087545e-06   3.8935398280591374e-06   -0.00014789698434284758
-3.1143670515087545e-06   3.8935398280591374e-06   -0.00014789698434284758
-3.1143670515087545e-06   3.8935398280591374e-06   -0.00014789698434284758
-5.863279658990418e-05   4.382827043932945e-06   -5.565984077504632e-05
-5.863279658990418e-05   4.382827043932945e-06   -5.565984077504632e-05
-5.863279658990418e-05   4.382827043932945e-06   -5.565984077504632e-05
-5.863279658990418e-05   4.382827043932945e-06   -5.565984077504632e-05
-3.038130226007686e-05   2.5517701427281783e-06   -0.00010164703051736897
-3.038130226007686e-05   2.5517701427281783e-06   -0.00010164703051736897
-3.038130226007686e-05   2.5517701427281783e-06   -0.00010164703051736897
-3.038130226007686e-05   2.5517701427281783e-06   -0.00010164703051736897
-5.863279658990418e-05   3.893539828059246e-06   -0.00014819055667237207
-5.863279658990418e-05   3.893539828059246e-06   -0.00014819055667237207
-5.863279658990418e-05   3.893539828059246e-06   -0.00014819055667237207
-5.863279658990418e-05   3.893539828059246e-06   -0.00014819055667237207
-3.114367051508756e-06   4.382827043932945e-06   -5.536626844552183e-05
-3.114367051508756e-06   4.382827043932945e-06   -5.536626844552183e-05
-3.114367051508756e-06   4.382827043932945e-06   -5.536626844552183e-05
-3.114367051508756e-06   4.382827043932945e-06   -5.536626844552183e-05
-3.531947216446989e-06   8.031489362835768e-06   -0.0001483026696841006
-3.531947216446989e-06   8.031489362835768e-06   -0.0001483026696841006
-3.531947216446989e-06   8.031489362835768e-06   -0.0001483026696841006
-3.531947216446989e-06   8.031489362835768e-06   -0.0001483026696841006
-5.909846173403821e-05   8.247051145648119e-06   -5.5821149224469864e-05
-5.909846173403821e-05   8.247051145648119e-06   -5.5821149224469864e-05
-5.909846173403821e-05   8.247051145648119e-06   -5.5821149224469864e-05
-5.909846173403821e-05   8.247051145648119e-06   -5.5821149224469864e-05
-3.111848185039039e-05   5.969392494604075e-06   -0.00010108785383992241
-3.111848185039039e-05   5.969392494604075e-06   -0.00010108785383992241
-3.111848185039039e-05   5.969392494604075e-06   -0.00010108785383992241
-3.111848185039039e-05   5.969392494604075e-06   -0.00010108785383992241
-5.909846173403821e-05   8.031489362835768e-06   -0.0001484320067537881
-5.909846173403821e-05   8.031489362835768e-06   -0.0001484320067537881
-5.909846173403821e-05   8.031489362835768e-06   -0.0001484320067537881
-5.909846173403821e-05   8.031489362835768e-06   -0.0001484320067537881
-3.531947216446994e-06   8.247051145648119e-06   -5.569181215478192e-05
-3.531947216446994e-06   8.247051145648119e-06   -5.569181215478192e-05
-3.531947216446994e-06   8.247051145648119e-06   -5.569181215478192e-05
-3.531947216446994e-06   8.247051145648119e-06   -5.569181215478192e-05
-4.182614461838754e-06   1.2343613324296461e-05   -0.00015021245182902747
-4.182614461838754e-06   1.2343613324296461e-05   -0.00015021245182902747
-4.182614461838754e-06   1.2343613324296461e-05   -0.00015021245182902747
-4.182614461838754e-06   1.2343613324296461e-05   -0.00015021245182902747
-5.969748902746714e-05   1.220137975408873e-05   -5.760232074418953e-05
-5.969748902746714e-05   1.220137975408873e-05   -5.760232074418953e-05
-5.969748902746714e-05   1.220137975408873e-05   -5.760232074418953e-05
-5.969748902746714e-05   1.220137975408873e-05   -5.760232074418953e-05
-3.19010849255973e-05   9.427588302141597e-06   -0.00010226538604280348
-3.19010849255973e-05   9.427588302141597e-06   -0.00010226538604280348
-3.19010849255973e-05   9.427588302141597e-06   -0.00010226538604280348
-3.19010849255973e-05   9.427588302141597e-06   -0.00010226538604280348
-2.5410619953924113e-06   -1.1909880070344126e-05   -0.00013341240441456668
-2.5410619953924113e-06   -1.1909880070344126e-05   -0.00013341240441456668
-2.5410619953924113e-06   -1.1909880070344126e-05   -0.00013341240441456668
-2.5410619953924113e-06   -1.1909880070344126e-05   -0.00013341240441456668
5.257535348835918e-05   -8.00055618702957e-06   -3.9206117611658765e-05
5.257535348835918e-05   -8.00055618702957e-06   -3.9206117611658765e-05
5.257535348835918e-05   -8.00055618702957e-06   -3.9206117611658765e-05
5.257535348835918e-05   -8.00055618702957e-06   -3.9206117611658765e-05
5.252552755478774e-05   -8.064806731367807e-06   -0.00013189498505224411
5.252552755478774e-05   -8.064806731367807e-06   -0.00013189498505224411
5.252552755478774e-05   -8.064806731367807e-06   -0.00013189498505224411
5.252552755478774e-05   -8.064806731367807e-06   -0.00013189498505224411
-3.114367051508756e-06   -4.4511660376085095e-06   -4.133001179133887e-05
-3.114367051508756e-06   -4.4511660376085095e-06   -4.133001179133887e-05
-3.114367051508756e-06   -4.4511660376085095e-06   -4.133001179133887e-05
-3.114367051508756e-06   -4.4511660376085095e-06   -4.133001179133887e-05
2.467042677857246e-05   -7.8289217069062e-06   -8.561134810656232e-05
2.467042677857246e-05   -7.8289217069062e-06   -8.561134810656232e-05
2.467042677857246e-05   -7.8289217069062e-06   -8.561134810656232e-05
2.467042677857246e-05   -7.8289217069062e-06   -8.561134810656232e-05
-3.114367051508756e-06   -8.064806731367807e-06   -0.00013406316946849948
-3.114367051508756e-06   -8.064806731367807e-06   -0.00013406316946849948
-3.114367051508756e-06   -8.064806731367807e-06   -0.00013406316946849948
-3.114367051508756e-06   -8.064806731367807e-06   -0.00013406316946849948
5.252552755478774e-05   -4.451166037608293e-06   -3.9161827375082956e-05
5.252552755478774e-05   -4.451166037608293e-06   -3.9161827375082956e-05
5.252552755478774e-05   -4.451166037608293e-06   -3.9161827375082956e-05
5.252552755478774e-05   -4.451166037608293e-06   -3.9161827375082956e-05
5.2759932890656666e-05   -4.296181590723023e-06   -0.00013539538310906722
5.2759932890656666e-05   -4.296181590723023e-06   -0.00013539538310906722
5.2759932890656666e-05   -4.296181590723023e-06   -0.00013539538310906722
5.2759932890656666e-05   -4.296181590723023e-06   -0.00013539538310906722
-3.5319472164470023e-06   -9.604643353867005e-07   -4.3577013283763303e-05
-3.5319472164470023e-06   -9.604643353867005e-07   -4.3577013283763303e-05
-3.5319472164470023e-06   -9.604643353867005e-07   -4.3577013283763303e-05
-3.5319472164470023e-06   -9.604643353867005e-07   -4.3577013283763303e-05
2.3908285376604264e-05   -4.750401242157535e-06   -8.70367721281189e-05
2.3908285376604264e-05   -4.750401242157535e-06   -8.70367721281189e-05
2.3908285376604264e-05   -4.750401242157535e-06   -8.70367721281189e-05
2.3908285376604264e-05   -4.750401242157535e-06   -8.70367721281189e-05
-3.531947216446992e-06   -4.296181590723023e-06   -0.0001373968134622685
-3.531947216446992e-06   -4.296181590723023e-06   -0.0001373968134622685
-3.531947216446992e-06   -4.296181590723023e-06   -0.0001373968134622685
-3.531947216446992e-06   -4.296181590723023e-06   -0.0001373968134622685
5.2759932890656666e-05   -9.604643353867005e-07   -4.157558293056078e-05
5.2759932890656666e-05   -9.604643353867005e-07   -4.157558293056078e-05
5.2759932890656666e-05   -9.604643353867005e-07   -4.157558293056078e-05
5.2759932890656666e-05   -9.604643353867005e-07   -4.157558293056078e-05
5.234403537838768e-05   3.67873155480568e-07   -0.00013935257540603405
5.234403537838768e-05   3.67873155480568e-07   -0.00013935257540603405
5.234403537838768e-05   3.67873155480568e-07   -0.00013935257540603405
5.234403537838768e-05   3.67873155480568e-07   -0.00013935257540603405
-4.182614461838763e-06   3.124070660420839e-06   -4.679521084195425e-05
-4.182614461838763e-06   3.124070660420839e-06   -4.679521084195425e-05
-4.182614461838763e-06   3.124070660420839e-06   -4.679521084195425e-05
-4.182614461838763e-06   3.124070660420839e-06   -4.679521084195425e-05
2.363558776277076e-05   -1.453799397981622e-06   -9.04121591812613e-05
2.363558776277076e-05   -1.453799397981622e-06   -9.04121591812613e-05
2.363558776277076e-05   -1.453799397981622e-06   -9.04121591812613e-05
2.363558776277076e-05   -1.453799397981622e-06   -9.04121591812613e-05
5.25753534883591e-05   -2.2153679446932652e-05   -7.468658513944815e-05
5.25753534883591e-05   -2.2153679446932652e-05   -7.468658513944815e-05
5.25753534883591e-05   -2.2153679446932652e-05   -7.468658513944815e-05
5.25753534883591e-05   -2.2153679446932652e-05   -7.468658513944815e-05
0.00010425301562562195   -1.4532425445392067e-05   1.6015604156914467e-05
0.00010425301562562195   -1.4532425445392067e-05   1.6015604156914467e-05
0.00010425301562562195   -1.4532425445392067e-05   1.6015604156914467e-05
0.00010425301562562195   -1.4532425445392067e-05   1.6015604156914467e-05
0.00010773313381123167   -2.0114963787793935e-05   -8.410543206806894e-05
0.00010773313381123167   -2.0114963787793935e-05   -8.410543206806894e-05
0.00010773313381123167   -2.0114963787793935e-05   -8.410543206806894e-05
0.00010773313381123167   -2.0114963787793935e-05   -8.410543206806894e-05
5.252552755478766e-05   -1.2492508055131184e-05   3.333771586406804e-06
5.252552755478766e-05   -1.2492508055131184e-05   3.333771586406804e-06
5.252552755478766e-05   -1.2492508055131184e-05   3.333771586406804e-06
5.252552755478766e-05   -1.2492508055131184e-05   3.333771586406804e-06
7.588319402850437e-05   -1.711933399873894e-05   -3.281957697028981e-05
7.588319402850437e-05   -1.711933399873894e-05   -3.281957697028981e-05
7.588319402850437e-05   -1.711933399873894e-05   -3.281957697028981e-05
7.588319402850437e-05   -1.711933399873894e-05   -3.281957697028981e-05
5.2525527554787605e-05   -2.0114963787794043e-05   -8.867890550766648e-05
5.2525527554787605e-05   -2.0114963787794043e-05   -8.867890550766648e-05
5.2525527554787605e-05   -2.0114963787794043e-05   -8.867890550766648e-05
5.2525527554787605e-05   -2.0114963787794043e-05   -8.867890550766648e-05
0.00010773313381123167   -1.2492508055131184e-05   7.907245026004834e-06
0.00010773313381123167   -1.2492508055131184e-05   7.907245026004834e-06
0.00010773313381123167   -1.2492508055131184e-05   7.907245026004834e-06
0.00010773313381123167   -1.2492508055131184e-05   7.907245026004834e-06
0.00011040140626592839   -1.7945745349974996e-05   -9.48791198966882e-05
0.00011040140626592839   -1.7945745349974996e-05   -9.48791198966882e-05
0.00011040140626592839   -1.7945745349974996e-05   -9.48791198966882e-05
0.00011040140626592839   -1.7945745349974996e-05   -9.48791198966882e-05
5.2759932890656476e-05   -1.0736764424822392e-05   -3.1353861596603765e-06
5.2759932890656476e-05   -1.0736764424822392e-05   -3.1353861596603765e-06
5.2759932890656476e-05   -1.0736764424822392e-05   -3.1353861596603765e-06
5.2759932890656476e-05   -1.0736764424822392e-05   -3.1353861596603765e-06
7.844140790120124e-05   -1.5802591534299932e-05   -4.2898348244881264e-05
7.844140790120124e-05   -1.5802591534299932e-05   -4.2898348244881264e-05
7.844140790120124e-05   -1.5802591534299932e-05   -4.2898348244881264e-05
7.844140790120124e-05   -1.5802591534299932e-05   -4.2898348244881264e-05
5.2759932890656584e-05   -1.7945745349974996e-05   -9.920450845177968e-05
5.2759932890656584e-05   -1.7945745349974996e-05   -9.920450845177968e-05
5.2759932890656584e-05   -1.7945745349974996e-05   -9.920450845177968e-05
5.2759932890656584e-05   -1.7945745349974996e-05   -9.920450845177968e-05
0.00011040140626592822   -1.0736764424822392e-05   1.1900023954318148e-06
0.00011040140626592822   -1.0736764424822392e-05   1.1900023954318148e-06
0.00011040140626592822   -1.0736764424822392e-05   1.1900023954318148e-06
0.00011040140626592822   -1.0736764424822392e-05   1.1900023954318148e-06
0.00011323920075535532   -1.3276106355597722e-05   -0.00011319446268986047
0.00011323920075535532   -1.3276106355597722e-05   -0.00011319446268986047
0.00011323920075535532   -1.3276106355597722e-05   -0.00011319446268986047
0.00011323920075535532   -1.3276106355597722e-05   -0.00011319446268986047
5.2344035378387515e-05   -6.981218672808464e-06   -1.5479453004588206e-05
5.2344035378387515e-05   -6.981218672808464e-06   -1.5479453004588206e-05
5.2344035378387515e-05   -6.981218672808464e-06   -1.5479453004588206e-05
5.2344035378387515e-05   -6.981218672808464e-06   -1.5479453004588206e-05
7.808620213957023e-05   -1.3620985819420449e-05   -5.439920398525854e-05
7.808620213957023e-05   -1.3620985819420449e-05   -5.439920398525854e-05
7.808620213957023e-05   -1.3620985819420449e-05   -5.439920398525854e-05
7.808620213957023e-05   -1.3620985819420449e-05   -5.439920398525854e-05
-0.00012517871387003826   1.917153459042218e-05   -9.509224525971376e-05
-0.00012517871387003826   1.917153459042218e-05   -9.509224525971376e-05
-0.00012517871387003826   1.917153459042218e-05   -9.509224525971376e-05
-0.00012517871387003826   1.917153459042218e-05   -9.509224525971376e-05
-8.514874592578355e-05   1.2216792249027456e-05   -3.254847742412568e-05
-8.514874592578355e-05   1.2216792249027456e-05   -3.254847742412568e-05
-8.514874592578355e-05   1.2216792249027456e-05   -3.254847742412568e-05
-8.514874592578355e-05   1.2216792249027456e-05   -3.254847742412568e-05
-8.484047484499311e-05   2.317968992257926e-05   -8.078066430799069e-05
-8.484047484499311e-05   2.317968992257926e-05   -8.078066430799069e-05
-8.484047484499311e-05   2.317968992257926e-05   -8.078066430799069e-05
-8.484047484499311e-05   2.317968992257926e-05   -8.078066430799069e-05
-0.00012145494954134064   1.553925626404185e-05   -1.5172279618955956e-05
-0.00012145494954134064   1.553925626404185e-05   -1.5172279618955956e-05
-0.00012145494954134064   1.553925626404185e-05   -1.5172279618955956e-05
-0.00012145494954134064   1.553925626404185e-05   -1.5172279618955956e-05
-9.97374664037438e-05   1.8457129844681166e-05   -5.31188089966674e-05
-9.97374664037438e-05   1.8457129844681166e-05   -5.31188089966674e-05
-9.97374664037438e-05   1.8457129844681166e-05   -5.31188089966674e-05
-9.97374664037438e-05   1.8457129844681166e-05   -5.31188089966674e-05
-0.00012145494954134064   2.317968992257926e-05   -7.619640411286833e-05
-0.00012145494954134064   2.317968992257926e-05   -7.619640411286833e-05
-0.00012145494954134064   2.317968992257926e-05   -7.619640411286833e-05
-0.00012145494954134064   2.317968992257926e-05   -7.619640411286833e-05
-8.484047484499322e-05   1.553925626404185e-05   -1.9756539814078202e-05
-8.484047484499322e-05   1.553925626404185e-05   -1.9756539814078202e-05
-8.484047484499322e-05   1.553925626404185e-05   -1.9756539814078202e-05
-8.484047484499322e-05   1.553925626404185e-05   -1.9756539814078202e-05
-8.419819567158718e-05   2.493856154402543e-05   -7.04389085400825e-05
-8.419819567158718e-05   2.493856154402543e-05   -7.04389085400825e-05
-8.419819567158718e-05   2.493856154402543e-05   -7.04389085400825e-05
-8.419819567158718e-05   2.493856154402543e-05   -7.04389085400825e-05
-0.0001186677821303012   1.7084426141656794e-05   -8.277116534138353e-06
-0.0001186677821303012   1.7084426141656794e-05   -8.277116534138353e-06
-0.0001186677821303012   1.7084426141656794e-05   -8.277116534138353e-06
-0.0001186677821303012   1.7084426141656794e-05   -8.277116534138353e-06
-9.974980833940135e-05   2.0310471302116204e-05   -4.174269994858075e-05
-9.974980833940135e-05   2.0310471302116204e-05   -4.174269994858075e-05
-9.974980833940135e-05   2.0310471302116204e-05   -4.174269994858075e-05
-9.974980833940135e-05   2.0310471302116204e-05   -4.174269994858075e-05
-0.0001186677821303012   2.493856154402543e-05   -6.572642729866162e-05
-0.0001186677821303012   2.493856154402543e-05   -6.572642729866162e-05
-0.0001186677821303012   2.493856154402543e-05   -6.572642729866162e-05
-0.0001186677821303012   2.493856154402543e-05   -6.572642729866162e-05
-8.419819567158734e-05   1.7084426141656794e-05   -1.2989597775559132e-05
-8.419819567158734e-05   1.7084426141656794e-05   -1.2989597775559132e-05
-8.419819567158734e-05   1.7084426141656794e-05   -1.2989597775559132e-05
-8.419819567158734e-05   1.7084426141656794e-05   -1.2989597775559132e-05
-8.39387688103687e-05   2.666278427497699e-05   -5.6112595989994424e-05
-8.39387688103687e-05   2.666278427497699e-05   -5.6112595989994424e-05
-8.39387688103687e-05   2.666278427497699e-05   -5.6112595989994424e-05
-8.39387688103687e-05   2.666278427497699e-05   -5.6112595989994424e-05
-0.00011501687456109781   1.9023068222182634e-05   2.680765595641267e-07
-0.00011501687456109781   1.9023068222182634e-05   2.680765595641267e-07
-0.00011501687456109781   1.9023068222182634e-05   2.680765595641267e-07
-0.00011501687456109781   1.9023068222182634e-05   2.680765595641267e-07
-9.680222586697546e-05   2.1309283435169604e-05   -3.1461400391765305e-05
-9.680222586697546e-05   2.1309283435169604e-05   -3.1461400391765305e-05
-9.680222586697546e-05   2.1309283435169604e-05   -3.1461400391765305e-05
-9.680222586697546e-05   2.1309283435169604e-05   -3.1461400391765305e-05
-8.514874592578339e-05   9.550888100433568e-06   -0.00012098772709975326
-8.514874592578339e-05   9.550888100433568e-06   -0.00012098772709975326
-8.514874592578339e-05   9.550888100433568e-06   -0.00012098772709975326
-8.514874592578339e-05   9.550888100433568e-06   -0.00012098772709975326
-4.8891727294801224e-05   6.302229376099842e-06   -6.250855794938355e-05
-4.8891727294801224e-05   6.302229376099842e-06   -6.250855794938355e-05
-4.8891727294801224e-05   6.302229376099842e-06   -6.250855794938355e-05
-4.8891727294801224e-05   6.302229376099842e-06   -6.250855794938355e-05
-4.891465632493884e-05   1.3491038708878574e-05   -0.00011995577172321044
-4.891465632493884e-05   1.3491038708878574e-05   -0.00011995577172321044
-4.891465632493884e-05   1.3491038708878574e-05   -0.00011995577172321044
-4.891465632493884e-05   1.3491038708878574e-05   -0.00011995577172321044
-8.484047484499311e-05   9.807890416889224e-06   -5.786951854792617e-05
-8.484047484499311e-05   9.807890416889224e-06   -5.786951854792617e-05
-8.484047484499311e-05   9.807890416889224e-06   -5.786951854792617e-05
-8.484047484499311e-05   9.807890416889224e-06   -5.786951854792617e-05
-6.633234777303623e-05   1.0438278017539313e-05   -8.909462956157807e-05
-6.633234777303623e-05   1.0438278017539313e-05   -8.909462956157807e-05
-6.633234777303623e-05   1.0438278017539313e-05   -8.909462956157807e-05
-6.633234777303623e-05   1.0438278017539313e-05   -8.909462956157807e-05
-8.4840474844993e-05   1.3491038708878791e-05   -0.00011774588274801633
-8.4840474844993e-05   1.3491038708878791e-05   -0.00011774588274801633
-8.4840474844993e-05   1.3491038708878791e-05   -0.00011774588274801633
-8.4840474844993e-05   1.3491038708878791e-05   -0.00011774588274801633
-4.891465632493884e-05   9.807890416889658e-06   -6.007940752311995e-05
-4.891465632493884e-05   9.807890416889658e-06   -6.007940752311995e-05
-4.891465632493884e-05   9.807890416889658e-06   -6.007940752311995e-05
-4.891465632493884e-05   9.807890416889658e-06   -6.007940752311995e-05
-4.88772222752384e-05   1.6988826670740875e-05   -0.00011726637605652163
-4.88772222752384e-05   1.6988826670740875e-05   -0.00011726637605652163
-4.88772222752384e-05   1.6988826670740875e-05   -0.00011726637605652163
-4.88772222752384e-05   1.6988826670740875e-05   -0.00011726637605652163
-8.419819567158718e-05   1.2994956887027193e-05   -5.600176519237872e-05
-8.419819567158718e-05   1.2994956887027193e-05   -5.600176519237872e-05
-8.419819567158718e-05   1.2994956887027193e-05   -5.600176519237872e-05
-8.419819567158718e-05   1.2994956887027193e-05   -5.600176519237872e-05
-6.602186245490831e-05   1.331456019603534e-05   -8.648741587224777e-05
-6.602186245490831e-05   1.331456019603534e-05   -8.648741587224777e-05
-6.602186245490831e-05   1.331456019603534e-05   -8.648741587224777e-05
-6.602186245490831e-05   1.331456019603534e-05   -8.648741587224777e-05
-8.419819567158718e-05   1.6988826670740875e-05   -0.00011487005418629357
-8.419819567158718e-05   1.6988826670740875e-05   -0.00011487005418629357
-8.419819567158718e-05   1.6988826670740875e-05   -0.00011487005418629357
-8.419819567158718e-05   1.6988826670740875e-05   -0.00011487005418629357
-4.8877222275238484e-05   1.2994956887027627e-05   -5.839808706260667e-05
-4.8877222275238484e-05   1.2994956887027627e-05   -5.839808706260667e-05
-4.8877222275238484e-05   1.2994956887027627e-05   -5.839808706260667e-05
-4.8877222275238484e-05   1.2994956887027627e-05   -5.839808706260667e-05
-4.89144464261007e-05   2.070673553332186e-05   -0.00011773804812340114
-4.89144464261007e-05   2.070673553332186e-05   -0.00011773804812340114
-4.89144464261007e-05   2.070673553332186e-05   -0.00011773804812340114
-4.89144464261007e-05   2.070673553332186e-05   -0.00011773804812340114
-8.393876881036876e-05   1.6453883800582672e-05   -5.6812466443310785e-05
-8.393876881036876e-05   1.6453883800582672e-05   -5.6812466443310785e-05
-8.393876881036876e-05   1.6453883800582672e-05   -5.6812466443310785e-05
-8.393876881036876e-05   1.6453883800582672e-05   -5.6812466443310785e-05
-6.644805007975006e-05   1.6157033462514377e-05   -8.578555412483391e-05
-6.644805007975006e-05   1.6157033462514377e-05   -8.578555412483391e-05
-6.644805007975006e-05   1.6157033462514377e-05   -8.578555412483391e-05
-6.644805007975006e-05   1.6157033462514377e-05   -8.578555412483391e-05
-4.889172729480114e-05   5.067977632564405e-07   -0.0001334923478515385
-4.889172729480114e-05   5.067977632564405e-07   -0.0001334923478515385
-4.889172729480114e-05   5.067977632564405e-07   -0.0001334923478515385
-4.889172729480114e-05   5.067977632564405e-07   -0.0001334923478515385
-1.315127427195416e-05   1.076366555432303e-06   -7.358318487148813e-05
-1.315127427195416e-05   1.076366555432303e-06   -7.358318487148813e-05
-1.315127427195416e-05   1.076366555432303e-06   -7.358318487148813e-05
-1.315127427195416e-05   1.076366555432303e-06   -7.358318487148813e-05
-1.3174857348701456e-05   4.382827043932945e-06   -0.00013202780606722496
-1.3174857348701456e-05   4.382827043932945e-06   -0.00013202780606722496
-1.3174857348701456e-05   4.382827043932945e-06   -0.00013202780606722496
-1.3174857348701456e-05   4.382827043932945e-06   -0.00013202780606722496
-4.891465632493873e-05   4.5980696645143634e-06   -7.259062001251126e-05
-4.891465632493873e-05   4.5980696645143634e-06   -7.259062001251126e-05
-4.891465632493873e-05   4.5980696645143634e-06   -7.259062001251126e-05
-4.891465632493873e-05   4.5980696645143634e-06   -7.259062001251126e-05
-3.082766528917987e-05   3.0940776889355065e-06   -0.00010183320988676228
-3.082766528917987e-05   3.0940776889355065e-06   -0.00010183320988676228
-3.082766528917987e-05   3.0940776889355065e-06   -0.00010183320988676228
-3.082766528917987e-05   3.0940776889355065e-06   -0.00010183320988676228
-4.891465632493873e-05   4.382827043932945e-06   -0.00013215695163957349
-4.891465632493873e-05   4.382827043932945e-06   -0.00013215695163957349
-4.891465632493873e-05   4.382827043932945e-06   -0.00013215695163957349
-4.891465632493873e-05   4.382827043932945e-06   -0.00013215695163957349
-1.3174857348701456e-05   4.5980696645143634e-06   -7.246147444016262e-05
-1.3174857348701456e-05   4.5980696645143634e-06   -7.246147444016262e-05
-1.3174857348701456e-05   4.5980696645143634e-06   -7.246147444016262e-05
-1.3174857348701456e-05   4.5980696645143634e-06   -7.246147444016262e-05
-1.3126875830256712e-05   8.247051145647902e-06   -0.00013236737465022077
-1.3126875830256712e-05   8.247051145647902e-06   -0.00013236737465022077
-1.3126875830256712e-05   8.247051145647902e-06   -0.00013236737465022077
-1.3126875830256712e-05   8.247051145647902e-06   -0.00013236737465022077
-4.88772222752384e-05   8.130984254666341e-06   -7.27138237739962e-05
-4.88772222752384e-05   8.130984254666341e-06   -7.27138237739962e-05
-4.88772222752384e-05   8.130984254666341e-06   -7.27138237739962e-05
-4.88772222752384e-05   8.130984254666341e-06   -7.27138237739962e-05
-3.103283353521464e-05   6.173107301519825e-06   -0.00010127974550214777
-3.103283353521464e-05   6.173107301519825e-06   -0.00010127974550214777
-3.103283353521464e-05   6.173107301519825e-06   -0.00010127974550214777
-3.103283353521464e-05   6.173107301519825e-06   -0.00010127974550214777
-4.88772222752384e-05   8.247051145647902e-06   -0.00013229773451563231
-4.88772222752384e-05   8.247051145647902e-06   -0.00013229773451563231
-4.88772222752384e-05   8.247051145647902e-06   -0.00013229773451563231
-4.88772222752384e-05   8.247051145647902e-06   -0.00013229773451563231
-1.3126875830256734e-05   8.130984254666341e-06   -7.278346390858471e-05
-1.3126875830256734e-05   8.130984254666341e-06   -7.278346390858471e-05
-1.3126875830256734e-05   8.130984254666341e-06   -7.278346390858471e-05
-1.3126875830256734e-05   8.130984254666341e-06   -7.278346390858471e-05
-1.3146986292244493e-05   1.220137975408873e-05   -0.00013437029165432848
-1.3146986292244493e-05   1.220137975408873e-05   -0.00013437029165432848
-1.3146986292244493e-05   1.220137975408873e-05   -0.00013437029165432848
-1.3146986292244493e-05   1.220137975408873e-05   -0.00013437029165432848
-4.8914446426100676e-05   1.1725670038471945e-05   -7.44724322685311e-05
-4.8914446426100676e-05   1.1725670038471945e-05   -7.44724322685311e-05
-4.8914446426100676e-05   1.1725670038471945e-05   -7.44724322685311e-05
-4.8914446426100676e-05   1.1725670038471945e-05   -7.44724322685311e-05
-3.129847108738167e-05   9.292547844400208e-06   -0.0001023725178499529
-3.129847108738167e-05   9.292547844400208e-06   -0.0001023725178499529
-3.129847108738167e-05   9.292547844400208e-06   -0.0001023725178499529
-3.129847108738167e-05   9.292547844400208e-06   -0.0001023725178499529
-1.315127427195414e-05   -8.00055618702957e-06   -0.00011822870501396925
-1.315127427195414e-05   -8.00055618702957e-06   -0.00011822870501396925
-1.315127427195414e-05   -8.00055618702957e-06   -0.00011822870501396925
-1.315127427195414e-05   -8.00055618702957e-06   -0.00011822870501396925
2.208863841467564e-05   -3.7053485167576686e-06   -5.6918392600756795e-05
2.208863841467564e-05   -3.7053485167576686e-06   -5.6918392600756795e-05
2.208863841467564e-05   -3.7053485167576686e-06   -5.6918392600756795e-05
2.208863841467564e-05   -3.7053485167576686e-06   -5.6918392600756795e-05
2.2377073843860245e-05   -4.4511660376085095e-06   -0.00011555561409089959
2.2377073843860245e-05   -4.4511660376085095e-06   -0.00011555561409089959
2.2377073843860245e-05   -4.4511660376085095e-06   -0.00011555561409089959
2.2377073843860245e-05   -4.4511660376085095e-06   -0.00011555561409089959
-1.3174857348701456e-05   -3.9127383403897084e-07   -5.873833075877192e-05
-1.3174857348701456e-05   -3.9127383403897084e-07   -5.873833075877192e-05
-1.3174857348701456e-05   -3.9127383403897084e-07   -5.873833075877192e-05
-1.3174857348701456e-05   -3.9127383403897084e-07   -5.873833075877192e-05
4.552833346100356e-06   -3.831434121281388e-06   -8.622038574442959e-05
4.552833346100356e-06   -3.831434121281388e-06   -8.622038574442959e-05
4.552833346100356e-06   -3.831434121281388e-06   -8.622038574442959e-05
4.552833346100356e-06   -3.831434121281388e-06   -8.622038574442959e-05
-1.3174857348701456e-05   -4.4511660376085095e-06   -0.00011799154941304155
-1.3174857348701456e-05   -4.4511660376085095e-06   -0.00011799154941304155
-1.3174857348701456e-05   -4.4511660376085095e-06   -0.00011799154941304155
-1.3174857348701456e-05   -4.4511660376085095e-06   -0.00011799154941304155
2.23770738438603e-05   -3.9127383403853716e-07   -5.6302395436630534e-05
2.23770738438603e-05   -3.9127383403853716e-07   -5.6302395436630534e-05
2.23770738438603e-05   -3.9127383403853716e-07   -5.6302395436630534e-05
2.23770738438603e-05   -3.9127383403853716e-07   -5.6302395436630534e-05
2.3051964520776297e-05   -9.604643353864836e-07   -0.00011799643191732199
2.3051964520776297e-05   -9.604643353864836e-07   -0.00011799643191732199
2.3051964520776297e-05   -9.604643353864836e-07   -0.00011799643191732199
2.3051964520776297e-05   -9.604643353864836e-07   -0.00011799643191732199
-1.3126875830256734e-05   2.7997754344128052e-06   -5.995450852747992e-05
-1.3126875830256734e-05   2.7997754344128052e-06   -5.995450852747992e-05
-1.3126875830256734e-05   2.7997754344128052e-06   -5.995450852747992e-05
-1.3126875830256734e-05   2.7997754344128052e-06   -5.995450852747992e-05
4.3500487934713655e-06   -1.0751484051591594e-06   -8.675776192995053e-05
4.3500487934713655e-06   -1.0751484051591594e-06   -8.675776192995053e-05
4.3500487934713655e-06   -1.0751484051591594e-06   -8.675776192995053e-05
4.3500487934713655e-06   -1.0751484051591594e-06   -8.675776192995053e-05
-1.3126875830256724e-05   -9.604643353867005e-07   -0.00012025257577920128
-1.3126875830256724e-05   -9.604643353867005e-07   -0.00012025257577920128
-1.3126875830256724e-05   -9.604643353867005e-07   -0.00012025257577920128
-1.3126875830256724e-05   -9.604643353867005e-07   -0.00012025257577920128
2.305196452077635e-05   2.7997754344123715e-06   -5.769836466560036e-05
2.305196452077635e-05   2.7997754344123715e-06   -5.769836466560036e-05
2.305196452077635e-05   2.7997754344123715e-06   -5.769836466560036e-05
2.305196452077635e-05   2.7997754344123715e-06   -5.769836466560036e-05
2.3381020437902915e-05   3.1240706604206223e-06   -0.00012147611000885286
2.3381020437902915e-05   3.1240706604206223e-06   -0.00012147611000885286
2.3381020437902915e-05   3.1240706604206223e-06   -0.00012147611000885286
2.3381020437902915e-05   3.1240706604206223e-06   -0.00012147611000885286
-1.3146986292244471e-05   6.4602899956132595e-06   -6.259783039305562e-05
-1.3146986292244471e-05   6.4602899956132595e-06   -6.259783039305562e-05
-1.3146986292244471e-05   6.4602899956132595e-06   -6.259783039305562e-05
-1.3146986292244471e-05   6.4602899956132595e-06   -6.259783039305562e-05
4.474000852184917e-06   1.876278670135843e-06   -8.921573550515143e-05
4.474000852184917e-06   1.876278670135843e-06   -8.921573550515143e-05
4.474000852184917e-06   1.876278670135843e-06   -8.921573550515143e-05
4.474000852184917e-06   1.876278670135843e-06   -8.921573550515143e-05
2.2088638414675612e-05   -1.4532425445392284e-05   -6.50026110441572e-05
2.2088638414675612e-05   -1.4532425445392284e-05   -6.50026110441572e-05
2.2088638414675612e-05   -1.4532425445392284e-05   -6.50026110441572e-05
2.2088638414675612e-05   -1.4532425445392284e-05   -6.50026110441572e-05
5.345970930311088e-05   -6.826095045545794e-06   -8.093694656857026e-06
5.345970930311088e-05   -6.826095045545794e-06   -8.093694656857026e-06
5.345970930311088e-05   -6.826095045545794e-06   -8.093694656857026e-06
5.345970930311088e-05   -6.826095045545794e-06   -8.093694656857026e-06
5.715981071535741e-05   -1.2492508055131184e-05   -6.831569397086265e-05
5.715981071535741e-05   -1.2492508055131184e-05   -6.831569397086265e-05
5.715981071535741e-05   -1.2492508055131184e-05   -6.831569397086265e-05
5.715981071535741e-05   -1.2492508055131184e-05   -6.831569397086265e-05
2.2377073843860273e-05   -4.5853061242189484e-06   -1.5088787010248002e-05
2.2377073843860273e-05   -4.5853061242189484e-06   -1.5088787010248002e-05
2.2377073843860273e-05   -4.5853061242189484e-06   -1.5088787010248002e-05
2.2377073843860273e-05   -4.5853061242189484e-06   -1.5088787010248002e-05
3.711814700331605e-05   -9.312042628903698e-06   -3.68212003731968e-05
3.711814700331605e-05   -9.312042628903698e-06   -3.68212003731968e-05
3.711814700331605e-05   -9.312042628903698e-06   -3.68212003731968e-05
3.711814700331605e-05   -9.312042628903698e-06   -3.68212003731968e-05
2.2377073843860273e-05   -1.2492508055131184e-05   -7.306001512940924e-05
2.2377073843860273e-05   -1.2492508055131184e-05   -7.306001512940924e-05
2.2377073843860273e-05   -1.2492508055131184e-05   -7.306001512940924e-05
2.2377073843860273e-05   -1.2492508055131184e-05   -7.306001512940924e-05
5.7159810715357246e-05   -4.585306124219382e-06   -1.034446585170077e-05
5.7159810715357246e-05   -4.585306124219382e-06   -1.034446585170077e-05
5.7159810715357246e-05   -4.585306124219382e-06   -1.034446585170077e-05
5.7159810715357246e-05   -4.585306124219382e-06   -1.034446585170077e-05
6.0004739831187636e-05   -1.0736764424822175e-05   -7.493509015913172e-05
6.0004739831187636e-05   -1.0736764424822175e-05   -7.493509015913172e-05
6.0004739831187636e-05   -1.0736764424822175e-05   -7.493509015913172e-05
6.0004739831187636e-05   -1.0736764424822175e-05   -7.493509015913172e-05
2.305196452077635e-05   -3.03485611267279e-06   -1.796827629573606e-05
2.305196452077635e-05   -3.03485611267279e-06   -1.796827629573606e-05
2.305196452077635e-05   -3.03485611267279e-06   -1.796827629573606e-05
2.305196452077635e-05   -3.03485611267279e-06   -1.796827629573606e-05
3.938578138778087e-05   -8.16296140434842e-06   -4.211444123240478e-05
3.938578138778087e-05   -8.16296140434842e-06   -4.211444123240478e-05
3.938578138778087e-05   -8.16296140434842e-06   -4.211444123240478e-05
3.938578138778087e-05   -8.16296140434842e-06   -4.211444123240478e-05
2.3051964520776324e-05   -1.0736764424822392e-05   -7.955623514642116e-05
2.3051964520776324e-05   -1.0736764424822392e-05   -7.955623514642116e-05
2.3051964520776324e-05   -1.0736764424822392e-05   -7.955623514642116e-05
2.3051964520776324e-05   -1.0736764424822392e-05   -7.955623514642116e-05
6.000473983118742e-05   -3.03485611267279e-06   -1.3347131308446029e-05
6.000473983118742e-05   -3.03485611267279e-06   -1.3347131308446029e-05
6.000473983118742e-05   -3.03485611267279e-06   -1.3347131308446029e-05
6.000473983118742e-05   -3.03485611267279e-06   -1.3347131308446029e-05
6.378110909286566e-05   -6.981218672808464e-06   -8.761352359233074e-05
6.378110909286566e-05   -6.981218672808464e-06   -8.761352359233074e-05
6.378110909286566e-05   -6.981218672808464e-06   -8.761352359233074e-05
6.378110909286566e-05   -6.981218672808464e-06   -8.761352359233074e-05
2.338102043790297e-05   1.9693130725532276e-08   -2.4480589582846367e-05
2.338102043790297e-05   1.9693130725532276e-08   -2.4480589582846367e-05
2.338102043790297e-05   1.9693130725532276e-08   -2.4480589582846367e-05
2.338102043790297e-05   1.9693130725532276e-08   -2.4480589582846367e-05
4.0130018124233245e-05   -6.444180024329192e-06   -4.8517261833697285e-05
4.0130018124233245e-05   -6.444180024329192e-06   -4.8517261833697285e-05
4.0130018124233245e-05   -6.444180024329192e-06   -4.8517261833697285e-05
4.0130018124233245e-05   -6.444180024329192e-06   -4.8517261833697285e-05
-7.596443893000408e-05   1.2216792249027456e-05   -7.106452528230444e-05
-7.596443893000408e-05   1.2216792249027456e-05   -7.106452528230444e-05
-7.596443893000408e-05   1.2216792249027456e-05   -7.106452528230444e-05
-7.596443893000408e-05   1.2216792249027456e-05   -7.106452528230444e-05
-5.598288970215439e-05   4.995513248690769e-06   -4.209471063609045e-05
-5.598288970215439e-05   4.995513248690769e-06   -4.209471063609045e-05
-5.598288970215439e-05   4.995513248690769e-06   -4.209471063609045e-05
-5.598288970215439e-05   4.995513248690769e-06   -4.209471063609045e-05
-5.515352364238125e-05   1.553925626404185e-05   -6.269106096550275e-05
-5.515352364238125e-05   1.553925626404185e-05   -6.269106096550275e-05
-5.515352364238125e-05   1.553925626404185e-05   -6.269106096550275e-05
-5.515352364238125e-05   1.553925626404185e-05   -6.269106096550275e-05
-7.185003183162592e-05   7.76399816100181e-06   -3.0198392454937198e-05
-7.185003183162592e-05   7.76399816100181e-06   -3.0198392454937198e-05
-7.185003183162592e-05   7.76399816100181e-06   -3.0198392454937198e-05
-7.185003183162592e-05   7.76399816100181e-06   -3.0198392454937198e-05
-6.199459995637462e-05   1.0954851937705797e-05   -4.8538624513047926e-05
-6.199459995637462e-05   1.0954851937705797e-05   -4.8538624513047926e-05
-6.199459995637462e-05   1.0954851937705797e-05   -4.8538624513047926e-05
-6.199459995637462e-05   1.0954851937705797e-05   -4.8538624513047926e-05
-7.185003183162592e-05   1.553925626404185e-05   -5.802590610367881e-05
-7.185003183162592e-05   1.553925626404185e-05   -5.802590610367881e-05
-7.185003183162592e-05   1.553925626404185e-05   -5.802590610367881e-05
-7.185003183162592e-05   1.553925626404185e-05   -5.802590610367881e-05
-5.515352364238136e-05   7.763998161002244e-06   -3.48635473167613e-05
-5.515352364238136e-05   7.763998161002244e-06   -3.48635473167613e-05
-5.515352364238136e-05   7.763998161002244e-06   -3.48635473167613e-05
-5.515352364238136e-05   7.763998161002244e-06   -3.48635473167613e-05
-5.3971657997723354e-05   1.7084426141656794e-05   -5.598223720935155e-05
-5.3971657997723354e-05   1.7084426141656794e-05   -5.598223720935155e-05
-5.3971657997723354e-05   1.7084426141656794e-05   -5.598223720935155e-05
-5.3971657997723354e-05   1.7084426141656794e-05   -5.598223720935155e-05
-6.856276999105853e-05   9.15944595525223e-06   -2.6908729108616764e-05
-6.856276999105853e-05   9.15944595525223e-06   -2.6908729108616764e-05
-6.856276999105853e-05   9.15944595525223e-06   -2.6908729108616764e-05
-6.856276999105853e-05   9.15944595525223e-06   -2.6908729108616764e-05
-6.090652476642872e-05   1.24473426474387e-05   -4.1641875831645086e-05
-6.090652476642872e-05   1.24473426474387e-05   -4.1641875831645086e-05
-6.090652476642872e-05   1.24473426474387e-05   -4.1641875831645086e-05
-6.090652476642872e-05   1.24473426474387e-05   -4.1641875831645086e-05
-6.856276999105831e-05   1.7084426141656794e-05   -5.122724909750872e-05
-6.856276999105831e-05   1.7084426141656794e-05   -5.122724909750872e-05
-6.856276999105831e-05   1.7084426141656794e-05   -5.122724909750872e-05
-6.856276999105831e-05   1.7084426141656794e-05   -5.122724909750872e-05
-5.3971657997723354e-05   9.15944595525223e-06   -3.1663717220459426e-05
-5.3971657997723354e-05   9.15944595525223e-06   -3.1663717220459426e-05
-5.3971657997723354e-05   9.15944595525223e-06   -3.1663717220459426e-05
-5.3971657997723354e-05   9.15944595525223e-06   -3.1663717220459426e-05
-5.316166540450908e-05   1.9023068222183068e-05   -4.736852467062628e-05
-5.316166540450908e-05   1.9023068222183068e-05   -4.736852467062628e-05
-5.316166540450908e-05   1.9023068222183068e-05   -4.736852467062628e-05
-5.316166540450908e-05   1.9023068222183068e-05   -4.736852467062628e-05
-6.437560909887884e-05   1.1368261046610425e-05   -2.408573420799938e-05
-6.437560909887884e-05   1.1368261046610425e-05   -2.408573420799938e-05
-6.437560909887884e-05   1.1368261046610425e-05   -2.408573420799938e-05
-6.437560909887884e-05   1.1368261046610425e-05   -2.408573420799938e-05
-5.805690844841682e-05   1.3476825178301236e-05   -3.588204043778582e-05
-5.805690844841682e-05   1.3476825178301236e-05   -3.588204043778582e-05
-5.805690844841682e-05   1.3476825178301236e-05   -3.588204043778582e-05
-5.805690844841682e-05   1.3476825178301236e-05   -3.588204043778582e-05
-5.598288970215439e-05   6.302229376099408e-06   -0.00010340817797316413
-5.598288970215439e-05   6.302229376099408e-06   -0.00010340817797316413
-5.598288970215439e-05   6.302229376099408e-06   -0.00010340817797316413
-5.598288970215439e-05   6.302229376099408e-06   -0.00010340817797316413
-3.976073711574373e-05   2.8500426774856653e-06   -7.844256901498147e-05
-3.976073711574373e-05   2.8500426774856653e-06   -7.844256901498147e-05
-3.976073711574373e-05   2.8500426774856653e-06   -7.844256901498147e-05
-3.976073711574373e-05   2.8500426774856653e-06   -7.844256901498147e-05
-3.9213598726759e-05   9.807890416889658e-06   -0.00010307514088156921
-3.9213598726759e-05   9.807890416889658e-06   -0.00010307514088156921
-3.9213598726759e-05   9.807890416889658e-06   -0.00010307514088156921
-3.9213598726759e-05   9.807890416889658e-06   -0.00010307514088156921
-5.515352364238136e-05   6.022721779858596e-06   -7.423749817331272e-05
-5.515352364238136e-05   6.022721779858596e-06   -7.423749817331272e-05
-5.515352364238136e-05   6.022721779858596e-06   -7.423749817331272e-05
-5.515352364238136e-05   6.022721779858596e-06   -7.423749817331272e-05
-4.70644909175957e-05   6.849942759318273e-06   -8.821555196896749e-05
-4.70644909175957e-05   6.849942759318273e-06   -8.821555196896749e-05
-4.70644909175957e-05   6.849942759318273e-06   -8.821555196896749e-05
-4.70644909175957e-05   6.849942759318273e-06   -8.821555196896749e-05
-5.515352364238125e-05   9.807890416889224e-06   -0.00010080403969935049
-5.515352364238125e-05   9.807890416889224e-06   -0.00010080403969935049
-5.515352364238125e-05   9.807890416889224e-06   -0.00010080403969935049
-5.515352364238125e-05   9.807890416889224e-06   -0.00010080403969935049
-3.9213598726759e-05   6.022721779858596e-06   -7.650859935553166e-05
-3.9213598726759e-05   6.022721779858596e-06   -7.650859935553166e-05
-3.9213598726759e-05   6.022721779858596e-06   -7.650859935553166e-05
-3.9213598726759e-05   6.022721779858596e-06   -7.650859935553166e-05
-3.86098948088873e-05   1.2994956887027193e-05   -0.00010140936794393509
-3.86098948088873e-05   1.2994956887027193e-05   -0.00010140936794393509
-3.86098948088873e-05   1.2994956887027193e-05   -0.00010140936794393509
-3.86098948088873e-05   1.2994956887027193e-05   -0.00010140936794393509
-5.397165799772346e-05   8.970018024087503e-06   -7.339146597811071e-05
-5.397165799772346e-05   8.970018024087503e-06   -7.339146597811071e-05
-5.397165799772346e-05   8.970018024087503e-06   -7.339146597811071e-05
-5.397165799772346e-05   8.970018024087503e-06   -7.339146597811071e-05
-4.634714568227974e-05   9.412084716597761e-06   -8.636422651935537e-05
-4.634714568227974e-05   9.412084716597761e-06   -8.636422651935537e-05
-4.634714568227974e-05   9.412084716597761e-06   -8.636422651935537e-05
-4.634714568227974e-05   9.412084716597761e-06   -8.636422651935537e-05
-5.3971657997723354e-05   1.2994956887027193e-05   -9.899440462617093e-05
-5.3971657997723354e-05   1.2994956887027193e-05   -9.899440462617093e-05
-5.3971657997723354e-05   1.2994956887027193e-05   -9.899440462617093e-05
-5.3971657997723354e-05   1.2994956887027193e-05   -9.899440462617093e-05
-3.860989480888725e-05   8.970018024087503e-06   -7.580642929587433e-05
-3.860989480888725e-05   8.970018024087503e-06   -7.580642929587433e-05
-3.860989480888725e-05   8.970018024087503e-06   -7.580642929587433e-05
-3.860989480888725e-05   8.970018024087503e-06   -7.580642929587433e-05
-3.807141329556556e-05   1.6453883800583106e-05   -0.00010239222852672725
-3.807141329556556e-05   1.6453883800583106e-05   -0.00010239222852672725
-3.807141329556556e-05   1.6453883800583106e-05   -0.00010239222852672725
-3.807141329556556e-05   1.6453883800583106e-05   -0.00010239222852672725
-5.316166540450919e-05   1.2242232992412238e-05   -7.471481786025123e-05
-5.316166540450919e-05   1.2242232992412238e-05   -7.471481786025123e-05
-5.316166540450919e-05   1.2242232992412238e-05   -7.471481786025123e-05
-5.316166540450919e-05   1.2242232992412238e-05   -7.471481786025123e-05
-4.6061590183590955e-05   1.200416302930352e-05   -8.640543458391747e-05
-4.6061590183590955e-05   1.200416302930352e-05   -8.640543458391747e-05
-4.6061590183590955e-05   1.200416302930352e-05   -8.640543458391747e-05
-4.6061590183590955e-05   1.200416302930352e-05   -8.640543458391747e-05
-3.9760737115743564e-05   1.076366555432303e-06   -0.00011689585818974268
-3.9760737115743564e-05   1.076366555432303e-06   -0.00011689585818974268
-3.9760737115743564e-05   1.076366555432303e-06   -0.00011689585818974268
-3.9760737115743564e-05   1.076366555432303e-06   -0.00011689585818974268
-2.3964170867183995e-05   1.621506435766848e-06   -9.024116384727626e-05
-2.3964170867183995e-05   1.621506435766848e-06   -9.024116384727626e-05
-2.3964170867183995e-05   1.621506435766848e-06   -9.024116384727626e-05
-2.3964170867183995e-05   1.621506435766848e-06   -9.024116384727626e-05
-2.342996589871965e-05   4.5980696645143634e-06   -0.00011543531607004763
-2.342996589871965e-05   4.5980696645143634e-06   -0.00011543531607004763
-2.342996589871965e-05   4.5980696645143634e-06   -0.00011543531607004763
-2.342996589871965e-05   4.5980696645143634e-06   -0.00011543531607004763
-3.9213598726759e-05   4.849798499369836e-06   -8.928029865756131e-05
-3.9213598726759e-05   4.849798499369836e-06   -8.928029865756131e-05
-3.9213598726759e-05   4.849798499369836e-06   -8.928029865756131e-05
-3.9213598726759e-05   4.849798499369836e-06   -8.928029865756131e-05
-3.1390051497965115e-05   3.484058739532548e-06   -0.000101500100182984
-3.1390051497965115e-05   3.484058739532548e-06   -0.000101500100182984
-3.1390051497965115e-05   3.484058739532548e-06   -0.000101500100182984
-3.1390051497965115e-05   3.484058739532548e-06   -0.000101500100182984
-3.921359872675889e-05   4.5980696645143634e-06   -0.00011558635337096074
-3.921359872675889e-05   4.5980696645143634e-06   -0.00011558635337096074
-3.921359872675889e-05   4.5980696645143634e-06   -0.00011558635337096074
-3.921359872675889e-05   4.5980696645143634e-06   -0.00011558635337096074
-2.342996589871965e-05   4.84979849937027e-06   -8.912926135664799e-05
-2.342996589871965e-05   4.84979849937027e-06   -8.912926135664799e-05
-2.342996589871965e-05   4.84979849937027e-06   -8.912926135664799e-05
-2.342996589871965e-05   4.84979849937027e-06   -8.912926135664799e-05
-2.2830704506162165e-05   8.130984254666341e-06   -0.0001157397858479476
-2.2830704506162165e-05   8.130984254666341e-06   -0.0001157397858479476
-2.2830704506162165e-05   8.130984254666341e-06   -0.0001157397858479476
-2.2830704506162165e-05   8.130984254666341e-06   -0.0001157397858479476
-3.860989480888725e-05   8.106515600293709e-06   -8.942645415078174e-05
-3.860989480888725e-05   8.106515600293709e-06   -8.942645415078174e-05
-3.860989480888725e-05   8.106515600293709e-06   -8.942645415078174e-05
-3.860989480888725e-05   8.106515600293709e-06   -8.942645415078174e-05
-3.1028945339705294e-05   6.2555380155593365e-06   -0.00010095078338191114
-3.1028945339705294e-05   6.2555380155593365e-06   -0.00010095078338191114
-3.1028945339705294e-05   6.2555380155593365e-06   -0.00010095078338191114
-3.1028945339705294e-05   6.2555380155593365e-06   -0.00010095078338191114
-3.860989480888719e-05   8.130984254666341e-06   -0.00011572510465532402
-3.860989480888719e-05   8.130984254666341e-06   -0.00011572510465532402
-3.860989480888719e-05   8.130984254666341e-06   -0.00011572510465532402
-3.860989480888719e-05   8.130984254666341e-06   -0.00011572510465532402
-2.2830704506162206e-05   8.106515600293709e-06   -8.944113534340575e-05
-2.2830704506162206e-05   8.106515600293709e-06   -8.944113534340575e-05
-2.2830704506162206e-05   8.106515600293709e-06   -8.944113534340575e-05
-2.2830704506162206e-05   8.106515600293709e-06   -8.944113534340575e-05
-2.229180675483568e-05   1.1725670038472379e-05   -0.00011768855628866803
-2.229180675483568e-05   1.1725670038472379e-05   -0.00011768855628866803
-2.229180675483568e-05   1.1725670038472379e-05   -0.00011768855628866803
-2.229180675483568e-05   1.1725670038472379e-05   -0.00011768855628866803
-3.807141329556556e-05   1.1412215077866682e-05   -9.120113907775383e-05
-3.807141329556556e-05   1.1412215077866682e-05   -9.120113907775383e-05
-3.807141329556556e-05   1.1412215077866682e-05   -9.120113907775383e-05
-3.807141329556556e-05   1.1412215077866682e-05   -9.120113907775383e-05
-3.072866074106441e-05   9.063811783234944e-06   -0.00010203001802514434
-3.072866074106441e-05   9.063811783234944e-06   -0.00010203001802514434
-3.072866074106441e-05   9.063811783234944e-06   -0.00010203001802514434
-3.072866074106441e-05   9.063811783234944e-06   -0.00010203001802514434
-2.3964170867183913e-05   -3.7053485167576686e-06   -0.00010248110659297335
-2.3964170867183913e-05   -3.7053485167576686e-06   -0.00010248110659297335
-2.3964170867183913e-05   -3.7053485167576686e-06   -0.00010248110659297335
-2.3964170867183913e-05   -3.7053485167576686e-06   -0.00010248110659297335
-8.622973522685656e-06   6.71710230112834e-07   -7.4286209104021e-05
-8.622973522685656e-06   6.71710230112834e-07   -7.4286209104021e-05
-8.622973522685656e-06   6.71710230112834e-07   -7.4286209104021e-05
-8.622973522685656e-06   6.71710230112834e-07   -7.4286209104021e-05
-7.829011395375633e-06   -3.9127383403897084e-07   -9.919956147864083e-05
-7.829011395375633e-06   -3.9127383403897084e-07   -9.919956147864083e-05
-7.829011395375633e-06   -3.9127383403897084e-07   -9.919956147864083e-05
-7.829011395375633e-06   -3.9127383403897084e-07   -9.919956147864083e-05
-2.3429965898719608e-05   3.7964110159880923e-06   -7.571058154974916e-05
-2.3429965898719608e-05   3.7964110159880923e-06   -7.571058154974916e-05
-2.3429965898719608e-05   3.7964110159880923e-06   -7.571058154974916e-05
-2.3429965898719608e-05   3.7964110159880923e-06   -7.571058154974916e-05
-1.5800648318166517e-05   4.198019390071542e-07   -8.640014540448417e-05
-1.5800648318166517e-05   4.198019390071542e-07   -8.640014540448417e-05
-1.5800648318166517e-05   4.198019390071542e-07   -8.640014540448417e-05
-1.5800648318166517e-05   4.198019390071542e-07   -8.640014540448417e-05
-2.3429965898719564e-05   -3.9127383403897084e-07   -0.00010171217238865641
-2.3429965898719564e-05   -3.9127383403897084e-07   -0.00010171217238865641
-2.3429965898719564e-05   -3.9127383403897084e-07   -0.00010171217238865641
-2.3429965898719564e-05   -3.9127383403897084e-07   -0.00010171217238865641
-7.829011395375633e-06   3.7964110159876586e-06   -7.319797063973384e-05
-7.829011395375633e-06   3.7964110159876586e-06   -7.319797063973384e-05
-7.829011395375633e-06   3.7964110159876586e-06   -7.319797063973384e-05
-7.829011395375633e-06   3.7964110159876586e-06   -7.319797063973384e-05
-6.657044519005589e-06   2.7997754344128052e-06   -0.00010054466591815996
-6.657044519005589e-06   2.7997754344128052e-06   -0.00010054466591815996
-6.657044519005589e-06   2.7997754344128052e-06   -0.00010054466591815996
-6.657044519005589e-06   2.7997754344128052e-06   -0.00010054466591815996
-2.2830704506162165e-05   6.743383015550292e-06   -7.595473048824781e-05
-2.2830704506162165e-05   6.743383015550292e-06   -7.595473048824781e-05
-2.2830704506162165e-05   6.743383015550292e-06   -7.595473048824781e-05
-2.2830704506162165e-05   6.743383015550292e-06   -7.595473048824781e-05
-1.5318555422193e-05   2.941201229296475e-06   -8.61936698897778e-05
-1.5318555422193e-05   2.941201229296475e-06   -8.61936698897778e-05
-1.5318555422193e-05   2.941201229296475e-06   -8.61936698897778e-05
-1.5318555422193e-05   2.941201229296475e-06   -8.61936698897778e-05
-2.2830704506162108e-05   2.7997754344128052e-06   -0.00010291083046684189
-2.2830704506162108e-05   2.7997754344128052e-06   -0.00010291083046684189
-2.2830704506162108e-05   2.7997754344128052e-06   -0.00010291083046684189
-2.2830704506162108e-05   2.7997754344128052e-06   -0.00010291083046684189
-6.657044519005589e-06   6.743383015550292e-06   -7.358856593956548e-05
-6.657044519005589e-06   6.743383015550292e-06   -7.358856593956548e-05
-6.657044519005589e-06   6.743383015550292e-06   -7.358856593956548e-05
-6.657044519005589e-06   6.743383015550292e-06   -7.358856593956548e-05
-5.837618000041351e-06   6.460289995612826e-06   -0.00010335748482427176
-5.837618000041351e-06   6.460289995612826e-06   -0.00010335748482427176
-5.837618000041351e-06   6.460289995612826e-06   -0.00010335748482427176
-5.837618000041351e-06   6.460289995612826e-06   -0.00010335748482427176
-2.229180675483568e-05   1.0078696261530806e-05   -7.810488065916477e-05
-2.229180675483568e-05   1.0078696261530806e-05   -7.810488065916477e-05
-2.229180675483568e-05   1.0078696261530806e-05   -7.810488065916477e-05
-2.229180675483568e-05   1.0078696261530806e-05   -7.810488065916477e-05
-1.4812649515182769e-05   5.586954811823055e-06   -8.787509785542847e-05
-1.4812649515182769e-05   5.586954811823055e-06   -8.787509785542847e-05
-1.4812649515182769e-05   5.586954811823055e-06   -8.787509785542847e-05
-1.4812649515182769e-05   5.586954811823055e-06   -8.787509785542847e-05
-8.622973522685656e-06   -6.82609504554536e-06   -5.5653971640859693e-05
-8.622973522685656e-06   -6.82609504554536e-06   -5.5653971640859693e-05
-8.622973522685656e-06   -6.82609504554536e-06   -5.5653971640859693e-05
-8.622973522685656e-06   -6.82609504554536e-06   -5.5653971640859693e-05
2.812048745664446e-06   9.075484022473025e-07   -3.195541512493374e-05
2.812048745664446e-06   9.075484022473025e-07   -3.195541512493374e-05
2.812048745664446e-06   9.075484022473025e-07   -3.195541512493374e-05
2.812048745664446e-06   9.075484022473025e-07   -3.195541512493374e-05
6.957031961460098e-06   -4.5853061242189484e-06   -5.3210224997601754e-05
6.957031961460098e-06   -4.5853061242189484e-06   -5.3210224997601754e-05
6.957031961460098e-06   -4.5853061242189484e-06   -5.3210224997601754e-05
6.957031961460098e-06   -4.5853061242189484e-06   -5.3210224997601754e-05
-7.829011395375633e-06   3.3742406335426044e-06   -3.334254745753141e-05
-7.829011395375633e-06   3.3742406335426044e-06   -3.334254745753141e-05
-7.829011395375633e-06   3.3742406335426044e-06   -3.334254745753141e-05
-7.829011395375633e-06   3.3742406335426044e-06   -3.334254745753141e-05
-1.6332153507823347e-06   -1.4463434650315889e-06   -4.0776523739377134e-05
-1.6332153507823347e-06   -1.4463434650315889e-06   -4.0776523739377134e-05
-1.6332153507823347e-06   -1.4463434650315889e-06   -4.0776523739377134e-05
-1.6332153507823347e-06   -1.4463434650315889e-06   -4.0776523739377134e-05
-7.829011395375633e-06   -4.5853061242189484e-06   -5.798595305225797e-05
-7.829011395375633e-06   -4.5853061242189484e-06   -5.798595305225797e-05
-7.829011395375633e-06   -4.5853061242189484e-06   -5.798595305225797e-05
-7.829011395375633e-06   -4.5853061242189484e-06   -5.798595305225797e-05
6.9570319614599896e-06   3.3742406335426044e-06   -2.8566819402875247e-05
6.9570319614599896e-06   3.3742406335426044e-06   -2.8566819402875247e-05
6.9570319614599896e-06   3.3742406335426044e-06   -2.8566819402875247e-05
6.9570319614599896e-06   3.3742406335426044e-06   -2.8566819402875247e-05
1.0228870246246197e-05   -3.03485611267279e-06   -5.6135808607425176e-05
1.0228870246246197e-05   -3.03485611267279e-06   -5.6135808607425176e-05
1.0228870246246197e-05   -3.03485611267279e-06   -5.6135808607425176e-05
1.0228870246246197e-05   -3.03485611267279e-06   -5.6135808607425176e-05
-6.657044519005589e-06   4.763092122111231e-06   -3.2671386272875515e-05
-6.657044519005589e-06   4.763092122111231e-06   -3.2671386272875515e-05
-6.657044519005589e-06   4.763092122111231e-06   -3.2671386272875515e-05
-6.657044519005589e-06   4.763092122111231e-06   -3.2671386272875515e-05
4.798231951493417e-07   -2.679989969580493e-07   -4.15475111250254e-05
4.798231951493417e-07   -2.679989969580493e-07   -4.15475111250254e-05
4.798231951493417e-07   -2.679989969580493e-07   -4.15475111250254e-05
4.798231951493417e-07   -2.679989969580493e-07   -4.15475111250254e-05
-6.657044519005589e-06   -3.03485611267279e-06   -6.081457754829539e-05
-6.657044519005589e-06   -3.03485611267279e-06   -6.081457754829539e-05
-6.657044519005589e-06   -3.03485611267279e-06   -6.081457754829539e-05
-6.657044519005589e-06   -3.03485611267279e-06   -6.081457754829539e-05
1.0228870246246197e-05   4.7630921221116646e-06   -2.799261733200508e-05
1.0228870246246197e-05   4.7630921221116646e-06   -2.799261733200508e-05
1.0228870246246197e-05   4.7630921221116646e-06   -2.799261733200508e-05
1.0228870246246197e-05   4.7630921221116646e-06   -2.799261733200508e-05
1.4350987897566916e-05   1.9693130725532276e-08   -6.291371463719073e-05
1.4350987897566916e-05   1.9693130725532276e-08   -6.291371463719073e-05
1.4350987897566916e-05   1.9693130725532276e-08   -6.291371463719073e-05
1.4350987897566916e-05   1.9693130725532276e-08   -6.291371463719073e-05
-5.837618000041351e-06   7.233461427371291e-06   -3.3594299119163375e-05
-5.837618000041351e-06   7.233461427371291e-06   -3.3594299119163375e-05
-5.837618000041351e-06   7.233461427371291e-06   -3.3594299119163375e-05
-5.837618000041351e-06   7.233461427371291e-06   -3.3594299119163375e-05
2.284109678968592e-06   1.084420963590963e-06   -4.3441087639246086e-05
2.284109678968592e-06   1.084420963590963e-06   -4.3441087639246086e-05
2.284109678968592e-06   1.084420963590963e-06   -4.3441087639246086e-05
2.284109678968592e-06   1.084420963590963e-06   -4.3441087639246086e-05
-2.6662139861879778e-05   4.995513248690769e-06   -4.7519677434526e-05
-2.6662139861879778e-05   4.995513248690769e-06   -4.7519677434526e-05
-2.6662139861879778e-05   4.995513248690769e-06   -4.7519677434526e-05
-2.6662139861879778e-05   4.995513248690769e-06   -4.7519677434526e-05
-2.6830135423102567e-05   -2.2944074346571003e-06   -5.217362244657321e-05
-2.6830135423102567e-05   -2.2944074346571003e-06   -5.217362244657321e-05
-2.6830135423102567e-05   -2.2944074346571003e-06   -5.217362244657321e-05
-2.6830135423102567e-05   -2.2944074346571003e-06   -5.217362244657321e-05
-2.54751763738893e-05   7.76399816100181e-06   -4.464351830040913e-05
-2.54751763738893e-05   7.76399816100181e-06   -4.464351830040913e-05
-2.54751763738893e-05   7.76399816100181e-06   -4.464351830040913e-05
-2.54751763738893e-05   7.76399816100181e-06   -4.464351830040913e-05
-2.2037867294408416e-05   -5.1068512198562677e-08   -4.568332676229011e-05
-2.2037867294408416e-05   -5.1068512198562677e-08   -4.568332676229011e-05
-2.2037867294408416e-05   -5.1068512198562677e-08   -4.568332676229011e-05
-2.2037867294408416e-05   -5.1068512198562677e-08   -4.568332676229011e-05
-2.4146797307368953e-05   3.4380527318433364e-06   -4.426191615378291e-05
-2.4146797307368953e-05   3.4380527318433364e-06   -4.426191615378291e-05
-2.4146797307368953e-05   3.4380527318433364e-06   -4.426191615378291e-05
-2.4146797307368953e-05   3.4380527318433364e-06   -4.426191615378291e-05
-2.2037867294408308e-05   7.76399816100181e-06   -3.9954478296489035e-05
-2.2037867294408308e-05   7.76399816100181e-06   -3.9954478296489035e-05
-2.2037867294408308e-05   7.76399816100181e-06   -3.9954478296489035e-05
-2.2037867294408308e-05   7.76399816100181e-06   -3.9954478296489035e-05
-2.54751763738893e-05   -5.1068512198562677e-08   -5.037236676621096e-05
-2.54751763738893e-05   -5.1068512198562677e-08   -5.037236676621096e-05
-2.54751763738893e-05   -5.1068512198562677e-08   -5.037236676621096e-05
-2.54751763738893e-05   -5.1068512198562677e-08   -5.037236676621096e-05
-2.3768272365499478e-05   9.15944595525223e-06   -4.14312573102666e-05
-2.3768272365499478e-05   9.15944595525223e-06   -4.14312573102666e-05
-2.3768272365499478e-05   9.15944595525223e-06   -4.14312573102666e-05
-2.3768272365499478e-05   9.15944595525223e-06   -4.14312573102666e-05
-1.8207394653084962e-05   1.2141190054559131e-06   -4.593219066107964e-05
-1.8207394653084962e-05   1.2141190054559131e-06   -4.593219066107964e-05
-1.8207394653084962e-05   1.2141190054559131e-06   -4.593219066107964e-05
-1.8207394653084962e-05   1.2141190054559131e-06   -4.593219066107964e-05
-2.1951447779662776e-05   4.587678295834771e-06   -4.171623769101294e-05
-2.1951447779662776e-05   4.587678295834771e-06   -4.171623769101294e-05
-2.1951447779662776e-05   4.587678295834771e-06   -4.171623769101294e-05
-2.1951447779662776e-05   4.587678295834771e-06   -4.171623769101294e-05
-1.8207394653084854e-05   9.15944595525223e-06   -3.666406114038881e-05
-1.8207394653084854e-05   9.15944595525223e-06   -3.666406114038881e-05
-1.8207394653084854e-05   9.15944595525223e-06   -3.666406114038881e-05
-1.8207394653084854e-05   9.15944595525223e-06   -3.666406114038881e-05
-2.3768272365499586e-05   1.2141190054550458e-06   -5.0699386830957535e-05
-2.3768272365499586e-05   1.2141190054550458e-06   -5.0699386830957535e-05
-2.3768272365499586e-05   1.2141190054550458e-06   -5.0699386830957535e-05
-2.3768272365499586e-05   1.2141190054550458e-06   -5.0699386830957535e-05
-2.243161438383477e-05   1.1368261046609991e-05   -3.8436815142848385e-05
-2.243161438383477e-05   1.1368261046609991e-05   -3.8436815142848385e-05
-2.243161438383477e-05   1.1368261046609991e-05   -3.8436815142848385e-05
-2.243161438383477e-05   1.1368261046609991e-05   -3.8436815142848385e-05
-1.3477999846673249e-05   3.7387839292605737e-06   -4.878181976770762e-05
-1.3477999846673249e-05   3.7387839292605737e-06   -4.878181976770762e-05
-1.3477999846673249e-05   3.7387839292605737e-06   -4.878181976770762e-05
-1.3477999846673249e-05   3.7387839292605737e-06   -4.878181976770762e-05
-1.9202779418575535e-05   5.684544332536234e-06   -4.040797672316926e-05
-1.9202779418575535e-05   5.684544332536234e-06   -4.040797672316926e-05
-1.9202779418575535e-05   5.684544332536234e-06   -4.040797672316926e-05
-1.9202779418575535e-05   5.684544332536234e-06   -4.040797672316926e-05
-2.683013542310235e-05   2.8500426774856653e-06   -8.617017620425734e-05
-2.683013542310235e-05   2.8500426774856653e-06   -8.617017620425734e-05
-2.683013542310235e-05   2.8500426774856653e-06   -8.617017620425734e-05
-2.683013542310235e-05   2.8500426774856653e-06   -8.617017620425734e-05
-3.076632833806745e-05   -5.095645738643212e-07   -9.474626208000932e-05
-3.076632833806745e-05   -5.095645738643212e-07   -9.474626208000932e-05
-3.076632833806745e-05   -5.095645738643212e-07   -9.474626208000932e-05
-3.076632833806745e-05   -5.095645738643212e-07   -9.474626208000932e-05
-2.9667335433552393e-05   6.022721779858596e-06   -8.624002600273644e-05
-2.9667335433552393e-05   6.022721779858596e-06   -8.624002600273644e-05
-2.9667335433552393e-05   6.022721779858596e-06   -8.624002600273644e-05
-2.9667335433552393e-05   6.022721779858596e-06   -8.624002600273644e-05
-2.54751763738893e-05   2.3184603702326723e-06   -9.100440092306569e-05
-2.54751763738893e-05   2.3184603702326723e-06   -9.100440092306569e-05
-2.54751763738893e-05   2.3184603702326723e-06   -9.100440092306569e-05
-2.54751763738893e-05   2.3184603702326723e-06   -9.100440092306569e-05
-2.7856095966860664e-05   3.2875088925308008e-06   -8.761763071482684e-05
-2.7856095966860664e-05   3.2875088925308008e-06   -8.761763071482684e-05
-2.7856095966860664e-05   3.2875088925308008e-06   -8.761763071482684e-05
-2.7856095966860664e-05   3.2875088925308008e-06   -8.761763071482684e-05
-2.547517637388919e-05   6.022721779858596e-06   -8.401746915696049e-05
-2.547517637388919e-05   6.022721779858596e-06   -8.401746915696049e-05
-2.547517637388919e-05   6.022721779858596e-06   -8.401746915696049e-05
-2.547517637388919e-05   6.022721779858596e-06   -8.401746915696049e-05
-2.966733543355234e-05   2.3184603702335396e-06   -9.322695776884109e-05
-2.966733543355234e-05   2.3184603702335396e-06   -9.322695776884109e-05
-2.966733543355234e-05   2.3184603702335396e-06   -9.322695776884109e-05
-2.966733543355234e-05   2.3184603702335396e-06   -9.322695776884109e-05
-2.852470484892227e-05   8.970018024087503e-06   -8.55178061273114e-05
-2.852470484892227e-05   8.970018024087503e-06   -8.55178061273114e-05
-2.852470484892227e-05   8.970018024087503e-06   -8.55178061273114e-05
-2.852470484892227e-05   8.970018024087503e-06   -8.55178061273114e-05
-2.3768272365499695e-05   5.038684591764965e-06   -9.108639354028889e-05
-2.3768272365499695e-05   5.038684591764965e-06   -9.108639354028889e-05
-2.3768272365499695e-05   5.038684591764965e-06   -9.108639354028889e-05
-2.3768272365499695e-05   5.038684591764965e-06   -9.108639354028889e-05
-2.6754457931444238e-05   5.564192760120802e-06   -8.642472249806071e-05
-2.6754457931444238e-05   5.564192760120802e-06   -8.642472249806071e-05
-2.6754457931444238e-05   5.564192760120802e-06   -8.642472249806071e-05
-2.6754457931444238e-05   5.564192760120802e-06   -8.642472249806071e-05
-2.3768272365499478e-05   8.970018024087503e-06   -8.315900606791784e-05
-2.3768272365499478e-05   8.970018024087503e-06   -8.315900606791784e-05
-2.3768272365499478e-05   8.970018024087503e-06   -8.315900606791784e-05
-2.3768272365499478e-05   8.970018024087503e-06   -8.315900606791784e-05
-2.8524704848922162e-05   5.038684591765832e-06   -9.344519359968158e-05
-2.8524704848922162e-05   5.038684591765832e-06   -9.344519359968158e-05
-2.8524704848922162e-05   5.038684591765832e-06   -9.344519359968158e-05
-2.8524704848922162e-05   5.038684591765832e-06   -9.344519359968158e-05
-2.7447081346497514e-05   1.2242232992412238e-05   -8.693298367160344e-05
-2.7447081346497514e-05   1.2242232992412238e-05   -8.693298367160344e-05
-2.7447081346497514e-05   1.2242232992412238e-05   -8.693298367160344e-05
-2.7447081346497514e-05   1.2242232992412238e-05   -8.693298367160344e-05
-2.243161438383477e-05   8.142284356000597e-06   -9.283212609419405e-05
-2.243161438383477e-05   8.142284356000597e-06   -9.283212609419405e-05
-2.243161438383477e-05   8.142284356000597e-06   -9.283212609419405e-05
-2.243161438383477e-05   8.142284356000597e-06   -9.283212609419405e-05
-2.5783486932891313e-05   7.949505496547549e-06   -8.713000453009466e-05
-2.5783486932891313e-05   7.949505496547549e-06   -8.713000453009466e-05
-2.5783486932891313e-05   7.949505496547549e-06   -8.713000453009466e-05
-2.5783486932891313e-05   7.949505496547549e-06   -8.713000453009466e-05
-3.07663283380674e-05   1.621506435766848e-06   -0.00010031161931556287
-3.07663283380674e-05   1.621506435766848e-06   -0.00010031161931556287
-3.07663283380674e-05   1.621506435766848e-06   -0.00010031161931556287
-3.07663283380674e-05   1.621506435766848e-06   -0.00010031161931556287
-3.4931249593312484e-05   2.327814097729218e-06   -0.000106829370143794
-3.4931249593312484e-05   2.327814097729218e-06   -0.000106829370143794
-3.4931249593312484e-05   2.327814097729218e-06   -0.000106829370143794
-3.4931249593312484e-05   2.327814097729218e-06   -0.000106829370143794
-3.3850207628534336e-05   4.84979849937027e-06   -9.877307842754779e-05
-3.3850207628534336e-05   4.84979849937027e-06   -9.877307842754779e-05
-3.3850207628534336e-05   4.84979849937027e-06   -9.877307842754779e-05
-3.3850207628534336e-05   4.84979849937027e-06   -9.877307842754779e-05
-2.966733543355234e-05   5.247543294733745e-06   -0.00010598317896306911
-2.966733543355234e-05   5.247543294733745e-06   -0.00010598317896306911
-2.966733543355234e-05   5.247543294733745e-06   -0.00010598317896306911
-2.966733543355234e-05   5.247543294733745e-06   -0.00010598317896306911
-3.210943468429446e-05   3.96545515478396e-06   -0.00010114376066119684
-3.210943468429446e-05   3.96545515478396e-06   -0.00010114376066119684
-3.210943468429446e-05   3.96545515478396e-06   -0.00010114376066119684
-3.210943468429446e-05   3.96545515478396e-06   -0.00010114376066119684
-2.9667335433552285e-05   4.84979849937027e-06   -9.901172530476566e-05
-2.9667335433552285e-05   4.84979849937027e-06   -9.901172530476566e-05
-2.9667335433552285e-05   4.84979849937027e-06   -9.901172530476566e-05
-2.9667335433552285e-05   4.84979849937027e-06   -9.901172530476566e-05
-3.38502076285344e-05   5.247543294734612e-06   -0.00010574453208585135
-3.38502076285344e-05   5.247543294734612e-06   -0.00010574453208585135
-3.38502076285344e-05   5.247543294734612e-06   -0.00010574453208585135
-3.38502076285344e-05   5.247543294734612e-06   -0.00010574453208585135
-3.271469046719728e-05   8.106515600294142e-06   -9.906255497945087e-05
-3.271469046719728e-05   8.106515600294142e-06   -9.906255497945087e-05
-3.271469046719728e-05   8.106515600294142e-06   -9.906255497945087e-05
-3.271469046719728e-05   8.106515600294142e-06   -9.906255497945087e-05
-2.852470484892227e-05   8.231975604907661e-06   -0.00010612114034601024
-2.852470484892227e-05   8.231975604907661e-06   -0.00010612114034601024
-2.852470484892227e-05   8.231975604907661e-06   -0.00010612114034601024
-2.852470484892227e-05   8.231975604907661e-06   -0.00010612114034601024
-3.1200027936276704e-05   6.460840615098596e-06   -0.0001005995875398688
-3.1200027936276704e-05   6.460840615098596e-06   -0.0001005995875398688
-3.1200027936276704e-05   6.460840615098596e-06   -0.0001005995875398688
-3.1200027936276704e-05   6.460840615098596e-06   -0.0001005995875398688
-2.8524704848922162e-05   8.106515600293709e-06   -9.913783098221838e-05
-2.8524704848922162e-05   8.106515600293709e-06   -9.913783098221838e-05
-2.8524704848922162e-05   8.106515600293709e-06   -9.913783098221838e-05
-2.8524704848922162e-05   8.106515600293709e-06   -9.913783098221838e-05
-3.271469046719728e-05   8.231975604907661e-06   -0.00010604586434324209
-3.271469046719728e-05   8.231975604907661e-06   -0.00010604586434324209
-3.271469046719728e-05   8.231975604907661e-06   -0.00010604586434324209
-3.271469046719728e-05   8.231975604907661e-06   -0.00010604586434324209
-3.164335360804134e-05   1.1412215077866682e-05   -0.0001009851676601098
-3.164335360804134e-05   1.1412215077866682e-05   -0.0001009851676601098
-3.164335360804134e-05   1.1412215077866682e-05   -0.0001009851676601098
-3.164335360804134e-05   1.1412215077866682e-05   -0.0001009851676601098
-2.744708134649757e-05   1.1257459651356667e-05   -0.00010788610150677625
-2.744708134649757e-05   1.1257459651356667e-05   -0.00010788610150677625
-2.744708134649757e-05   1.1257459651356667e-05   -0.00010788610150677625
-2.744708134649757e-05   1.1257459651356667e-05   -0.00010788610150677625
-3.0361631068682394e-05   8.991034330284135e-06   -0.00010166866344382469
-3.0361631068682394e-05   8.991034330284135e-06   -0.00010166866344382469
-3.0361631068682394e-05   8.991034330284135e-06   -0.00010166866344382469
-3.0361631068682394e-05   8.991034330284135e-06   -0.00010166866344382469
-3.493124959331236e-05   6.71710230112834e-07   -8.655911522325232e-05
-3.493124959331236e-05   6.71710230112834e-07   -8.655911522325232e-05
-3.493124959331236e-05   6.71710230112834e-07   -8.655911522325232e-05
-3.493124959331236e-05   6.71710230112834e-07   -8.655911522325232e-05
-3.9315046019808134e-05   5.180838522379598e-06   -9.115996562538515e-05
-3.9315046019808134e-05   5.180838522379598e-06   -9.115996562538515e-05
-3.9315046019808134e-05   5.180838522379598e-06   -9.115996562538515e-05
-3.9315046019808134e-05   5.180838522379598e-06   -9.115996562538515e-05
-3.800992999020478e-05   3.7964110159876586e-06   -8.276702773985802e-05
-3.800992999020478e-05   3.7964110159876586e-06   -8.276702773985802e-05
-3.800992999020478e-05   3.7964110159876586e-06   -8.276702773985802e-05
-3.800992999020478e-05   3.7964110159876586e-06   -8.276702773985802e-05
-3.3850207628534336e-05   8.108695817307145e-06   -9.228726922343283e-05
-3.3850207628534336e-05   8.108695817307145e-06   -9.228726922343283e-05
-3.3850207628534336e-05   8.108695817307145e-06   -9.228726922343283e-05
-3.3850207628534336e-05   8.108695817307145e-06   -9.228726922343283e-05
-3.624476839922252e-05   4.766851879943988e-06   -8.629122824320304e-05
-3.624476839922252e-05   4.766851879943988e-06   -8.629122824320304e-05
-3.624476839922252e-05   4.766851879943988e-06   -8.629122824320304e-05
-3.624476839922252e-05   4.766851879943988e-06   -8.629122824320304e-05
-3.3850207628534275e-05   3.7964110159876586e-06   -8.535439862064923e-05
-3.3850207628534275e-05   3.7964110159876586e-06   -8.535439862064923e-05
-3.3850207628534275e-05   3.7964110159876586e-06   -8.535439862064923e-05
-3.3850207628534275e-05   3.7964110159876586e-06   -8.535439862064923e-05
-3.800992999020478e-05   8.108695817306277e-06   -8.96998983426424e-05
-3.800992999020478e-05   8.108695817306277e-06   -8.96998983426424e-05
-3.800992999020478e-05   8.108695817306277e-06   -8.96998983426424e-05
-3.800992999020478e-05   8.108695817306277e-06   -8.96998983426424e-05
-3.6330021264390584e-05   6.743383015549859e-06   -8.313510632667579e-05
-3.6330021264390584e-05   6.743383015549859e-06   -8.313510632667579e-05
-3.6330021264390584e-05   6.743383015549859e-06   -8.313510632667579e-05
-3.6330021264390584e-05   6.743383015549859e-06   -8.313510632667579e-05
-3.271469046719722e-05   1.081178934491181e-05   -9.160170145294834e-05
-3.271469046719722e-05   1.081178934491181e-05   -9.160170145294834e-05
-3.271469046719722e-05   1.081178934491181e-05   -9.160170145294834e-05
-3.271469046719722e-05   1.081178934491181e-05   -9.160170145294834e-05
-3.5078811917886566e-05   7.0879113480346034e-06   -8.542717223700711e-05
-3.5078811917886566e-05   7.0879113480346034e-06   -8.542717223700711e-05
-3.5078811917886566e-05   7.0879113480346034e-06   -8.542717223700711e-05
-3.5078811917886566e-05   7.0879113480346034e-06   -8.542717223700711e-05
-3.271469046719713e-05   6.743383015550292e-06   -8.55761501242923e-05
-3.271469046719713e-05   6.743383015550292e-06   -8.55761501242923e-05
-3.271469046719713e-05   6.743383015550292e-06   -8.55761501242923e-05
-3.271469046719713e-05   6.743383015550292e-06   -8.55761501242923e-05
-3.6330021264390665e-05   1.0811789344912677e-05   -8.916065765533082e-05
-3.6330021264390665e-05   1.0811789344912677e-05   -8.916065765533082e-05
-3.6330021264390665e-05   1.0811789344912677e-05   -8.916065765533082e-05
-3.6330021264390665e-05   1.0811789344912677e-05   -8.916065765533082e-05
-3.500859782908214e-05   1.0078696261530806e-05   -8.544139672593955e-05
-3.500859782908214e-05   1.0078696261530806e-05   -8.544139672593955e-05
-3.500859782908214e-05   1.0078696261530806e-05   -8.544139672593955e-05
-3.500859782908214e-05   1.0078696261530806e-05   -8.544139672593955e-05
-3.164335360804134e-05   1.3844428826893102e-05   -9.330957663355777e-05
-3.164335360804134e-05   1.3844428826893102e-05   -9.330957663355777e-05
-3.164335360804134e-05   1.3844428826893102e-05   -9.330957663355777e-05
-3.164335360804134e-05   1.3844428826893102e-05   -9.330957663355777e-05
-3.419986802640179e-05   9.462844910118444e-06   -8.641976891955814e-05
-3.419986802640179e-05   9.462844910118444e-06   -8.641976891955814e-05
-3.419986802640179e-05   9.462844910118444e-06   -8.641976891955814e-05
-3.419986802640179e-05   9.462844910118444e-06   -8.641976891955814e-05
-3.9315046019808e-05   9.075484022473025e-07   -4.616303033748133e-05
-3.9315046019808e-05   9.075484022473025e-07   -4.616303033748133e-05
-3.9315046019808e-05   9.075484022473025e-07   -4.616303033748133e-05
-3.9315046019808e-05   9.075484022473025e-07   -4.616303033748133e-05
-4.7489650671386514e-05   8.693106963340684e-06   -5.51160362867887e-05
-4.7489650671386514e-05   8.693106963340684e-06   -5.51160362867887e-05
-4.7489650671386514e-05   8.693106963340684e-06   -5.51160362867887e-05
-4.7489650671386514e-05   8.693106963340684e-06   -5.51160362867887e-05
-4.289726534588282e-05   3.3742406335426044e-06   -3.812939914017255e-05
-4.289726534588282e-05   3.3742406335426044e-06   -3.812939914017255e-05
-4.289726534588282e-05   3.3742406335426044e-06   -3.812939914017255e-05
-4.289726534588282e-05   3.3742406335426044e-06   -3.812939914017255e-05
-3.80099299902047e-05   1.1344582996015116e-05   -5.105716348378583e-05
-3.80099299902047e-05   1.1344582996015116e-05   -5.105716348378583e-05
-3.80099299902047e-05   1.1344582996015116e-05   -5.105716348378583e-05
-3.80099299902047e-05   1.1344582996015116e-05   -5.105716348378583e-05
-4.0230889708772245e-05   6.404292809891136e-06   -4.439138984116658e-05
-4.0230889708772245e-05   6.404292809891136e-06   -4.439138984116658e-05
-4.0230889708772245e-05   6.404292809891136e-06   -4.439138984116658e-05
-4.0230889708772245e-05   6.404292809891136e-06   -4.439138984116658e-05
-3.800992999020459e-05   3.3742406335426044e-06   -4.291160455765575e-05
-3.800992999020459e-05   3.3742406335426044e-06   -4.291160455765575e-05
-3.800992999020459e-05   3.3742406335426044e-06   -4.291160455765575e-05
-3.800992999020459e-05   3.3742406335426044e-06   -4.291160455765575e-05
-4.28972653458826e-05   1.1344582996015984e-05   -4.6274958066302736e-05
-4.28972653458826e-05   1.1344582996015984e-05   -4.6274958066302736e-05
-4.28972653458826e-05   1.1344582996015984e-05   -4.6274958066302736e-05
-4.28972653458826e-05   1.1344582996015984e-05   -4.6274958066302736e-05
-3.91619976720266e-05   4.7630921221116646e-06   -3.75404527509708e-05
-3.91619976720266e-05   4.7630921221116646e-06   -3.75404527509708e-05
-3.91619976720266e-05   4.7630921221116646e-06   -3.75404527509708e-05
-3.91619976720266e-05   4.7630921221116646e-06   -3.75404527509708e-05
-3.6330021264390584e-05   1.2558881970469934e-05   -4.6937887339378774e-05
-3.6330021264390584e-05   1.2558881970469934e-05   -4.6937887339378774e-05
-3.6330021264390584e-05   1.2558881970469934e-05   -4.6937887339378774e-05
-3.6330021264390584e-05   1.2558881970469934e-05   -4.6937887339378774e-05
-3.8256134357193564e-05   7.628433233612154e-06   -4.076942960925991e-05
-3.8256134357193564e-05   7.628433233612154e-06   -4.076942960925991e-05
-3.8256134357193564e-05   7.628433233612154e-06   -4.076942960925991e-05
-3.8256134357193564e-05   7.628433233612154e-06   -4.076942960925991e-05
-3.633002126439053e-05   4.7630921221116646e-06   -4.2217926659985716e-05
-3.633002126439053e-05   4.7630921221116646e-06   -4.2217926659985716e-05
-3.633002126439053e-05   4.7630921221116646e-06   -4.2217926659985716e-05
-3.633002126439053e-05   4.7630921221116646e-06   -4.2217926659985716e-05
-3.91619976720266e-05   1.2558881970469934e-05   -4.2260413430363856e-05
-3.91619976720266e-05   1.2558881970469934e-05   -4.2260413430363856e-05
-3.91619976720266e-05   1.2558881970469934e-05   -4.2260413430363856e-05
-3.91619976720266e-05   1.2558881970469934e-05   -4.2260413430363856e-05
-3.460081296500345e-05   7.233461427371291e-06   -3.877281962267817e-05
-3.460081296500345e-05   7.233461427371291e-06   -3.877281962267817e-05
-3.460081296500345e-05   7.233461427371291e-06   -3.877281962267817e-05
-3.460081296500345e-05   7.233461427371291e-06   -3.877281962267817e-05
-3.5008597829082084e-05   1.4448526965389966e-05   -4.242221750535739e-05
-3.5008597829082084e-05   1.4448526965389966e-05   -4.242221750535739e-05
-3.5008597829082084e-05   1.4448526965389966e-05   -4.242221750535739e-05
-3.5008597829082084e-05   1.4448526965389966e-05   -4.242221750535739e-05
-3.537693355883085e-05   8.623411650647735e-06   -3.8313255433597665e-05
-3.537693355883085e-05   8.623411650647735e-06   -3.8313255433597665e-05
-3.537693355883085e-05   8.623411650647735e-06   -3.8313255433597665e-05
-3.537693355883085e-05   8.623411650647735e-06   -3.8313255433597665e-05
2.3152494484990523e-05   -2.2944074346579676e-06   -2.4237487293185273e-05
2.3152494484990523e-05   -2.2944074346579676e-06   -2.4237487293185273e-05
2.3152494484990523e-05   -2.2944074346579676e-06   -2.4237487293185273e-05
2.3152494484990523e-05   -2.2944074346579676e-06   -2.4237487293185273e-05
2.3404454302108175e-06   -9.731827423308491e-06   -6.33866877110085e-05
2.3404454302108175e-06   -9.731827423308491e-06   -6.33866877110085e-05
2.3404454302108175e-06   -9.731827423308491e-06   -6.33866877110085e-05
2.3404454302108175e-06   -9.731827423308491e-06   -6.33866877110085e-05
4.200695870284349e-06   -5.1068512197695315e-08   -2.6735610832548558e-05
4.200695870284349e-06   -5.1068512197695315e-08   -2.6735610832548558e-05
4.200695870284349e-06   -5.1068512197695315e-08   -2.6735610832548558e-05
4.200695870284349e-06   -5.1068512197695315e-08   -2.6735610832548558e-05
2.8313048915141765e-05   -7.992775732814858e-06   -6.215784157494035e-05
2.8313048915141765e-05   -7.992775732814858e-06   -6.215784157494035e-05
2.8313048915141765e-05   -7.992775732814858e-06   -6.215784157494035e-05
2.8313048915141765e-05   -7.992775732814858e-06   -6.215784157494035e-05
1.3963799229023974e-05   -4.052296621192934e-06   -4.060671289838388e-05
1.3963799229023974e-05   -4.052296621192934e-06   -4.060671289838388e-05
1.3963799229023974e-05   -4.052296621192934e-06   -4.060671289838388e-05
1.3963799229023974e-05   -4.052296621192934e-06   -4.060671289838388e-05
2.8313048915141765e-05   -5.1068512197695315e-08   -2.1970586500177913e-05
2.8313048915141765e-05   -5.1068512197695315e-08   -2.1970586500177913e-05
2.8313048915141765e-05   -5.1068512197695315e-08   -2.1970586500177913e-05
2.8313048915141765e-05   -5.1068512197695315e-08   -2.1970586500177913e-05
4.200695870284349e-06   -7.992775732815725e-06   -6.692286590731099e-05
4.200695870284349e-06   -7.992775732815725e-06   -6.692286590731099e-05
4.200695870284349e-06   -7.992775732815725e-06   -6.692286590731099e-05
4.200695870284349e-06   -7.992775732815725e-06   -6.692286590731099e-05
6.391596113444861e-06   1.2141190054559131e-06   -2.6926587933760304e-05
6.391596113444861e-06   1.2141190054559131e-06   -2.6926587933760304e-05
6.391596113444861e-06   1.2141190054559131e-06   -2.6926587933760304e-05
6.391596113444861e-06   1.2141190054559131e-06   -2.6926587933760304e-05
3.268180667487621e-05   -6.837863981271064e-06   -6.591241574410971e-05
3.268180667487621e-05   -6.837863981271064e-06   -6.591241574410971e-05
3.268180667487621e-05   -6.837863981271064e-06   -6.591241574410971e-05
3.268180667487621e-05   -6.837863981271064e-06   -6.591241574410971e-05
1.724216024811756e-05   -3.2424696530929803e-06   -4.233690829642117e-05
1.724216024811756e-05   -3.2424696530929803e-06   -4.233690829642117e-05
1.724216024811756e-05   -3.2424696530929803e-06   -4.233690829642117e-05
1.724216024811756e-05   -3.2424696530929803e-06   -4.233690829642117e-05
3.268180667487621e-05   1.2141190054559131e-06   -2.2095398141724638e-05
3.268180667487621e-05   1.2141190054559131e-06   -2.2095398141724638e-05
3.268180667487621e-05   1.2141190054559131e-06   -2.2095398141724638e-05
3.268180667487621e-05   1.2141190054559131e-06   -2.2095398141724638e-05
6.391596113444753e-06   -6.837863981271064e-06   -7.074360553614625e-05
6.391596113444753e-06   -6.837863981271064e-06   -7.074360553614625e-05
6.391596113444753e-06   -6.837863981271064e-06   -7.074360553614625e-05
6.391596113444753e-06   -6.837863981271064e-06   -7.074360553614625e-05
8.200331113529915e-06   3.7387839292605737e-06   -2.9467900806649794e-05
8.200331113529915e-06   3.7387839292605737e-06   -2.9467900806649794e-05
8.200331113529915e-06   3.7387839292605737e-06   -2.9467900806649794e-05
8.200331113529915e-06   3.7387839292605737e-06   -2.9467900806649794e-05
3.7929199510190834e-05   -3.923398669021701e-06   -7.441870524211615e-05
3.7929199510190834e-05   -3.923398669021701e-06   -7.441870524211615e-05
3.7929199510190834e-05   -3.923398669021701e-06   -7.441870524211615e-05
3.7929199510190834e-05   -3.923398669021701e-06   -7.441870524211615e-05
1.986142558171389e-05   -2.057180440944925e-06   -4.542547963150181e-05
1.986142558171389e-05   -2.057180440944925e-06   -4.542547963150181e-05
1.986142558171389e-05   -2.057180440944925e-06   -4.542547963150181e-05
1.986142558171389e-05   -2.057180440944925e-06   -4.542547963150181e-05
2.3404454302108175e-06   -5.095645738643212e-07   -6.925681456900184e-05
2.3404454302108175e-06   -5.095645738643212e-07   -6.925681456900184e-05
2.3404454302108175e-06   -5.095645738643212e-07   -6.925681456900184e-05
2.3404454302108175e-06   -5.095645738643212e-07   -6.925681456900184e-05
-2.2030311214676186e-05   -3.8678586074649204e-06   -0.00011188971873064032
-2.2030311214676186e-05   -3.8678586074649204e-06   -0.00011188971873064032
-2.2030311214676186e-05   -3.8678586074649204e-06   -0.00011188971873064032
-2.2030311214676186e-05   -3.8678586074649204e-06   -0.00011188971873064032
-2.0394657511510863e-05   2.3184603702335396e-06   -6.965180163643735e-05
-2.0394657511510863e-05   2.3184603702335396e-06   -6.965180163643735e-05
-2.0394657511510863e-05   2.3184603702335396e-06   -6.965180163643735e-05
-2.0394657511510863e-05   2.3184603702335396e-06   -6.965180163643735e-05
4.200695870284349e-06   -1.4884673748228813e-06   -0.0001083599006257292
4.200695870284349e-06   -1.4884673748228813e-06   -0.0001083599006257292
4.200695870284349e-06   -1.4884673748228813e-06   -0.0001083599006257292
4.200695870284349e-06   -1.4884673748228813e-06   -0.0001083599006257292
-8.762449651532312e-06   -1.598646277838761e-07   -8.755181973759145e-05
-8.762449651532312e-06   -1.598646277838761e-07   -8.755181973759145e-05
-8.762449651532312e-06   -1.598646277838761e-07   -8.755181973759145e-05
-8.762449651532312e-06   -1.598646277838761e-07   -8.755181973759145e-05
4.200695870284457e-06   2.3184603702326723e-06   -6.736764498940307e-05
4.200695870284457e-06   2.3184603702326723e-06   -6.736764498940307e-05
4.200695870284457e-06   2.3184603702326723e-06   -6.736764498940307e-05
4.200695870284457e-06   2.3184603702326723e-06   -6.736764498940307e-05
-2.0394657511510863e-05   -1.488467374822014e-06   -0.00011064405727276316
-2.0394657511510863e-05   -1.488467374822014e-06   -0.00011064405727276316
-2.0394657511510863e-05   -1.488467374822014e-06   -0.00011064405727276316
-2.0394657511510863e-05   -1.488467374822014e-06   -0.00011064405727276316
-1.8749838321882378e-05   5.038684591765832e-06   -6.97546251699952e-05
-1.8749838321882378e-05   5.038684591765832e-06   -6.97546251699952e-05
-1.8749838321882378e-05   5.038684591765832e-06   -6.97546251699952e-05
-1.8749838321882378e-05   5.038684591765832e-06   -6.97546251699952e-05
6.391596113444861e-06   9.703003802583043e-07   -0.00010921598536863648
6.391596113444861e-06   9.703003802583043e-07   -0.00010921598536863648
6.391596113444861e-06   9.703003802583043e-07   -0.00010921598536863648
6.391596113444861e-06   9.703003802583043e-07   -0.00010921598536863648
-7.311225257717235e-06   1.7912390858319804e-06   -8.687051297337814e-05
-7.311225257717235e-06   1.7912390858319804e-06   -8.687051297337814e-05
-7.311225257717235e-06   1.7912390858319804e-06   -8.687051297337814e-05
-7.311225257717235e-06   1.7912390858319804e-06   -8.687051297337814e-05
6.391596113444861e-06   5.038684591764965e-06   -6.731359464309111e-05
6.391596113444861e-06   5.038684591764965e-06   -6.731359464309111e-05
6.391596113444861e-06   5.038684591764965e-06   -6.731359464309111e-05
6.391596113444861e-06   5.038684591764965e-06   -6.731359464309111e-05
-1.8749838321882378e-05   9.703003802583043e-07   -0.00011165701589554099
-1.8749838321882378e-05   9.703003802583043e-07   -0.00011165701589554099
-1.8749838321882378e-05   9.703003802583043e-07   -0.00011165701589554099
-1.8749838321882378e-05   9.703003802583043e-07   -0.00011165701589554099
-1.7176888346916305e-05   8.142284356000597e-06   -7.149808084543465e-05
-1.7176888346916305e-05   8.142284356000597e-06   -7.149808084543465e-05
-1.7176888346916305e-05   8.142284356000597e-06   -7.149808084543465e-05
-1.7176888346916305e-05   8.142284356000597e-06   -7.149808084543465e-05
8.200331113529806e-06   3.879684384819684e-06   -0.00011123588663013682
8.200331113529806e-06   3.879684384819684e-06   -0.00011123588663013682
8.200331113529806e-06   3.879684384819684e-06   -0.00011123588663013682
8.200331113529806e-06   3.879684384819684e-06   -0.00011123588663013682
-5.6979734332485415e-06   3.951544073351777e-06   -8.81151615319607e-05
-5.6979734332485415e-06   3.951544073351777e-06   -8.81151615319607e-05
-5.6979734332485415e-06   3.951544073351777e-06   -8.81151615319607e-05
-5.6979734332485415e-06   3.951544073351777e-06   -8.81151615319607e-05
-2.203031121467624e-05   2.327814097729218e-06   -8.377868365012442e-05
-2.203031121467624e-05   2.327814097729218e-06   -8.377868365012442e-05
-2.203031121467624e-05   2.327814097729218e-06   -8.377868365012442e-05
-2.203031121467624e-05   2.327814097729218e-06   -8.377868365012442e-05
-4.619661186804772e-05   2.9355148507652362e-06   -0.00012369123095392178
-4.619661186804772e-05   2.9355148507652362e-06   -0.00012369123095392178
-4.619661186804772e-05   2.9355148507652362e-06   -0.00012369123095392178
-4.619661186804772e-05   2.9355148507652362e-06   -0.00012369123095392178
-4.454846735278789e-05   5.247543294733745e-06   -8.228666195626844e-05
-4.454846735278789e-05   5.247543294733745e-06   -8.228666195626844e-05
-4.454846735278789e-05   5.247543294733745e-06   -8.228666195626844e-05
-4.454846735278789e-05   5.247543294733745e-06   -8.228666195626844e-05
-2.0394657511510917e-05   5.449811418729335e-06   -0.00012266437256612745
-2.0394657511510917e-05   5.449811418729335e-06   -0.00012266437256612745
-2.0394657511510917e-05   5.449811418729335e-06   -0.00012266437256612745
-2.0394657511510917e-05   5.449811418729335e-06   -0.00012266437256612745
-3.309953145459418e-05   4.503647249061958e-06   -0.00010092188415918805
-3.309953145459418e-05   4.503647249061958e-06   -0.00010092188415918805
-3.309953145459418e-05   4.503647249061958e-06   -0.00010092188415918805
-3.309953145459418e-05   4.503647249061958e-06   -0.00010092188415918805
-2.0394657511510917e-05   5.247543294734612e-06   -8.24080228306657e-05
-2.0394657511510917e-05   5.247543294734612e-06   -8.24080228306657e-05
-2.0394657511510917e-05   5.247543294734612e-06   -8.24080228306657e-05
-2.0394657511510917e-05   5.247543294734612e-06   -8.24080228306657e-05
-4.454846735278789e-05   5.449811418729335e-06   -0.00012254301169173018
-4.454846735278789e-05   5.449811418729335e-06   -0.00012254301169173018
-4.454846735278789e-05   5.449811418729335e-06   -0.00012254301169173018
-4.454846735278789e-05   5.449811418729335e-06   -0.00012254301169173018
-4.287507412957304e-05   8.231975604907661e-06   -8.250184164412333e-05
-4.287507412957304e-05   8.231975604907661e-06   -8.250184164412333e-05
-4.287507412957304e-05   8.231975604907661e-06   -8.250184164412333e-05
-4.287507412957304e-05   8.231975604907661e-06   -8.250184164412333e-05
-1.8749838321882378e-05   8.113192725240845e-06   -0.00012263929826247474
-1.8749838321882378e-05   8.113192725240845e-06   -0.00012263929826247474
-1.8749838321882378e-05   8.113192725240845e-06   -0.00012263929826247474
-1.8749838321882378e-05   8.113192725240845e-06   -0.00012263929826247474
-3.164743751809035e-05   6.696498487349101e-06   -0.00010029328305939493
-3.164743751809035e-05   6.696498487349101e-06   -0.00010029328305939493
-3.164743751809035e-05   6.696498487349101e-06   -0.00010029328305939493
-3.164743751809035e-05   6.696498487349101e-06   -0.00010029328305939493
-1.8749838321882378e-05   8.231975604907661e-06   -8.243057191632385e-05
-1.8749838321882378e-05   8.231975604907661e-06   -8.243057191632385e-05
-1.8749838321882378e-05   8.231975604907661e-06   -8.243057191632385e-05
-1.8749838321882378e-05   8.231975604907661e-06   -8.243057191632385e-05
-4.287507412957296e-05   8.113192725240845e-06   -0.00012271056799027487
-4.287507412957296e-05   8.113192725240845e-06   -0.00012271056799027487
-4.287507412957296e-05   8.113192725240845e-06   -0.00012271056799027487
-4.287507412957296e-05   8.113192725240845e-06   -0.00012271056799027487
-4.127915920532214e-05   1.1257459651356667e-05   -8.43530937620126e-05
-4.127915920532214e-05   1.1257459651356667e-05   -8.43530937620126e-05
-4.127915920532214e-05   1.1257459651356667e-05   -8.43530937620126e-05
-4.127915920532214e-05   1.1257459651356667e-05   -8.43530937620126e-05
-1.717688834691636e-05   1.0822448508287542e-05   -0.00012426253850684695
-1.717688834691636e-05   1.0822448508287542e-05   -0.00012426253850684695
-1.717688834691636e-05   1.0822448508287542e-05   -0.00012426253850684695
-1.717688834691636e-05   1.0822448508287542e-05   -0.00012426253850684695
-3.029524392543723e-05   8.922463761820362e-06   -0.00010125862169476675
-3.029524392543723e-05   8.922463761820362e-06   -0.00010125862169476675
-3.029524392543723e-05   8.922463761820362e-06   -0.00010125862169476675
-3.029524392543723e-05   8.922463761820362e-06   -0.00010125862169476675
-4.619661186804781e-05   5.180838522379598e-06   -7.04501356552545e-05
-4.619661186804781e-05   5.180838522379598e-06   -7.04501356552545e-05
-4.619661186804781e-05   5.180838522379598e-06   -7.04501356552545e-05
-4.619661186804781e-05   5.180838522379598e-06   -7.04501356552545e-05
-7.004772650436099e-05   9.530808447727815e-06   -0.00010759201142723383
-7.004772650436099e-05   9.530808447727815e-06   -0.00010759201142723383
-7.004772650436099e-05   9.530808447727815e-06   -0.00010759201142723383
-7.004772650436099e-05   9.530808447727815e-06   -0.00010759201142723383
-6.81667199647414e-05   8.108695817307145e-06   -6.636602185004998e-05
-6.81667199647414e-05   8.108695817307145e-06   -6.636602185004998e-05
-6.81667199647414e-05   8.108695817307145e-06   -6.636602185004998e-05
-6.81667199647414e-05   8.108695817307145e-06   -6.636602185004998e-05
-4.454846735278789e-05   1.2214324556974153e-05   -0.0001081931534471062
-4.454846735278789e-05   1.2214324556974153e-05   -0.0001081931534471062
-4.454846735278789e-05   1.2214324556974153e-05   -0.0001081931534471062
-4.454846735278789e-05   1.2214324556974153e-05   -0.0001081931534471062
-5.68438074914458e-05   9.10969971599021e-06   -8.58381449780855e-05
-5.68438074914458e-05   9.10969971599021e-06   -8.58381449780855e-05
-5.68438074914458e-05   9.10969971599021e-06   -8.58381449780855e-05
-5.68438074914458e-05   9.10969971599021e-06   -8.58381449780855e-05
-4.4548467352787974e-05   8.108695817306277e-06   -6.88293990938507e-05
-4.4548467352787974e-05   8.108695817306277e-06   -6.88293990938507e-05
-4.4548467352787974e-05   8.108695817306277e-06   -6.88293990938507e-05
-4.4548467352787974e-05   8.108695817306277e-06   -6.88293990938507e-05
-6.816671996474151e-05   1.2214324556973286e-05   -0.00010572977620330664
-6.816671996474151e-05   1.2214324556973286e-05   -0.00010572977620330664
-6.816671996474151e-05   1.2214324556973286e-05   -0.00010572977620330664
-6.816671996474151e-05   1.2214324556973286e-05   -0.00010572977620330664
-6.592063267471177e-05   1.0811789344912677e-05   -6.576482720803412e-05
-6.592063267471177e-05   1.0811789344912677e-05   -6.576482720803412e-05
-6.592063267471177e-05   1.0811789344912677e-05   -6.576482720803412e-05
-6.592063267471177e-05   1.0811789344912677e-05   -6.576482720803412e-05
-4.287507412957304e-05   1.4633208587906503e-05   -0.00010646694299572745
-4.287507412957304e-05   1.4633208587906503e-05   -0.00010646694299572745
-4.287507412957304e-05   1.4633208587906503e-05   -0.00010646694299572745
-4.287507412957304e-05   1.4633208587906503e-05   -0.00010646694299572745
-5.4951051702935474e-05   1.122655717813656e-05   -8.429632286093025e-05
-5.4951051702935474e-05   1.122655717813656e-05   -8.429632286093025e-05
-5.4951051702935474e-05   1.122655717813656e-05   -8.429632286093025e-05
-5.4951051702935474e-05   1.122655717813656e-05   -8.429632286093025e-05
-4.287507412957301e-05   1.0811789344912677e-05   -6.805767875382946e-05
-4.287507412957301e-05   1.0811789344912677e-05   -6.805767875382946e-05
-4.287507412957301e-05   1.0811789344912677e-05   -6.805767875382946e-05
-4.287507412957301e-05   1.0811789344912677e-05   -6.805767875382946e-05
-6.592063267471177e-05   1.4633208587906503e-05   -0.00010417409144993168
-6.592063267471177e-05   1.4633208587906503e-05   -0.00010417409144993168
-6.592063267471177e-05   1.4633208587906503e-05   -0.00010417409144993168
-6.592063267471177e-05   1.4633208587906503e-05   -0.00010417409144993168
-6.404779960070893e-05   1.3844428826893102e-05   -6.758442120973623e-05
-6.404779960070893e-05   1.3844428826893102e-05   -6.758442120973623e-05
-6.404779960070893e-05   1.3844428826893102e-05   -6.758442120973623e-05
-6.404779960070893e-05   1.3844428826893102e-05   -6.758442120973623e-05
-4.127915920532214e-05   1.734325286547808e-05   -0.00010763144962519939
-4.127915920532214e-05   1.734325286547808e-05   -0.00010763144962519939
-4.127915920532214e-05   1.734325286547808e-05   -0.00010763144962519939
-4.127915920532214e-05   1.734325286547808e-05   -0.00010763144962519939
-5.367461745532679e-05   1.3314658678716118e-05   -8.455519602980116e-05
-5.367461745532679e-05   1.3314658678716118e-05   -8.455519602980116e-05
-5.367461745532679e-05   1.3314658678716118e-05   -8.455519602980116e-05
-5.367461745532679e-05   1.3314658678716118e-05   -8.455519602980116e-05
-7.004772650436099e-05   8.693106963341551e-06   -3.646755949810506e-05
-7.004772650436099e-05   8.693106963341551e-06   -3.646755949810506e-05
-7.004772650436099e-05   8.693106963341551e-06   -3.646755949810506e-05
-7.004772650436099e-05   8.693106963341551e-06   -3.646755949810506e-05
-9.720071994687152e-05   1.6380533803664332e-05   -7.711009246476287e-05
-9.720071994687152e-05   1.6380533803664332e-05   -7.711009246476287e-05
-9.720071994687152e-05   1.6380533803664332e-05   -7.711009246476287e-05
-9.720071994687152e-05   1.6380533803664332e-05   -7.711009246476287e-05
-9.206922566753383e-05   1.1344582996015984e-05   -2.303187994727278e-05
-9.206922566753383e-05   1.1344582996015984e-05   -2.303187994727278e-05
-9.206922566753383e-05   1.1344582996015984e-05   -2.303187994727278e-05
-9.206922566753383e-05   1.1344582996015984e-05   -2.303187994727278e-05
-6.81667199647414e-05   1.9163594735885532e-05   -6.756079649584805e-05
-6.81667199647414e-05   1.9163594735885532e-05   -6.756079649584805e-05
-6.81667199647414e-05   1.9163594735885532e-05   -6.756079649584805e-05
-6.81667199647414e-05   1.9163594735885532e-05   -6.756079649584805e-05
-7.853957546392398e-05   1.4218298433084538e-05   -4.7305526215530875e-05
-7.853957546392398e-05   1.4218298433084538e-05   -4.7305526215530875e-05
-7.853957546392398e-05   1.4218298433084538e-05   -4.7305526215530875e-05
-7.853957546392398e-05   1.4218298433084538e-05   -4.7305526215530875e-05
-6.816671996474148e-05   1.1344582996015984e-05   -2.7723286991194595e-05
-6.816671996474148e-05   1.1344582996015984e-05   -2.7723286991194595e-05
-6.816671996474148e-05   1.1344582996015984e-05   -2.7723286991194595e-05
-6.816671996474148e-05   1.1344582996015984e-05   -2.7723286991194595e-05
-9.206922566753361e-05   1.9163594735885532e-05   -6.286938945192699e-05
-9.206922566753361e-05   1.9163594735885532e-05   -6.286938945192699e-05
-9.206922566753361e-05   1.9163594735885532e-05   -6.286938945192699e-05
-9.206922566753361e-05   1.9163594735885532e-05   -6.286938945192699e-05
-8.782775124325219e-05   1.2558881970469934e-05   -1.8981499290405407e-05
-8.782775124325219e-05   1.2558881970469934e-05   -1.8981499290405407e-05
-8.782775124325219e-05   1.2558881970469934e-05   -1.8981499290405407e-05
-8.782775124325219e-05   1.2558881970469934e-05   -1.8981499290405407e-05
-6.592063267471168e-05   2.0159811306596186e-05   -6.0053921172982636e-05
-6.592063267471168e-05   2.0159811306596186e-05   -6.0053921172982636e-05
-6.592063267471168e-05   2.0159811306596186e-05   -6.0053921172982636e-05
-6.592063267471168e-05   2.0159811306596186e-05   -6.0053921172982636e-05
-7.66397266560536e-05   1.5465697378499663e-05   -3.937229618055488e-05
-7.66397266560536e-05   1.5465697378499663e-05   -3.937229618055488e-05
-7.66397266560536e-05   1.5465697378499663e-05   -3.937229618055488e-05
-7.66397266560536e-05   1.5465697378499663e-05   -3.937229618055488e-05
-6.592063267471177e-05   1.2558881970469934e-05   -2.3542056892081418e-05
-6.592063267471177e-05   1.2558881970469934e-05   -2.3542056892081418e-05
-6.592063267471177e-05   1.2558881970469934e-05   -2.3542056892081418e-05
-6.592063267471177e-05   1.2558881970469934e-05   -2.3542056892081418e-05
-8.782775124325203e-05   2.0159811306596186e-05   -5.5493363571306516e-05
-8.782775124325203e-05   2.0159811306596186e-05   -5.5493363571306516e-05
-8.782775124325203e-05   2.0159811306596186e-05   -5.5493363571306516e-05
-8.782775124325203e-05   2.0159811306596186e-05   -5.5493363571306516e-05
-8.28196432046602e-05   1.4448526965389098e-05   -1.4766455763478865e-05
-8.28196432046602e-05   1.4448526965389098e-05   -1.4766455763478865e-05
-8.28196432046602e-05   1.4448526965389098e-05   -1.4766455763478865e-05
-8.28196432046602e-05   1.4448526965389098e-05   -1.4766455763478865e-05
-6.404779960070893e-05   2.143193672751384e-05   -5.024290762733872e-05
-6.404779960070893e-05   2.143193672751384e-05   -5.024290762733872e-05
-6.404779960070893e-05   2.143193672751384e-05   -5.024290762733872e-05
-6.404779960070893e-05   2.143193672751384e-05   -5.024290762733872e-05
-7.266177374796234e-05   1.6071249320308637e-05   -3.266987160426113e-05
-7.266177374796234e-05   1.6071249320308637e-05   -3.266987160426113e-05
-7.266177374796234e-05   1.6071249320308637e-05   -3.266987160426113e-05
-7.266177374796234e-05   1.6071249320308637e-05   -3.266987160426113e-05
7.409275099612368e-05   -9.731827423308491e-06   -8.684959808742156e-07
7.409275099612368e-05   -9.731827423308491e-06   -8.684959808742156e-07
7.409275099612368e-05   -9.731827423308491e-06   -8.684959808742156e-07
7.409275099612368e-05   -9.731827423308491e-06   -8.684959808742156e-07
3.1630946298566464e-05   -1.7596003137504077e-05   -7.635667590532007e-05
3.1630946298566464e-05   -1.7596003137504077e-05   -7.635667590532007e-05
3.1630946298566464e-05   -1.7596003137504077e-05   -7.635667590532007e-05
3.1630946298566464e-05   -1.7596003137504077e-05   -7.635667590532007e-05
3.390183459428585e-05   -7.992775732815725e-06   -8.677410333647606e-06
3.390183459428585e-05   -7.992775732815725e-06   -8.677410333647606e-06
3.390183459428585e-05   -7.992775732815725e-06   -8.677410333647606e-06
3.390183459428585e-05   -7.992775732815725e-06   -8.677410333647606e-06
7.974801849652249e-05   -1.635963825439256e-05   -8.006759932442892e-05
7.974801849652249e-05   -1.635963825439256e-05   -8.006759932442892e-05
7.974801849652249e-05   -1.635963825439256e-05   -8.006759932442892e-05
7.974801849652249e-05   -1.635963825439256e-05   -8.006759932442892e-05
5.263434485155234e-05   -1.1583763695227622e-05   -3.774366798497768e-05
5.263434485155234e-05   -1.1583763695227622e-05   -3.774366798497768e-05
5.263434485155234e-05   -1.1583763695227622e-05   -3.774366798497768e-05
5.263434485155234e-05   -1.1583763695227622e-05   -3.774366798497768e-05
7.974801849652271e-05   -7.992775732815725e-06   -3.6572928207015062e-06
7.974801849652271e-05   -7.992775732815725e-06   -3.6572928207015062e-06
7.974801849652271e-05   -7.992775732815725e-06   -3.6572928207015062e-06
7.974801849652271e-05   -7.992775732815725e-06   -3.6572928207015062e-06
3.390183459428585e-05   -1.635963825439256e-05   -8.508771683737523e-05
3.390183459428585e-05   -1.635963825439256e-05   -8.508771683737523e-05
3.390183459428585e-05   -1.635963825439256e-05   -8.508771683737523e-05
3.390183459428585e-05   -1.635963825439256e-05   -8.508771683737523e-05
3.641589036262698e-05   -6.837863981271064e-06   -1.2092516028366744e-05
3.641589036262698e-05   -6.837863981271064e-06   -1.2092516028366744e-05
3.641589036262698e-05   -6.837863981271064e-06   -1.2092516028366744e-05
3.641589036262698e-05   -6.837863981271064e-06   -1.2092516028366744e-05
8.45052352119708e-05   -1.530308801492037e-05   -8.716228969041727e-05
8.45052352119708e-05   -1.530308801492037e-05   -8.716228969041727e-05
8.45052352119708e-05   -1.530308801492037e-05   -8.716228969041727e-05
8.45052352119708e-05   -1.530308801492037e-05   -8.716228969041727e-05
5.688286340511196e-05   -1.1113864128812004e-05   -4.363853767731687e-05
5.688286340511196e-05   -1.1113864128812004e-05   -4.363853767731687e-05
5.688286340511196e-05   -1.1113864128812004e-05   -4.363853767731687e-05
5.688286340511196e-05   -1.1113864128812004e-05   -4.363853767731687e-05
8.450523521197101e-05   -6.837863981271064e-06   -7.013381608177074e-06
8.450523521197101e-05   -6.837863981271064e-06   -7.013381608177074e-06
8.450523521197101e-05   -6.837863981271064e-06   -7.013381608177074e-06
8.450523521197101e-05   -6.837863981271064e-06   -7.013381608177074e-06
3.641589036262687e-05   -1.5303088014919503e-05   -9.224142411060716e-05
3.641589036262687e-05   -1.5303088014919503e-05   -9.224142411060716e-05
3.641589036262687e-05   -1.5303088014919503e-05   -9.224142411060716e-05
3.641589036262687e-05   -1.5303088014919503e-05   -9.224142411060716e-05
3.84991079965981e-05   -3.923398669021701e-06   -1.9994173622557912e-05
3.84991079965981e-05   -3.923398669021701e-06   -1.9994173622557912e-05
3.84991079965981e-05   -3.923398669021701e-06   -1.9994173622557912e-05
3.84991079965981e-05   -3.923398669021701e-06   -1.9994173622557912e-05
9.002797539783239e-05   -1.195510578397025e-05   -0.00010105659502231221
9.002797539783239e-05   -1.195510578397025e-05   -0.00010105659502231221
9.002797539783239e-05   -1.195510578397025e-05   -0.00010105659502231221
9.002797539783239e-05   -1.195510578397025e-05   -0.00010105659502231221
5.9203199374180545e-05   -9.811924031288312e-06   -5.096787736783687e-05
5.9203199374180545e-05   -9.811924031288312e-06   -5.096787736783687e-05
5.9203199374180545e-05   -9.811924031288312e-06   -5.096787736783687e-05
5.9203199374180545e-05   -9.811924031288312e-06   -5.096787736783687e-05
3.1630946298566464e-05   -3.8678586074649204e-06   -5.20750560088633e-05
3.1630946298566464e-05   -3.8678586074649204e-06   -5.20750560088633e-05
3.1630946298566464e-05   -3.8678586074649204e-06   -5.20750560088633e-05
3.1630946298566464e-05   -3.8678586074649204e-06   -5.20750560088633e-05
-1.3374758314276306e-05   -8.271504248762336e-06   -0.00012972675108171303
-1.3374758314276306e-05   -8.271504248762336e-06   -0.00012972675108171303
-1.3374758314276306e-05   -8.271504248762336e-06   -0.00012972675108171303
-1.3374758314276306e-05   -8.271504248762336e-06   -0.00012972675108171303
-1.1258248578333908e-05   -1.488467374822014e-06   -5.315965195843873e-05
-1.1258248578333908e-05   -1.488467374822014e-06   -5.315965195843873e-05
-1.1258248578333908e-05   -1.488467374822014e-06   -5.315965195843873e-05
-1.1258248578333908e-05   -1.488467374822014e-06   -5.315965195843873e-05
3.390183459428585e-05   -6.563812218775972e-06   -0.00012538125033976567
3.390183459428585e-05   -6.563812218775972e-06   -0.00012538125033976567
3.390183459428585e-05   -6.563812218775972e-06   -0.00012538125033976567
3.390183459428585e-05   -6.563812218775972e-06   -0.00012538125033976567
1.0338706880779885e-05   -4.005209673189035e-06   -8.76445323446085e-05
1.0338706880779885e-05   -4.005209673189035e-06   -8.76445323446085e-05
1.0338706880779885e-05   -4.005209673189035e-06   -8.76445323446085e-05
1.0338706880779885e-05   -4.005209673189035e-06   -8.76445323446085e-05
3.390183459428585e-05   -1.488467374822014e-06   -5.011444505206592e-05
3.390183459428585e-05   -1.488467374822014e-06   -5.011444505206592e-05
3.390183459428585e-05   -1.488467374822014e-06   -5.011444505206592e-05
3.390183459428585e-05   -1.488467374822014e-06   -5.011444505206592e-05
-1.1258248578333908e-05   -6.563812218775972e-06   -0.00012842645724613815
-1.1258248578333908e-05   -6.563812218775972e-06   -0.00012842645724613815
-1.1258248578333908e-05   -6.563812218775972e-06   -0.00012842645724613815
-1.1258248578333908e-05   -6.563812218775972e-06   -0.00012842645724613815
-9.237287221307007e-06   9.703003802583043e-07   -5.383237692681937e-05
-9.237287221307007e-06   9.703003802583043e-07   -5.383237692681937e-05
-9.237287221307007e-06   9.703003802583043e-07   -5.383237692681937e-05
-9.237287221307007e-06   9.703003802583043e-07   -5.383237692681937e-05
3.641589036262687e-05   -4.475501396344894e-06   -0.000126653525167414
3.641589036262687e-05   -4.475501396344894e-06   -0.000126653525167414
3.641589036262687e-05   -4.475501396344894e-06   -0.000126653525167414
3.641589036262687e-05   -4.475501396344894e-06   -0.000126653525167414
1.2022579127805242e-05   -2.4970973965636467e-06   -8.718504884257759e-05
1.2022579127805242e-05   -2.4970973965636467e-06   -8.718504884257759e-05
1.2022579127805242e-05   -2.4970973965636467e-06   -8.718504884257759e-05
1.2022579127805242e-05   -2.4970973965636467e-06   -8.718504884257759e-05
3.641589036262698e-05   9.703003802583043e-07   -5.056489586085719e-05
3.641589036262698e-05   9.703003802583043e-07   -5.056489586085719e-05
3.641589036262698e-05   9.703003802583043e-07   -5.056489586085719e-05
3.641589036262698e-05   9.703003802583043e-07   -5.056489586085719e-05
-9.237287221307007e-06   -4.475501396344894e-06   -0.00012992100623337608
-9.237287221307007e-06   -4.475501396344894e-06   -0.00012992100623337608
-9.237287221307007e-06   -4.475501396344894e-06   -0.00012992100623337608
-9.237287221307007e-06   -4.475501396344894e-06   -0.00012992100623337608
-7.337679010660416e-06   3.879684384818817e-06   -5.565184474362432e-05
-7.337679010660416e-06   3.879684384818817e-06   -5.565184474362432e-05
-7.337679010660416e-06   3.879684384818817e-06   -5.565184474362432e-05
-7.337679010660416e-06   3.879684384818817e-06   -5.565184474362432e-05
3.84991079965981e-05   -1.8499811018715673e-06   -0.00012860869046370704
3.84991079965981e-05   -1.8499811018715673e-06   -0.00012860869046370704
3.84991079965981e-05   -1.8499811018715673e-06   -0.00012860869046370704
3.84991079965981e-05   -1.8499811018715673e-06   -0.00012860869046370704
1.4115885846910809e-05   -6.38521050123908e-07   -8.869686291194576e-05
1.4115885846910809e-05   -6.38521050123908e-07   -8.869686291194576e-05
1.4115885846910809e-05   -6.38521050123908e-07   -8.869686291194576e-05
1.4115885846910809e-05   -6.38521050123908e-07   -8.869686291194576e-05
-1.337475831427636e-05   2.9355148507652362e-06   -6.688337606874494e-05
-1.337475831427636e-05   2.9355148507652362e-06   -6.688337606874494e-05
-1.337475831427636e-05   2.9355148507652362e-06   -6.688337606874494e-05
-1.337475831427636e-05   2.9355148507652362e-06   -6.688337606874494e-05
-5.758798132315936e-05   1.4439634397431927e-06   -0.00014146701193016318
-5.758798132315936e-05   1.4439634397431927e-06   -0.00014146701193016318
-5.758798132315936e-05   1.4439634397431927e-06   -0.00014146701193016318
-5.758798132315936e-05   1.4439634397431927e-06   -0.00014146701193016318
-5.53094050208497e-05   5.449811418729335e-06   -6.643404432934681e-05
-5.53094050208497e-05   5.449811418729335e-06   -6.643404432934681e-05
-5.53094050208497e-05   5.449811418729335e-06   -6.643404432934681e-05
-5.53094050208497e-05   5.449811418729335e-06   -6.643404432934681e-05
-1.1258248578333908e-05   3.3596829561565594e-06   -0.00013859856132266226
-1.1258248578333908e-05   3.3596829561565594e-06   -0.00013859856132266226
-1.1258248578333908e-05   3.3596829561565594e-06   -0.00013859856132266226
-1.1258248578333908e-05   3.3596829561565594e-06   -0.00013859856132266226
-3.414597843237783e-05   4.022375042064472e-06   -0.00010084996015080096
-3.414597843237783e-05   4.022375042064472e-06   -0.00010084996015080096
-3.414597843237783e-05   4.022375042064472e-06   -0.00010084996015080096
-3.414597843237783e-05   4.022375042064472e-06   -0.00010084996015080096
-1.1258248578333908e-05   5.449811418729335e-06   -6.51799672518028e-05
-1.1258248578333908e-05   5.449811418729335e-06   -6.51799672518028e-05
-1.1258248578333908e-05   5.449811418729335e-06   -6.51799672518028e-05
-1.1258248578333908e-05   5.449811418729335e-06   -6.51799672518028e-05
-5.53094050208497e-05   3.3596829561565594e-06   -0.0001398526384002066
-5.53094050208497e-05   3.3596829561565594e-06   -0.0001398526384002066
-5.53094050208497e-05   3.3596829561565594e-06   -0.0001398526384002066
-5.53094050208497e-05   3.3596829561565594e-06   -0.0001398526384002066
-5.311248555042397e-05   8.113192725240845e-06   -6.6333703609249e-05
-5.311248555042397e-05   8.113192725240845e-06   -6.6333703609249e-05
-5.311248555042397e-05   8.113192725240845e-06   -6.6333703609249e-05
-5.311248555042397e-05   8.113192725240845e-06   -6.6333703609249e-05
-9.237287221307061e-06   5.581452199415228e-06   -0.00013793998984228204
-9.237287221307061e-06   5.581452199415228e-06   -0.00013793998984228204
-9.237287221307061e-06   5.581452199415228e-06   -0.00013793998984228204
-9.237287221307061e-06   5.581452199415228e-06   -0.00013793998984228204
-3.2183651745134085e-05   5.815290331766601e-06   -9.98363518486475e-05
-3.2183651745134085e-05   5.815290331766601e-06   -9.98363518486475e-05
-3.2183651745134085e-05   5.815290331766601e-06   -9.98363518486475e-05
-3.2183651745134085e-05   5.815290331766601e-06   -9.98363518486475e-05
-9.237287221307061e-06   8.113192725240845e-06   -6.481465929375355e-05
-9.237287221307061e-06   8.113192725240845e-06   -6.481465929375355e-05
-9.237287221307061e-06   8.113192725240845e-06   -6.481465929375355e-05
-9.237287221307061e-06   8.113192725240845e-06   -6.481465929375355e-05
-5.311248555042397e-05   5.581452199414361e-06   -0.0001394590341577775
-5.311248555042397e-05   5.581452199414361e-06   -0.0001394590341577775
-5.311248555042397e-05   5.581452199414361e-06   -0.0001394590341577775
-5.311248555042397e-05   5.581452199414361e-06   -0.0001394590341577775
-5.108227503194235e-05   1.0822448508287542e-05   -6.788748143639464e-05
-5.108227503194235e-05   1.0822448508287542e-05   -6.788748143639464e-05
-5.108227503194235e-05   1.0822448508287542e-05   -6.788748143639464e-05
-5.108227503194235e-05   1.0822448508287542e-05   -6.788748143639464e-05
-7.337679010660416e-06   7.878207177004944e-06   -0.00013902859667309572
-7.337679010660416e-06   7.878207177004944e-06   -0.00013902859667309572
-7.337679010660416e-06   7.878207177004944e-06   -0.00013902859667309572
-7.337679010660416e-06   7.878207177004944e-06   -0.00013902859667309572
-3.0429043813817242e-05   7.655087406762025e-06   -0.00010040911680568956
-3.0429043813817242e-05   7.655087406762025e-06   -0.00010040911680568956
-3.0429043813817242e-05   7.655087406762025e-06   -0.00010040911680568956
-3.0429043813817242e-05   7.655087406762025e-06   -0.00010040911680568956
-5.758798132315944e-05   9.530808447727815e-06   -5.428906934387906e-05
-5.758798132315944e-05   9.530808447727815e-06   -5.428906934387906e-05
-5.758798132315944e-05   9.530808447727815e-06   -5.428906934387906e-05
-5.758798132315944e-05   9.530808447727815e-06   -5.428906934387906e-05
-0.0001009469205221153   1.1505833796253591e-05   -0.00012536895279969098
-0.0001009469205221153   1.1505833796253591e-05   -0.00012536895279969098
-0.0001009469205221153   1.1505833796253591e-05   -0.00012536895279969098
-0.0001009469205221153   1.1505833796253591e-05   -0.00012536895279969098
-9.820274883516456e-05   1.2214324556974153e-05   -5.104712810455412e-05
-9.820274883516456e-05   1.2214324556974153e-05   -5.104712810455412e-05
-9.820274883516456e-05   1.2214324556974153e-05   -5.104712810455412e-05
-9.820274883516456e-05   1.2214324556974153e-05   -5.104712810455412e-05
-5.5309405020849794e-05   1.3942754523921935e-05   -0.00012357309244191483
-5.5309405020849794e-05   1.3942754523921935e-05   -0.00012357309244191483
-5.5309405020849794e-05   1.3942754523921935e-05   -0.00012357309244191483
-5.5309405020849794e-05   1.3942754523921935e-05   -0.00012357309244191483
-7.744107564203352e-05   1.2312269098653517e-05   -8.57086834847808e-05
-7.744107564203352e-05   1.2312269098653517e-05   -8.57086834847808e-05
-7.744107564203352e-05   1.2312269098653517e-05   -8.57086834847808e-05
-7.744107564203352e-05   1.2312269098653517e-05   -8.57086834847808e-05
-5.5309405020849794e-05   1.2214324556974153e-05   -5.2084186084723136e-05
-5.5309405020849794e-05   1.2214324556974153e-05   -5.2084186084723136e-05
-5.5309405020849794e-05   1.2214324556974153e-05   -5.2084186084723136e-05
-5.5309405020849794e-05   1.2214324556974153e-05   -5.2084186084723136e-05
-9.820274883516473e-05   1.3942754523921935e-05   -0.0001225360344617463
-9.820274883516473e-05   1.3942754523921935e-05   -0.0001225360344617463
-9.820274883516473e-05   1.3942754523921935e-05   -0.0001225360344617463
-9.820274883516473e-05   1.3942754523921935e-05   -0.0001225360344617463
-9.51711036436906e-05   1.4633208587906503e-05   -4.9244767253881026e-05
-9.51711036436906e-05   1.4633208587906503e-05   -4.9244767253881026e-05
-9.51711036436906e-05   1.4633208587906503e-05   -4.9244767253881026e-05
-9.51711036436906e-05   1.4633208587906503e-05   -4.9244767253881026e-05
-5.311248555042406e-05   1.6042060855940912e-05   -0.00012018777543681275
-5.311248555042406e-05   1.6042060855940912e-05   -0.00012018777543681275
-5.311248555042406e-05   1.6042060855940912e-05   -0.00012018777543681275
-5.311248555042406e-05   1.6042060855940912e-05   -0.00012018777543681275
-7.467040898804839e-05   1.4207045197525865e-05   -8.31568936457232e-05
-7.467040898804839e-05   1.4207045197525865e-05   -8.31568936457232e-05
-7.467040898804839e-05   1.4207045197525865e-05   -8.31568936457232e-05
-7.467040898804839e-05   1.4207045197525865e-05   -8.31568936457232e-05
-5.311248555042401e-05   1.4633208587906503e-05   -5.0090078614701584e-05
-5.311248555042401e-05   1.4633208587906503e-05   -5.0090078614701584e-05
-5.311248555042401e-05   1.4633208587906503e-05   -5.0090078614701584e-05
-5.311248555042401e-05   1.4633208587906503e-05   -5.0090078614701584e-05
-9.51711036436906e-05   1.6042060855940912e-05   -0.00011934246407599262
-9.51711036436906e-05   1.6042060855940912e-05   -0.00011934246407599262
-9.51711036436906e-05   1.6042060855940912e-05   -0.00011934246407599262
-9.51711036436906e-05   1.6042060855940912e-05   -0.00011934246407599262
-9.260807829026318e-05   1.734325286547808e-05   -5.038067031639792e-05
-9.260807829026318e-05   1.734325286547808e-05   -5.038067031639792e-05
-9.260807829026318e-05   1.734325286547808e-05   -5.038067031639792e-05
-9.260807829026318e-05   1.734325286547808e-05   -5.038067031639792e-05
-5.1082275031942434e-05   1.8367778786324528e-05   -0.00012020505796610687
-5.1082275031942434e-05   1.8367778786324528e-05   -0.00012020505796610687
-5.1082275031942434e-05   1.8367778786324528e-05   -0.00012020505796610687
-5.1082275031942434e-05   1.8367778786324528e-05   -0.00012020505796610687
-7.293500343565342e-05   1.5953630740025287e-05   -8.233535513214288e-05
-7.293500343565342e-05   1.5953630740025287e-05   -8.233535513214288e-05
-7.293500343565342e-05   1.5953630740025287e-05   -8.233535513214288e-05
-7.293500343565342e-05   1.5953630740025287e-05   -8.233535513214288e-05
-0.0001009469205221153   1.6380533803664332e-05   -2.723459127648752e-05
-0.0001009469205221153   1.6380533803664332e-05   -2.723459127648752e-05
-0.0001009469205221153   1.6380533803664332e-05   -2.723459127648752e-05
-0.0001009469205221153   1.6380533803664332e-05   -2.723459127648752e-05
-0.0001465693711328093   2.266293499064275e-05   -9.950256824879048e-05
-0.0001465693711328093   2.266293499064275e-05   -9.950256824879048e-05
-0.0001465693711328093   2.266293499064275e-05   -9.950256824879048e-05
-0.0001465693711328093   2.266293499064275e-05   -9.950256824879048e-05
-0.00014030059251522975   1.9163594735885532e-05   -8.836186752908624e-06
-0.00014030059251522975   1.9163594735885532e-05   -8.836186752908624e-06
-0.00014030059251522975   1.9163594735885532e-05   -8.836186752908624e-06
-0.00014030059251522975   1.9163594735885532e-05   -8.836186752908624e-06
-9.820274883516456e-05   2.5900197476199163e-05   -8.304122119720562e-05
-9.820274883516456e-05   2.5900197476199163e-05   -8.304122119720562e-05
-9.820274883516456e-05   2.5900197476199163e-05   -8.304122119720562e-05
-9.820274883516456e-05   2.5900197476199163e-05   -8.304122119720562e-05
-0.00011647961202678973   2.1592555561971392e-05   -4.9995197395960415e-05
-0.00011647961202678973   2.1592555561971392e-05   -4.9995197395960415e-05
-0.00011647961202678973   2.1592555561971392e-05   -4.9995197395960415e-05
-0.00011647961202678973   2.1592555561971392e-05   -4.9995197395960415e-05
-9.820274883516462e-05   1.9163594735884665e-05   -1.2878148397096282e-05
-9.820274883516462e-05   1.9163594735884665e-05   -1.2878148397096282e-05
-9.820274883516462e-05   1.9163594735884665e-05   -1.2878148397096282e-05
-9.820274883516462e-05   1.9163594735884665e-05   -1.2878148397096282e-05
-0.00014030059251522953   2.5900197476199163e-05   -7.899925955301684e-05
-0.00014030059251522953   2.5900197476199163e-05   -7.899925955301684e-05
-0.00014030059251522953   2.5900197476199163e-05   -7.899925955301684e-05
-0.00014030059251522953   2.5900197476199163e-05   -7.899925955301684e-05
-0.0001351413816619004   2.0159811306596186e-05   -1.1705951350055033e-06
-0.0001351413816619004   2.0159811306596186e-05   -1.1705951350055033e-06
-0.0001351413816619004   2.0159811306596186e-05   -1.1705951350055033e-06
-0.0001351413816619004   2.0159811306596186e-05   -1.1705951350055033e-06
-9.51711036436906e-05   2.6749814376473766e-05   -7.174172700728172e-05
-9.51711036436906e-05   2.6749814376473766e-05   -7.174172700728172e-05
-9.51711036436906e-05   2.6749814376473766e-05   -7.174172700728172e-05
-9.51711036436906e-05   2.6749814376473766e-05   -7.174172700728172e-05
-0.00011431686273346345   2.2875768197790428e-05   -3.7507700817116353e-05
-0.00011431686273346345   2.2875768197790428e-05   -3.7507700817116353e-05
-0.00011431686273346345   2.2875768197790428e-05   -3.7507700817116353e-05
-0.00011431686273346345   2.2875768197790428e-05   -3.7507700817116353e-05
-9.51711036436906e-05   2.0159811306596186e-05   -5.1245969769323114e-06
-9.51711036436906e-05   2.0159811306596186e-05   -5.1245969769323114e-06
-9.51711036436906e-05   2.0159811306596186e-05   -5.1245969769323114e-06
-9.51711036436906e-05   2.0159811306596186e-05   -5.1245969769323114e-06
-0.00013514138166189997   2.6749814376473766e-05   -6.778772516535542e-05
-0.00013514138166189997   2.6749814376473766e-05   -6.778772516535542e-05
-0.00013514138166189997   2.6749814376473766e-05   -6.778772516535542e-05
-0.00013514138166189997   2.6749814376473766e-05   -6.778772516535542e-05
-0.0001295840899324021   2.143193672751384e-05   8.544488532672735e-06
-0.0001295840899324021   2.143193672751384e-05   8.544488532672735e-06
-0.0001295840899324021   2.143193672751384e-05   8.544488532672735e-06
-0.0001295840899324021   2.143193672751384e-05   8.544488532672735e-06
-9.260807829026318e-05   2.7491788851450455e-05   -5.671810881192046e-05
-9.260807829026318e-05   2.7491788851450455e-05   -5.671810881192046e-05
-9.260807829026318e-05   2.7491788851450455e-05   -5.671810881192046e-05
-9.260807829026318e-05   2.7491788851450455e-05   -5.671810881192046e-05
-0.00010910159511402818   2.3086773958339545e-05   -2.658590516978047e-05
-0.00010910159511402818   2.3086773958339545e-05   -2.658590516978047e-05
-0.00010910159511402818   2.3086773958339545e-05   -2.658590516978047e-05
-0.00010910159511402818   2.3086773958339545e-05   -2.658590516978047e-05
0.0001260590548014122   -1.7596003137504077e-05   2.4681354363884078e-05
0.0001260590548014122   -1.7596003137504077e-05   2.4681354363884078e-05
0.0001260590548014122   -1.7596003137504077e-05   2.4681354363884078e-05
0.0001260590548014122   -1.7596003137504077e-05   2.4681354363884078e-05
6.081931085596102e-05   -2.6101558361134834e-05   -8.915488534604575e-05
6.081931085596102e-05   -2.6101558361134834e-05   -8.915488534604575e-05
6.081931085596102e-05   -2.6101558361134834e-05   -8.915488534604575e-05
6.081931085596102e-05   -2.6101558361134834e-05   -8.915488534604575e-05
6.333796268596833e-05   -1.635963825439169e-05   1.1738822986410644e-05
6.333796268596833e-05   -1.635963825439169e-05   1.1738822986410644e-05
6.333796268596833e-05   -1.635963825439169e-05   1.1738822986410644e-05
6.333796268596833e-05   -1.635963825439169e-05   1.1738822986410644e-05
0.00013187863699803363   -2.5486447865366232e-05   -9.701954843378065e-05
0.00013187863699803363   -2.5486447865366232e-05   -9.701954843378065e-05
0.00013187863699803363   -2.5486447865366232e-05   -9.701954843378065e-05
0.00013187863699803363   -2.5486447865366232e-05   -9.701954843378065e-05
9.164337119769796e-05   -1.9276770327197358e-05   -3.368657862278879e-05
9.164337119769796e-05   -1.9276770327197358e-05   -3.368657862278879e-05
9.164337119769796e-05   -1.9276770327197358e-05   -3.368657862278879e-05
9.164337119769796e-05   -1.9276770327197358e-05   -3.368657862278879e-05
0.00013187863699803384   -1.635963825439169e-05   1.721490875299537e-05
0.00013187863699803384   -1.635963825439169e-05   1.721490875299537e-05
0.00013187863699803384   -1.635963825439169e-05   1.721490875299537e-05
0.00013187863699803384   -1.635963825439169e-05   1.721490875299537e-05
6.333796268596822e-05   -2.5486447865366232e-05   -0.00010249563420036472
6.333796268596822e-05   -2.5486447865366232e-05   -0.00010249563420036472
6.333796268596822e-05   -2.5486447865366232e-05   -0.00010249563420036472
6.333796268596822e-05   -2.5486447865366232e-05   -0.00010249563420036472
6.584272424974317e-05   -1.530308801492037e-05   5.419802308450142e-06
6.584272424974317e-05   -1.530308801492037e-05   5.419802308450142e-06
6.584272424974317e-05   -1.530308801492037e-05   5.419802308450142e-06
6.584272424974317e-05   -1.530308801492037e-05   5.419802308450142e-06
0.00013634984998806942   -2.4603498235616604e-05   -0.0001065118277896761
0.00013634984998806942   -2.4603498235616604e-05   -0.0001065118277896761
0.00013634984998806942   -2.4603498235616604e-05   -0.0001065118277896761
0.00013634984998806942   -2.4603498235616604e-05   -0.0001065118277896761
9.654000912587214e-05   -1.9214308788398533e-05   -4.3395606687678286e-05
9.654000912587214e-05   -1.9214308788398533e-05   -4.3395606687678286e-05
9.654000912587214e-05   -1.9214308788398533e-05   -4.3395606687678286e-05
9.654000912587214e-05   -1.9214308788398533e-05   -4.3395606687678286e-05
0.00013634984998806942   -1.530308801492037e-05   1.1000048440867362e-05
0.00013634984998806942   -1.530308801492037e-05   1.1000048440867362e-05
0.00013634984998806942   -1.530308801492037e-05   1.1000048440867362e-05
0.00013634984998806942   -1.530308801492037e-05   1.1000048440867362e-05
6.584272424974317e-05   -2.4603498235616604e-05   -0.00011209207392209397
6.584272424974317e-05   -2.4603498235616604e-05   -0.00011209207392209397
6.584272424974317e-05   -2.4603498235616604e-05   -0.00011209207392209397
6.584272424974317e-05   -2.4603498235616604e-05   -0.00011209207392209397
6.754872436684684e-05   -1.1955105783969383e-05   -7.330091941941744e-06
6.754872436684684e-05   -1.1955105783969383e-05   -7.330091941941744e-06
6.754872436684684e-05   -1.1955105783969383e-05   -7.330091941941744e-06
6.754872436684684e-05   -1.1955105783969383e-05   -7.330091941941744e-06
0.00014107629929659582   -2.1152803231644368e-05   -0.0001243574316895854
0.00014107629929659582   -2.1152803231644368e-05   -0.0001243574316895854
0.00014107629929659582   -2.1152803231644368e-05   -0.0001243574316895854
0.00014107629929659582   -2.1152803231644368e-05   -0.0001243574316895854
9.793055367140918e-05   -1.7741065257209296e-05   -5.4494898432271054e-05
9.793055367140918e-05   -1.7741065257209296e-05   -5.4494898432271054e-05
9.793055367140918e-05   -1.7741065257209296e-05   -5.4494898432271054e-05
9.793055367140918e-05   -1.7741065257209296e-05   -5.4494898432271054e-05
6.0819310855961186e-05   -8.271504248763203e-06   -3.114986656190888e-05
6.0819310855961186e-05   -8.271504248763203e-06   -3.114986656190888e-05
6.0819310855961186e-05   -8.271504248763203e-06   -3.114986656190888e-05
6.0819310855961186e-05   -8.271504248763203e-06   -3.114986656190888e-05
-3.5543274605468107e-06   -1.6991687098179623e-05   -0.00014367137346573897
-3.5543274605468107e-06   -1.6991687098179623e-05   -0.00014367137346573897
-3.5543274605468107e-06   -1.6991687098179623e-05   -0.00014367137346573897
-3.5543274605468107e-06   -1.6991687098179623e-05   -0.00014367137346573897
-9.661816708145992e-07   -6.563812218776839e-06   -3.4329779096608885e-05
-9.661816708145992e-07   -6.563812218776839e-06   -3.4329779096608885e-05
-9.661816708145992e-07   -6.563812218776839e-06   -3.4329779096608885e-05
-9.661816708145992e-07   -6.563812218776839e-06   -3.4329779096608885e-05
6.333796268596833e-05   -1.6188926519825585e-05   -0.00013572828444395103
6.333796268596833e-05   -1.6188926519825585e-05   -0.00013572828444395103
6.333796268596833e-05   -1.6188926519825585e-05   -0.00013572828444395103
6.333796268596833e-05   -1.6188926519825585e-05   -0.00013572828444395103
3.0001733333348405e-05   -1.0276387403728056e-05   -8.371542565924314e-05
3.0001733333348405e-05   -1.0276387403728056e-05   -8.371542565924314e-05
3.0001733333348405e-05   -1.0276387403728056e-05   -8.371542565924314e-05
3.0001733333348405e-05   -1.0276387403728056e-05   -8.371542565924314e-05
6.333796268596833e-05   -6.563812218776839e-06   -2.855471051597903e-05
6.333796268596833e-05   -6.563812218776839e-06   -2.855471051597903e-05
6.333796268596833e-05   -6.563812218776839e-06   -2.855471051597903e-05
6.333796268596833e-05   -6.563812218776839e-06   -2.855471051597903e-05
-9.661816708145992e-07   -1.6188926519825585e-05   -0.00014150335302458078
-9.661816708145992e-07   -1.6188926519825585e-05   -0.00014150335302458078
-9.661816708145992e-07   -1.6188926519825585e-05   -0.00014150335302458078
-9.661816708145992e-07   -1.6188926519825585e-05   -0.00014150335302458078
1.314865957346555e-06   -4.475501396344894e-06   -3.511890259860328e-05
1.314865957346555e-06   -4.475501396344894e-06   -3.511890259860328e-05
1.314865957346555e-06   -4.475501396344894e-06   -3.511890259860328e-05
1.314865957346555e-06   -4.475501396344894e-06   -3.511890259860328e-05
6.584272424974317e-05   -1.4686507813421387e-05   -0.0001365387292356847
6.584272424974317e-05   -1.4686507813421387e-05   -0.0001365387292356847
6.584272424974317e-05   -1.4686507813421387e-05   -0.0001365387292356847
6.584272424974317e-05   -1.4686507813421387e-05   -0.0001365387292356847
3.177017255731615e-05   -9.444700864355213e-06   -8.289622725107804e-05
3.177017255731615e-05   -9.444700864355213e-06   -8.289622725107804e-05
3.177017255731615e-05   -9.444700864355213e-06   -8.289622725107804e-05
3.177017255731615e-05   -9.444700864355213e-06   -8.289622725107804e-05
6.584272424974317e-05   -4.475501396344894e-06   -2.899229874835747e-05
6.584272424974317e-05   -4.475501396344894e-06   -2.899229874835747e-05
6.584272424974317e-05   -4.475501396344894e-06   -2.899229874835747e-05
6.584272424974317e-05   -4.475501396344894e-06   -2.899229874835747e-05
1.314865957346555e-06   -1.4686507813422255e-05   -0.00014266533308593095
1.314865957346555e-06   -1.4686507813422255e-05   -0.00014266533308593095
1.314865957346555e-06   -1.4686507813422255e-05   -0.00014266533308593095
1.314865957346555e-06   -1.4686507813422255e-05   -0.00014266533308593095
2.9414063363186077e-06   -1.8499811018724346e-06   -3.648288428758067e-05
2.9414063363186077e-06   -1.8499811018724346e-06   -3.648288428758067e-05
2.9414063363186077e-06   -1.8499811018724346e-06   -3.648288428758067e-05
2.9414063363186077e-06   -1.8499811018724346e-06   -3.648288428758067e-05
6.754872436684706e-05   -1.254951639056024e-05   -0.0001377420264985818
6.754872436684706e-05   -1.254951639056024e-05   -0.0001377420264985818
6.754872436684706e-05   -1.254951639056024e-05   -0.0001377420264985818
6.754872436684706e-05   -1.254951639056024e-05   -0.0001377420264985818
3.387704075229618e-05   -7.974272140868002e-06   -8.43677003574809e-05
3.387704075229618e-05   -7.974272140868002e-06   -8.43677003574809e-05
3.387704075229618e-05   -7.974272140868002e-06   -8.43677003574809e-05
3.387704075229618e-05   -7.974272140868002e-06   -8.43677003574809e-05
-3.5543274605468107e-06   1.4439634397440601e-06   -4.7227306273395914e-05
-3.5543274605468107e-06   1.4439634397440601e-06   -4.7227306273395914e-05
-3.5543274605468107e-06   1.4439634397440601e-06   -4.7227306273395914e-05
-3.5543274605468107e-06   1.4439634397440601e-06   -4.7227306273395914e-05
-6.697664718789586e-05   -9.04178661517447e-06   -0.00015922262251859493
-6.697664718789586e-05   -9.04178661517447e-06   -0.00015922262251859493
-6.697664718789586e-05   -9.04178661517447e-06   -0.00015922262251859493
-6.697664718789586e-05   -9.04178661517447e-06   -0.00015922262251859493
-6.387239095577633e-05   3.359682956155692e-06   -5.1377266200866925e-05
-6.387239095577633e-05   3.359682956155692e-06   -5.1377266200866925e-05
-6.387239095577633e-05   3.359682956155692e-06   -5.1377266200866925e-05
-6.387239095577633e-05   3.359682956155692e-06   -5.1377266200866925e-05
-9.661816708145992e-07   -8.099288756732194e-06   -0.00014934556531473605
-9.661816708145992e-07   -8.099288756732194e-06   -0.00014934556531473605
-9.661816708145992e-07   -8.099288756732194e-06   -0.00014934556531473605
-9.661816708145992e-07   -8.099288756732194e-06   -0.00014934556531473605
-3.343622268979271e-05   -1.8263004037434583e-06   -9.899262329489855e-05
-3.343622268979271e-05   -1.8263004037434583e-06   -9.899262329489855e-05
-3.343622268979271e-05   -1.8263004037434583e-06   -9.899262329489855e-05
-3.343622268979271e-05   -1.8263004037434583e-06   -9.899262329489855e-05
-9.661816708145992e-07   3.3596829561565594e-06   -4.450188317313376e-05
-9.661816708145992e-07   3.3596829561565594e-06   -4.450188317313376e-05
-9.661816708145992e-07   3.3596829561565594e-06   -4.450188317313376e-05
-9.661816708145992e-07   3.3596829561565594e-06   -4.450188317313376e-05
-6.387239095577633e-05   -8.099288756732194e-06   -0.00015622094834246954
-6.387239095577633e-05   -8.099288756732194e-06   -0.00015622094834246954
-6.387239095577633e-05   -8.099288756732194e-06   -0.00015622094834246954
-6.387239095577633e-05   -8.099288756732194e-06   -0.00015622094834246954
-6.1024269363289124e-05   5.581452199415228e-06   -5.045919680529091e-05
-6.1024269363289124e-05   5.581452199415228e-06   -5.045919680529091e-05
-6.1024269363289124e-05   5.581452199415228e-06   -5.045919680529091e-05
-6.1024269363289124e-05   5.581452199415228e-06   -5.045919680529091e-05
1.314865957346555e-06   -6.6207321302216154e-06   -0.00014703644507523483
1.314865957346555e-06   -6.6207321302216154e-06   -0.00014703644507523483
1.314865957346555e-06   -6.6207321302216154e-06   -0.00014703644507523483
1.314865957346555e-06   -6.6207321302216154e-06   -0.00014703644507523483
-3.0905531141107594e-05   -7.430114933012003e-07   -9.686241562662998e-05
-3.0905531141107594e-05   -7.430114933012003e-07   -9.686241562662998e-05
-3.0905531141107594e-05   -7.430114933012003e-07   -9.686241562662998e-05
-3.0905531141107594e-05   -7.430114933012003e-07   -9.686241562662998e-05
1.314865957346555e-06   5.581452199415228e-06   -4.3137886207509236e-05
1.314865957346555e-06   5.581452199415228e-06   -4.3137886207509236e-05
1.314865957346555e-06   5.581452199415228e-06   -4.3137886207509236e-05
1.314865957346555e-06   5.581452199415228e-06   -4.3137886207509236e-05
-6.1024269363289205e-05   -6.6207321302216154e-06   -0.00015435775567301715
-6.1024269363289205e-05   -6.6207321302216154e-06   -0.00015435775567301715
-6.1024269363289205e-05   -6.6207321302216154e-06   -0.00015435775567301715
-6.1024269363289205e-05   -6.6207321302216154e-06   -0.00015435775567301715
-5.910295211906507e-05   7.878207177004944e-06   -5.13240520315459e-05
-5.910295211906507e-05   7.878207177004944e-06   -5.13240520315459e-05
-5.910295211906507e-05   7.878207177004944e-06   -5.13240520315459e-05
-5.910295211906507e-05   7.878207177004944e-06   -5.13240520315459e-05
2.9414063363186077e-06   -5.220227533981464e-06   -0.00014687225529726026
2.9414063363186077e-06   -5.220227533981464e-06   -0.00014687225529726026
2.9414063363186077e-06   -5.220227533981464e-06   -0.00014687225529726026
2.9414063363186077e-06   -5.220227533981464e-06   -0.00014687225529726026
-2.9098004614134282e-05   4.745846494957906e-07   -9.689012435659368e-05
-2.9098004614134282e-05   4.745846494957906e-07   -9.689012435659368e-05
-2.9098004614134282e-05   4.745846494957906e-07   -9.689012435659368e-05
-2.9098004614134282e-05   4.745846494957906e-07   -9.689012435659368e-05
-6.697664718789573e-05   1.1505833796252724e-05   -3.860571238498882e-05
-6.697664718789573e-05   1.1505833796252724e-05   -3.860571238498882e-05
-6.697664718789573e-05   1.1505833796252724e-05   -3.860571238498882e-05
-6.697664718789573e-05   1.1505833796252724e-05   -3.860571238498882e-05
-0.00013126745579410004   2.038637596032608e-06   -0.00015143737778212886
-0.00013126745579410004   2.038637596032608e-06   -0.00015143737778212886
-0.00013126745579410004   2.038637596032608e-06   -0.00015143737778212886
-0.00013126745579410004   2.038637596032608e-06   -0.00015143737778212886
-0.000126849465909828   1.3942754523921935e-05   -4.1184952442438385e-05
-0.000126849465909828   1.3942754523921935e-05   -4.1184952442438385e-05
-0.000126849465909828   1.3942754523921935e-05   -4.1184952442438385e-05
-0.000126849465909828   1.3942754523921935e-05   -4.1184952442438385e-05
-6.387239095577622e-05   3.7973675241489632e-06   -0.00014005951183266094
-6.387239095577622e-05   3.7973675241489632e-06   -0.00014005951183266094
-6.387239095577622e-05   3.7973675241489632e-06   -0.00014005951183266094
-6.387239095577622e-05   3.7973675241489632e-06   -0.00014005951183266094
-9.622596941941285e-05   8.66635208596634e-06   -8.905827179702319e-05
-9.622596941941285e-05   8.66635208596634e-06   -8.905827179702319e-05
-9.622596941941285e-05   8.66635208596634e-06   -8.905827179702319e-05
-9.622596941941285e-05   8.66635208596634e-06   -8.905827179702319e-05
-6.387239095577622e-05   1.3942754523921935e-05   -3.5097720242574775e-05
-6.387239095577622e-05   1.3942754523921935e-05   -3.5097720242574775e-05
-6.387239095577622e-05   1.3942754523921935e-05   -3.5097720242574775e-05
-6.387239095577622e-05   1.3942754523921935e-05   -3.5097720242574775e-05
-0.00012684946590982825   3.7973675241489632e-06   -0.00014614674403252504
-0.00012684946590982825   3.7973675241489632e-06   -0.00014614674403252504
-0.00012684946590982825   3.7973675241489632e-06   -0.00014614674403252504
-0.00012684946590982825   3.7973675241489632e-06   -0.00014614674403252504
-0.00012258396608442516   1.6042060855940912e-05   -3.756233962517617e-05
-0.00012258396608442516   1.6042060855940912e-05   -3.756233962517617e-05
-0.00012258396608442516   1.6042060855940912e-05   -3.756233962517617e-05
-0.00012258396608442516   1.6042060855940912e-05   -3.756233962517617e-05
-6.1024269363289205e-05   5.4180582878581365e-06   -0.0001337874326195531
-6.1024269363289205e-05   5.4180582878581365e-06   -0.0001337874326195531
-6.1024269363289205e-05   5.4180582878581365e-06   -0.0001337874326195531
-6.1024269363289205e-05   5.4180582878581365e-06   -0.0001337874326195531
-9.224097031535469e-05   1.0196313191246885e-05   -8.462655064147705e-05
-9.224097031535469e-05   1.0196313191246885e-05   -8.462655064147705e-05
-9.224097031535469e-05   1.0196313191246885e-05   -8.462655064147705e-05
-9.224097031535469e-05   1.0196313191246885e-05   -8.462655064147705e-05
-6.102426936328907e-05   1.6042060855940912e-05   -3.1187938084325725e-05
-6.102426936328907e-05   1.6042060855940912e-05   -3.1187938084325725e-05
-6.102426936328907e-05   1.6042060855940912e-05   -3.1187938084325725e-05
-6.102426936328907e-05   1.6042060855940912e-05   -3.1187938084325725e-05
-0.00012258396608442535   5.418058287857269e-06   -0.0001401618341604037
-0.00012258396608442535   5.418058287857269e-06   -0.0001401618341604037
-0.00012258396608442535   5.418058287857269e-06   -0.0001401618341604037
-0.00012258396608442535   5.418058287857269e-06   -0.0001401618341604037
-0.00011934051542437017   1.8367778786325395e-05   -3.767909523095603e-05
-0.00011934051542437017   1.8367778786325395e-05   -3.767909523095603e-05
-0.00011934051542437017   1.8367778786325395e-05   -3.767909523095603e-05
-0.00011934051542437017   1.8367778786325395e-05   -3.767909523095603e-05
-5.910295211906518e-05   6.792567611045228e-06   -0.00013112990736796338
-5.910295211906518e-05   6.792567611045228e-06   -0.00013112990736796338
-5.910295211906518e-05   6.792567611045228e-06   -0.00013112990736796338
-5.910295211906518e-05   6.792567611045228e-06   -0.00013112990736796338
-8.99907064916665e-05   1.1263161359596763e-05   -8.233267299609186e-05
-8.99907064916665e-05   1.1263161359596763e-05   -8.233267299609186e-05
-8.99907064916665e-05   1.1263161359596763e-05   -8.233267299609186e-05
-8.99907064916665e-05   1.1263161359596763e-05   -8.233267299609186e-05
-0.00013126745579410004   2.266293499064362e-05   -2.2189086266409096e-05
-0.00013126745579410004   2.266293499064362e-05   -2.2189086266409096e-05
-0.00013126745579410004   2.266293499064362e-05   -2.2189086266409096e-05
-0.00013126745579410004   2.266293499064362e-05   -2.2189086266409096e-05
-0.00019839165350383247   2.1345883980139826e-05   -0.0001348529797222664
-0.00019839165350383247   2.1345883980139826e-05   -0.0001348529797222664
-0.00019839165350383247   2.1345883980139826e-05   -0.0001348529797222664
-0.00019839165350383247   2.1345883980139826e-05   -0.0001348529797222664
-0.0001897186999308629   2.590019747620003e-05   -9.762300592600255e-07
-0.0001897186999308629   2.590019747620003e-05   -9.762300592600255e-07
-0.0001897186999308629   2.590019747620003e-05   -9.762300592600255e-07
-0.0001897186999308629   2.590019747620003e-05   -9.762300592600255e-07
-0.00012684946590982779   2.7090046007262683e-05   -0.00010647219587962332
-0.00012684946590982779   2.7090046007262683e-05   -0.00010647219587962332
-0.00012684946590982779   2.7090046007262683e-05   -0.00010647219587962332
-0.00012684946590982779   2.7090046007262683e-05   -0.00010647219587962332
-0.0001545866299052842   2.5552146524941352e-05   -5.932084953113757e-05
-0.0001545866299052842   2.5552146524941352e-05   -5.932084953113757e-05
-0.0001545866299052842   2.5552146524941352e-05   -5.932084953113757e-05
-0.0001545866299052842   2.5552146524941352e-05   -5.932084953113757e-05
-0.0001268494659098281   2.5900197476199163e-05   -1.6901391778978772e-06
-0.0001268494659098281   2.5900197476199163e-05   -1.6901391778978772e-06
-0.0001268494659098281   2.5900197476199163e-05   -1.6901391778978772e-06
-0.0001268494659098281   2.5900197476199163e-05   -1.6901391778978772e-06
-0.0001897186999308629   2.7090046007262683e-05   -0.00010575828676098525
-0.0001897186999308629   2.7090046007262683e-05   -0.00010575828676098525
-0.0001897186999308629   2.7090046007262683e-05   -0.00010575828676098525
-0.0001897186999308629   2.7090046007262683e-05   -0.00010575828676098525
-0.00018251896841841138   2.6749814376473766e-05   1.101526095356525e-05
-0.00018251896841841138   2.6749814376473766e-05   1.101526095356525e-05
-0.00018251896841841138   2.6749814376473766e-05   1.101526095356525e-05
-0.00018251896841841138   2.6749814376473766e-05   1.101526095356525e-05
-0.00012258396608442516   2.8377920226526493e-05   -8.98532731131097e-05
-0.00012258396608442516   2.8377920226526493e-05   -8.98532731131097e-05
-0.00012258396608442516   2.8377920226526493e-05   -8.98532731131097e-05
-0.00012258396608442516   2.8377920226526493e-05   -8.98532731131097e-05
-0.00015126523181812279   2.741565785256434e-05   -4.147380613256867e-05
-0.00015126523181812279   2.741565785256434e-05   -4.147380613256867e-05
-0.00015126523181812279   2.741565785256434e-05   -4.147380613256867e-05
-0.00015126523181812279   2.741565785256434e-05   -4.147380613256867e-05
-0.00012258396608442535   2.6749814376473766e-05   1.003839744353422e-05
-0.00012258396608442535   2.6749814376473766e-05   1.003839744353422e-05
-0.00012258396608442535   2.6749814376473766e-05   1.003839744353422e-05
-0.00012258396608442535   2.6749814376473766e-05   1.003839744353422e-05
-0.000182518968418411   2.8377920226525626e-05   -8.887640960307834e-05
-0.000182518968418411   2.8377920226525626e-05   -8.887640960307834e-05
-0.000182518968418411   2.8377920226525626e-05   -8.887640960307834e-05
-0.000182518968418411   2.8377920226525626e-05   -8.887640960307834e-05
-0.0001749959165452465   2.7491788851449588e-05   2.706408375231133e-05
-0.0001749959165452465   2.7491788851449588e-05   2.706408375231133e-05
-0.0001749959165452465   2.7491788851449588e-05   2.706408375231133e-05
-0.0001749959165452465   2.7491788851449588e-05   2.706408375231133e-05
-0.00011934051542437017   3.061003115409789e-05   -6.756586349740496e-05
-0.00011934051542437017   3.061003115409789e-05   -6.756586349740496e-05
-0.00011934051542437017   3.061003115409789e-05   -6.756586349740496e-05
-0.00011934051542437017   3.061003115409789e-05   -6.756586349740496e-05
-0.00014401680645278236   2.8050165587791692e-05   -2.490279244360253e-05
-0.00014401680645278236   2.8050165587791692e-05   -2.490279244360253e-05
-0.00014401680645278236   2.8050165587791692e-05   -2.490279244360253e-05
-0.00014401680645278236   2.8050165587791692e-05   -2.490279244360253e-05
0.00017355211539695858   -2.6101558361134834e-05   5.896149325811421e-05
0.00017355211539695858   -2.6101558361134834e-05   5.896149325811421e-05
0.00017355211539695858   -2.6101558361134834e-05   5.896149325811421e-05
0.00017355211539695858   -2.6101558361134834e-05   5.896149325811421e-05
8.731273541245742e-05   -3.3046445808809256e-05   -8.893773918465867e-05
8.731273541245742e-05   -3.3046445808809256e-05   -8.893773918465867e-05
8.731273541245742e-05   -3.3046445808809256e-05   -8.893773918465867e-05
8.731273541245742e-05   -3.3046445808809256e-05   -8.893773918465867e-05
8.947101296853454e-05   -2.5486447865365365e-05   4.223291253790517e-05
8.947101296853454e-05   -2.5486447865365365e-05   4.223291253790517e-05
8.947101296853454e-05   -2.5486447865365365e-05   4.223291253790517e-05
8.947101296853454e-05   -2.5486447865365365e-05   4.223291253790517e-05
0.00017790920507893   -3.387288307002325e-05   -0.00010013221318995956
0.00017790920507893   -3.387288307002325e-05   -0.00010013221318995956
0.00017790920507893   -3.387288307002325e-05   -0.00010013221318995956
0.00017790920507893   -3.387288307002325e-05   -0.00010013221318995956
0.00012680596145344717   -2.6663368354259975e-05   -1.9285849310279185e-05
0.00012680596145344717   -2.6663368354259975e-05   -1.9285849310279185e-05
0.00012680596145344717   -2.6663368354259975e-05   -1.9285849310279185e-05
0.00012680596145344717   -2.6663368354259975e-05   -1.9285849310279185e-05
0.00017790920507893   -2.5486447865365365e-05   4.726477366069973e-05
0.00017790920507893   -2.5486447865365365e-05   4.726477366069973e-05
0.00017790920507893   -2.5486447865365365e-05   4.726477366069973e-05
0.00017790920507893   -2.5486447865365365e-05   4.726477366069973e-05
8.947101296853454e-05   -3.387288307002325e-05   -0.0001051640743127539
8.947101296853454e-05   -3.387288307002325e-05   -0.0001051640743127539
8.947101296853454e-05   -3.387288307002325e-05   -0.0001051640743127539
8.947101296853454e-05   -3.387288307002325e-05   -0.0001051640743127539
9.129587605390322e-05   -2.4603498235616604e-05   3.329190306111587e-05
9.129587605390322e-05   -2.4603498235616604e-05   3.329190306111587e-05
9.129587605390322e-05   -2.4603498235616604e-05   3.329190306111587e-05
9.129587605390322e-05   -2.4603498235616604e-05   3.329190306111587e-05
0.0001806271289461568   -3.357088696620894e-05   -0.00011021308518761701
0.0001806271289461568   -3.357088696620894e-05   -0.00011021308518761701
0.0001806271289461568   -3.357088696620894e-05   -0.00011021308518761701
0.0001806271289461568   -3.357088696620894e-05   -0.00011021308518761701
0.00013129864335526987   -2.751153963029187e-05   -3.163455093768935e-05
0.00013129864335526987   -2.751153963029187e-05   -3.163455093768935e-05
0.00013129864335526987   -2.751153963029187e-05   -3.163455093768935e-05
0.00013129864335526987   -2.751153963029187e-05   -3.163455093768935e-05
0.0001806271289461568   -2.4603498235616604e-05   3.8672336299472657e-05
0.0001806271289461568   -2.4603498235616604e-05   3.8672336299472657e-05
0.0001806271289461568   -2.4603498235616604e-05   3.8672336299472657e-05
0.0001806271289461568   -2.4603498235616604e-05   3.8672336299472657e-05
9.129587605390322e-05   -3.357088696620894e-05   -0.00011559351842597293
9.129587605390322e-05   -3.357088696620894e-05   -0.00011559351842597293
9.129587605390322e-05   -3.357088696620894e-05   -0.00011559351842597293
9.129587605390322e-05   -3.357088696620894e-05   -0.00011559351842597293
9.320610854379844e-05   -2.1152803231644368e-05   1.5914623995643036e-05
9.320610854379844e-05   -2.1152803231644368e-05   1.5914623995643036e-05
9.320610854379844e-05   -2.1152803231644368e-05   1.5914623995643036e-05
9.320610854379844e-05   -2.1152803231644368e-05   1.5914623995643036e-05
0.00018330304917365766   -3.1717468900497106e-05   -0.0001279081443194786
0.00018330304917365766   -3.1717468900497106e-05   -0.0001279081443194786
0.00018330304917365766   -3.1717468900497106e-05   -0.0001279081443194786
0.00018330304917365766   -3.1717468900497106e-05   -0.0001279081443194786
0.00013138766064321717   -2.6484694037486566e-05   -4.45221616865504e-05
0.00013138766064321717   -2.6484694037486566e-05   -4.45221616865504e-05
0.00013138766064321717   -2.6484694037486566e-05   -4.45221616865504e-05
0.00013138766064321717   -2.6484694037486566e-05   -4.45221616865504e-05
8.731273541245742e-05   -1.6991687098179623e-05   5.510182379467234e-06
8.731273541245742e-05   -1.6991687098179623e-05   5.510182379467234e-06
8.731273541245742e-05   -1.6991687098179623e-05   5.510182379467234e-06
8.731273541245742e-05   -1.6991687098179623e-05   5.510182379467234e-06
1.0561513301836443e-05   -3.333936657165092e-05   -0.00013221712882231784
1.0561513301836443e-05   -3.333936657165092e-05   -0.00013221712882231784
1.0561513301836443e-05   -3.333936657165092e-05   -0.00013221712882231784
1.0561513301836443e-05   -3.333936657165092e-05   -0.00013221712882231784
1.3079368017057625e-05   -1.6188926519825585e-05   -1.192963232344267e-06
1.3079368017057625e-05   -1.6188926519825585e-05   -1.192963232344267e-06
1.3079368017057625e-05   -1.6188926519825585e-05   -1.192963232344267e-06
1.3079368017057625e-05   -1.6188926519825585e-05   -1.192963232344267e-06
8.94710129685347e-05   -3.3177635730931125e-05   -0.00011831914595814279
8.94710129685347e-05   -3.3177635730931125e-05   -0.00011831914595814279
8.94710129685347e-05   -3.3177635730931125e-05   -0.00011831914595814279
8.94710129685347e-05   -3.3177635730931125e-05   -0.00011831914595814279
5.030596743539514e-05   -2.2481582931727605e-05   -5.946170174909917e-05
5.030596743539514e-05   -2.2481582931727605e-05   -5.946170174909917e-05
5.030596743539514e-05   -2.2481582931727605e-05   -5.946170174909917e-05
5.030596743539514e-05   -2.2481582931727605e-05   -5.946170174909917e-05
8.947101296853449e-05   -1.6188926519826452e-05   9.000262294319404e-06
8.947101296853449e-05   -1.6188926519826452e-05   9.000262294319404e-06
8.947101296853449e-05   -1.6188926519826452e-05   9.000262294319404e-06
8.947101296853449e-05   -1.6188926519826452e-05   9.000262294319404e-06
1.3079368017057571e-05   -3.317763573093199e-05   -0.00012851237148480592
1.3079368017057571e-05   -3.317763573093199e-05   -0.00012851237148480592
1.3079368017057571e-05   -3.317763573093199e-05   -0.00012851237148480592
1.3079368017057571e-05   -3.317763573093199e-05   -0.00012851237148480592
1.535244764942908e-05   -1.4686507813421387e-05   -1.9897391871611173e-06
1.535244764942908e-05   -1.4686507813421387e-05   -1.9897391871611173e-06
1.535244764942908e-05   -1.4686507813421387e-05   -1.9897391871611173e-06
1.535244764942908e-05   -1.4686507813421387e-05   -1.9897391871611173e-06
9.129587605390322e-05   -3.274481937123354e-05   -0.00011772713292659853
9.129587605390322e-05   -3.274481937123354e-05   -0.00011772713292659853
9.129587605390322e-05   -3.274481937123354e-05   -0.00011772713292659853
9.129587605390322e-05   -3.274481937123354e-05   -0.00011772713292659853
5.174363157683381e-05   -2.274022192300107e-05   -5.7809483933753125e-05
5.174363157683381e-05   -2.274022192300107e-05   -5.7809483933753125e-05
5.174363157683381e-05   -2.274022192300107e-05   -5.7809483933753125e-05
5.174363157683381e-05   -2.274022192300107e-05   -5.7809483933753125e-05
9.129587605390322e-05   -1.4686507813422255e-05   8.845247747525566e-06
9.129587605390322e-05   -1.4686507813422255e-05   8.845247747525566e-06
9.129587605390322e-05   -1.4686507813422255e-05   8.845247747525566e-06
9.129587605390322e-05   -1.4686507813422255e-05   8.845247747525566e-06
1.535244764942908e-05   -3.274481937123354e-05   -0.000128562119861285
1.535244764942908e-05   -3.274481937123354e-05   -0.000128562119861285
1.535244764942908e-05   -3.274481937123354e-05   -0.000128562119861285
1.535244764942908e-05   -3.274481937123354e-05   -0.000128562119861285
1.874294195778909e-05   -1.254951639056024e-05   -3.5448411909947547e-06
1.874294195778909e-05   -1.254951639056024e-05   -3.5448411909947547e-06
1.874294195778909e-05   -1.254951639056024e-05   -3.5448411909947547e-06
1.874294195778909e-05   -1.254951639056024e-05   -3.5448411909947547e-06
9.320610854379833e-05   -3.187199780096961e-05   -0.00011605662998809795
9.320610854379833e-05   -3.187199780096961e-05   -0.00011605662998809795
9.320610854379833e-05   -3.187199780096961e-05   -0.00011605662998809795
9.320610854379833e-05   -3.187199780096961e-05   -0.00011605662998809795
5.4464654596045634e-05   -2.240210174575541e-05   -5.71694777083047e-05
5.4464654596045634e-05   -2.240210174575541e-05   -5.71694777083047e-05
5.4464654596045634e-05   -2.240210174575541e-05   -5.71694777083047e-05
5.4464654596045634e-05   -2.240210174575541e-05   -5.71694777083047e-05
1.0561513301836443e-05   -9.04178661517447e-06   -1.3558224324521084e-05
1.0561513301836443e-05   -9.04178661517447e-06   -1.3558224324521084e-05
1.0561513301836443e-05   -9.04178661517447e-06   -1.3558224324521084e-05
1.0561513301836443e-05   -9.04178661517447e-06   -1.3558224324521084e-05
-6.540452688246916e-05   -4.041677039608258e-05   -0.00015899328156690875
-6.540452688246916e-05   -4.041677039608258e-05   -0.00015899328156690875
-6.540452688246916e-05   -4.041677039608258e-05   -0.00015899328156690875
-6.540452688246916e-05   -4.041677039608258e-05   -0.00015899328156690875
-6.148467917582368e-05   -8.099288756731327e-06   -2.8970642315846902e-05
-6.148467917582368e-05   -8.099288756731327e-06   -2.8970642315846902e-05
-6.148467917582368e-05   -8.099288756731327e-06   -2.8970642315846902e-05
-6.148467917582368e-05   -8.099288756731327e-06   -2.8970642315846902e-05
1.3079368017057571e-05   -4.132506674564291e-05   -0.0001333085875106357
1.3079368017057571e-05   -4.132506674564291e-05   -0.0001333085875106357
1.3079368017057571e-05   -4.132506674564291e-05   -0.0001333085875106357
1.3079368017057571e-05   -4.132506674564291e-05   -0.0001333085875106357
-2.4926391197431164e-05   -2.290086306639804e-05   -8.102017769403462e-05
-2.4926391197431164e-05   -2.290086306639804e-05   -8.102017769403462e-05
-2.4926391197431164e-05   -2.290086306639804e-05   -8.102017769403462e-05
-2.4926391197431164e-05   -2.290086306639804e-05   -8.102017769403462e-05
1.3079368017057571e-05   -8.099288756731327e-06   -9.035175522499866e-06
1.3079368017057571e-05   -8.099288756731327e-06   -9.035175522499866e-06
1.3079368017057571e-05   -8.099288756731327e-06   -9.035175522499866e-06
1.3079368017057571e-05   -8.099288756731327e-06   -9.035175522499866e-06
-6.148467917582379e-05   -4.132506674564291e-05   -0.00015324405430398218
-6.148467917582379e-05   -4.132506674564291e-05   -0.00015324405430398218
-6.148467917582379e-05   -4.132506674564291e-05   -0.00015324405430398218
-6.148467917582379e-05   -4.132506674564291e-05   -0.00015324405430398218
-5.8109373595265654e-05   -6.620732130220748e-06   -2.7077928283355916e-05
-5.8109373595265654e-05   -6.620732130220748e-06   -2.7077928283355916e-05
-5.8109373595265654e-05   -6.620732130220748e-06   -2.7077928283355916e-05
-5.8109373595265654e-05   -6.620732130220748e-06   -2.7077928283355916e-05
1.535244764942908e-05   -4.1149193975037295e-05   -0.00012879721991762322
1.535244764942908e-05   -4.1149193975037295e-05   -0.00012879721991762322
1.535244764942908e-05   -4.1149193975037295e-05   -0.00012879721991762322
1.535244764942908e-05   -4.1149193975037295e-05   -0.00012879721991762322
-2.2141771430996804e-05   -2.343239151670999e-05   -7.693693625857707e-05
-2.2141771430996804e-05   -2.343239151670999e-05   -7.693693625857707e-05
-2.2141771430996804e-05   -2.343239151670999e-05   -7.693693625857707e-05
-2.2141771430996804e-05   -2.343239151670999e-05   -7.693693625857707e-05
1.535244764942908e-05   -6.620732130220748e-06   -6.360851176465208e-06
1.535244764942908e-05   -6.620732130220748e-06   -6.360851176465208e-06
1.535244764942908e-05   -6.620732130220748e-06   -6.360851176465208e-06
1.535244764942908e-05   -6.620732130220748e-06   -6.360851176465208e-06
-5.8109373595265844e-05   -4.114919397503816e-05   -0.00014951429702451382
-5.8109373595265844e-05   -4.114919397503816e-05   -0.00014951429702451382
-5.8109373595265844e-05   -4.114919397503816e-05   -0.00014951429702451382
-5.8109373595265844e-05   -4.114919397503816e-05   -0.00014951429702451382
-5.22873075707984e-05   -5.2202275339823315e-06   -2.695924963191671e-05
-5.22873075707984e-05   -5.2202275339823315e-06   -2.695924963191671e-05
-5.22873075707984e-05   -5.2202275339823315e-06   -2.695924963191671e-05
-5.22873075707984e-05   -5.2202275339823315e-06   -2.695924963191671e-05
1.874294195778909e-05   -3.972672889307385e-05   -0.00012463909803077345
1.874294195778909e-05   -3.972672889307385e-05   -0.00012463909803077345
1.874294195778909e-05   -3.972672889307385e-05   -0.00012463909803077345
1.874294195778909e-05   -3.972672889307385e-05   -0.00012463909803077345
-1.8524003061333753e-05   -2.292866437650712e-05   -7.260636170884193e-05
-1.8524003061333753e-05   -2.292866437650712e-05   -7.260636170884193e-05
-1.8524003061333753e-05   -2.292866437650712e-05   -7.260636170884193e-05
-1.8524003061333753e-05   -2.292866437650712e-05   -7.260636170884193e-05
-6.540452688246902e-05   2.038637596032608e-06   -1.891765213646703e-05
-6.540452688246902e-05   2.038637596032608e-06   -1.891765213646703e-05
-6.540452688246902e-05   2.038637596032608e-06   -1.891765213646703e-05
-6.540452688246902e-05   2.038637596032608e-06   -1.891765213646703e-05
-0.00015023756598563122   -5.058675954057717e-05   -0.0001918812889237032
-0.00015023756598563122   -5.058675954057717e-05   -0.0001918812889237032
-0.00015023756598563122   -5.058675954057717e-05   -0.0001918812889237032
-0.00015023756598563122   -5.058675954057717e-05   -0.0001918812889237032
-0.0001455714684485208   3.7973675241489632e-06   -4.8931425088018926e-05
-0.0001455714684485208   3.7973675241489632e-06   -4.8931425088018926e-05
-0.0001455714684485208   3.7973675241489632e-06   -4.8931425088018926e-05
-0.0001455714684485208   3.7973675241489632e-06   -4.8931425088018926e-05
-6.148467917582368e-05   -5.640633127915271e-05   -0.00015295385459386626
-6.148467917582368e-05   -5.640633127915271e-05   -0.00015295385459386626
-6.148467917582368e-05   -5.640633127915271e-05   -0.00015295385459386626
-6.148467917582368e-05   -5.640633127915271e-05   -0.00015295385459386626
-0.00010414404370996963   -2.582668033155114e-05   -0.0001002027042721846
-0.00010414404370996963   -2.582668033155114e-05   -0.0001002027042721846
-0.00010414404370996963   -2.582668033155114e-05   -0.0001002027042721846
-0.00010414404370996963   -2.582668033155114e-05   -0.0001002027042721846
-6.148467917582368e-05   3.7973675241489632e-06   -1.2809205806038355e-05
-6.148467917582368e-05   3.7973675241489632e-06   -1.2809205806038355e-05
-6.148467917582368e-05   3.7973675241489632e-06   -1.2809205806038355e-05
-6.148467917582368e-05   3.7973675241489632e-06   -1.2809205806038355e-05
-0.0001455714684485208   -5.640633127915271e-05   -0.00018907607387584797
-0.0001455714684485208   -5.640633127915271e-05   -0.00018907607387584797
-0.0001455714684485208   -5.640633127915271e-05   -0.00018907607387584797
-0.0001455714684485208   -5.640633127915271e-05   -0.00018907607387584797
-0.00014109689502808401   5.418058287857269e-06   -4.380167210924022e-05
-0.00014109689502808401   5.418058287857269e-06   -4.380167210924022e-05
-0.00014109689502808401   5.418058287857269e-06   -4.380167210924022e-05
-0.00014109689502808401   5.418058287857269e-06   -4.380167210924022e-05
-5.810937359526576e-05   -5.673871984438958e-05   -0.0001448201409512558
-5.810937359526576e-05   -5.673871984438958e-05   -0.0001448201409512558
-5.810937359526576e-05   -5.673871984438958e-05   -0.0001448201409512558
-5.810937359526576e-05   -5.673871984438958e-05   -0.0001448201409512558
-9.959488978074997e-05   -2.593016823889717e-05   -9.416274493874357e-05
-9.959488978074997e-05   -2.593016823889717e-05   -9.416274493874357e-05
-9.959488978074997e-05   -2.593016823889717e-05   -9.416274493874357e-05
-9.959488978074997e-05   -2.593016823889717e-05   -9.416274493874357e-05
-5.810937359526568e-05   5.418058287857269e-06   -6.5076052298915915e-06
-5.810937359526568e-05   5.418058287857269e-06   -6.5076052298915915e-06
-5.810937359526568e-05   5.418058287857269e-06   -6.5076052298915915e-06
-5.810937359526568e-05   5.418058287857269e-06   -6.5076052298915915e-06
-0.00014109689502808426   -5.673871984438871e-05   -0.000182114207830604
-0.00014109689502808426   -5.673871984438871e-05   -0.000182114207830604
-0.00014109689502808426   -5.673871984438871e-05   -0.000182114207830604
-0.00014109689502808426   -5.673871984438871e-05   -0.000182114207830604
-0.00013377434592052215   6.792567611045228e-06   -3.856482887222654e-05
-0.00013377434592052215   6.792567611045228e-06   -3.856482887222654e-05
-0.00013377434592052215   6.792567611045228e-06   -3.856482887222654e-05
-0.00013377434592052215   6.792567611045228e-06   -3.856482887222654e-05
-5.228730757079862e-05   -5.188574571595404e-05   -0.0001391695714589002
-5.228730757079862e-05   -5.188574571595404e-05   -0.0001391695714589002
-5.228730757079862e-05   -5.188574571595404e-05   -0.0001391695714589002
-5.228730757079862e-05   -5.188574571595404e-05   -0.0001391695714589002
-9.508910714781529e-05   -2.297779733604656e-05   -8.517800785848143e-05
-9.508910714781529e-05   -2.297779733604656e-05   -8.517800785848143e-05
-9.508910714781529e-05   -2.297779733604656e-05   -8.517800785848143e-05
-9.508910714781529e-05   -2.297779733604656e-05   -8.517800785848143e-05
-0.00015023756598563122   2.134588398013896e-05   -3.311826175226825e-05
-0.00015023756598563122   2.134588398013896e-05   -3.311826175226825e-05
-0.00015023756598563122   2.134588398013896e-05   -3.311826175226825e-05
-0.00015023756598563122   2.134588398013896e-05   -3.311826175226825e-05
-0.000259088840253748   0.0   -0.0002273445825872137
-0.000259088840253748   0.0   -0.0002273445825872137
-0.000259088840253748   0.0   -0.0002273445825872137
-0.000259088840253748   0.0   -0.0002273445825872137
-0.0002522478067245891   2.7090046007262683e-05   -2.551090453947573e-05
-0.0002522478067245891   2.7090046007262683e-05   -2.551090453947573e-05
-0.0002522478067245891   2.7090046007262683e-05   -2.551090453947573e-05
-0.0002522478067245891   2.7090046007262683e-05   -2.551090453947573e-05
-0.00014557146844852058   0.0   -0.0001870507740618994
-0.00014557146844852058   0.0   -0.0001870507740618994
-0.00014557146844852058   0.0   -0.0001870507740618994
-0.00014557146844852058   0.0   -0.0001870507740618994
-0.00019320875655356383   8.240957666732877e-06   -0.00011259986848686696
-0.00019320875655356383   8.240957666732877e-06   -0.00011259986848686696
-0.00019320875655356383   8.240957666732877e-06   -0.00011259986848686696
-0.00019320875655356383   8.240957666732877e-06   -0.00011259986848686696
-0.0001455714684485207   2.7090046007262683e-05   -9.256876935118293e-06
-0.0001455714684485207   2.7090046007262683e-05   -9.256876935118293e-06
-0.0001455714684485207   2.7090046007262683e-05   -9.256876935118293e-06
-0.0001455714684485207   2.7090046007262683e-05   -9.256876935118293e-06
-0.0002522478067245887   0.0   -0.00020330480166625645
-0.0002522478067245887   0.0   -0.00020330480166625645
-0.0002522478067245887   0.0   -0.00020330480166625645
-0.0002522478067245887   0.0   -0.00020330480166625645
-0.00024646935446699745   2.8377920226526493e-05   -1.0519863197862214e-05
-0.00024646935446699745   2.8377920226526493e-05   -1.0519863197862214e-05
-0.00024646935446699745   2.8377920226526493e-05   -1.0519863197862214e-05
-0.00024646935446699745   2.8377920226526493e-05   -1.0519863197862214e-05
-0.00014109689502808426   0.0   -0.0001691138767934693
-0.00014109689502808426   0.0   -0.0001691138767934693
-0.00014109689502808426   0.0   -0.0001691138767934693
-0.00014109689502808426   0.0   -0.0001691138767934693
-0.00019113431026823746   1.310899126038146e-05   -9.358357948277356e-05
-0.00019113431026823746   1.310899126038146e-05   -9.358357948277356e-05
-0.00019113431026823746   1.310899126038146e-05   -9.358357948277356e-05
-0.00019113431026823746   1.310899126038146e-05   -9.358357948277356e-05
-0.00014109689502808426   2.8377920226526493e-05   6.5068889380532485e-06
-0.00014109689502808426   2.8377920226526493e-05   6.5068889380532485e-06
-0.00014109689502808426   2.8377920226526493e-05   6.5068889380532485e-06
-0.00014109689502808426   2.8377920226526493e-05   6.5068889380532485e-06
-0.000246469354466997   0.0   -0.00018614062892938427
-0.000246469354466997   0.0   -0.00018614062892938427
-0.000246469354466997   0.0   -0.00018614062892938427
-0.000246469354466997   0.0   -0.00018614062892938427
-0.00023494906859722607   3.061003115409789e-05   1.3578323011039992e-05
-0.00023494906859722607   3.061003115409789e-05   1.3578323011039992e-05
-0.00023494906859722607   3.061003115409789e-05   1.3578323011039992e-05
-0.00023494906859722607   3.061003115409789e-05   1.3578323011039992e-05
-0.00013377434592052237   0.0   -0.00013668019609100766
-0.00013377434592052237   0.0   -0.00013668019609100766
-0.00013377434592052237   0.0   -0.00013668019609100766
-0.00013377434592052237   0.0   -0.00013668019609100766
-0.00018111004634404663   1.6184238893888862e-05   -6.74979053881333e-05
-0.00018111004634404663   1.6184238893888862e-05   -6.74979053881333e-05
-0.00018111004634404663   1.6184238893888862e-05   -6.74979053881333e-05
-0.00018111004634404663   1.6184238893888862e-05   -6.74979053881333e-05
0.00019201377407921354   -3.3046445808809256e-05   0.00011475473694015853
0.00019201377407921354   -3.3046445808809256e-05   0.00011475473694015853
0.00019201377407921354   -3.3046445808809256e-05   0.00011475473694015853
0.00019201377407921354   -3.3046445808809256e-05   0.00011475473694015853
9.971380072040331e-05   -2.539525271509982e-05   -3.4487836134966966e-05
9.971380072040331e-05   -2.539525271509982e-05   -3.4487836134966966e-05
9.971380072040331e-05   -2.539525271509982e-05   -3.4487836134966966e-05
9.971380072040331e-05   -2.539525271509982e-05   -3.4487836134966966e-05
9.718678190088624e-05   -3.387288307002325e-05   0.00010143096657880876
9.718678190088624e-05   -3.387288307002325e-05   0.00010143096657880876
9.718678190088624e-05   -3.387288307002325e-05   0.00010143096657880876
9.718678190088624e-05   -3.387288307002325e-05   0.00010143096657880876
0.00018993454484242427   -2.7934168672600485e-05   -5.671186696220876e-05
0.00018993454484242427   -2.7934168672600485e-05   -5.671186696220876e-05
0.00018993454484242427   -2.7934168672600485e-05   -5.671186696220876e-05
0.00018993454484242427   -2.7934168672600485e-05   -5.671186696220876e-05
0.00013879526919780336   -2.843778198430031e-05   2.8822427099179553e-05
0.00013879526919780336   -2.843778198430031e-05   2.8822427099179553e-05
0.00013879526919780336   -2.843778198430031e-05   2.8822427099179553e-05
0.00013879526919780336   -2.843778198430031e-05   2.8822427099179553e-05
0.00018993454484242427   -3.387288307002325e-05   9.786773794035527e-05
0.00018993454484242427   -3.387288307002325e-05   9.786773794035527e-05
0.00018993454484242427   -3.387288307002325e-05   9.786773794035527e-05
0.00018993454484242427   -3.387288307002325e-05   9.786773794035527e-05
9.718678190088624e-05   -2.7934168672600485e-05   -5.314863832375522e-05
9.718678190088624e-05   -2.7934168672600485e-05   -5.314863832375522e-05
9.718678190088624e-05   -2.7934168672600485e-05   -5.314863832375522e-05
9.718678190088624e-05   -2.7934168672600485e-05   -5.314863832375522e-05
9.490250416199227e-05   -3.357088696620894e-05   9.110896241583746e-05
9.490250416199227e-05   -3.357088696620894e-05   9.110896241583746e-05
9.490250416199227e-05   -3.357088696620894e-05   9.110896241583746e-05
9.490250416199227e-05   -3.357088696620894e-05   9.110896241583746e-05
0.00018753648437490735   -2.817300660551414e-05   -6.651973282210391e-05
0.00018753648437490735   -2.817300660551414e-05   -6.651973282210391e-05
0.00018753648437490735   -2.817300660551414e-05   -6.651973282210391e-05
0.00018753648437490735   -2.817300660551414e-05   -6.651973282210391e-05
0.00013866809690013247   -2.8936343505003327e-05   1.538558177554758e-05
0.00013866809690013247   -2.8936343505003327e-05   1.538558177554758e-05
0.00013866809690013247   -2.8936343505003327e-05   1.538558177554758e-05
0.00013866809690013247   -2.8936343505003327e-05   1.538558177554758e-05
0.00018753648437490767   -3.357088696620981e-05   8.787023419942102e-05
0.00018753648437490767   -3.357088696620981e-05   8.787023419942102e-05
0.00018753648437490767   -3.357088696620981e-05   8.787023419942102e-05
0.00018753648437490767   -3.357088696620981e-05   8.787023419942102e-05
9.490250416199227e-05   -2.817300660551414e-05   -6.328100460568703e-05
9.490250416199227e-05   -2.817300660551414e-05   -6.328100460568703e-05
9.490250416199227e-05   -2.817300660551414e-05   -6.328100460568703e-05
9.490250416199227e-05   -2.817300660551414e-05   -6.328100460568703e-05
9.211655525913695e-05   -3.1717468900497106e-05   7.431619650832139e-05
9.211655525913695e-05   -3.1717468900497106e-05   7.431619650832139e-05
9.211655525913695e-05   -3.1717468900497106e-05   7.431619650832139e-05
9.211655525913695e-05   -3.1717468900497106e-05   7.431619650832139e-05
0.00018377975591122746   -2.7602889184643285e-05   -8.092455240800808e-05
0.00018377975591122746   -2.7602889184643285e-05   -8.092455240800808e-05
0.00018377975591122746   -2.7602889184643285e-05   -8.092455240800808e-05
0.00018377975591122746   -2.7602889184643285e-05   -8.092455240800808e-05
0.00013391471784645893   -2.7517537202149424e-05   2.1326331771092267e-06
0.00013391471784645893   -2.7517537202149424e-05   2.1326331771092267e-06
0.00013391471784645893   -2.7517537202149424e-05   2.1326331771092267e-06
0.00013391471784645893   -2.7517537202149424e-05   2.1326331771092267e-06
9.971380072040331e-05   -3.333936657165092e-05   8.587467084280763e-05
9.971380072040331e-05   -3.333936657165092e-05   8.587467084280763e-05
9.971380072040331e-05   -3.333936657165092e-05   8.587467084280763e-05
9.971380072040331e-05   -3.333936657165092e-05   8.587467084280763e-05
2.1495137122160533e-05   -1.5782271322864992e-05   -3.3955511338324557e-05
2.1495137122160533e-05   -1.5782271322864992e-05   -3.3955511338324557e-05
2.1495137122160533e-05   -1.5782271322864992e-05   -3.3955511338324557e-05
2.1495137122160533e-05   -1.5782271322864992e-05   -3.3955511338324557e-05
1.7495375937579428e-05   -3.317763573093199e-05   9.813555111810781e-05
1.7495375937579428e-05   -3.317763573093199e-05   9.813555111810781e-05
1.7495375937579428e-05   -3.317763573093199e-05   9.813555111810781e-05
1.7495375937579428e-05   -3.317763573093199e-05   9.813555111810781e-05
9.718678190088624e-05   -1.6744875423119372e-05   -4.4543115005424966e-05
9.718678190088624e-05   -1.6744875423119372e-05   -4.4543115005424966e-05
9.718678190088624e-05   -1.6744875423119372e-05   -4.4543115005424966e-05
9.718678190088624e-05   -1.6744875423119372e-05   -4.4543115005424966e-05
5.889429262920102e-05   -2.3845835089124356e-05   2.3538276246986905e-05
5.889429262920102e-05   -2.3845835089124356e-05   2.3538276246986905e-05
5.889429262920102e-05   -2.3845835089124356e-05   2.3538276246986905e-05
5.889429262920102e-05   -2.3845835089124356e-05   2.3538276246986905e-05
9.718678190088635e-05   -3.3177635730931125e-05   8.827589493341998e-05
9.718678190088635e-05   -3.3177635730931125e-05   8.827589493341998e-05
9.718678190088635e-05   -3.3177635730931125e-05   8.827589493341998e-05
9.718678190088635e-05   -3.3177635730931125e-05   8.827589493341998e-05
1.7495375937579428e-05   -1.6744875423119372e-05   -3.468345882073724e-05
1.7495375937579428e-05   -1.6744875423119372e-05   -3.468345882073724e-05
1.7495375937579428e-05   -1.6744875423119372e-05   -3.468345882073724e-05
1.7495375937579428e-05   -1.6744875423119372e-05   -3.468345882073724e-05
1.4645911789439503e-05   -3.274481937123354e-05   9.83143485321393e-05
1.4645911789439503e-05   -3.274481937123354e-05   9.83143485321393e-05
1.4645911789439503e-05   -3.274481937123354e-05   9.83143485321393e-05
1.4645911789439503e-05   -3.274481937123354e-05   9.83143485321393e-05
9.490250416199227e-05   -1.7179818343022665e-05   -4.478563937237572e-05
9.490250416199227e-05   -1.7179818343022665e-05   -4.478563937237572e-05
9.490250416199227e-05   -1.7179818343022665e-05   -4.478563937237572e-05
9.490250416199227e-05   -1.7179818343022665e-05   -4.478563937237572e-05
5.547235638651618e-05   -2.3362542722575944e-05   2.4640908214485424e-05
5.547235638651618e-05   -2.3362542722575944e-05   2.4640908214485424e-05
5.547235638651618e-05   -2.3362542722575944e-05   2.4640908214485424e-05
5.547235638651618e-05   -2.3362542722575944e-05   2.4640908214485424e-05
9.490250416199243e-05   -3.274481937123267e-05   8.897534791521252e-05
9.490250416199243e-05   -3.274481937123267e-05   8.897534791521252e-05
9.490250416199243e-05   -3.274481937123267e-05   8.897534791521252e-05
9.490250416199243e-05   -3.274481937123267e-05   8.897534791521252e-05
1.4645911789439503e-05   -1.7179818343022665e-05   -3.544663875544888e-05
1.4645911789439503e-05   -1.7179818343022665e-05   -3.544663875544888e-05
1.4645911789439503e-05   -1.7179818343022665e-05   -3.544663875544888e-05
1.4645911789439503e-05   -1.7179818343022665e-05   -3.544663875544888e-05
1.1474999935602126e-05   -3.187199780096961e-05   0.00010154687142587254
1.1474999935602126e-05   -3.187199780096961e-05   0.00010154687142587254
1.1474999935602126e-05   -3.187199780096961e-05   0.00010154687142587254
1.1474999935602126e-05   -3.187199780096961e-05   0.00010154687142587254
9.211655525913684e-05   -1.680472915953704e-05   -4.189608196487833e-05
9.211655525913684e-05   -1.680472915953704e-05   -4.189608196487833e-05
9.211655525913684e-05   -1.680472915953704e-05   -4.189608196487833e-05
9.211655525913684e-05   -1.680472915953704e-05   -4.189608196487833e-05
5.33741285482291e-05   -2.2347073714528223e-05   2.600003595296281e-05
5.33741285482291e-05   -2.2347073714528223e-05   2.600003595296281e-05
5.33741285482291e-05   -2.2347073714528223e-05   2.600003595296281e-05
5.33741285482291e-05   -2.2347073714528223e-05   2.600003595296281e-05
2.1495137122160587e-05   -4.041677039608258e-05   8.845776551603436e-05
2.1495137122160587e-05   -4.041677039608258e-05   8.845776551603436e-05
2.1495137122160587e-05   -4.041677039608258e-05   8.845776551603436e-05
2.1495137122160587e-05   -4.041677039608258e-05   8.845776551603436e-05
-5.362545520382604e-05   -6.759673839049941e-06   -1.6548963759723413e-05
-5.362545520382604e-05   -6.759673839049941e-06   -1.6548963759723413e-05
-5.362545520382604e-05   -6.759673839049941e-06   -1.6548963759723413e-05
-5.362545520382604e-05   -6.759673839049941e-06   -1.6548963759723413e-05
-5.984965993618193e-05   -4.132506674564291e-05   0.00011384931871743099
-5.984965993618193e-05   -4.132506674564291e-05   0.00011384931871743099
-5.984965993618193e-05   -4.132506674564291e-05   0.00011384931871743099
-5.984965993618193e-05   -4.132506674564291e-05   0.00011384931871743099
1.7495375937579428e-05   -7.14176070372094e-06   -3.55690580306577e-05
1.7495375937579428e-05   -7.14176070372094e-06   -3.55690580306577e-05
1.7495375937579428e-05   -7.14176070372094e-06   -3.55690580306577e-05
1.7495375937579428e-05   -7.14176070372094e-06   -3.55690580306577e-05
-1.7941073171736082e-05   -2.3145147112128492e-05   3.309372232991278e-05
-1.7941073171736082e-05   -2.3145147112128492e-05   3.309372232991278e-05
-1.7941073171736082e-05   -2.3145147112128492e-05   3.309372232991278e-05
-1.7941073171736082e-05   -2.3145147112128492e-05   3.309372232991278e-05
1.7495375937579428e-05   -4.132506674564291e-05   9.333933509227772e-05
1.7495375937579428e-05   -4.132506674564291e-05   9.333933509227772e-05
1.7495375937579428e-05   -4.132506674564291e-05   9.333933509227772e-05
1.7495375937579428e-05   -4.132506674564291e-05   9.333933509227772e-05
-5.984965993618182e-05   -7.14176070372094e-06   -1.505907440550432e-05
-5.984965993618182e-05   -7.14176070372094e-06   -1.505907440550432e-05
-5.984965993618182e-05   -7.14176070372094e-06   -1.505907440550432e-05
-5.984965993618182e-05   -7.14176070372094e-06   -1.505907440550432e-05
-6.364928612428213e-05   -4.114919397503816e-05   0.00011820403535542715
-6.364928612428213e-05   -4.114919397503816e-05   0.00011820403535542715
-6.364928612428213e-05   -4.114919397503816e-05   0.00011820403535542715
-6.364928612428213e-05   -4.114919397503816e-05   0.00011820403535542715
1.4645911789439503e-05   -7.607882508992719e-06   -3.241274804706884e-05
1.4645911789439503e-05   -7.607882508992719e-06   -3.241274804706884e-05
1.4645911789439503e-05   -7.607882508992719e-06   -3.241274804706884e-05
1.4645911789439503e-05   -7.607882508992719e-06   -3.241274804706884e-05
-2.215261076115083e-05   -2.3084169952716435e-05   3.82038953368163e-05
-2.215261076115083e-05   -2.3084169952716435e-05   3.82038953368163e-05
-2.215261076115083e-05   -2.3084169952716435e-05   3.82038953368163e-05
-2.215261076115083e-05   -2.3084169952716435e-05   3.82038953368163e-05
1.4645911789439503e-05   -4.1149193975037295e-05   9.807924847579988e-05
1.4645911789439503e-05   -4.1149193975037295e-05   9.807924847579988e-05
1.4645911789439503e-05   -4.1149193975037295e-05   9.807924847579988e-05
1.4645911789439503e-05   -4.1149193975037295e-05   9.807924847579988e-05
-6.364928612428197e-05   -7.607882508992719e-06   -1.2287961167441793e-05
-6.364928612428197e-05   -7.607882508992719e-06   -1.2287961167441793e-05
-6.364928612428197e-05   -7.607882508992719e-06   -1.2287961167441793e-05
-6.364928612428197e-05   -7.607882508992719e-06   -1.2287961167441793e-05
-6.812370195595773e-05   -3.972672889307385e-05   0.0001238501710929974
-6.812370195595773e-05   -3.972672889307385e-05   0.0001238501710929974
-6.812370195595773e-05   -3.972672889307385e-05   0.0001238501710929974
-6.812370195595773e-05   -3.972672889307385e-05   0.0001238501710929974
1.1474999935602126e-05   -7.572930787150441e-06   -2.8106610923156862e-05
1.1474999935602126e-05   -7.572930787150441e-06   -2.8106610923156862e-05
1.1474999935602126e-05   -7.572930787150441e-06   -2.8106610923156862e-05
1.1474999935602126e-05   -7.572930787150441e-06   -2.8106610923156862e-05
-2.5579682325854448e-05   -2.218222802362682e-05   4.241677118782365e-05
-2.5579682325854448e-05   -2.218222802362682e-05   4.241677118782365e-05
-2.5579682325854448e-05   -2.218222802362682e-05   4.241677118782365e-05
-2.5579682325854448e-05   -2.218222802362682e-05   4.241677118782365e-05
-5.362545520382609e-05   -5.058675954057717e-05   0.00010733925437542537
-5.362545520382609e-05   -5.058675954057717e-05   0.00010733925437542537
-5.362545520382609e-05   -5.058675954057717e-05   0.00010733925437542537
-5.362545520382609e-05   -5.058675954057717e-05   0.00010733925437542537
-0.00013930573762280658   6.91714364353755e-06   -9.588744124063193e-07
-0.00013930573762280658   6.91714364353755e-06   -9.588744124063193e-07
-0.00013930573762280658   6.91714364353755e-06   -9.588744124063193e-07
-0.00013930573762280658   6.91714364353755e-06   -9.588744124063193e-07
-0.00014676799997127515   -5.640633127915271e-05   0.0001518666199411137
-0.00014676799997127515   -5.640633127915271e-05   0.0001518666199411137
-0.00014676799997127515   -5.640633127915271e-05   0.0001518666199411137
-0.00014676799997127515   -5.640633127915271e-05   0.0001518666199411137
-5.984965993618182e-05   6.4721712434599385e-06   -3.072438163094146e-05
-5.984965993618182e-05   6.4721712434599385e-06   -3.072438163094146e-05
-5.984965993618182e-05   6.4721712434599385e-06   -3.072438163094146e-05
-5.984965993618182e-05   6.4721712434599385e-06   -3.072438163094146e-05
-9.847964871679293e-05   -2.1160070968339814e-05   5.023827833048971e-05
-9.847964871679293e-05   -2.1160070968339814e-05   5.023827833048971e-05
-9.847964871679293e-05   -2.1160070968339814e-05   5.023827833048971e-05
-9.847964871679293e-05   -2.1160070968339814e-05   5.023827833048971e-05
-5.984965993618193e-05   -5.640633127915271e-05   0.00011413951842754663
-5.984965993618193e-05   -5.640633127915271e-05   0.00011413951842754663
-5.984965993618193e-05   -5.640633127915271e-05   0.00011413951842754663
-5.984965993618193e-05   -5.640633127915271e-05   0.00011413951842754663
-0.00014676799997127515   6.472171243459071e-06   7.002719882625609e-06
-0.00014676799997127515   6.472171243459071e-06   7.002719882625609e-06
-0.00014676799997127515   6.472171243459071e-06   7.002719882625609e-06
-0.00014676799997127515   6.472171243459071e-06   7.002719882625609e-06
-0.00015131976827151096   -5.673871984438871e-05   0.00016034589907923478
-0.00015131976827151096   -5.673871984438871e-05   0.00016034589907923478
-0.00015131976827151096   -5.673871984438871e-05   0.00016034589907923478
-0.00015131976827151096   -5.673871984438871e-05   0.00016034589907923478
-6.364928612428197e-05   5.674126239860362e-06   -2.3219278816695855e-05
-6.364928612428197e-05   5.674126239860362e-06   -2.3219278816695855e-05
-6.364928612428197e-05   5.674126239860362e-06   -2.3219278816695855e-05
-6.364928612428197e-05   5.674126239860362e-06   -2.3219278816695855e-05
-0.00010333918286270306   -2.430479513298306e-05   6.091790190437948e-05
-0.00010333918286270306   -2.430479513298306e-05   6.091790190437948e-05
-0.00010333918286270306   -2.430479513298306e-05   6.091790190437948e-05
-0.00010333918286270306   -2.430479513298306e-05   6.091790190437948e-05
-6.364928612428197e-05   -5.673871984438958e-05   0.00012289819142868516
-6.364928612428197e-05   -5.673871984438958e-05   0.00012289819142868516
-6.364928612428197e-05   -5.673871984438958e-05   0.00012289819142868516
-6.364928612428197e-05   -5.673871984438958e-05   0.00012289819142868516
-0.0001513197682715107   5.674126239860362e-06   1.4228428833853654e-05
-0.0001513197682715107   5.674126239860362e-06   1.4228428833853654e-05
-0.0001513197682715107   5.674126239860362e-06   1.4228428833853654e-05
-0.0001513197682715107   5.674126239860362e-06   1.4228428833853654e-05
-0.00015622012589002827   -5.188574571595404e-05   0.00016401911300394523
-0.00015622012589002827   -5.188574571595404e-05   0.00016401911300394523
-0.00015622012589002827   -5.188574571595404e-05   0.00016401911300394523
-0.00015622012589002827   -5.188574571595404e-05   0.00016401911300394523
-6.812370195595751e-05   4.773445156743515e-06   -1.680377474312482e-05
-6.812370195595751e-05   4.773445156743515e-06   -1.680377474312482e-05
-6.812370195595751e-05   4.773445156743515e-06   -1.680377474312482e-05
-6.812370195595751e-05   4.773445156743515e-06   -1.680377474312482e-05
-0.00010833171185552891   -2.449755966641657e-05   6.777217798339214e-05
-0.00010833171185552891   -2.449755966641657e-05   6.777217798339214e-05
-0.00010833171185552891   -2.449755966641657e-05   6.777217798339214e-05
-0.00010833171185552891   -2.449755966641657e-05   6.777217798339214e-05
-0.0001393057376228061   0.0   0.00011918583301046655
-0.0001393057376228061   0.0   0.00011918583301046655
-0.0001393057376228061   0.0   0.00011918583301046655
-0.0001393057376228061   0.0   0.00011918583301046655
-0.00024575823245210195   3.217665814341918e-05   -3.892899681897516e-05
-0.00024575823245210195   3.217665814341918e-05   -3.892899681897516e-05
-0.00024575823245210195   3.217665814341918e-05   -3.892899681897516e-05
-0.00024575823245210195   3.217665814341918e-05   -3.892899681897516e-05
-0.0002560820988441451   0.0   0.0001725019966989337
-0.0002560820988441451   0.0   0.0001725019966989337
-0.0002560820988441451   0.0   0.0001725019966989337
-0.0002560820988441451   0.0   0.0001725019966989337
-0.00014676799997127488   3.101679490645319e-05   -2.8298245033054887e-05
-0.00014676799997127488   3.101679490645319e-05   -2.8298245033054887e-05
-0.00014676799997127488   3.101679490645319e-05   -2.8298245033054887e-05
-0.00014676799997127488   3.101679490645319e-05   -2.8298245033054887e-05
-0.00018857252043590522   1.9092920302694362e-05   4.8530280503584306e-05
-0.00018857252043590522   1.9092920302694362e-05   4.8530280503584306e-05
-0.00018857252043590522   1.9092920302694362e-05   4.8530280503584306e-05
-0.00018857252043590522   1.9092920302694362e-05   4.8530280503584306e-05
-0.00014676799997127477   0.0   0.00015389191975506223
-0.00014676799997127477   0.0   0.00015389191975506223
-0.00014676799997127477   0.0   0.00015389191975506223
-0.00014676799997127477   0.0   0.00015389191975506223
-0.0002560820988441456   3.101679490645319e-05   -9.688168089183515e-06
-0.0002560820988441456   3.101679490645319e-05   -9.688168089183515e-06
-0.0002560820988441456   3.101679490645319e-05   -9.688168089183515e-06
-0.0002560820988441456   3.101679490645319e-05   -9.688168089183515e-06
-0.00026128553844731916   0.0   0.0001914704025931021
-0.00026128553844731916   0.0   0.0001914704025931021
-0.00026128553844731916   0.0   0.0001914704025931021
-0.00026128553844731916   0.0   0.0001914704025931021
-0.0001513197682715107   3.0206954127888312e-05   -9.930053509978574e-06
-0.0001513197682715107   3.0206954127888312e-05   -9.930053509978574e-06
-0.0001513197682715107   3.0206954127888312e-05   -9.930053509978574e-06
-0.0001513197682715107   3.0206954127888312e-05   -9.930053509978574e-06
-0.00019848872860119804   1.593195623142505e-05   7.724987911071363e-05
-0.00019848872860119804   1.593195623142505e-05   7.724987911071363e-05
-0.00019848872860119804   1.593195623142505e-05   7.724987911071363e-05
-0.00019848872860119804   1.593195623142505e-05   7.724987911071363e-05
-0.0001513197682715107   0.0   0.00017334623011636997
-0.0001513197682715107   0.0   0.00017334623011636997
-0.0001513197682715107   0.0   0.00017334623011636997
-0.0001513197682715107   0.0   0.00017334623011636997
-0.0002612855384473201   3.0206954127888312e-05   8.194118966754413e-06
-0.0002612855384473201   3.0206954127888312e-05   8.194118966754413e-06
-0.0002612855384473201   3.0206954127888312e-05   8.194118966754413e-06
-0.0002612855384473201   3.0206954127888312e-05   8.194118966754413e-06
-0.0002670952489235239   0.0   0.00021677248187578976
-0.0002670952489235239   0.0   0.00021677248187578976
-0.0002670952489235239   0.0   0.00021677248187578976
-0.0002670952489235239   0.0   0.00021677248187578976
-0.00015622012589002827   2.5095009179589532e-05   1.692360464554312e-05
-0.00015622012589002827   2.5095009179589532e-05   1.692360464554312e-05
-0.00015622012589002827   2.5095009179589532e-05   1.692360464554312e-05
-0.00015622012589002827   2.5095009179589532e-05   1.692360464554312e-05
-0.00020019570474780435   1.115575466142417e-05   9.857978878606913e-05
-0.00020019570474780435   1.115575466142417e-05   9.857978878606913e-05
-0.00020019570474780435   1.115575466142417e-05   9.857978878606913e-05
-0.00020019570474780435   1.115575466142417e-05   9.857978878606913e-05
0.00016858256685707822   -2.5395252715100687e-05   0.00011995277206478276
0.00016858256685707822   -2.5395252715100687e-05   0.00011995277206478276
0.00016858256685707822   -2.5395252715100687e-05   0.00011995277206478276
0.00016858256685707822   -2.5395252715100687e-05   0.00011995277206478276
8.532549379348009e-05   -1.9095980468653538e-05   -1.5029453026680142e-05
8.532549379348009e-05   -1.9095980468653538e-05   -1.5029453026680142e-05
8.532549379348009e-05   -1.9095980468653538e-05   -1.5029453026680142e-05
8.532549379348009e-05   -1.9095980468653538e-05   -1.5029453026680142e-05
8.305603605492472e-05   -2.7934168672600485e-05   0.00010476252351069009
8.305603605492472e-05   -2.7934168672600485e-05   0.00010476252351069009
8.305603605492472e-05   -2.7934168672600485e-05   0.00010476252351069009
8.305603605492472e-05   -2.7934168672600485e-05   0.00010476252351069009
0.0001645230039012107   -2.165839240258864e-05   -3.478122199512612e-05
0.0001645230039012107   -2.165839240258864e-05   -3.478122199512612e-05
0.0001645230039012107   -2.165839240258864e-05   -3.478122199512612e-05
0.0001645230039012107   -2.165839240258864e-05   -3.478122199512612e-05
0.00011979039787239112   -2.2576296756675503e-05   4.032386399869213e-05
0.00011979039787239112   -2.2576296756675503e-05   4.032386399869213e-05
0.00011979039787239112   -2.2576296756675503e-05   4.032386399869213e-05
0.00011979039787239112   -2.2576296756675503e-05   4.032386399869213e-05
0.00016452300390121043   -2.7934168672600485e-05   0.00010099705774868325
0.00016452300390121043   -2.7934168672600485e-05   0.00010099705774868325
0.00016452300390121043   -2.7934168672600485e-05   0.00010099705774868325
0.00016452300390121043   -2.7934168672600485e-05   0.00010099705774868325
8.305603605492489e-05   -2.165839240258864e-05   -3.101575623311878e-05
8.305603605492489e-05   -2.165839240258864e-05   -3.101575623311878e-05
8.305603605492489e-05   -2.165839240258864e-05   -3.101575623311878e-05
8.305603605492489e-05   -2.165839240258864e-05   -3.101575623311878e-05
8.013135596629379e-05   -2.817300660551414e-05   9.40707244717542e-05
8.013135596629379e-05   -2.817300660551414e-05   9.40707244717542e-05
8.013135596629379e-05   -2.817300660551414e-05   9.40707244717542e-05
8.013135596629379e-05   -2.817300660551414e-05   9.40707244717542e-05
0.00016042092635713896   -2.204297950307143e-05   -4.342324244111965e-05
0.00016042092635713896   -2.204297950307143e-05   -4.342324244111965e-05
0.00016042092635713896   -2.204297950307143e-05   -4.342324244111965e-05
0.00016042092635713896   -2.204297950307143e-05   -4.342324244111965e-05
0.0001186336436959877   -2.3565709153818698e-05   2.7135866451247735e-05
0.0001186336436959877   -2.3565709153818698e-05   2.7135866451247735e-05
0.0001186336436959877   -2.3565709153818698e-05   2.7135866451247735e-05
0.0001186336436959877   -2.3565709153818698e-05   2.7135866451247735e-05
0.00016042092635713896   -2.817300660551414e-05   9.039270821028893e-05
0.00016042092635713896   -2.817300660551414e-05   9.039270821028893e-05
0.00016042092635713896   -2.817300660551414e-05   9.039270821028893e-05
0.00016042092635713896   -2.817300660551414e-05   9.039270821028893e-05
8.013135596629379e-05   -2.204297950307143e-05   -3.974522617965432e-05
8.013135596629379e-05   -2.204297950307143e-05   -3.974522617965432e-05
8.013135596629379e-05   -2.204297950307143e-05   -3.974522617965432e-05
8.013135596629379e-05   -2.204297950307143e-05   -3.974522617965432e-05
7.706419117540323e-05   -2.7602889184643285e-05   7.822501307394938e-05
7.706419117540323e-05   -2.7602889184643285e-05   7.822501307394938e-05
7.706419117540323e-05   -2.7602889184643285e-05   7.822501307394938e-05
7.706419117540323e-05   -2.7602889184643285e-05   7.822501307394938e-05
0.0001552871191612842   -2.1920036694943017e-05   -5.5556245063005677e-05
0.0001552871191612842   -2.1920036694943017e-05   -5.5556245063005677e-05
0.0001552871191612842   -2.1920036694943017e-05   -5.5556245063005677e-05
0.0001552871191612842   -2.1920036694943017e-05   -5.5556245063005677e-05
0.00011331614657612037   -2.2954326647161953e-05   1.5015949883601196e-05
0.00011331614657612037   -2.2954326647161953e-05   1.5015949883601196e-05
0.00011331614657612037   -2.2954326647161953e-05   1.5015949883601196e-05
0.00011331614657612037   -2.2954326647161953e-05   1.5015949883601196e-05
8.532549379348028e-05   -1.5782271322864992e-05   0.00011373040306002051
8.532549379348028e-05   -1.5782271322864992e-05   0.00011373040306002051
8.532549379348028e-05   -1.5782271322864992e-05   0.00011373040306002051
8.532549379348028e-05   -1.5782271322864992e-05   0.00011373040306002051
9.50805672791271e-06   -6.757815056713558e-06   -7.2173182895682135e-06
9.50805672791271e-06   -6.757815056713558e-06   -7.2173182895682135e-06
9.50805672791271e-06   -6.757815056713558e-06   -7.2173182895682135e-06
9.50805672791271e-06   -6.757815056713558e-06   -7.2173182895682135e-06
7.255410017209215e-06   -1.6744875423119372e-05   0.00011853195253343739
7.255410017209215e-06   -1.6744875423119372e-05   0.00011853195253343739
7.255410017209215e-06   -1.6744875423119372e-05   0.00011853195253343739
7.255410017209215e-06   -1.6744875423119372e-05   0.00011853195253343739
8.305603605492489e-05   -8.13836591575818e-06   -1.296632990050524e-05
8.305603605492489e-05   -8.13836591575818e-06   -1.296632990050524e-05
8.305603605492489e-05   -8.13836591575818e-06   -1.296632990050524e-05
8.305603605492489e-05   -8.13836591575818e-06   -1.296632990050524e-05
4.58437850230222e-05   -1.1021540805358776e-05   5.0783993419760073e-05
4.58437850230222e-05   -1.1021540805358776e-05   5.0783993419760073e-05
4.58437850230222e-05   -1.1021540805358776e-05   5.0783993419760073e-05
4.58437850230222e-05   -1.1021540805358776e-05   5.0783993419760073e-05
8.30560360549248e-05   -1.6744875423119372e-05   0.00011336804682902067
8.30560360549248e-05   -1.6744875423119372e-05   0.00011336804682902067
8.30560360549248e-05   -1.6744875423119372e-05   0.00011336804682902067
8.30560360549248e-05   -1.6744875423119372e-05   0.00011336804682902067
7.255410017209215e-06   -8.13836591575818e-06   -7.802424196088741e-06
7.255410017209215e-06   -8.13836591575818e-06   -7.802424196088741e-06
7.255410017209215e-06   -8.13836591575818e-06   -7.802424196088741e-06
7.255410017209215e-06   -8.13836591575818e-06   -7.802424196088741e-06
4.377899559835003e-06   -1.7179818343022665e-05   0.000117444839148057
4.377899559835003e-06   -1.7179818343022665e-05   0.000117444839148057
4.377899559835003e-06   -1.7179818343022665e-05   0.000117444839148057
4.377899559835003e-06   -1.7179818343022665e-05   0.000117444839148057
8.013135596629379e-05   -9.04856927137071e-06   -1.3689670972364201e-05
8.013135596629379e-05   -9.04856927137071e-06   -1.3689670972364201e-05
8.013135596629379e-05   -9.04856927137071e-06   -1.3689670972364201e-05
8.013135596629379e-05   -9.04856927137071e-06   -1.3689670972364201e-05
4.299038414411027e-05   -1.154673199701365e-05   4.971084636666177e-05
4.299038414411027e-05   -1.154673199701365e-05   4.971084636666177e-05
4.299038414411027e-05   -1.154673199701365e-05   4.971084636666177e-05
4.299038414411027e-05   -1.154673199701365e-05   4.971084636666177e-05
8.013135596629365e-05   -1.7179818343021798e-05   0.00011256608970506643
8.013135596629365e-05   -1.7179818343021798e-05   0.00011256608970506643
8.013135596629365e-05   -1.7179818343021798e-05   0.00011256608970506643
8.013135596629365e-05   -1.7179818343021798e-05   0.00011256608970506643
4.377899559835003e-06   -9.04856927137071e-06   -8.810921529374231e-06
4.377899559835003e-06   -9.04856927137071e-06   -8.810921529374231e-06
4.377899559835003e-06   -9.04856927137071e-06   -8.810921529374231e-06
4.377899559835003e-06   -9.04856927137071e-06   -8.810921529374231e-06
1.1989316229457777e-06   -1.680472915953704e-05   0.00011920016708909589
1.1989316229457777e-06   -1.680472915953704e-05   0.00011920016708909589
1.1989316229457777e-06   -1.680472915953704e-05   0.00011920016708909589
1.1989316229457777e-06   -1.680472915953704e-05   0.00011920016708909589
7.706419117540315e-05   -9.445676823656435e-06   -1.1657363566527944e-05
7.706419117540315e-05   -9.445676823656435e-06   -1.1657363566527944e-05
7.706419117540315e-05   -9.445676823656435e-06   -1.1657363566527944e-05
7.706419117540315e-05   -9.445676823656435e-06   -1.1657363566527944e-05
4.065803881856063e-05   -1.1444139886643279e-05   5.021863486600383e-05
4.065803881856063e-05   -1.1444139886643279e-05   5.021863486600383e-05
4.065803881856063e-05   -1.1444139886643279e-05   5.021863486600383e-05
4.065803881856063e-05   -1.1444139886643279e-05   5.021863486600383e-05
9.50805672791271e-06   -6.759673839049941e-06   0.00011635736646409267
9.50805672791271e-06   -6.759673839049941e-06   0.00011635736646409267
9.50805672791271e-06   -6.759673839049941e-06   0.00011635736646409267
9.50805672791271e-06   -6.759673839049941e-06   0.00011635736646409267
-6.392766735065886e-05   5.962856267105812e-06   1.5980110634992994e-06
-6.392766735065886e-05   5.962856267105812e-06   1.5980110634992994e-06
-6.392766735065886e-05   5.962856267105812e-06   1.5980110634992994e-06
-6.392766735065886e-05   5.962856267105812e-06   1.5980110634992994e-06
-6.646503169003908e-05   -7.14176070372094e-06   0.00012487132896781602
-6.646503169003908e-05   -7.14176070372094e-06   0.00012487132896781602
-6.646503169003908e-05   -7.14176070372094e-06   0.00012487132896781602
-6.646503169003908e-05   -7.14176070372094e-06   0.00012487132896781602
7.255410017209215e-06   4.899865370110688e-06   -5.221049521896156e-06
7.255410017209215e-06   4.899865370110688e-06   -5.221049521896156e-06
7.255410017209215e-06   4.899865370110688e-06   -5.221049521896156e-06
7.255410017209215e-06   4.899865370110688e-06   -5.221049521896156e-06
-2.835452101967591e-05   -2.0009979991367222e-07   5.7188814641593016e-05
-2.835452101967591e-05   -2.0009979991367222e-07   5.7188814641593016e-05
-2.835452101967591e-05   -2.0009979991367222e-07   5.7188814641593016e-05
-2.835452101967591e-05   -2.0009979991367222e-07   5.7188814641593016e-05
7.255410017209269e-06   -7.14176070372094e-06   0.00011764635332351791
7.255410017209269e-06   -7.14176070372094e-06   0.00011764635332351791
7.255410017209269e-06   -7.14176070372094e-06   0.00011764635332351791
7.255410017209269e-06   -7.14176070372094e-06   0.00011764635332351791
-6.646503169003908e-05   4.899865370110688e-06   2.003926122402279e-06
-6.646503169003908e-05   4.899865370110688e-06   2.003926122402279e-06
-6.646503169003908e-05   4.899865370110688e-06   2.003926122402279e-06
-6.646503169003908e-05   4.899865370110688e-06   2.003926122402279e-06
-6.987108375700572e-05   -7.607882508993587e-06   0.00012738963387404385
-6.987108375700572e-05   -7.607882508993587e-06   0.00012738963387404385
-6.987108375700572e-05   -7.607882508993587e-06   0.00012738963387404385
-6.987108375700572e-05   -7.607882508993587e-06   0.00012738963387404385
4.377899559835003e-06   3.91029085368335e-06   -3.269575671630237e-06
4.377899559835003e-06   3.91029085368335e-06   -3.269575671630237e-06
4.377899559835003e-06   3.91029085368335e-06   -3.269575671630237e-06
4.377899559835003e-06   3.91029085368335e-06   -3.269575671630237e-06
-3.0858573557677896e-05   -5.033747926420223e-07   5.810607891201954e-05
-3.0858573557677896e-05   -5.033747926420223e-07   5.810607891201954e-05
-3.0858573557677896e-05   -5.033747926420223e-07   5.810607891201954e-05
-3.0858573557677896e-05   -5.033747926420223e-07   5.810607891201954e-05
4.377899559835003e-06   -7.607882508992719e-06   0.00012047872985643812
4.377899559835003e-06   -7.607882508992719e-06   0.00012047872985643812
4.377899559835003e-06   -7.607882508992719e-06   0.00012047872985643812
4.377899559835003e-06   -7.607882508992719e-06   0.00012047872985643812
-6.987108375700567e-05   3.91029085368335e-06   3.641328345975383e-06
-6.987108375700567e-05   3.91029085368335e-06   3.641328345975383e-06
-6.987108375700567e-05   3.91029085368335e-06   3.641328345975383e-06
-6.987108375700567e-05   3.91029085368335e-06   3.641328345975383e-06
-7.350009640233723e-05   -7.572930787149573e-06   0.00013041059459178127
-7.350009640233723e-05   -7.572930787149573e-06   0.00013041059459178127
-7.350009640233723e-05   -7.572930787149573e-06   0.00013041059459178127
-7.350009640233723e-05   -7.572930787149573e-06   0.00013041059459178127
1.198931622945832e-06   3.195931955888437e-06   -5.491030961808684e-07
1.198931622945832e-06   3.195931955888437e-06   -5.491030961808684e-07
1.198931622945832e-06   3.195931955888437e-06   -5.491030961808684e-07
1.198931622945832e-06   3.195931955888437e-06   -5.491030961808684e-07
-3.4053637652765585e-05   -7.234659477415445e-07   6.055681777218571e-05
-3.4053637652765585e-05   -7.234659477415445e-07   6.055681777218571e-05
-3.4053637652765585e-05   -7.234659477415445e-07   6.055681777218571e-05
-3.4053637652765585e-05   -7.234659477415445e-07   6.055681777218571e-05
-6.392766735065865e-05   6.91714364353755e-06   0.00010507863196463447
-6.392766735065865e-05   6.91714364353755e-06   0.00010507863196463447
-6.392766735065865e-05   6.91714364353755e-06   0.00010507863196463447
-6.392766735065865e-05   6.91714364353755e-06   0.00010507863196463447
-0.0001358206144398325   1.948126919045466e-05   -7.204471189172553e-06
-0.0001358206144398325   1.948126919045466e-05   -7.204471189172553e-06
-0.0001358206144398325   1.948126919045466e-05   -7.204471189172553e-06
-0.0001358206144398325   1.948126919045466e-05   -7.204471189172553e-06
-0.00013952528032502788   6.4721712434599385e-06   0.00011636996612104239
-0.00013952528032502788   6.4721712434599385e-06   0.00011636996612104239
-0.00013952528032502788   6.4721712434599385e-06   0.00011636996612104239
-0.00013952528032502788   6.4721712434599385e-06   0.00011636996612104239
-6.646503169003887e-05   1.8412078541232314e-05   -1.2561059315935861e-05
-6.646503169003887e-05   1.8412078541232314e-05   -1.2561059315935861e-05
-6.646503169003887e-05   1.8412078541232314e-05   -1.2561059315935861e-05
-6.646503169003887e-05   1.8412078541232314e-05   -1.2561059315935861e-05
-0.00010062842377514189   1.3053963510780558e-05   4.7592796510840954e-05
-0.00010062842377514189   1.3053963510780558e-05   4.7592796510840954e-05
-0.00010062842377514189   1.3053963510780558e-05   4.7592796510840954e-05
-0.00010062842377514189   1.3053963510780558e-05   4.7592796510840954e-05
-6.646503169003897e-05   6.472171243459071e-06   0.00010920602174237844
-6.646503169003897e-05   6.472171243459071e-06   0.00010920602174237844
-6.646503169003897e-05   6.472171243459071e-06   0.00010920602174237844
-6.646503169003897e-05   6.472171243459071e-06   0.00010920602174237844
-0.00013952528032502767   1.841207854123318e-05   -5.397114937271807e-06
-0.00013952528032502767   1.841207854123318e-05   -5.397114937271807e-06
-0.00013952528032502767   1.841207854123318e-05   -5.397114937271807e-06
-0.00013952528032502767   1.841207854123318e-05   -5.397114937271807e-06
-0.0001440622187000246   5.674126239860362e-06   0.0001235097291637727
-0.0001440622187000246   5.674126239860362e-06   0.0001235097291637727
-0.0001440622187000246   5.674126239860362e-06   0.0001235097291637727
-0.0001440622187000246   5.674126239860362e-06   0.0001235097291637727
-6.987108375700567e-05   1.742648113816584e-05   -7.193575346908635e-06
-6.987108375700567e-05   1.742648113816584e-05   -7.193575346908635e-06
-6.987108375700567e-05   1.742648113816584e-05   -7.193575346908635e-06
-6.987108375700567e-05   1.742648113816584e-05   -7.193575346908635e-06
-0.00010339416500995647   1.2799959967612316e-05   5.145413944367496e-05
-0.00010339416500995647   1.2799959967612316e-05   5.145413944367496e-05
-0.00010339416500995647   1.2799959967612316e-05   5.145413944367496e-05
-0.00010339416500995647   1.2799959967612316e-05   5.145413944367496e-05
-6.987108375700556e-05   5.674126239860362e-06   0.00011645831622478925
-6.987108375700556e-05   5.674126239860362e-06   0.00011645831622478925
-6.987108375700556e-05   5.674126239860362e-06   0.00011645831622478925
-6.987108375700556e-05   5.674126239860362e-06   0.00011645831622478925
-0.0001440622187000246   1.742648113816584e-05   -1.4216240792506649e-07
-0.0001440622187000246   1.742648113816584e-05   -1.4216240792506649e-07
-0.0001440622187000246   1.742648113816584e-05   -1.4216240792506649e-07
-0.0001440622187000246   1.742648113816584e-05   -1.4216240792506649e-07
-0.0001488662171991275   4.773445156743515e-06   0.00012922022501458963
-0.0001488662171991275   4.773445156743515e-06   0.00012922022501458963
-0.0001488662171991275   4.773445156743515e-06   0.00012922022501458963
-0.0001488662171991275   4.773445156743515e-06   0.00012922022501458963
-7.350009640233696e-05   1.6105233667293613e-05   -3.1890494197241853e-06
-7.350009640233696e-05   1.6105233667293613e-05   -3.1890494197241853e-06
-7.350009640233696e-05   1.6105233667293613e-05   -3.1890494197241853e-06
-7.350009640233696e-05   1.6105233667293613e-05   -3.1890494197241853e-06
-0.00010797862721986131   1.1997533972567254e-05   5.673978842632129e-05
-0.00010797862721986131   1.1997533972567254e-05   5.673978842632129e-05
-0.00010797862721986131   1.1997533972567254e-05   5.673978842632129e-05
-0.00010797862721986131   1.1997533972567254e-05   5.673978842632129e-05
-0.0001358206144398325   3.217665814342005e-05   5.534099000016309e-05
-0.0001358206144398325   3.217665814342005e-05   5.534099000016309e-05
-0.0001358206144398325   3.217665814342005e-05   5.534099000016309e-05
-0.0001358206144398325   3.217665814342005e-05   5.534099000016309e-05
-0.00020461138120392774   3.168270747700916e-05   -5.9606658339842085e-05
-0.00020461138120392774   3.168270747700916e-05   -5.9606658339842085e-05
-0.00020461138120392774   3.168270747700916e-05   -5.9606658339842085e-05
-0.00020461138120392774   3.168270747700916e-05   -5.9606658339842085e-05
-0.00021125640833709596   3.101679490645406e-05   8.182338436614044e-05
-0.00021125640833709596   3.101679490645406e-05   8.182338436614044e-05
-0.00021125640833709596   3.101679490645406e-05   8.182338436614044e-05
-0.00021125640833709596   3.101679490645406e-05   8.182338436614044e-05
-0.00013952528032502767   3.227410017441704e-05   -3.8482878814752254e-05
-0.00013952528032502767   3.227410017441704e-05   -3.8482878814752254e-05
-0.00013952528032502767   3.227410017441704e-05   -3.8482878814752254e-05
-0.00013952528032502767   3.227410017441704e-05   -3.8482878814752254e-05
-0.00016584791561268113   3.230262245274094e-05   5.371066631009412e-06
-0.00016584791561268113   3.230262245274094e-05   5.371066631009412e-06
-0.00016584791561268113   3.230262245274094e-05   5.371066631009412e-06
-0.00016584791561268113   3.230262245274094e-05   5.371066631009412e-06
-0.00013952528032502756   3.101679490645406e-05   8.106900120536178e-05
-0.00013952528032502756   3.101679490645406e-05   8.106900120536178e-05
-0.00013952528032502756   3.101679490645406e-05   8.106900120536178e-05
-0.00013952528032502756   3.101679490645406e-05   8.106900120536178e-05
-0.00021125640833709596   3.227410017441791e-05   -3.7728495653974355e-05
-0.00021125640833709596   3.227410017441791e-05   -3.7728495653974355e-05
-0.00021125640833709596   3.227410017441791e-05   -3.7728495653974355e-05
-0.00021125640833709596   3.227410017441791e-05   -3.7728495653974355e-05
-0.00021777322735236213   3.0206954127887445e-05   0.00010044880127836175
-0.00021777322735236213   3.0206954127887445e-05   0.00010044880127836175
-0.00021777322735236213   3.0206954127887445e-05   0.00010044880127836175
-0.00021777322735236213   3.0206954127887445e-05   0.00010044880127836175
-0.00014406221870002438   3.203621155859187e-05   -2.3500434267289746e-05
-0.00014406221870002438   3.203621155859187e-05   -2.3500434267289746e-05
-0.00014406221870002438   3.203621155859187e-05   -2.3500434267289746e-05
-0.00014406221870002438   3.203621155859187e-05   -2.3500434267289746e-05
-0.00017343704888206493   3.2283360809588074e-05   2.5309326485514674e-05
-0.00017343704888206493   3.2283360809588074e-05   2.5309326485514674e-05
-0.00017343704888206493   3.2283360809588074e-05   2.5309326485514674e-05
-0.00017343704888206493   3.2283360809588074e-05   2.5309326485514674e-05
-0.00014406221870002438   3.0206954127888312e-05   9.935124681994091e-05
-0.00014406221870002438   3.0206954127888312e-05   9.935124681994091e-05
-0.00014406221870002438   3.0206954127888312e-05   9.935124681994091e-05
-0.00014406221870002438   3.0206954127888312e-05   9.935124681994091e-05
-0.00021777322735236213   3.2036211558591e-05   -2.2402879808868046e-05
-0.00021777322735236213   3.2036211558591e-05   -2.2402879808868046e-05
-0.00021777322735236213   3.2036211558591e-05   -2.2402879808868046e-05
-0.00021777322735236213   3.2036211558591e-05   -2.2402879808868046e-05
-0.00022545610157590054   2.5095009179589532e-05   0.00013158017261736925
-0.00022545610157590054   2.5095009179589532e-05   0.00013158017261736925
-0.00022545610157590054   2.5095009179589532e-05   0.00013158017261736925
-0.00022545610157590054   2.5095009179589532e-05   0.00013158017261736925
-0.000148866217199127   2.9475147075807423e-05   1.3022825850155092e-06
-0.000148866217199127   2.9475147075807423e-05   1.3022825850155092e-06
-0.000148866217199127   2.9475147075807423e-05   1.3022825850155092e-06
-0.000148866217199127   2.9475147075807423e-05   1.3022825850155092e-06
-0.0001762020327170932   3.073862142696088e-05   4.6103890504268445e-05
-0.0001762020327170932   3.073862142696088e-05   4.6103890504268445e-05
-0.0001762020327170932   3.073862142696088e-05   4.6103890504268445e-05
-0.0001762020327170932   3.073862142696088e-05   4.6103890504268445e-05
0.0001363896085286228   -1.9095980468653538e-05   0.00010552058755428865
0.0001363896085286228   -1.9095980468653538e-05   0.00010552058755428865
0.0001363896085286228   -1.9095980468653538e-05   0.00010552058755428865
0.0001363896085286228   -1.9095980468653538e-05   0.00010552058755428865
6.757737889420074e-05   -1.3956203291135526e-05   -6.082595529903305e-06
6.757737889420074e-05   -1.3956203291135526e-05   -6.082595529903305e-06
6.757737889420074e-05   -1.3956203291135526e-05   -6.082595529903305e-06
6.757737889420074e-05   -1.3956203291135526e-05   -6.082595529903305e-06
6.49641178773889e-05   -2.165839240258864e-05   9.180163935989518e-05
6.49641178773889e-05   -2.165839240258864e-05   9.180163935989518e-05
6.49641178773889e-05   -2.165839240258864e-05   9.180163935989518e-05
6.49641178773889e-05   -2.165839240258864e-05   9.180163935989518e-05
0.00013158104863931992   -1.6206910189543906e-05   -2.2497467904482675e-05
0.00013158104863931992   -1.6206910189543906e-05   -2.2497467904482675e-05
0.00013158104863931992   -1.6206910189543906e-05   -2.2497467904482675e-05
0.00013158104863931992   -1.6206910189543906e-05   -2.2497467904482675e-05
9.554301222805154e-05   -1.7548946111632657e-05   3.837114766755e-05
9.554301222805154e-05   -1.7548946111632657e-05   3.837114766755e-05
9.554301222805154e-05   -1.7548946111632657e-05   3.837114766755e-05
9.554301222805154e-05   -1.7548946111632657e-05   3.837114766755e-05
0.0001315810486393197   -2.165839240258864e-05   8.853075003206843e-05
0.0001315810486393197   -2.165839240258864e-05   8.853075003206843e-05
0.0001315810486393197   -2.165839240258864e-05   8.853075003206843e-05
0.0001315810486393197   -2.165839240258864e-05   8.853075003206843e-05
6.496411787738915e-05   -1.6206910189543906e-05   -1.9226578576655995e-05
6.496411787738915e-05   -1.6206910189543906e-05   -1.9226578576655995e-05
6.496411787738915e-05   -1.6206910189543906e-05   -1.9226578576655995e-05
6.496411787738915e-05   -1.6206910189543906e-05   -1.9226578576655995e-05
6.20618057534698e-05   -2.204297950307056e-05   8.2298078174448e-05
6.20618057534698e-05   -2.204297950307056e-05   8.2298078174448e-05
6.20618057534698e-05   -2.204297950307056e-05   8.2298078174448e-05
6.20618057534698e-05   -2.204297950307056e-05   8.2298078174448e-05
0.00012722991798025623   -1.6661619024161203e-05   -2.9544258490875664e-05
0.00012722991798025623   -1.6661619024161203e-05   -2.9544258490875664e-05
0.00012722991798025623   -1.6661619024161203e-05   -2.9544258490875664e-05
0.00012722991798025623   -1.6661619024161203e-05   -2.9544258490875664e-05
9.371658968635074e-05   -1.8420030528502364e-05   2.7366335568238366e-05
9.371658968635074e-05   -1.8420030528502364e-05   2.7366335568238366e-05
9.371658968635074e-05   -1.8420030528502364e-05   2.7366335568238366e-05
9.371658968635074e-05   -1.8420030528502364e-05   2.7366335568238366e-05
0.0001272299179802558   -2.204297950307143e-05   7.906926188710117e-05
0.0001272299179802558   -2.204297950307143e-05   7.906926188710117e-05
0.0001272299179802558   -2.204297950307143e-05   7.906926188710117e-05
0.0001272299179802558   -2.204297950307143e-05   7.906926188710117e-05
6.206180575346991e-05   -1.6661619024161203e-05   -2.6315442203529715e-05
6.206180575346991e-05   -1.6661619024161203e-05   -2.6315442203529715e-05
6.206180575346991e-05   -1.6661619024161203e-05   -2.6315442203529715e-05
6.206180575346991e-05   -1.6661619024161203e-05   -2.6315442203529715e-05
5.9271780618791296e-05   -2.1920036694943017e-05   6.906658596953462e-05
5.9271780618791296e-05   -2.1920036694943017e-05   6.906658596953462e-05
5.9271780618791296e-05   -2.1920036694943017e-05   6.906658596953462e-05
5.9271780618791296e-05   -2.1920036694943017e-05   6.906658596953462e-05
0.00012230489107931954   -1.6858422665423298e-05   -3.902556654905676e-05
0.00012230489107931954   -1.6858422665423298e-05   -3.902556654905676e-05
0.00012230489107931954   -1.6858422665423298e-05   -3.902556654905676e-05
0.00012230489107931954   -1.6858422665423298e-05   -3.902556654905676e-05
8.885775831185495e-05   -1.8114040842339557e-05   1.747302563620285e-05
8.885775831185495e-05   -1.8114040842339557e-05   1.747302563620285e-05
8.885775831185495e-05   -1.8114040842339557e-05   1.747302563620285e-05
8.885775831185495e-05   -1.8114040842339557e-05   1.747302563620285e-05
6.757737889420074e-05   -6.757815056714425e-06   0.00011100191483822113
6.757737889420074e-05   -6.757815056714425e-06   0.00011100191483822113
6.757737889420074e-05   -6.757815056714425e-06   0.00011100191483822113
6.757737889420074e-05   -6.757815056714425e-06   0.00011100191483822113
2.989279651365441e-06   -2.6642547542310435e-06   5.811218948318774e-06
2.989279651365441e-06   -2.6642547542310435e-06   5.811218948318774e-06
2.989279651365441e-06   -2.6642547542310435e-06   5.811218948318774e-06
2.989279651365441e-06   -2.6642547542310435e-06   5.811218948318774e-06
4.822302309289393e-07   -8.13836591575818e-06   0.00011217600411277638
4.822302309289393e-07   -8.13836591575818e-06   0.00011217600411277638
4.822302309289393e-07   -8.13836591575818e-06   0.00011217600411277638
4.822302309289393e-07   -8.13836591575818e-06   0.00011217600411277638
6.496411787738915e-05   -4.2634685486460724e-06   2.3812529484090207e-06
6.496411787738915e-05   -4.2634685486460724e-06   2.3812529484090207e-06
6.496411787738915e-05   -4.2634685486460724e-06   2.3812529484090207e-06
6.496411787738915e-05   -4.2634685486460724e-06   2.3812529484090207e-06
3.3591543194168286e-05   -5.252290067449088e-06   5.5262170331725436e-05
3.3591543194168286e-05   -5.252290067449088e-06   5.5262170331725436e-05
3.3591543194168286e-05   -5.252290067449088e-06   5.5262170331725436e-05
3.3591543194168286e-05   -5.252290067449088e-06   5.5262170331725436e-05
6.496411787738907e-05   -8.13836591575818e-06   0.00010985106569250894
6.496411787738907e-05   -8.13836591575818e-06   0.00010985106569250894
6.496411787738907e-05   -8.13836591575818e-06   0.00010985106569250894
6.496411787738907e-05   -8.13836591575818e-06   0.00010985106569250894
4.822302309288851e-07   -4.2634685486460724e-06   4.7061913686762685e-06
4.822302309288851e-07   -4.2634685486460724e-06   4.7061913686762685e-06
4.822302309288851e-07   -4.2634685486460724e-06   4.7061913686762685e-06
4.822302309288851e-07   -4.2634685486460724e-06   4.7061913686762685e-06
-2.123569153938097e-06   -9.048569271371577e-06   0.0001105094421708936
-2.123569153938097e-06   -9.048569271371577e-06   0.0001105094421708936
-2.123569153938097e-06   -9.048569271371577e-06   0.0001105094421708936
-2.123569153938097e-06   -9.048569271371577e-06   0.0001105094421708936
6.206180575346991e-05   -5.4555546227753535e-06   1.3780085360569111e-06
6.206180575346991e-05   -5.4555546227753535e-06   1.3780085360569111e-06
6.206180575346991e-05   -5.4555546227753535e-06   1.3780085360569111e-06
6.206180575346991e-05   -5.4555546227753535e-06   1.3780085360569111e-06
3.071727551408424e-05   -6.09204595146233e-06   5.400078706557939e-05
3.071727551408424e-05   -6.09204595146233e-06   5.400078706557939e-05
3.071727551408424e-05   -6.09204595146233e-06   5.400078706557939e-05
3.071727551408424e-05   -6.09204595146233e-06   5.400078706557939e-05
6.20618057534698e-05   -9.04856927137071e-06   0.00010835363338173708
6.20618057534698e-05   -9.04856927137071e-06   0.00010835363338173708
6.20618057534698e-05   -9.04856927137071e-06   0.00010835363338173708
6.20618057534698e-05   -9.04856927137071e-06   0.00010835363338173708
-2.123569153938097e-06   -5.4555546227753535e-06   3.5338173252140274e-06
-2.123569153938097e-06   -5.4555546227753535e-06   3.5338173252140274e-06
-2.123569153938097e-06   -5.4555546227753535e-06   3.5338173252140274e-06
-2.123569153938097e-06   -5.4555546227753535e-06   3.5338173252140274e-06
-4.83634356700165e-06   -9.445676823657302e-06   0.0001113826335156021
-4.83634356700165e-06   -9.445676823657302e-06   0.0001113826335156021
-4.83634356700165e-06   -9.445676823657302e-06   0.0001113826335156021
-4.83634356700165e-06   -9.445676823657302e-06   0.0001113826335156021
5.927178061879146e-05   -6.400880917974139e-06   2.708882329203056e-06
5.927178061879146e-05   -6.400880917974139e-06   2.708882329203056e-06
5.927178061879146e-05   -6.400880917974139e-06   2.708882329203056e-06
5.927178061879146e-05   -6.400880917974139e-06   2.708882329203056e-06
2.8549724544175525e-05   -6.5479380774611726e-06   5.400054341592425e-05
2.8549724544175525e-05   -6.5479380774611726e-06   5.400054341592425e-05
2.8549724544175525e-05   -6.5479380774611726e-06   5.400054341592425e-05
2.8549724544175525e-05   -6.5479380774611726e-06   5.400054341592425e-05
2.989279651365441e-06   5.962856267105812e-06   0.00011463986230908496
2.989279651365441e-06   5.962856267105812e-06   0.00011463986230908496
2.989279651365441e-06   5.962856267105812e-06   0.00011463986230908496
2.989279651365441e-06   5.962856267105812e-06   0.00011463986230908496
-5.9701193045484495e-05   8.688328802648054e-06   1.179102466899399e-05
-5.9701193045484495e-05   8.688328802648054e-06   1.179102466899399e-05
-5.9701193045484495e-05   8.688328802648054e-06   1.179102466899399e-05
-5.9701193045484495e-05   8.688328802648054e-06   1.179102466899399e-05
-6.231973078173018e-05   4.899865370110688e-06   0.00011622916487560517
-6.231973078173018e-05   4.899865370110688e-06   0.00011622916487560517
-6.231973078173018e-05   4.899865370110688e-06   0.00011622916487560517
-6.231973078173018e-05   4.899865370110688e-06   0.00011622916487560517
4.822302309288851e-07   7.352842184504826e-06   1.0087443765870066e-05
4.822302309288851e-07   7.352842184504826e-06   1.0087443765870066e-05
4.822302309288851e-07   7.352842184504826e-06   1.0087443765870066e-05
4.822302309288851e-07   7.352842184504826e-06   1.0087443765870066e-05
-2.9683617918133538e-05   6.806869493350409e-06   6.069144096233336e-05
-2.9683617918133538e-05   6.806869493350409e-06   6.069144096233336e-05
-2.9683617918133538e-05   6.806869493350409e-06   6.069144096233336e-05
-2.9683617918133538e-05   6.806869493350409e-06   6.069144096233336e-05
4.822302309289393e-07   4.899865370110688e-06   0.00011475737878696799
4.822302309289393e-07   4.899865370110688e-06   0.00011475737878696799
4.822302309289393e-07   4.899865370110688e-06   0.00011475737878696799
4.822302309289393e-07   4.899865370110688e-06   0.00011475737878696799
-6.231973078173018e-05   7.352842184504826e-06   1.155922985450605e-05
-6.231973078173018e-05   7.352842184504826e-06   1.155922985450605e-05
-6.231973078173018e-05   7.352842184504826e-06   1.155922985450605e-05
-6.231973078173018e-05   7.352842184504826e-06   1.155922985450605e-05
-6.508608910284815e-05   3.91029085368335e-06   0.00011733813631303793
-6.508608910284815e-05   3.91029085368335e-06   0.00011733813631303793
-6.508608910284815e-05   3.91029085368335e-06   0.00011733813631303793
-6.508608910284815e-05   3.91029085368335e-06   0.00011733813631303793
-2.1235691539381514e-06   6.055871327684086e-06   1.1113254780453774e-05
-2.1235691539381514e-06   6.055871327684086e-06   1.1113254780453774e-05
-2.1235691539381514e-06   6.055871327684086e-06   1.1113254780453774e-05
-2.1235691539381514e-06   6.055871327684086e-06   1.1113254780453774e-05
-3.211693692853552e-05   6.041841307443882e-06   6.111061908359414e-05
-3.211693692853552e-05   6.041841307443882e-06   6.111061908359414e-05
-3.211693692853552e-05   6.041841307443882e-06   6.111061908359414e-05
-3.211693692853552e-05   6.041841307443882e-06   6.111061908359414e-05
-2.123569153938097e-06   3.910290853682483e-06   0.00011605078802863792
-2.123569153938097e-06   3.910290853682483e-06   0.00011605078802863792
-2.123569153938097e-06   3.910290853682483e-06   0.00011605078802863792
-2.123569153938097e-06   3.910290853682483e-06   0.00011605078802863792
-6.508608910284832e-05   6.055871327684086e-06   1.2400603064854649e-05
-6.508608910284832e-05   6.055871327684086e-06   1.2400603064854649e-05
-6.508608910284832e-05   6.055871327684086e-06   1.2400603064854649e-05
-6.508608910284832e-05   6.055871327684086e-06   1.2400603064854649e-05
-6.794145139937504e-05   3.195931955888437e-06   0.00011909857202610421
-6.794145139937504e-05   3.195931955888437e-06   0.00011909857202610421
-6.794145139937504e-05   3.195931955888437e-06   0.00011909857202610421
-6.794145139937504e-05   3.195931955888437e-06   0.00011909857202610421
-4.83634356700165e-06   4.9011143586933856e-06   1.2900282863798616e-05
-4.83634356700165e-06   4.9011143586933856e-06   1.2900282863798616e-05
-4.83634356700165e-06   4.9011143586933856e-06   1.2900282863798616e-05
-4.83634356700165e-06   4.9011143586933856e-06   1.2900282863798616e-05
-3.4750071862392235e-05   5.308380251943523e-06   6.251213715350234e-05
-3.4750071862392235e-05   5.308380251943523e-06   6.251213715350234e-05
-3.4750071862392235e-05   5.308380251943523e-06   6.251213715350234e-05
-3.4750071862392235e-05   5.308380251943523e-06   6.251213715350234e-05
-5.970119304548466e-05   1.948126919045553e-05   9.993418824958897e-05
-5.970119304548466e-05   1.948126919045553e-05   9.993418824958897e-05
-5.970119304548466e-05   1.948126919045553e-05   9.993418824958897e-05
-5.970119304548466e-05   1.948126919045553e-05   9.993418824958897e-05
-0.00012036874987336635   1.9726705169653865e-05   -1.0311448760272693e-06
-0.00012036874987336635   1.9726705169653865e-05   -1.0311448760272693e-06
-0.00012036874987336635   1.9726705169653865e-05   -1.0311448760272693e-06
-0.00012036874987336635   1.9726705169653865e-05   -1.0311448760272693e-06
-0.0001234093141610806   1.841207854123318e-05   0.00010168523432364362
-0.0001234093141610806   1.841207854123318e-05   0.00010168523432364362
-0.0001234093141610806   1.841207854123318e-05   0.00010168523432364362
-0.0001234093141610806   1.841207854123318e-05   0.00010168523432364362
-6.231973078173029e-05   1.844717001852833e-05   -1.517928616510001e-07
-6.231973078173029e-05   1.844717001852833e-05   -1.517928616510001e-07
-6.231973078173029e-05   1.844717001852833e-05   -1.517928616510001e-07
-6.231973078173029e-05   1.844717001852833e-05   -1.517928616510001e-07
-9.104085431348849e-05   1.8976992011462968e-05   4.739885316218644e-05
-9.104085431348849e-05   1.8976992011462968e-05   4.739885316218644e-05
-9.104085431348849e-05   1.8976992011462968e-05   4.739885316218644e-05
-9.104085431348849e-05   1.8976992011462968e-05   4.739885316218644e-05
-6.231973078173029e-05   1.841207854123318e-05   0.00010166417943726627
-6.231973078173029e-05   1.841207854123318e-05   0.00010166417943726627
-6.231973078173029e-05   1.841207854123318e-05   0.00010166417943726627
-6.231973078173029e-05   1.841207854123318e-05   0.00010166417943726627
-0.0001234093141610804   1.844717001852833e-05   -1.3073797527343375e-07
-0.0001234093141610804   1.844717001852833e-05   -1.3073797527343375e-07
-0.0001234093141610804   1.844717001852833e-05   -1.3073797527343375e-07
-0.0001234093141610804   1.844717001852833e-05   -1.3073797527343375e-07
-0.00012678155601781585   1.742648113816584e-05   0.00010641008521895898
-0.00012678155601781585   1.742648113816584e-05   0.00010641008521895898
-0.00012678155601781585   1.742648113816584e-05   0.00010641008521895898
-0.00012678155601781585   1.742648113816584e-05   0.00010641008521895898
-6.508608910284832e-05   1.7271235469507734e-05   3.677454428541128e-06
-6.508608910284832e-05   1.7271235469507734e-05   3.677454428541128e-06
-6.508608910284832e-05   1.7271235469507734e-05   3.677454428541128e-06
-6.508608910284832e-05   1.7271235469507734e-05   3.677454428541128e-06
-9.324662636871274e-05   1.8251931793720685e-05   5.0023265410455067e-05
-9.324662636871274e-05   1.8251931793720685e-05   5.0023265410455067e-05
-9.324662636871274e-05   1.8251931793720685e-05   5.0023265410455067e-05
-9.324662636871274e-05   1.8251931793720685e-05   5.0023265410455067e-05
-6.508608910284821e-05   1.7426481138166708e-05   0.00010650323262015402
-6.508608910284821e-05   1.7426481138166708e-05   0.00010650323262015402
-6.508608910284821e-05   1.7426481138166708e-05   0.00010650323262015402
-6.508608910284821e-05   1.7426481138166708e-05   0.00010650323262015402
-0.00012678155601781552   1.7271235469507734e-05   3.5843070273467413e-06
-0.00012678155601781552   1.7271235469507734e-05   3.5843070273467413e-06
-0.00012678155601781552   1.7271235469507734e-05   3.5843070273467413e-06
-0.00012678155601781552   1.7271235469507734e-05   3.5843070273467413e-06
-0.000129996844800854   1.6105233667293613e-05   0.00010983724444844391
-0.000129996844800854   1.6105233667293613e-05   0.00010983724444844391
-0.000129996844800854   1.6105233667293613e-05   0.00010983724444844391
-0.000129996844800854   1.6105233667293613e-05   0.00010983724444844391
-6.79414513993752e-05   1.5838460986804942e-05   6.571652387605555e-06
-6.79414513993752e-05   1.5838460986804942e-05   6.571652387605555e-06
-6.79414513993752e-05   1.5838460986804942e-05   6.571652387605555e-06
-6.79414513993752e-05   1.5838460986804942e-05   6.571652387605555e-06
-9.673893662053151e-05   1.7314949672642653e-05   5.3681567878033744e-05
-9.673893662053151e-05   1.7314949672642653e-05   5.3681567878033744e-05
-9.673893662053151e-05   1.7314949672642653e-05   5.3681567878033744e-05
-9.673893662053151e-05   1.7314949672642653e-05   5.3681567878033744e-05
-0.00012036874987336613   3.168270747700829e-05   4.79756330862848e-05
-0.00012036874987336613   3.168270747700829e-05   4.79756330862848e-05
-0.00012036874987336613   3.168270747700829e-05   4.79756330862848e-05
-0.00012036874987336613   3.168270747700829e-05   4.79756330862848e-05
-0.0001779293610999664   2.8359736673876784e-05   -4.9952501439927584e-05
-0.0001779293610999664   2.8359736673876784e-05   -4.9952501439927584e-05
-0.0001779293610999664   2.8359736673876784e-05   -4.9952501439927584e-05
-0.0001779293610999664   2.8359736673876784e-05   -4.9952501439927584e-05
-0.00018271654587995114   3.227410017441791e-05   6.64231921926146e-05
-0.00018271654587995114   3.227410017441791e-05   6.64231921926146e-05
-0.00018271654587995114   3.227410017441791e-05   6.64231921926146e-05
-0.00018271654587995114   3.227410017441791e-05   6.64231921926146e-05
-0.0001234093141610806   2.8646969751838086e-05   -3.0245915751955744e-05
-0.0001234093141610806   2.8646969751838086e-05   -3.0245915751955744e-05
-0.0001234093141610806   2.8646969751838086e-05   -3.0245915751955744e-05
-0.0001234093141610806   2.8646969751838086e-05   -3.0245915751955744e-05
-0.00014532223272486203   3.0072438770441766e-05   5.420333776518481e-06
-0.00014532223272486203   3.0072438770441766e-05   5.420333776518481e-06
-0.00014532223272486203   3.0072438770441766e-05   5.420333776518481e-06
-0.00014532223272486203   3.0072438770441766e-05   5.420333776518481e-06
-0.00012340931416108029   3.227410017441704e-05   6.859947044616241e-05
-0.00012340931416108029   3.227410017441704e-05   6.859947044616241e-05
-0.00012340931416108029   3.227410017441704e-05   6.859947044616241e-05
-0.00012340931416108029   3.227410017441704e-05   6.859947044616241e-05
-0.00018271654587995179   2.8646969751838086e-05   -3.2422194005503335e-05
-0.00018271654587995179   2.8646969751838086e-05   -3.2422194005503335e-05
-0.00018271654587995179   2.8646969751838086e-05   -3.2422194005503335e-05
-0.00018271654587995179   2.8646969751838086e-05   -3.2422194005503335e-05
-0.0001873944604335859   3.2036211558591e-05   8.082680940739006e-05
-0.0001873944604335859   3.2036211558591e-05   8.082680940739006e-05
-0.0001873944604335859   3.2036211558591e-05   8.082680940739006e-05
-0.0001873944604335859   3.2036211558591e-05   8.082680940739006e-05
-0.00012678155601781585   2.8327871638251026e-05   -1.7969694000023956e-05
-0.00012678155601781585   2.8327871638251026e-05   -1.7969694000023956e-05
-0.00012678155601781585   2.8327871638251026e-05   -1.7969694000023956e-05
-0.00012678155601781585   2.8327871638251026e-05   -1.7969694000023956e-05
-0.00015117962266083786   3.061609212170677e-05   2.1320818114941914e-05
-0.00015117962266083786   3.061609212170677e-05   2.1320818114941914e-05
-0.00015117962266083786   3.061609212170677e-05   2.1320818114941914e-05
-0.00015117962266083786   3.061609212170677e-05   2.1320818114941914e-05
-0.00012678155601781585   3.2036211558591e-05   8.30518133595943e-05
-0.00012678155601781585   3.2036211558591e-05   8.30518133595943e-05
-0.00012678155601781585   3.2036211558591e-05   8.30518133595943e-05
-0.00012678155601781585   3.2036211558591e-05   8.30518133595943e-05
-0.00018739446043358656   2.8327871638251026e-05   -2.0194697952227985e-05
-0.00018739446043358656   2.8327871638251026e-05   -2.0194697952227985e-05
-0.00018739446043358656   2.8327871638251026e-05   -2.0194697952227985e-05
-0.00018739446043358656   2.8327871638251026e-05   -2.0194697952227985e-05
-0.00019286119847831702   2.9475147075807423e-05   0.00010552475537422504
-0.00019286119847831702   2.9475147075807423e-05   0.00010552475537422504
-0.00019286119847831702   2.9475147075807423e-05   0.00010552475537422504
-0.00019286119847831702   2.9475147075807423e-05   0.00010552475537422504
-0.000129996844800854   2.61339004547622e-05   2.7555805510808516e-06
-0.000129996844800854   2.61339004547622e-05   2.7555805510808516e-06
-0.000129996844800854   2.61339004547622e-05   2.7555805510808516e-06
-0.000129996844800854   2.61339004547622e-05   2.7555805510808516e-06
-0.0001527036876894145   2.971177111091728e-05   3.845359630499055e-05
-0.0001527036876894145   2.971177111091728e-05   3.845359630499055e-05
-0.0001527036876894145   2.971177111091728e-05   3.845359630499055e-05
-0.0001527036876894145   2.971177111091728e-05   3.845359630499055e-05
0.00010321390308821164   -1.3956203291135526e-05   8.786778777993389e-05
0.00010321390308821164   -1.3956203291135526e-05   8.786778777993389e-05
0.00010321390308821164   -1.3956203291135526e-05   8.786778777993389e-05
0.00010321390308821164   -1.3956203291135526e-05   8.786778777993389e-05
4.861977274780218e-05   -9.183181906636737e-06   -2.5861662338250505e-07
4.861977274780218e-05   -9.183181906636737e-06   -2.5861662338250505e-07
4.861977274780218e-05   -9.183181906636737e-06   -2.5861662338250505e-07
4.861977274780218e-05   -9.183181906636737e-06   -2.5861662338250505e-07
4.6288554751124e-05   -1.6206910189543906e-05   7.724069124491863e-05
4.6288554751124e-05   -1.6206910189543906e-05   7.724069124491863e-05
4.6288554751124e-05   -1.6206910189543906e-05   7.724069124491863e-05
4.6288554751124e-05   -1.6206910189543906e-05   7.724069124491863e-05
9.870578143076501e-05   -1.1160694356204988e-05   -1.314908272115331e-05
9.870578143076501e-05   -1.1160694356204988e-05   -1.314908272115331e-05
9.870578143076501e-05   -1.1160694356204988e-05   -1.314908272115331e-05
9.870578143076501e-05   -1.1160694356204988e-05   -1.314908272115331e-05
7.071502738095921e-05   -1.272579957866185e-05   3.4441237161997144e-05
7.071502738095921e-05   -1.272579957866185e-05   3.4441237161997144e-05
7.071502738095921e-05   -1.272579957866185e-05   3.4441237161997144e-05
7.071502738095921e-05   -1.272579957866185e-05   3.4441237161997144e-05
9.870578143076501e-05   -1.6206910189543906e-05   7.421296174491519e-05
9.870578143076501e-05   -1.6206910189543906e-05   7.421296174491519e-05
9.870578143076501e-05   -1.6206910189543906e-05   7.421296174491519e-05
9.870578143076501e-05   -1.6206910189543906e-05   7.421296174491519e-05
4.628855475112407e-05   -1.1160694356204988e-05   -1.0121353221149466e-05
4.628855475112407e-05   -1.1160694356204988e-05   -1.0121353221149466e-05
4.628855475112407e-05   -1.1160694356204988e-05   -1.0121353221149466e-05
4.628855475112407e-05   -1.1160694356204988e-05   -1.0121353221149466e-05
4.371772288733684e-05   -1.6661619024161203e-05   6.976705242350313e-05
4.371772288733684e-05   -1.6661619024161203e-05   6.976705242350313e-05
4.371772288733684e-05   -1.6661619024161203e-05   6.976705242350313e-05
4.371772288733684e-05   -1.6661619024161203e-05   6.976705242350313e-05
9.475776434290977e-05   -1.1691196181960739e-05   -1.828193704110482e-05
9.475776434290977e-05   -1.1691196181960739e-05   -1.828193704110482e-05
9.475776434290977e-05   -1.1691196181960739e-05   -1.828193704110482e-05
9.475776434290977e-05   -1.1691196181960739e-05   -1.828193704110482e-05
6.883132391657904e-05   -1.3526888367827034e-05   2.6030212314300926e-05
6.883132391657904e-05   -1.3526888367827034e-05   2.6030212314300926e-05
6.883132391657904e-05   -1.3526888367827034e-05   2.6030212314300926e-05
6.883132391657904e-05   -1.3526888367827034e-05   2.6030212314300926e-05
9.47577643429096e-05   -1.6661619024161203e-05   6.678479871818346e-05
9.47577643429096e-05   -1.6661619024161203e-05   6.678479871818346e-05
9.47577643429096e-05   -1.6661619024161203e-05   6.678479871818346e-05
9.47577643429096e-05   -1.6661619024161203e-05   6.678479871818346e-05
4.3717722887336906e-05   -1.1691196181960739e-05   -1.5299683335784527e-05
4.3717722887336906e-05   -1.1691196181960739e-05   -1.5299683335784527e-05
4.3717722887336906e-05   -1.1691196181960739e-05   -1.5299683335784527e-05
4.3717722887336906e-05   -1.1691196181960739e-05   -1.5299683335784527e-05
4.134518282535909e-05   -1.6858422665423298e-05   5.9665874025007296e-05
4.134518282535909e-05   -1.6858422665423298e-05   5.9665874025007296e-05
4.134518282535909e-05   -1.6858422665423298e-05   5.9665874025007296e-05
4.134518282535909e-05   -1.6858422665423298e-05   5.9665874025007296e-05
9.035086531475641e-05   -1.2197240064041812e-05   -2.480697301814993e-05
9.035086531475641e-05   -1.2197240064041812e-05   -2.480697301814993e-05
9.035086531475641e-05   -1.2197240064041812e-05   -2.480697301814993e-05
9.035086531475641e-05   -1.2197240064041812e-05   -2.480697301814993e-05
6.472588347959473e-05   -1.3454707798715021e-05   1.8655810681257818e-05
6.472588347959473e-05   -1.3454707798715021e-05   1.8655810681257818e-05
6.472588347959473e-05   -1.3454707798715021e-05   1.8655810681257818e-05
6.472588347959473e-05   -1.3454707798715021e-05   1.8655810681257818e-05
4.8619772747802e-05   -2.6642547542310435e-06   0.00010016927890736573
4.8619772747802e-05   -2.6642547542310435e-06   0.00010016927890736573
4.8619772747802e-05   -2.6642547542310435e-06   0.00010016927890736573
4.8619772747802e-05   -2.6642547542310435e-06   0.00010016927890736573
-3.071193071500951e-06   -2.588033233379139e-08   1.5600693861665335e-05
-3.071193071500951e-06   -2.588033233379139e-08   1.5600693861665335e-05
-3.071193071500951e-06   -2.588033233379139e-08   1.5600693861665335e-05
-3.071193071500951e-06   -2.588033233379139e-08   1.5600693861665335e-05
-5.261596377936458e-06   -4.2634685486460724e-06   0.00010035668507233676
-5.261596377936458e-06   -4.2634685486460724e-06   0.00010035668507233676
-5.261596377936458e-06   -4.2634685486460724e-06   0.00010035668507233676
-5.261596377936458e-06   -4.2634685486460724e-06   0.00010035668507233676
4.628855475112407e-05   -1.7498647113889723e-06   1.2931604221549166e-05
4.628855475112407e-05   -1.7498647113889723e-06   1.2931604221549166e-05
4.628855475112407e-05   -1.7498647113889723e-06   1.2931604221549166e-05
4.628855475112407e-05   -1.7498647113889723e-06   1.2931604221549166e-05
2.129393261472386e-05   -2.2378132633806697e-06   5.488207691341121e-05
2.129393261472386e-05   -2.2378132633806697e-06   5.488207691341121e-05
2.129393261472386e-05   -2.2378132633806697e-06   5.488207691341121e-05
2.129393261472386e-05   -2.2378132633806697e-06   5.488207691341121e-05
4.628855475112397e-05   -4.2634685486460724e-06   9.884852276998302e-05
4.628855475112397e-05   -4.2634685486460724e-06   9.884852276998302e-05
4.628855475112397e-05   -4.2634685486460724e-06   9.884852276998302e-05
4.628855475112397e-05   -4.2634685486460724e-06   9.884852276998302e-05
-5.261596377936458e-06   -1.7498647113889723e-06   1.443976652390315e-05
-5.261596377936458e-06   -1.7498647113889723e-06   1.443976652390315e-05
-5.261596377936458e-06   -1.7498647113889723e-06   1.443976652390315e-05
-5.261596377936458e-06   -1.7498647113889723e-06   1.443976652390315e-05
-7.498084812904734e-06   -5.4555546227753535e-06   9.886630280043227e-05
-7.498084812904734e-06   -5.4555546227753535e-06   9.886630280043227e-05
-7.498084812904734e-06   -5.4555546227753535e-06   9.886630280043227e-05
-7.498084812904734e-06   -5.4555546227753535e-06   9.886630280043227e-05
4.3717722887336906e-05   -3.11255522720405e-06   1.2100823662687286e-05
4.3717722887336906e-05   -3.11255522720405e-06   1.2100823662687286e-05
4.3717722887336906e-05   -3.11255522720405e-06   1.2100823662687286e-05
4.3717722887336906e-05   -3.11255522720405e-06   1.2100823662687286e-05
1.88404924909945e-05   -3.303743565568132e-06   5.367758732627986e-05
1.88404924909945e-05   -3.303743565568132e-06   5.367758732627986e-05
1.88404924909945e-05   -3.303743565568132e-06   5.367758732627986e-05
1.88404924909945e-05   -3.303743565568132e-06   5.367758732627986e-05
4.371772288733684e-05   -5.4555546227753535e-06   9.746050316308992e-05
4.371772288733684e-05   -5.4555546227753535e-06   9.746050316308992e-05
4.371772288733684e-05   -5.4555546227753535e-06   9.746050316308992e-05
4.371772288733684e-05   -5.4555546227753535e-06   9.746050316308992e-05
-7.498084812904734e-06   -3.11255522720405e-06   1.3506623300030014e-05
-7.498084812904734e-06   -3.11255522720405e-06   1.3506623300030014e-05
-7.498084812904734e-06   -3.11255522720405e-06   1.3506623300030014e-05
-7.498084812904734e-06   -3.11255522720405e-06   1.3506623300030014e-05
-9.746389245320368e-06   -6.400880917974139e-06   9.957632573993121e-05
-9.746389245320368e-06   -6.400880917974139e-06   9.957632573993121e-05
-9.746389245320368e-06   -6.400880917974139e-06   9.957632573993121e-05
-9.746389245320368e-06   -6.400880917974139e-06   9.957632573993121e-05
4.1345182825359145e-05   -4.379262160680852e-06   1.3210734367756402e-05
4.1345182825359145e-05   -4.379262160680852e-06   1.3210734367756402e-05
4.1345182825359145e-05   -4.379262160680852e-06   1.3210734367756402e-05
4.1345182825359145e-05   -4.379262160680852e-06   1.3210734367756402e-05
1.696128563275712e-05   -4.097306766751539e-06   5.3681389785736975e-05
1.696128563275712e-05   -4.097306766751539e-06   5.3681389785736975e-05
1.696128563275712e-05   -4.097306766751539e-06   5.3681389785736975e-05
1.696128563275712e-05   -4.097306766751539e-06   5.3681389785736975e-05
-3.071193071500951e-06   8.688328802648922e-06   0.00010609682575985369
-3.071193071500951e-06   8.688328802648922e-06   0.00010609682575985369
-3.071193071500951e-06   8.688328802648922e-06   0.00010609682575985369
-3.071193071500951e-06   8.688328802648922e-06   0.00010609682575985369
-5.367817606505564e-05   8.934466164908263e-06   2.1899536521284568e-05
-5.367817606505564e-05   8.934466164908263e-06   2.1899536521284568e-05
-5.367817606505564e-05   8.934466164908263e-06   2.1899536521284568e-05
-5.367817606505564e-05   8.934466164908263e-06   2.1899536521284568e-05
-5.587909829340472e-05   7.352842184504826e-06   0.00010577547952726925
-5.587909829340472e-05   7.352842184504826e-06   0.00010577547952726925
-5.587909829340472e-05   7.352842184504826e-06   0.00010577547952726925
-5.587909829340472e-05   7.352842184504826e-06   0.00010577547952726925
-5.261596377936458e-06   7.415412280735792e-06   2.1375434277084147e-05
-5.261596377936458e-06   7.415412280735792e-06   2.1375434277084147e-05
-5.261596377936458e-06   7.415412280735792e-06   2.1375434277084147e-05
-5.261596377936458e-06   7.415412280735792e-06   2.1375434277084147e-05
-2.954928219330854e-05   7.958731718800752e-06   6.15289189731989e-05
-2.954928219330854e-05   7.958731718800752e-06   6.15289189731989e-05
-2.954928219330854e-05   7.958731718800752e-06   6.15289189731989e-05
-2.954928219330854e-05   7.958731718800752e-06   6.15289189731989e-05
-5.261596377936458e-06   7.352842184504826e-06   0.00010573793746953154
-5.261596377936458e-06   7.352842184504826e-06   0.00010573793746953154
-5.261596377936458e-06   7.352842184504826e-06   0.00010573793746953154
-5.261596377936458e-06   7.352842184504826e-06   0.00010573793746953154
-5.587909829340472e-05   7.415412280735792e-06   2.1412976334822618e-05
-5.587909829340472e-05   7.415412280735792e-06   2.1412976334822618e-05
-5.587909829340472e-05   7.415412280735792e-06   2.1412976334822618e-05
-5.587909829340472e-05   7.415412280735792e-06   2.1412976334822618e-05
-5.8135673748813046e-05   6.055871327684086e-06   0.00010636437983310709
-5.8135673748813046e-05   6.055871327684086e-06   0.00010636437983310709
-5.8135673748813046e-05   6.055871327684086e-06   0.00010636437983310709
-5.8135673748813046e-05   6.055871327684086e-06   0.00010636437983310709
-7.498084812904734e-06   5.920270623407768e-06   2.204975869582568e-05
-7.498084812904734e-06   5.920270623407768e-06   2.204975869582568e-05
-7.498084812904734e-06   5.920270623407768e-06   2.204975869582568e-05
-7.498084812904734e-06   5.920270623407768e-06   2.204975869582568e-05
-3.159392202407613e-05   6.935522505469895e-06   6.160033625187615e-05
-3.159392202407613e-05   6.935522505469895e-06   6.160033625187615e-05
-3.159392202407613e-05   6.935522505469895e-06   6.160033625187615e-05
-3.159392202407613e-05   6.935522505469895e-06   6.160033625187615e-05
-7.498084812904734e-06   6.055871327684086e-06   0.00010644574025567332
-7.498084812904734e-06   6.055871327684086e-06   0.00010644574025567332
-7.498084812904734e-06   6.055871327684086e-06   0.00010644574025567332
-7.498084812904734e-06   6.055871327684086e-06   0.00010644574025567332
-5.8135673748813046e-05   5.920270623407768e-06   2.1968398273259672e-05
-5.8135673748813046e-05   5.920270623407768e-06   2.1968398273259672e-05
-5.8135673748813046e-05   5.920270623407768e-06   2.1968398273259672e-05
-5.8135673748813046e-05   5.920270623407768e-06   2.1968398273259672e-05
-6.039198378849991e-05   4.901114358694253e-06   0.00010770088824408166
-6.039198378849991e-05   4.901114358694253e-06   0.00010770088824408166
-6.039198378849991e-05   4.901114358694253e-06   0.00010770088824408166
-6.039198378849991e-05   4.901114358694253e-06   0.00010770088824408166
-9.746389245320368e-06   4.501180213635318e-06   2.3531524492484738e-05
-9.746389245320368e-06   4.501180213635318e-06   2.3531524492484738e-05
-9.746389245320368e-06   4.501180213635318e-06   2.3531524492484738e-05
-9.746389245320368e-06   4.501180213635318e-06   2.3531524492484738e-05
-3.3733889828169736e-05   5.937937076498125e-06   6.264863801285132e-05
-3.3733889828169736e-05   5.937937076498125e-06   6.264863801285132e-05
-3.3733889828169736e-05   5.937937076498125e-06   6.264863801285132e-05
-3.3733889828169736e-05   5.937937076498125e-06   6.264863801285132e-05
-5.3678176065055584e-05   1.9726705169654732e-05   9.327507704466739e-05
-5.3678176065055584e-05   1.9726705169654732e-05   9.327507704466739e-05
-5.3678176065055584e-05   1.9726705169654732e-05   9.327507704466739e-05
-5.3678176065055584e-05   1.9726705169654732e-05   9.327507704466739e-05
-0.00010313132348222886   1.755127692986639e-05   9.547907738839331e-06
-0.00010313132348222886   1.755127692986639e-05   9.547907738839331e-06
-0.00010313132348222886   1.755127692986639e-05   9.547907738839331e-06
-0.00010313132348222886   1.755127692986639e-05   9.547907738839331e-06
-0.00010549848270921677   1.844717001852833e-05   9.265184034975248e-05
-0.00010549848270921677   1.844717001852833e-05   9.265184034975248e-05
-0.00010549848270921677   1.844717001852833e-05   9.265184034975248e-05
-0.00010549848270921677   1.844717001852833e-05   9.265184034975248e-05
-5.587909829340477e-05   1.6092809249594088e-05   1.136548278475992e-05
-5.587909829340477e-05   1.6092809249594088e-05   1.136548278475992e-05
-5.587909829340477e-05   1.6092809249594088e-05   1.136548278475992e-05
-5.587909829340477e-05   1.6092809249594088e-05   1.136548278475992e-05
-7.92849433730764e-05   1.772483475371775e-05   4.9396009281738084e-05
-7.92849433730764e-05   1.772483475371775e-05   4.9396009281738084e-05
-7.92849433730764e-05   1.772483475371775e-05   4.9396009281738084e-05
-7.92849433730764e-05   1.772483475371775e-05   4.9396009281738084e-05
-5.587909829340472e-05   1.844717001852833e-05   9.406445681111328e-05
-5.587909829340472e-05   1.844717001852833e-05   9.406445681111328e-05
-5.587909829340472e-05   1.844717001852833e-05   9.406445681111328e-05
-5.587909829340472e-05   1.844717001852833e-05   9.406445681111328e-05
-0.00010549848270921677   1.6092809249594088e-05   9.952866323399007e-06
-0.00010549848270921677   1.6092809249594088e-05   9.952866323399007e-06
-0.00010549848270921677   1.6092809249594088e-05   9.952866323399007e-06
-0.00010549848270921677   1.6092809249594088e-05   9.952866323399007e-06
-0.00010810610342836056   1.7271235469507734e-05   9.612088520740726e-05
-0.00010810610342836056   1.7271235469507734e-05   9.612088520740726e-05
-0.00010810610342836056   1.7271235469507734e-05   9.612088520740726e-05
-0.00010810610342836056   1.7271235469507734e-05   9.612088520740726e-05
-5.813567374881321e-05   1.4737325487197e-05   1.4357181730881644e-05
-5.813567374881321e-05   1.4737325487197e-05   1.4357181730881644e-05
-5.813567374881321e-05   1.4737325487197e-05   1.4357181730881644e-05
-5.813567374881321e-05   1.4737325487197e-05   1.4357181730881644e-05
-8.09915255976308e-05   1.6792128454122188e-05   5.121738636542478e-05
-8.09915255976308e-05   1.6792128454122188e-05   5.121738636542478e-05
-8.09915255976308e-05   1.6792128454122188e-05   5.121738636542478e-05
-8.09915255976308e-05   1.6792128454122188e-05   5.121738636542478e-05
-5.813567374881321e-05   1.7271235469507734e-05   9.764123119679379e-05
-5.813567374881321e-05   1.7271235469507734e-05   9.764123119679379e-05
-5.813567374881321e-05   1.7271235469507734e-05   9.764123119679379e-05
-5.813567374881321e-05   1.7271235469507734e-05   9.764123119679379e-05
-0.00010810610342836056   1.4737325487197e-05   1.2836835741495117e-05
-0.00010810610342836056   1.4737325487197e-05   1.2836835741495117e-05
-0.00010810610342836056   1.4737325487197e-05   1.2836835741495117e-05
-0.00010810610342836056   1.4737325487197e-05   1.2836835741495117e-05
-0.0001104924669078273   1.5838460986804942e-05   9.874328456877749e-05
-0.0001104924669078273   1.5838460986804942e-05   9.874328456877749e-05
-0.0001104924669078273   1.5838460986804942e-05   9.874328456877749e-05
-0.0001104924669078273   1.5838460986804942e-05   9.874328456877749e-05
-6.039198378850007e-05   1.3162021391091745e-05   1.6848343127327087e-05
-6.039198378850007e-05   1.3162021391091745e-05   1.6848343127327087e-05
-6.039198378850007e-05   1.3162021391091745e-05   1.6848343127327087e-05
-6.039198378850007e-05   1.3162021391091745e-05   1.6848343127327087e-05
-8.369150324025605e-05   1.5743873015745986e-05   5.4131764572131966e-05
-8.369150324025605e-05   1.5743873015745986e-05   5.4131764572131966e-05
-8.369150324025605e-05   1.5743873015745986e-05   5.4131764572131966e-05
-8.369150324025605e-05   1.5743873015745986e-05   5.4131764572131966e-05
-0.00010313132348222886   2.8359736673876784e-05   4.504224601877384e-05
-0.00010313132348222886   2.8359736673876784e-05   4.504224601877384e-05
-0.00010313132348222886   2.8359736673876784e-05   4.504224601877384e-05
-0.00010313132348222886   2.8359736673876784e-05   4.504224601877384e-05
-0.00015000876973278194   2.4143019855835633e-05   -3.5616861156306454e-05
-0.00015000876973278194   2.4143019855835633e-05   -3.5616861156306454e-05
-0.00015000876973278194   2.4143019855835633e-05   -3.5616861156306454e-05
-0.00015000876973278194   2.4143019855835633e-05   -3.5616861156306454e-05
-0.00015425884476372718   2.8646969751838086e-05   5.9753818723109337e-05
-0.00015425884476372718   2.8646969751838086e-05   5.9753818723109337e-05
-0.00015425884476372718   2.8646969751838086e-05   5.9753818723109337e-05
-0.00015425884476372718   2.8646969751838086e-05   5.9753818723109337e-05
-0.00010549848270921677   2.4008896668569098e-05   -1.8730607517781312e-05
-0.00010549848270921677   2.4008896668569098e-05   -1.8730607517781312e-05
-0.00010549848270921677   2.4008896668569098e-05   -1.8730607517781312e-05
-0.00010549848270921677   2.4008896668569098e-05   -1.8730607517781312e-05
-0.00012334797921731682   2.5909927950744198e-05   9.877934559747665e-06
-0.00012334797921731682   2.5909927950744198e-05   9.877934559747665e-06
-0.00012334797921731682   2.5909927950744198e-05   9.877934559747665e-06
-0.00012334797921731682   2.5909927950744198e-05   9.877934559747665e-06
-0.00010549848270921666   2.8646969751838086e-05   6.253666257307038e-05
-0.00010549848270921666   2.8646969751838086e-05   6.253666257307038e-05
-0.00010549848270921666   2.8646969751838086e-05   6.253666257307038e-05
-0.00010549848270921666   2.8646969751838086e-05   6.253666257307038e-05
-0.0001542588447637275   2.4008896668569098e-05   -2.1513451367742575e-05
-0.0001542588447637275   2.4008896668569098e-05   -2.1513451367742575e-05
-0.0001542588447637275   2.4008896668569098e-05   -2.1513451367742575e-05
-0.0001542588447637275   2.4008896668569098e-05   -2.1513451367742575e-05
-0.0001580680139087377   2.832787163825016e-05   7.167927168660968e-05
-0.0001580680139087377   2.832787163825016e-05   7.167927168660968e-05
-0.0001580680139087377   2.832787163825016e-05   7.167927168660968e-05
-0.0001580680139087377   2.832787163825016e-05   7.167927168660968e-05
-0.00010810610342836056   2.3515184149206295e-05   -8.702966620592568e-06
-0.00010810610342836056   2.3515184149206295e-05   -8.702966620592568e-06
-0.00010810610342836056   2.3515184149206295e-05   -8.702966620592568e-06
-0.00010810610342836056   2.3515184149206295e-05   -8.702966620592568e-06
-0.00012821382002093154   2.6191183045093033e-05   2.3204295029498638e-05
-0.00012821382002093154   2.6191183045093033e-05   2.3204295029498638e-05
-0.00012821382002093154   2.6191183045093033e-05   2.3204295029498638e-05
-0.00012821382002093154   2.6191183045093033e-05   2.3204295029498638e-05
-0.00010810610342836056   2.8327871638251026e-05   7.456688418003721e-05
-0.00010810610342836056   2.8327871638251026e-05   7.456688418003721e-05
-0.00010810610342836056   2.8327871638251026e-05   7.456688418003721e-05
-0.00010810610342836056   2.8327871638251026e-05   7.456688418003721e-05
-0.00015806801390873802   2.3515184149206295e-05   -1.1590579114019017e-05
-0.00015806801390873802   2.3515184149206295e-05   -1.1590579114019017e-05
-0.00015806801390873802   2.3515184149206295e-05   -1.1590579114019017e-05
-0.00015806801390873802   2.3515184149206295e-05   -1.1590579114019017e-05
-0.00016244863343051565   2.61339004547622e-05   9.221575761687167e-05
-0.00016244863343051565   2.61339004547622e-05   9.221575761687167e-05
-0.00016244863343051565   2.61339004547622e-05   9.221575761687167e-05
-0.00016244863343051565   2.61339004547622e-05   9.221575761687167e-05
-0.0001104924669078273   2.1348035915303744e-05   8.493665469398596e-06
-0.0001104924669078273   2.1348035915303744e-05   8.493665469398596e-06
-0.0001104924669078273   2.1348035915303744e-05   8.493665469398596e-06
-0.0001104924669078273   2.1348035915303744e-05   8.493665469398596e-06
-0.0001292854035016329   2.52939335555237e-05   3.7447687874945504e-05
-0.0001292854035016329   2.52939335555237e-05   3.7447687874945504e-05
-0.0001292854035016329   2.52939335555237e-05   3.7447687874945504e-05
-0.0001292854035016329   2.52939335555237e-05   3.7447687874945504e-05
7.080166615822697e-05   -9.183181906636737e-06   7.13193811105366e-05
7.080166615822697e-05   -9.183181906636737e-06   7.13193811105366e-05
7.080166615822697e-05   -9.183181906636737e-06   7.13193811105366e-05
7.080166615822697e-05   -9.183181906636737e-06   7.13193811105366e-05
2.9358931690897635e-05   -4.469728361055497e-06   5.076229125670385e-06
2.9358931690897635e-05   -4.469728361055497e-06   5.076229125670385e-06
2.9358931690897635e-05   -4.469728361055497e-06   5.076229125670385e-06
2.9358931690897635e-05   -4.469728361055497e-06   5.076229125670385e-06
2.748793299870243e-05   -1.1160694356204988e-05   6.415840003663222e-05
2.748793299870243e-05   -1.1160694356204988e-05   6.415840003663222e-05
2.748793299870243e-05   -1.1160694356204988e-05   6.415840003663222e-05
2.748793299870243e-05   -1.1160694356204988e-05   6.415840003663222e-05
6.682416870687228e-05   -6.233495205186339e-06   -4.358312300928487e-06
6.682416870687228e-05   -6.233495205186339e-06   -4.358312300928487e-06
6.682416870687228e-05   -6.233495205186339e-06   -4.358312300928487e-06
6.682416870687228e-05   -6.233495205186339e-06   -4.358312300928487e-06
4.619704987014038e-05   -7.95122872543786e-06   3.105085920577675e-05
4.619704987014038e-05   -7.95122872543786e-06   3.105085920577675e-05
4.619704987014038e-05   -7.95122872543786e-06   3.105085920577675e-05
4.619704987014038e-05   -7.95122872543786e-06   3.105085920577675e-05
6.682416870687239e-05   -1.1160694356204988e-05   6.12020805460219e-05
6.682416870687239e-05   -1.1160694356204988e-05   6.12020805460219e-05
6.682416870687239e-05   -1.1160694356204988e-05   6.12020805460219e-05
6.682416870687239e-05   -1.1160694356204988e-05   6.12020805460219e-05
2.7487932998702334e-05   -6.233495205186339e-06   -1.4019928103177308e-06
2.7487932998702334e-05   -6.233495205186339e-06   -1.4019928103177308e-06
2.7487932998702334e-05   -6.233495205186339e-06   -1.4019928103177308e-06
2.7487932998702334e-05   -6.233495205186339e-06   -1.4019928103177308e-06
2.5389108002422717e-05   -1.1691196181960739e-05   5.8835707207358784e-05
2.5389108002422717e-05   -1.1691196181960739e-05   5.8835707207358784e-05
2.5389108002422717e-05   -1.1691196181960739e-05   5.8835707207358784e-05
2.5389108002422717e-05   -1.1691196181960739e-05   5.8835707207358784e-05
6.341240453657998e-05   -6.843411898048955e-06   -7.445124253250071e-06
6.341240453657998e-05   -6.843411898048955e-06   -7.445124253250071e-06
6.341240453657998e-05   -6.843411898048955e-06   -7.445124253250071e-06
6.341240453657998e-05   -6.843411898048955e-06   -7.445124253250071e-06
4.44148027242098e-05   -8.698379633416409e-06   2.533052607525568e-05
4.44148027242098e-05   -8.698379633416409e-06   2.533052607525568e-05
4.44148027242098e-05   -8.698379633416409e-06   2.533052607525568e-05
4.44148027242098e-05   -8.698379633416409e-06   2.533052607525568e-05
6.341240453658009e-05   -1.1691196181960739e-05   5.592703663701189e-05
6.341240453658009e-05   -1.1691196181960739e-05   5.592703663701189e-05
6.341240453658009e-05   -1.1691196181960739e-05   5.592703663701189e-05
6.341240453658009e-05   -1.1691196181960739e-05   5.592703663701189e-05
2.5389108002422676e-05   -6.843411898048955e-06   -4.536453682902741e-06
2.5389108002422676e-05   -6.843411898048955e-06   -4.536453682902741e-06
2.5389108002422676e-05   -6.843411898048955e-06   -4.536453682902741e-06
2.5389108002422676e-05   -6.843411898048955e-06   -4.536453682902741e-06
2.350881954053829e-05   -1.2197240064041812e-05   5.194440076535184e-05
2.350881954053829e-05   -1.2197240064041812e-05   5.194440076535184e-05
2.350881954053829e-05   -1.2197240064041812e-05   5.194440076535184e-05
2.350881954053829e-05   -1.2197240064041812e-05   5.194440076535184e-05
5.954724065077878e-05   -7.65848472788263e-06   -1.0842887620077484e-05
5.954724065077878e-05   -7.65848472788263e-06   -1.0842887620077484e-05
5.954724065077878e-05   -7.65848472788263e-06   -1.0842887620077484e-05
5.954724065077878e-05   -7.65848472788263e-06   -1.0842887620077484e-05
4.115220141710735e-05   -8.850829623129226e-06   2.053091803985588e-05
4.115220141710735e-05   -8.850829623129226e-06   2.053091803985588e-05
4.115220141710735e-05   -8.850829623129226e-06   2.053091803985588e-05
4.115220141710735e-05   -8.850829623129226e-06   2.053091803985588e-05
2.935893169089773e-05   -2.588033233379139e-08   8.842373906979561e-05
2.935893169089773e-05   -2.588033233379139e-08   8.842373906979561e-05
2.935893169089773e-05   -2.588033233379139e-08   8.842373906979561e-05
2.935893169089773e-05   -2.588033233379139e-08   8.842373906979561e-05
-9.554366898648016e-06   2.359507436599205e-06   2.4999474081912124e-05
-9.554366898648016e-06   2.359507436599205e-06   2.4999474081912124e-05
-9.554366898648016e-06   2.359507436599205e-06   2.4999474081912124e-05
-9.554366898648016e-06   2.359507436599205e-06   2.4999474081912124e-05
-1.1272426972299906e-05   -1.7498647113889723e-06   8.860272667075581e-05
-1.1272426972299906e-05   -1.7498647113889723e-06   8.860272667075581e-05
-1.1272426972299906e-05   -1.7498647113889723e-06   8.860272667075581e-05
-1.1272426972299906e-05   -1.7498647113889723e-06   8.860272667075581e-05
2.7487932998702334e-05   5.690839409858497e-07   2.2610757527660678e-05
2.7487932998702334e-05   5.690839409858497e-07   2.2610757527660678e-05
2.7487932998702334e-05   5.690839409858497e-07   2.2610757527660678e-05
2.7487932998702334e-05   5.690839409858497e-07   2.2610757527660678e-05
8.728504134211219e-06   1.3558443751927884e-07   5.413657200389432e-05
8.728504134211219e-06   1.3558443751927884e-07   5.413657200389432e-05
8.728504134211219e-06   1.3558443751927884e-07   5.413657200389432e-05
8.728504134211219e-06   1.3558443751927884e-07   5.413657200389432e-05
2.74879329987024e-05   -1.7498647113898397e-06   8.721135747933066e-05
2.74879329987024e-05   -1.7498647113898397e-06   8.721135747933066e-05
2.74879329987024e-05   -1.7498647113898397e-06   8.721135747933066e-05
2.74879329987024e-05   -1.7498647113898397e-06   8.721135747933066e-05
-1.1272426972299906e-05   5.690839409858497e-07   2.4002126719086143e-05
-1.1272426972299906e-05   5.690839409858497e-07   2.4002126719086143e-05
-1.1272426972299906e-05   5.690839409858497e-07   2.4002126719086143e-05
-1.1272426972299906e-05   5.690839409858497e-07   2.4002126719086143e-05
-1.3028435245677334e-05   -3.11255522720405e-06   8.756400344989146e-05
-1.3028435245677334e-05   -3.11255522720405e-06   8.756400344989146e-05
-1.3028435245677334e-05   -3.11255522720405e-06   8.756400344989146e-05
-1.3028435245677334e-05   -3.11255522720405e-06   8.756400344989146e-05
2.5389108002422676e-05   -8.995731537696228e-07   2.2206975458997726e-05
2.5389108002422676e-05   -8.995731537696228e-07   2.2206975458997726e-05
2.5389108002422676e-05   -8.995731537696228e-07   2.2206975458997726e-05
2.5389108002422676e-05   -8.995731537696228e-07   2.2206975458997726e-05
6.842178112806832e-06   -1.0607528724221674e-06   5.3215233106218476e-05
6.842178112806832e-06   -1.0607528724221674e-06   5.3215233106218476e-05
6.842178112806832e-06   -1.0607528724221674e-06   5.3215233106218476e-05
6.842178112806832e-06   -1.0607528724221674e-06   5.3215233106218476e-05
2.538910800242277e-05   -3.11255522720405e-06   8.623621420583098e-05
2.538910800242277e-05   -3.11255522720405e-06   8.623621420583098e-05
2.538910800242277e-05   -3.11255522720405e-06   8.623621420583098e-05
2.538910800242277e-05   -3.11255522720405e-06   8.623621420583098e-05
-1.3028435245677334e-05   -8.995731537696228e-07   2.3534764703058656e-05
-1.3028435245677334e-05   -8.995731537696228e-07   2.3534764703058656e-05
-1.3028435245677334e-05   -8.995731537696228e-07   2.3534764703058656e-05
-1.3028435245677334e-05   -8.995731537696228e-07   2.3534764703058656e-05
-1.4769246624459116e-05   -4.379262160680852e-06   8.838208549206798e-05
-1.4769246624459116e-05   -4.379262160680852e-06   8.838208549206798e-05
-1.4769246624459116e-05   -4.379262160680852e-06   8.838208549206798e-05
-1.4769246624459116e-05   -4.379262160680852e-06   8.838208549206798e-05
2.350881954053818e-05   -2.3514506579495886e-06   2.336862164876714e-05
2.350881954053818e-05   -2.3514506579495886e-06   2.336862164876714e-05
2.350881954053818e-05   -2.3514506579495886e-06   2.336862164876714e-05
2.350881954053818e-05   -2.3514506579495886e-06   2.336862164876714e-05
5.347667315511688e-06   -2.062506584661096e-06   5.3463842246504866e-05
5.347667315511688e-06   -2.062506584661096e-06   5.3463842246504866e-05
5.347667315511688e-06   -2.062506584661096e-06   5.3463842246504866e-05
5.347667315511688e-06   -2.062506584661096e-06   5.3463842246504866e-05
-9.554366898647962e-06   8.934466164908263e-06   9.600613197341878e-05
-9.554366898647962e-06   8.934466164908263e-06   9.600613197341878e-05
-9.554366898647962e-06   8.934466164908263e-06   9.600613197341878e-05
-9.554366898647962e-06   8.934466164908263e-06   9.600613197341878e-05
-4.7835727708522976e-05   8.779975483051532e-06   3.2111169547846714e-05
-4.7835727708522976e-05   8.779975483051532e-06   3.2111169547846714e-05
-4.7835727708522976e-05   8.779975483051532e-06   3.2111169547846714e-05
-4.7835727708522976e-05   8.779975483051532e-06   3.2111169547846714e-05
-4.952946002599254e-05   7.415412280735792e-06   9.537854760700805e-05
-4.952946002599254e-05   7.415412280735792e-06   9.537854760700805e-05
-4.952946002599254e-05   7.415412280735792e-06   9.537854760700805e-05
-4.952946002599254e-05   7.415412280735792e-06   9.537854760700805e-05
-1.1272426972299852e-05   7.1490009191871665e-06   3.177667266778287e-05
-1.1272426972299852e-05   7.1490009191871665e-06   3.177667266778287e-05
-1.1272426972299852e-05   7.1490009191871665e-06   3.177667266778287e-05
-1.1272426972299852e-05   7.1490009191871665e-06   3.177667266778287e-05
-2.962130943413266e-05   7.87249661696101e-06   6.192404601884183e-05
-2.962130943413266e-05   7.87249661696101e-06   6.192404601884183e-05
-2.962130943413266e-05   7.87249661696101e-06   6.192404601884183e-05
-2.962130943413266e-05   7.87249661696101e-06   6.192404601884183e-05
-1.1272426972299906e-05   7.415412280735792e-06   9.553839442393713e-05
-1.1272426972299906e-05   7.415412280735792e-06   9.553839442393713e-05
-1.1272426972299906e-05   7.415412280735792e-06   9.553839442393713e-05
-1.1272426972299906e-05   7.415412280735792e-06   9.553839442393713e-05
-4.952946002599254e-05   7.1490009191871665e-06   3.161682585085422e-05
-4.952946002599254e-05   7.1490009191871665e-06   3.161682585085422e-05
-4.952946002599254e-05   7.1490009191871665e-06   3.161682585085422e-05
-4.952946002599254e-05   7.1490009191871665e-06   3.161682585085422e-05
-5.126444899798731e-05   5.920270623407768e-06   9.587694118414966e-05
-5.126444899798731e-05   5.920270623407768e-06   9.587694118414966e-05
-5.126444899798731e-05   5.920270623407768e-06   9.587694118414966e-05
-5.126444899798731e-05   5.920270623407768e-06   9.587694118414966e-05
-1.302843524567728e-05   5.536607854178012e-06   3.238044925850381e-05
-1.302843524567728e-05   5.536607854178012e-06   3.238044925850381e-05
-1.302843524567728e-05   5.536607854178012e-06   3.238044925850381e-05
-1.302843524567728e-05   5.536607854178012e-06   3.238044925850381e-05
-3.117376845606501e-05   6.686992838144702e-06   6.193244028543919e-05
-3.117376845606501e-05   6.686992838144702e-06   6.193244028543919e-05
-3.117376845606501e-05   6.686992838144702e-06   6.193244028543919e-05
-3.117376845606501e-05   6.686992838144702e-06   6.193244028543919e-05
-1.3028435245677334e-05   5.920270623407768e-06   9.610713884568691e-05
-1.3028435245677334e-05   5.920270623407768e-06   9.610713884568691e-05
-1.3028435245677334e-05   5.920270623407768e-06   9.610713884568691e-05
-1.3028435245677334e-05   5.920270623407768e-06   9.610713884568691e-05
-5.126444899798731e-05   5.536607854178012e-06   3.215025159696667e-05
-5.126444899798731e-05   5.536607854178012e-06   3.215025159696667e-05
-5.126444899798731e-05   5.536607854178012e-06   3.215025159696667e-05
-5.126444899798731e-05   5.536607854178012e-06   3.215025159696667e-05
-5.297976049773638e-05   4.501180213635318e-06   9.717943139626395e-05
-5.297976049773638e-05   4.501180213635318e-06   9.717943139626395e-05
-5.297976049773638e-05   4.501180213635318e-06   9.717943139626395e-05
-5.297976049773638e-05   4.501180213635318e-06   9.717943139626395e-05
-1.4769246624459116e-05   3.9837252700401435e-06   3.380571457362567e-05
-1.4769246624459116e-05   3.9837252700401435e-06   3.380571457362567e-05
-1.4769246624459116e-05   3.9837252700401435e-06   3.380571457362567e-05
-1.4769246624459116e-05   3.9837252700401435e-06   3.380571457362567e-05
-3.2796956202809806e-05   5.528909019288097e-06   6.292478695466095e-05
-3.2796956202809806e-05   5.528909019288097e-06   6.292478695466095e-05
-3.2796956202809806e-05   5.528909019288097e-06   6.292478695466095e-05
-3.2796956202809806e-05   5.528909019288097e-06   6.292478695466095e-05
-4.7835727708522976e-05   1.755127692986639e-05   8.48670657257319e-05
-4.7835727708522976e-05   1.755127692986639e-05   8.48670657257319e-05
-4.7835727708522976e-05   1.755127692986639e-05   8.48670657257319e-05
-4.7835727708522976e-05   1.755127692986639e-05   8.48670657257319e-05
-8.544658699444793e-05   1.5022942806785719e-05   2.0665299775342143e-05
-8.544658699444793e-05   1.5022942806785719e-05   2.0665299775342143e-05
-8.544658699444793e-05   1.5022942806785719e-05   2.0665299775342143e-05
-8.544658699444793e-05   1.5022942806785719e-05   2.0665299775342143e-05
-8.726188173162255e-05   1.6092809249594088e-05   8.373145121573153e-05
-8.726188173162255e-05   1.6092809249594088e-05   8.373145121573153e-05
-8.726188173162255e-05   1.6092809249594088e-05   8.373145121573153e-05
-8.726188173162255e-05   1.6092809249594088e-05   8.373145121573153e-05
-4.952946002599232e-05   1.3426804514237757e-05   2.244368454756222e-05
-4.952946002599232e-05   1.3426804514237757e-05   2.244368454756222e-05
-4.952946002599232e-05   1.3426804514237757e-05   2.244368454756222e-05
-4.952946002599232e-05   1.3426804514237757e-05   2.244368454756222e-05
-6.732853720533232e-05   1.5263843457119855e-05   5.10065898140673e-05
-6.732853720533232e-05   1.5263843457119855e-05   5.10065898140673e-05
-6.732853720533232e-05   1.5263843457119855e-05   5.10065898140673e-05
-6.732853720533232e-05   1.5263843457119855e-05   5.10065898140673e-05
-4.952946002599254e-05   1.6092809249594088e-05   8.533105405694567e-05
-4.952946002599254e-05   1.6092809249594088e-05   8.533105405694567e-05
-4.952946002599254e-05   1.6092809249594088e-05   8.533105405694567e-05
-4.952946002599254e-05   1.6092809249594088e-05   8.533105405694567e-05
-8.726188173162244e-05   1.342680451423689e-05   2.0844081706347965e-05
-8.726188173162244e-05   1.342680451423689e-05   2.0844081706347965e-05
-8.726188173162244e-05   1.342680451423689e-05   2.0844081706347965e-05
-8.726188173162244e-05   1.342680451423689e-05   2.0844081706347965e-05
-8.930628592459719e-05   1.4737325487197e-05   8.659510127800472e-05
-8.930628592459719e-05   1.4737325487197e-05   8.659510127800472e-05
-8.930628592459719e-05   1.4737325487197e-05   8.659510127800472e-05
-8.930628592459719e-05   1.4737325487197e-05   8.659510127800472e-05
-5.1264448997987095e-05   1.195295321425316e-05   2.4862663097421542e-05
-5.1264448997987095e-05   1.195295321425316e-05   2.4862663097421542e-05
-5.1264448997987095e-05   1.195295321425316e-05   2.4862663097421542e-05
-5.1264448997987095e-05   1.195295321425316e-05   2.4862663097421542e-05
-6.859232034391071e-05   1.4175238298770425e-05   5.24090776232531e-05
-6.859232034391071e-05   1.4175238298770425e-05   5.24090776232531e-05
-6.859232034391071e-05   1.4175238298770425e-05   5.24090776232531e-05
-6.859232034391071e-05   1.4175238298770425e-05   5.24090776232531e-05
-5.12644489979872e-05   1.4737325487197e-05   8.82657246417712e-05
-5.12644489979872e-05   1.4737325487197e-05   8.82657246417712e-05
-5.12644489979872e-05   1.4737325487197e-05   8.82657246417712e-05
-5.12644489979872e-05   1.4737325487197e-05   8.82657246417712e-05
-8.930628592459708e-05   1.195295321425316e-05   2.3192039733655606e-05
-8.930628592459708e-05   1.195295321425316e-05   2.3192039733655606e-05
-8.930628592459708e-05   1.195295321425316e-05   2.3192039733655606e-05
-8.930628592459708e-05   1.195295321425316e-05   2.3192039733655606e-05
-9.112621486217034e-05   1.3162021391091745e-05   8.902403017782773e-05
-9.112621486217034e-05   1.3162021391091745e-05   8.902403017782773e-05
-9.112621486217034e-05   1.3162021391091745e-05   8.902403017782773e-05
-9.112621486217034e-05   1.3162021391091745e-05   8.902403017782773e-05
-5.297976049773627e-05   1.030838749056795e-05   2.715878657741854e-05
-5.297976049773627e-05   1.030838749056795e-05   2.715878657741854e-05
-5.297976049773627e-05   1.030838749056795e-05   2.715878657741854e-05
-5.297976049773627e-05   1.030838749056795e-05   2.715878657741854e-05
-7.063779156190459e-05   1.3032871474263907e-05   5.495414796081663e-05
-7.063779156190459e-05   1.3032871474263907e-05   5.495414796081663e-05
-7.063779156190459e-05   1.3032871474263907e-05   5.495414796081663e-05
-7.063779156190459e-05   1.3032871474263907e-05   5.495414796081663e-05
-8.544658699444793e-05   2.4143019855835633e-05   4.071532644756319e-05
-8.544658699444793e-05   2.4143019855835633e-05   4.071532644756319e-05
-8.544658699444793e-05   2.4143019855835633e-05   4.071532644756319e-05
-8.544658699444793e-05   2.4143019855835633e-05   4.071532644756319e-05
-0.0001206308092466554   1.966085894759221e-05   -2.0614340517728993e-05
-0.0001206308092466554   1.966085894759221e-05   -2.0614340517728993e-05
-0.0001206308092466554   1.966085894759221e-05   -2.0614340517728993e-05
-0.0001206308092466554   1.966085894759221e-05   -2.0614340517728993e-05
-0.0001244204150722091   2.4008896668569098e-05   5.2127205702931154e-05
-0.0001244204150722091   2.4008896668569098e-05   5.2127205702931154e-05
-0.0001244204150722091   2.4008896668569098e-05   5.2127205702931154e-05
-0.0001244204150722091   2.4008896668569098e-05   5.2127205702931154e-05
-8.726188173162233e-05   1.9140943882538924e-05   -6.882911526427411e-06
-8.726188173162233e-05   1.9140943882538924e-05   -6.882911526427411e-06
-8.726188173162233e-05   1.9140943882538924e-05   -6.882911526427411e-06
-8.726188173162233e-05   1.9140943882538924e-05   -6.882911526427411e-06
-0.0001005278540296462   2.1347949298116363e-05   1.390283905426757e-05
-0.0001005278540296462   2.1347949298116363e-05   1.390283905426757e-05
-0.0001005278540296462   2.1347949298116363e-05   1.390283905426757e-05
-0.0001005278540296462   2.1347949298116363e-05   1.390283905426757e-05
-8.726188173162255e-05   2.4008896668569098e-05   5.504797737455056e-05
-8.726188173162255e-05   2.4008896668569098e-05   5.504797737455056e-05
-8.726188173162255e-05   2.4008896668569098e-05   5.504797737455056e-05
-8.726188173162255e-05   2.4008896668569098e-05   5.504797737455056e-05
-0.00012442041507220933   1.9140943882538924e-05   -9.803683198045731e-06
-0.00012442041507220933   1.9140943882538924e-05   -9.803683198045731e-06
-0.00012442041507220933   1.9140943882538924e-05   -9.803683198045731e-06
-0.00012442041507220933   1.9140943882538924e-05   -9.803683198045731e-06
-0.00012773072378413153   2.3515184149206295e-05   6.205627539372042e-05
-0.00012773072378413153   2.3515184149206295e-05   6.205627539372042e-05
-0.00012773072378413153   2.3515184149206295e-05   6.205627539372042e-05
-0.00012773072378413153   2.3515184149206295e-05   6.205627539372042e-05
-8.930628592459676e-05   1.8516811612211137e-05   1.0145691500269404e-06
-8.930628592459676e-05   1.8516811612211137e-05   1.0145691500269404e-06
-8.930628592459676e-05   1.8516811612211137e-05   1.0145691500269404e-06
-8.930628592459676e-05   1.8516811612211137e-05   1.0145691500269404e-06
-0.00010452764868276455   2.1356027438443163e-05   2.4679977584571126e-05
-0.00010452764868276455   2.1356027438443163e-05   2.4679977584571126e-05
-0.00010452764868276455   2.1356027438443163e-05   2.4679977584571126e-05
-0.00010452764868276455   2.1356027438443163e-05   2.4679977584571126e-05
-8.930628592459719e-05   2.3515184149206295e-05   6.505529891591769e-05
-8.930628592459719e-05   2.3515184149206295e-05   6.505529891591769e-05
-8.930628592459719e-05   2.3515184149206295e-05   6.505529891591769e-05
-8.930628592459719e-05   2.3515184149206295e-05   6.505529891591769e-05
-0.00012773072378413153   1.8516811612211137e-05   -1.9844543721701108e-06
-0.00012773072378413153   1.8516811612211137e-05   -1.9844543721701108e-06
-0.00012773072378413153   1.8516811612211137e-05   -1.9844543721701108e-06
-0.00012773072378413153   1.8516811612211137e-05   -1.9844543721701108e-06
-0.00013157411542422852   2.1348035915303744e-05   7.932514178467156e-05
-0.00013157411542422852   2.1348035915303744e-05   7.932514178467156e-05
-0.00013157411542422852   2.1348035915303744e-05   7.932514178467156e-05
-0.00013157411542422852   2.1348035915303744e-05   7.932514178467156e-05
-9.112621486217012e-05   1.6431245094212198e-05   1.4862048673895244e-05
-9.112621486217012e-05   1.6431245094212198e-05   1.4862048673895244e-05
-9.112621486217012e-05   1.6431245094212198e-05   1.4862048673895244e-05
-9.112621486217012e-05   1.6431245094212198e-05   1.4862048673895244e-05
-0.00010544536376776333   2.04485987933007e-05   3.6316884630430753e-05
-0.00010544536376776333   2.04485987933007e-05   3.6316884630430753e-05
-0.00010544536376776333   2.04485987933007e-05   3.6316884630430753e-05
-0.00010544536376776333   2.04485987933007e-05   3.6316884630430753e-05
3.897985221409947e-05   -4.469728361055497e-06   5.592283123517132e-05
3.897985221409947e-05   -4.469728361055497e-06   5.592283123517132e-05
3.897985221409947e-05   -4.469728361055497e-06   5.592283123517132e-05
3.897985221409947e-05   -4.469728361055497e-06   5.592283123517132e-05
1.0060635397069983e-05   1.8009163948529486e-07   1.0514028540446578e-05
1.0060635397069983e-05   1.8009163948529486e-07   1.0514028540446578e-05
1.0060635397069983e-05   1.8009163948529486e-07   1.0514028540446578e-05
1.0060635397069983e-05   1.8009163948529486e-07   1.0514028540446578e-05
8.666609822804356e-06   -6.233495205186339e-06   5.2185688288840584e-05
8.666609822804356e-06   -6.233495205186339e-06   5.2185688288840584e-05
8.666609822804356e-06   -6.233495205186339e-06   5.2185688288840584e-05
8.666609822804356e-06   -6.233495205186339e-06   5.2185688288840584e-05
3.553799605949699e-05   -1.397088275903284e-06   4.4982004034500975e-06
3.553799605949699e-05   -1.397088275903284e-06   4.4982004034500975e-06
3.553799605949699e-05   -1.397088275903284e-06   4.4982004034500975e-06
3.553799605949699e-05   -1.397088275903284e-06   4.4982004034500975e-06
2.1928730689707285e-05   -3.20339665854652e-06   2.826409438268728e-05
2.1928730689707285e-05   -3.20339665854652e-06   2.826409438268728e-05
2.1928730689707285e-05   -3.20339665854652e-06   2.826409438268728e-05
2.1928730689707285e-05   -3.20339665854652e-06   2.826409438268728e-05
3.553799605949707e-05   -6.233495205187206e-06   4.928384413127075e-05
3.553799605949707e-05   -6.233495205187206e-06   4.928384413127075e-05
3.553799605949707e-05   -6.233495205187206e-06   4.928384413127075e-05
3.553799605949707e-05   -6.233495205187206e-06   4.928384413127075e-05
8.666609822804343e-06   -1.397088275903284e-06   7.400044561020527e-06
8.666609822804343e-06   -1.397088275903284e-06   7.400044561020527e-06
8.666609822804343e-06   -1.397088275903284e-06   7.400044561020527e-06
8.666609822804343e-06   -1.397088275903284e-06   7.400044561020527e-06
7.044512942671203e-06   -6.843411898048955e-06   4.900902137323091e-05
7.044512942671203e-06   -6.843411898048955e-06   4.900902137323091e-05
7.044512942671203e-06   -6.843411898048955e-06   4.900902137323091e-05
7.044512942671203e-06   -6.843411898048955e-06   4.900902137323091e-05
3.262673371986954e-05   -2.0810299600727486e-06   3.5145575817817245e-06
3.262673371986954e-05   -2.0810299600727486e-06   3.5145575817817245e-06
3.262673371986954e-05   -2.0810299600727486e-06   3.5145575817817245e-06
3.262673371986954e-05   -2.0810299600727486e-06   3.5145575817817245e-06
2.02558884576527e-05   -3.891455729342075e-06   2.5218888480371118e-05
2.02558884576527e-05   -3.891455729342075e-06   2.5218888480371118e-05
2.02558884576527e-05   -3.891455729342075e-06   2.5218888480371118e-05
2.02558884576527e-05   -3.891455729342075e-06   2.5218888480371118e-05
3.2626733719869565e-05   -6.843411898048955e-06   4.61515922104451e-05
3.2626733719869565e-05   -6.843411898048955e-06   4.61515922104451e-05
3.2626733719869565e-05   -6.843411898048955e-06   4.61515922104451e-05
3.2626733719869565e-05   -6.843411898048955e-06   4.61515922104451e-05
7.044512942671176e-06   -2.0810299600727486e-06   6.371986744566939e-06
7.044512942671176e-06   -2.0810299600727486e-06   6.371986744566939e-06
7.044512942671176e-06   -2.0810299600727486e-06   6.371986744566939e-06
7.044512942671176e-06   -2.0810299600727486e-06   6.371986744566939e-06
5.640422351992715e-06   -7.658484727883497e-06   4.536185105124147e-05
5.640422351992715e-06   -7.658484727883497e-06   4.536185105124147e-05
5.640422351992715e-06   -7.658484727883497e-06   4.536185105124147e-05
5.640422351992715e-06   -7.658484727883497e-06   4.536185105124147e-05
2.9221836058656236e-05   -3.227710960663349e-06   3.401030613138208e-06
2.9221836058656236e-05   -3.227710960663349e-06   3.401030613138208e-06
2.9221836058656236e-05   -3.227710960663349e-06   3.401030613138208e-06
2.9221836058656236e-05   -3.227710960663349e-06   3.401030613138208e-06
1.781760512643769e-05   -4.253585641485029e-06   2.3023606975329427e-05
1.781760512643769e-05   -4.253585641485029e-06   2.3023606975329427e-05
1.781760512643769e-05   -4.253585641485029e-06   2.3023606975329427e-05
1.781760512643769e-05   -4.253585641485029e-06   2.3023606975329427e-05
1.0060635397070003e-05   2.359507436599205e-06   7.720473553037835e-05
1.0060635397070003e-05   2.359507436599205e-06   7.720473553037835e-05
1.0060635397070003e-05   2.359507436599205e-06   7.720473553037835e-05
1.0060635397070003e-05   2.359507436599205e-06   7.720473553037835e-05
-1.630827681150176e-05   4.456902771917889e-06   3.451498571728322e-05
-1.630827681150176e-05   4.456902771917889e-06   3.451498571728322e-05
-1.630827681150176e-05   4.456902771917889e-06   3.451498571728322e-05
-1.630827681150176e-05   4.456902771917889e-06   3.451498571728322e-05
-1.75315015417247e-05   5.690839409858497e-07   7.745866208746545e-05
-1.75315015417247e-05   5.690839409858497e-07   7.745866208746545e-05
-1.75315015417247e-05   5.690839409858497e-07   7.745866208746545e-05
-1.75315015417247e-05   5.690839409858497e-07   7.745866208746545e-05
8.666609822804343e-06   2.669456375396957e-06   3.2534919685938e-05
8.666609822804343e-06   2.669456375396957e-06   3.2534919685938e-05
8.666609822804343e-06   2.669456375396957e-06   3.2534919685938e-05
8.666609822804343e-06   2.669456375396957e-06   3.2534919685938e-05
-3.973711988143309e-06   2.3377870303027334e-06   5.380112431124296e-05
-3.973711988143309e-06   2.3377870303027334e-06   5.380112431124296e-05
-3.973711988143309e-06   2.3377870303027334e-06   5.380112431124296e-05
-3.973711988143309e-06   2.3377870303027334e-06   5.380112431124296e-05
8.666609822804343e-06   5.690839409858497e-07   7.619843862681887e-05
8.666609822804343e-06   5.690839409858497e-07   7.619843862681887e-05
8.666609822804343e-06   5.690839409858497e-07   7.619843862681887e-05
8.666609822804343e-06   5.690839409858497e-07   7.619843862681887e-05
-1.75315015417247e-05   2.669456375396957e-06   3.3795143146584956e-05
-1.75315015417247e-05   2.669456375396957e-06   3.3795143146584956e-05
-1.75315015417247e-05   2.669456375396957e-06   3.3795143146584956e-05
-1.75315015417247e-05   2.669456375396957e-06   3.3795143146584956e-05
-1.8789860826869055e-05   -8.995731537696228e-07   7.698263720981504e-05
-1.8789860826869055e-05   -8.995731537696228e-07   7.698263720981504e-05
-1.8789860826869055e-05   -8.995731537696228e-07   7.698263720981504e-05
-1.8789860826869055e-05   -8.995731537696228e-07   7.698263720981504e-05
7.044512942671176e-06   1.1507380040368977e-06   3.269516089923118e-05
7.044512942671176e-06   1.1507380040368977e-06   3.269516089923118e-05
7.044512942671176e-06   1.1507380040368977e-06   3.269516089923118e-05
7.044512942671176e-06   1.1507380040368977e-06   3.269516089923118e-05
-5.277787904286896e-06   1.0887053301456354e-06   5.3269548581830455e-05
-5.277787904286896e-06   1.0887053301456354e-06   5.3269548581830455e-05
-5.277787904286896e-06   1.0887053301456354e-06   5.3269548581830455e-05
-5.277787904286896e-06   1.0887053301456354e-06   5.3269548581830455e-05
7.044512942671203e-06   -8.995731537696228e-07   7.575245051513182e-05
7.044512942671203e-06   -8.995731537696228e-07   7.575245051513182e-05
7.044512942671203e-06   -8.995731537696228e-07   7.575245051513182e-05
7.044512942671203e-06   -8.995731537696228e-07   7.575245051513182e-05
-1.878986082686911e-05   1.1507380040368977e-06   3.3925347593915644e-05
-1.878986082686911e-05   1.1507380040368977e-06   3.3925347593915644e-05
-1.878986082686911e-05   1.1507380040368977e-06   3.3925347593915644e-05
-1.878986082686911e-05   1.1507380040368977e-06   3.3925347593915644e-05
-2.0028778185544763e-05   -2.3514506579487213e-06   7.801737910738057e-05
-2.0028778185544763e-05   -2.3514506579487213e-06   7.801737910738057e-05
-2.0028778185544763e-05   -2.3514506579487213e-06   7.801737910738057e-05
-2.0028778185544763e-05   -2.3514506579487213e-06   7.801737910738057e-05
5.640422351992701e-06   -4.0599734296752413e-07   3.4068106222495914e-05
5.640422351992701e-06   -4.0599734296752413e-07   3.4068106222495914e-05
5.640422351992701e-06   -4.0599734296752413e-07   3.4068106222495914e-05
5.640422351992701e-06   -4.0599734296752413e-07   3.4068106222495914e-05
-6.384657453355583e-06   -3.661354587656401e-08   5.388827561982209e-05
-6.384657453355583e-06   -3.661354587656401e-08   5.388827561982209e-05
-6.384657453355583e-06   -3.661354587656401e-08   5.388827561982209e-05
-6.384657453355583e-06   -3.661354587656401e-08   5.388827561982209e-05
-1.630827681150176e-05   8.779975483051532e-06   8.566756260661775e-05
-1.630827681150176e-05   8.779975483051532e-06   8.566756260661775e-05
-1.630827681150176e-05   8.779975483051532e-06   8.566756260661775e-05
-1.630827681150176e-05   8.779975483051532e-06   8.566756260661775e-05
-4.22455442758889e-05   8.26435105854206e-06   4.2129408844600444e-05
-4.22455442758889e-05   8.26435105854206e-06   4.2129408844600444e-05
-4.22455442758889e-05   8.26435105854206e-06   4.2129408844600444e-05
-4.22455442758889e-05   8.26435105854206e-06   4.2129408844600444e-05
-4.341796790716817e-05   7.149000919188034e-06   8.491131187828753e-05
-4.341796790716817e-05   7.149000919188034e-06   8.491131187828753e-05
-4.341796790716817e-05   7.149000919188034e-06   8.491131187828753e-05
-4.341796790716817e-05   7.149000919188034e-06   8.491131187828753e-05
-1.7531501541724647e-05   6.612507322729423e-06   4.208909742709074e-05
-1.7531501541724647e-05   6.612507322729423e-06   4.208909742709074e-05
-1.7531501541724647e-05   6.612507322729423e-06   4.208909742709074e-05
-1.7531501541724647e-05   6.612507322729423e-06   4.208909742709074e-05
-2.9930354453056187e-05   7.521035076741775e-06   6.220873562690586e-05
-2.9930354453056187e-05   7.521035076741775e-06   6.220873562690586e-05
-2.9930354453056187e-05   7.521035076741775e-06   6.220873562690586e-05
-2.9930354453056187e-05   7.521035076741775e-06   6.220873562690586e-05
-1.75315015417247e-05   7.149000919188034e-06   8.523320803616305e-05
-1.75315015417247e-05   7.149000919188034e-06   8.523320803616305e-05
-1.75315015417247e-05   7.149000919188034e-06   8.523320803616305e-05
-1.75315015417247e-05   7.149000919188034e-06   8.523320803616305e-05
-4.341796790716817e-05   6.612507322729423e-06   4.176720126921598e-05
-4.341796790716817e-05   6.612507322729423e-06   4.176720126921598e-05
-4.341796790716817e-05   6.612507322729423e-06   4.176720126921598e-05
-4.341796790716817e-05   6.612507322729423e-06   4.176720126921598e-05
-4.462931477776421e-05   5.536607854178879e-06   8.548776024099947e-05
-4.462931477776421e-05   5.536607854178879e-06   8.548776024099947e-05
-4.462931477776421e-05   5.536607854178879e-06   8.548776024099947e-05
-4.462931477776421e-05   5.536607854178879e-06   8.548776024099947e-05
-1.8789860826869055e-05   4.969005313742569e-06   4.2762565180436314e-05
-1.8789860826869055e-05   4.969005313742569e-06   4.2762565180436314e-05
-1.8789860826869055e-05   4.969005313742569e-06   4.2762565180436314e-05
-1.8789860826869055e-05   4.969005313742569e-06   4.2762565180436314e-05
-3.0975228979974556e-05   6.26276683579792e-06   6.229525518904565e-05
-3.0975228979974556e-05   6.26276683579792e-06   6.229525518904565e-05
-3.0975228979974556e-05   6.26276683579792e-06   6.229525518904565e-05
-3.0975228979974556e-05   6.26276683579792e-06   6.229525518904565e-05
-1.878986082686911e-05   5.536607854178879e-06   8.582832176526117e-05
-1.878986082686911e-05   5.536607854178879e-06   8.582832176526117e-05
-1.878986082686911e-05   5.536607854178879e-06   8.582832176526117e-05
-1.878986082686911e-05   5.536607854178879e-06   8.582832176526117e-05
-4.46293147777641e-05   4.969005313742569e-06   4.242200365617483e-05
-4.46293147777641e-05   4.969005313742569e-06   4.242200365617483e-05
-4.46293147777641e-05   4.969005313742569e-06   4.242200365617483e-05
-4.46293147777641e-05   4.969005313742569e-06   4.242200365617483e-05
-4.582207154509997e-05   3.9837252700401435e-06   8.688411175325093e-05
-4.582207154509997e-05   3.9837252700401435e-06   8.688411175325093e-05
-4.582207154509997e-05   3.9837252700401435e-06   8.688411175325093e-05
-4.582207154509997e-05   3.9837252700401435e-06   8.688411175325093e-05
-2.0028778185544763e-05   3.394269641124846e-06   4.424896286467567e-05
-2.0028778185544763e-05   3.394269641124846e-06   4.424896286467567e-05
-2.0028778185544763e-05   3.394269641124846e-06   4.424896286467567e-05
-2.0028778185544763e-05   3.394269641124846e-06   4.424896286467567e-05
-3.208607457757105e-05   5.029181528732295e-06   6.336350971882247e-05
-3.208607457757105e-05   5.029181528732295e-06   6.336350971882247e-05
-3.208607457757105e-05   5.029181528732295e-06   6.336350971882247e-05
-3.208607457757105e-05   5.029181528732295e-06   6.336350971882247e-05
-4.22455442758889e-05   1.5022942806785719e-05   7.542931865325625e-05
-4.22455442758889e-05   1.5022942806785719e-05   7.542931865325625e-05
-4.22455442758889e-05   1.5022942806785719e-05   7.542931865325625e-05
-4.22455442758889e-05   1.5022942806785719e-05   7.542931865325625e-05
-6.768941772039995e-05   1.2248653556550752e-05   3.135828936226288e-05
-6.768941772039995e-05   1.2248653556550752e-05   3.135828936226288e-05
-6.768941772039995e-05   1.2248653556550752e-05   3.135828936226288e-05
-6.768941772039995e-05   1.2248653556550752e-05   3.135828936226288e-05
-6.896594613540552e-05   1.342680451423689e-05   7.403066404121448e-05
-6.896594613540552e-05   1.342680451423689e-05   7.403066404121448e-05
-6.896594613540552e-05   1.342680451423689e-05   7.403066404121448e-05
-6.896594613540552e-05   1.342680451423689e-05   7.403066404121448e-05
-4.3417967907168065e-05   1.058096029126843e-05   3.315820686126741e-05
-4.3417967907168065e-05   1.058096029126843e-05   3.315820686126741e-05
-4.3417967907168065e-05   1.058096029126843e-05   3.315820686126741e-05
-4.3417967907168065e-05   1.058096029126843e-05   3.315820686126741e-05
-5.544625890075935e-05   1.2616310636903369e-05   5.198414830987494e-05
-5.544625890075935e-05   1.2616310636903369e-05   5.198414830987494e-05
-5.544625890075935e-05   1.2616310636903369e-05   5.198414830987494e-05
-5.544625890075935e-05   1.2616310636903369e-05   5.198414830987494e-05
-4.341796790716817e-05   1.3426804514237757e-05   7.573817057499608e-05
-4.341796790716817e-05   1.3426804514237757e-05   7.573817057499608e-05
-4.341796790716817e-05   1.3426804514237757e-05   7.573817057499608e-05
-4.341796790716817e-05   1.3426804514237757e-05   7.573817057499608e-05
-6.896594613540542e-05   1.058096029126843e-05   3.145070032748625e-05
-6.896594613540542e-05   1.058096029126843e-05   3.145070032748625e-05
-6.896594613540542e-05   1.058096029126843e-05   3.145070032748625e-05
-6.896594613540542e-05   1.058096029126843e-05   3.145070032748625e-05
-7.047938355212303e-05   1.195295321425316e-05   7.646885046958939e-05
-7.047938355212303e-05   1.195295321425316e-05   7.646885046958939e-05
-7.047938355212303e-05   1.195295321425316e-05   7.646885046958939e-05
-7.047938355212303e-05   1.195295321425316e-05   7.646885046958939e-05
-4.46293147777641e-05   9.067417761143576e-06   3.5116723784190534e-05
-4.46293147777641e-05   9.067417761143576e-06   3.5116723784190534e-05
-4.46293147777641e-05   9.067417761143576e-06   3.5116723784190534e-05
-4.46293147777641e-05   9.067417761143576e-06   3.5116723784190534e-05
-5.6277830708751384e-05   1.1435320385033351e-05   5.311017542816796e-05
-5.6277830708751384e-05   1.1435320385033351e-05   5.311017542816796e-05
-5.6277830708751384e-05   1.1435320385033351e-05   5.311017542816796e-05
-5.6277830708751384e-05   1.1435320385033351e-05   5.311017542816796e-05
-4.462931477776421e-05   1.195295321425316e-05   7.820017174145445e-05
-4.462931477776421e-05   1.195295321425316e-05   7.820017174145445e-05
-4.462931477776421e-05   1.195295321425316e-05   7.820017174145445e-05
-4.462931477776421e-05   1.195295321425316e-05   7.820017174145445e-05
-7.047938355212282e-05   9.067417761143576e-06   3.338540251232483e-05
-7.047938355212282e-05   9.067417761143576e-06   3.338540251232483e-05
-7.047938355212282e-05   9.067417761143576e-06   3.338540251232483e-05
-7.047938355212282e-05   9.067417761143576e-06   3.338540251232483e-05
-7.178020545997306e-05   1.030838749056795e-05   7.883428982837599e-05
-7.178020545997306e-05   1.030838749056795e-05   7.883428982837599e-05
-7.178020545997306e-05   1.030838749056795e-05   7.883428982837599e-05
-7.178020545997306e-05   1.030838749056795e-05   7.883428982837599e-05
-4.5822071545099756e-05   7.452775999193962e-06   3.728410019841321e-05
-4.5822071545099756e-05   7.452775999193962e-06   3.728410019841321e-05
-4.5822071545099756e-05   7.452775999193962e-06   3.728410019841321e-05
-4.5822071545099756e-05   7.452775999193962e-06   3.728410019841321e-05
-5.769952846960632e-05   1.0255680843563632e-05   5.539811883263743e-05
-5.769952846960632e-05   1.0255680843563632e-05   5.539811883263743e-05
-5.769952846960632e-05   1.0255680843563632e-05   5.539811883263743e-05
-5.769952846960632e-05   1.0255680843563632e-05   5.539811883263743e-05
-6.768941772040027e-05   1.966085894759221e-05   3.517440135498984e-05
-6.768941772040027e-05   1.966085894759221e-05   3.517440135498984e-05
-6.768941772040027e-05   1.966085894759221e-05   3.517440135498984e-05
-6.768941772040027e-05   1.966085894759221e-05   3.517440135498984e-05
-9.05502470017216e-05   1.502571383192857e-05   -5.708067849943864e-06
-9.05502470017216e-05   1.502571383192857e-05   -5.708067849943864e-06
-9.05502470017216e-05   1.502571383192857e-05   -5.708067849943864e-06
-9.05502470017216e-05   1.502571383192857e-05   -5.708067849943864e-06
-9.381901233385006e-05   1.9140943882538924e-05   4.33189227304542e-05
-9.381901233385006e-05   1.9140943882538924e-05   4.33189227304542e-05
-9.381901233385006e-05   1.9140943882538924e-05   4.33189227304542e-05
-9.381901233385006e-05   1.9140943882538924e-05   4.33189227304542e-05
-6.896594613540531e-05   1.4166363752564446e-05   4.881893811032115e-06
-6.896594613540531e-05   1.4166363752564446e-05   4.881893811032115e-06
-6.896594613540531e-05   1.4166363752564446e-05   4.881893811032115e-06
-6.896594613540531e-05   1.4166363752564446e-05   4.881893811032115e-06
-7.733572356763229e-05   1.6692192951587442e-05   1.7316025345332896e-05
-7.733572356763229e-05   1.6692192951587442e-05   1.7316025345332896e-05
-7.733572356763229e-05   1.6692192951587442e-05   1.7316025345332896e-05
-7.733572356763229e-05   1.6692192951587442e-05   1.7316025345332896e-05
-6.896594613540542e-05   1.9140943882538924e-05   4.630367080843845e-05
-6.896594613540542e-05   1.9140943882538924e-05   4.630367080843845e-05
-6.896594613540542e-05   1.9140943882538924e-05   4.630367080843845e-05
-6.896594613540542e-05   1.9140943882538924e-05   4.630367080843845e-05
-9.381901233385028e-05   1.4166363752564446e-05   1.8971457330468856e-06
-9.381901233385028e-05   1.4166363752564446e-05   1.8971457330468856e-06
-9.381901233385028e-05   1.4166363752564446e-05   1.8971457330468856e-06
-9.381901233385028e-05   1.4166363752564446e-05   1.8971457330468856e-06
-9.663715146806997e-05   1.8516811612211137e-05   5.12536043594811e-05
-9.663715146806997e-05   1.8516811612211137e-05   5.12536043594811e-05
-9.663715146806997e-05   1.8516811612211137e-05   5.12536043594811e-05
-9.663715146806997e-05   1.8516811612211137e-05   5.12536043594811e-05
-7.047938355212282e-05   1.345385240141125e-05   1.0695100026048227e-05
-7.047938355212282e-05   1.345385240141125e-05   1.0695100026048227e-05
-7.047938355212282e-05   1.345385240141125e-05   1.0695100026048227e-05
-7.047938355212282e-05   1.345385240141125e-05   1.0695100026048227e-05
-8.046584698609915e-05   1.6465761774248078e-05   2.5532060125641864e-05
-8.046584698609915e-05   1.6465761774248078e-05   2.5532060125641864e-05
-8.046584698609915e-05   1.6465761774248078e-05   2.5532060125641864e-05
-8.046584698609915e-05   1.6465761774248078e-05   2.5532060125641864e-05
-7.047938355212292e-05   1.851681161221027e-05   5.429137988596051e-05
-7.047938355212292e-05   1.851681161221027e-05   5.429137988596051e-05
-7.047938355212292e-05   1.851681161221027e-05   5.429137988596051e-05
-7.047938355212292e-05   1.851681161221027e-05   5.429137988596051e-05
-9.66371514680704e-05   1.345385240141125e-05   7.65732449956914e-06
-9.66371514680704e-05   1.345385240141125e-05   7.65732449956914e-06
-9.66371514680704e-05   1.345385240141125e-05   7.65732449956914e-06
-9.66371514680704e-05   1.345385240141125e-05   7.65732449956914e-06
-0.00010001420837495384   1.6431245094212198e-05   6.53058896533552e-05
-0.00010001420837495384   1.6431245094212198e-05   6.53058896533552e-05
-0.00010001420837495384   1.6431245094212198e-05   6.53058896533552e-05
-0.00010001420837495384   1.6431245094212198e-05   6.53058896533552e-05
-7.178020545997273e-05   1.152484074119298e-05   2.1193060740198975e-05
-7.178020545997273e-05   1.152484074119298e-05   2.1193060740198975e-05
-7.178020545997273e-05   1.152484074119298e-05   2.1193060740198975e-05
-7.178020545997273e-05   1.152484074119298e-05   2.1193060740198975e-05
-8.126369040815083e-05   1.5588604394409927e-05   3.4560610795233504e-05
-8.126369040815083e-05   1.5588604394409927e-05   3.4560610795233504e-05
-8.126369040815083e-05   1.5588604394409927e-05   3.4560610795233504e-05
-8.126369040815083e-05   1.5588604394409927e-05   3.4560610795233504e-05
7.278024439395298e-06   1.8009163948529486e-07   4.154611595683956e-05
7.278024439395298e-06   1.8009163948529486e-07   4.154611595683956e-05
7.278024439395298e-06   1.8009163948529486e-07   4.154611595683956e-05
7.278024439395298e-06   1.8009163948529486e-07   4.154611595683956e-05
-9.110500621974816e-06   4.631045043796984e-06   1.6902479563809733e-05
-9.110500621974816e-06   4.631045043796984e-06   1.6902479563809733e-05
-9.110500621974816e-06   4.631045043796984e-06   1.6902479563809733e-05
-9.110500621974816e-06   4.631045043796984e-06   1.6902479563809733e-05
-1.0089626435117149e-05   -1.3970882759037177e-06   4.1046909346510946e-05
-1.0089626435117149e-05   -1.3970882759037177e-06   4.1046909346510946e-05
-1.0089626435117149e-05   -1.3970882759037177e-06   4.1046909346510946e-05
-1.0089626435117149e-05   -1.3970882759037177e-06   4.1046909346510946e-05
4.291458154923196e-06   3.1602934658244396e-06   1.4344005984740491e-05
4.291458154923196e-06   3.1602934658244396e-06   1.4344005984740491e-05
4.291458154923196e-06   3.1602934658244396e-06   1.4344005984740491e-05
4.291458154923196e-06   3.1602934658244396e-06   1.4344005984740491e-05
-2.276386036437178e-06   1.393787947006394e-06   2.63503162816316e-05
-2.276386036437178e-06   1.393787947006394e-06   2.63503162816316e-05
-2.276386036437178e-06   1.393787947006394e-06   2.63503162816316e-05
-2.276386036437178e-06   1.393787947006394e-06   2.63503162816316e-05
4.291458154923196e-06   -1.3970882759037177e-06   3.8312480301474355e-05
4.291458154923196e-06   -1.3970882759037177e-06   3.8312480301474355e-05
4.291458154923196e-06   -1.3970882759037177e-06   3.8312480301474355e-05
4.291458154923196e-06   -1.3970882759037177e-06   3.8312480301474355e-05
-1.0089626435117149e-05   3.1602934658244396e-06   1.707843502977719e-05
-1.0089626435117149e-05   3.1602934658244396e-06   1.707843502977719e-05
-1.0089626435117149e-05   3.1602934658244396e-06   1.707843502977719e-05
-1.0089626435117149e-05   3.1602934658244396e-06   1.707843502977719e-05
-1.12977897356619e-05   -2.0810299600727486e-06   4.0016743807244235e-05
-1.12977897356619e-05   -2.0810299600727486e-06   4.0016743807244235e-05
-1.12977897356619e-05   -2.0810299600727486e-06   4.0016743807244235e-05
-1.12977897356619e-05   -2.0810299600727486e-06   4.0016743807244235e-05
1.703462528101086e-06   2.34509908299263e-06   1.5692312608466658e-05
1.703462528101086e-06   2.34509908299263e-06   1.5692312608466658e-05
1.703462528101086e-06   2.34509908299263e-06   1.5692312608466658e-05
1.703462528101086e-06   2.34509908299263e-06   1.5692312608466658e-05
-3.893949104053601e-06   7.666696748313481e-07   2.5968389640287394e-05
-3.893949104053601e-06   7.666696748313481e-07   2.5968389640287394e-05
-3.893949104053601e-06   7.666696748313481e-07   2.5968389640287394e-05
-3.893949104053601e-06   7.666696748313481e-07   2.5968389640287394e-05
1.703462528101086e-06   -2.0810299600727486e-06   3.736106638140436e-05
1.703462528101086e-06   -2.0810299600727486e-06   3.736106638140436e-05
1.703462528101086e-06   -2.0810299600727486e-06   3.736106638140436e-05
1.703462528101086e-06   -2.0810299600727486e-06   3.736106638140436e-05
-1.1297789735661873e-05   2.34509908299263e-06   1.8347990034305994e-05
-1.1297789735661873e-05   2.34509908299263e-06   1.8347990034305994e-05
-1.1297789735661873e-05   2.34509908299263e-06   1.8347990034305994e-05
-1.1297789735661873e-05   2.34509908299263e-06   1.8347990034305994e-05
-1.2305206666118638e-05   -3.227710960663349e-06   3.971474735287657e-05
-1.2305206666118638e-05   -3.227710960663349e-06   3.971474735287657e-05
-1.2305206666118638e-05   -3.227710960663349e-06   3.971474735287657e-05
-1.2305206666118638e-05   -3.227710960663349e-06   3.971474735287657e-05
-1.540522971278061e-06   6.106849669996334e-07   1.9470570304877923e-05
-1.540522971278061e-06   6.106849669996334e-07   1.9470570304877923e-05
-1.540522971278061e-06   6.106849669996334e-07   1.9470570304877923e-05
-1.540522971278061e-06   6.106849669996334e-07   1.9470570304877923e-05
-5.61644144323484e-06   1.8361194426431277e-07   2.6520011571780355e-05
-5.61644144323484e-06   1.8361194426431277e-07   2.6520011571780355e-05
-5.61644144323484e-06   1.8361194426431277e-07   2.6520011571780355e-05
-5.61644144323484e-06   1.8361194426431277e-07   2.6520011571780355e-05
-9.110500621974816e-06   4.456902771917889e-06   6.695920797507218e-05
-9.110500621974816e-06   4.456902771917889e-06   6.695920797507218e-05
-9.110500621974816e-06   4.456902771917889e-06   6.695920797507218e-05
-9.110500621974816e-06   4.456902771917889e-06   6.695920797507218e-05
-2.283898686603915e-05   5.3243901336347266e-06   4.459888998532813e-05
-2.283898686603915e-05   5.3243901336347266e-06   4.459888998532813e-05
-2.283898686603915e-05   5.3243901336347266e-06   4.459888998532813e-05
-2.283898686603915e-05   5.3243901336347266e-06   4.459888998532813e-05
-2.3574521393802917e-05   2.669456375396957e-06   6.678746034579838e-05
-2.3574521393802917e-05   2.669456375396957e-06   6.678746034579838e-05
-2.3574521393802917e-05   2.669456375396957e-06   6.678746034579838e-05
-2.3574521393802917e-05   2.669456375396957e-06   6.678746034579838e-05
-1.0089626435117149e-05   3.678916166011993e-06   4.3706959540285625e-05
-1.0089626435117149e-05   3.678916166011993e-06   4.3706959540285625e-05
-1.0089626435117149e-05   3.678916166011993e-06   4.3706959540285625e-05
-1.0089626435117149e-05   3.678916166011993e-06   4.3706959540285625e-05
-1.6495389501683447e-05   3.844719032025136e-06   5.428374959828863e-05
-1.6495389501683447e-05   3.844719032025136e-06   5.428374959828863e-05
-1.6495389501683447e-05   3.844719032025136e-06   5.428374959828863e-05
-1.6495389501683447e-05   3.844719032025136e-06   5.428374959828863e-05
-1.0089626435117163e-05   2.669456375396957e-06   6.618178447142858e-05
-1.0089626435117163e-05   2.669456375396957e-06   6.618178447142858e-05
-1.0089626435117163e-05   2.669456375396957e-06   6.618178447142858e-05
-1.0089626435117163e-05   2.669456375396957e-06   6.618178447142858e-05
-2.3574521393802863e-05   3.678916166011993e-06   4.431263541465483e-05
-2.3574521393802863e-05   3.678916166011993e-06   4.431263541465483e-05
-2.3574521393802863e-05   3.678916166011993e-06   4.431263541465483e-05
-2.3574521393802863e-05   3.678916166011993e-06   4.431263541465483e-05
-2.4332770806459794e-05   1.1507380040368977e-06   6.694242277562653e-05
-2.4332770806459794e-05   1.1507380040368977e-06   6.694242277562653e-05
-2.4332770806459794e-05   1.1507380040368977e-06   6.694242277562653e-05
-2.4332770806459794e-05   1.1507380040368977e-06   6.694242277562653e-05
-1.1297789735661873e-05   2.1549126935672958e-06   4.4614949510578375e-05
-1.1297789735661873e-05   2.1549126935672958e-06   4.4614949510578375e-05
-1.1297789735661873e-05   2.1549126935672958e-06   4.4614949510578375e-05
-1.1297789735661873e-05   2.1549126935672958e-06   4.4614949510578375e-05
-1.724549222554864e-05   2.6392224564382796e-06   5.423720113600136e-05
-1.724549222554864e-05   2.6392224564382796e-06   5.423720113600136e-05
-1.724549222554864e-05   2.6392224564382796e-06   5.423720113600136e-05
-1.724549222554864e-05   2.6392224564382796e-06   5.423720113600136e-05
-1.12977897356619e-05   1.150738004036464e-06   6.633991796190777e-05
-1.12977897356619e-05   1.150738004036464e-06   6.633991796190777e-05
-1.12977897356619e-05   1.150738004036464e-06   6.633991796190777e-05
-1.12977897356619e-05   1.150738004036464e-06   6.633991796190777e-05
-2.4332770806459794e-05   2.1549126935672958e-06   4.521745432429646e-05
-2.4332770806459794e-05   2.1549126935672958e-06   4.521745432429646e-05
-2.4332770806459794e-05   2.1549126935672958e-06   4.521745432429646e-05
-2.4332770806459794e-05   2.1549126935672958e-06   4.521745432429646e-05
-2.5075482636953243e-05   -4.0599734296752413e-07   6.826602111271746e-05
-2.5075482636953243e-05   -4.0599734296752413e-07   6.826602111271746e-05
-2.5075482636953243e-05   -4.0599734296752413e-07   6.826602111271746e-05
-2.5075482636953243e-05   -4.0599734296752413e-07   6.826602111271746e-05
-1.2305206666118638e-05   4.984400083902184e-07   4.643956541717866e-05
-1.2305206666118638e-05   4.984400083902184e-07   4.643956541717866e-05
-1.2305206666118638e-05   4.984400083902184e-07   4.643956541717866e-05
-1.2305206666118638e-05   4.984400083902184e-07   4.643956541717866e-05
-1.7996574402225032e-05   1.4495068893127967e-06   5.535453818213544e-05
-1.7996574402225032e-05   1.4495068893127967e-06   5.535453818213544e-05
-1.7996574402225032e-05   1.4495068893127967e-06   5.535453818213544e-05
-1.7996574402225032e-05   1.4495068893127967e-06   5.535453818213544e-05
-2.2838986866039043e-05   8.26435105854206e-06   7.540349817412471e-05
-2.2838986866039043e-05   8.26435105854206e-06   7.540349817412471e-05
-2.2838986866039043e-05   8.26435105854206e-06   7.540349817412471e-05
-2.2838986866039043e-05   8.26435105854206e-06   7.540349817412471e-05
-3.654879272294465e-05   6.351429813066141e-06   5.140606899866262e-05
-3.654879272294465e-05   6.351429813066141e-06   5.140606899866262e-05
-3.654879272294465e-05   6.351429813066141e-06   5.140606899866262e-05
-3.654879272294465e-05   6.351429813066141e-06   5.140606899866262e-05
-3.716940934007397e-05   6.612507322729423e-06   7.40074389198285e-05
-3.716940934007397e-05   6.612507322729423e-06   7.40074389198285e-05
-3.716940934007397e-05   6.612507322729423e-06   7.40074389198285e-05
-3.716940934007397e-05   6.612507322729423e-06   7.40074389198285e-05
-2.3574521393802863e-05   4.822547811936251e-06   5.242326804918594e-05
-2.3574521393802863e-05   4.822547811936251e-06   5.242326804918594e-05
-2.3574521393802863e-05   4.822547811936251e-06   5.242326804918594e-05
-2.3574521393802863e-05   4.822547811936251e-06   5.242326804918594e-05
-3.0046029647305976e-05   6.3912452127482325e-06   6.226789669787033e-05
-3.0046029647305976e-05   6.3912452127482325e-06   6.226789669787033e-05
-3.0046029647305976e-05   6.3912452127482325e-06   6.226789669787033e-05
-3.0046029647305976e-05   6.3912452127482325e-06   6.226789669787033e-05
-2.3574521393802863e-05   6.612507322729423e-06   7.508141462630449e-05
-2.3574521393802863e-05   6.612507322729423e-06   7.508141462630449e-05
-2.3574521393802863e-05   6.612507322729423e-06   7.508141462630449e-05
-2.3574521393802863e-05   6.612507322729423e-06   7.508141462630449e-05
-3.716940934007397e-05   4.822547811936251e-06   5.134929234270995e-05
-3.716940934007397e-05   4.822547811936251e-06   5.134929234270995e-05
-3.716940934007397e-05   4.822547811936251e-06   5.134929234270995e-05
-3.716940934007397e-05   4.822547811936251e-06   5.134929234270995e-05
-3.783517807193573e-05   4.969005313742569e-06   7.47591886957619e-05
-3.783517807193573e-05   4.969005313742569e-06   7.47591886957619e-05
-3.783517807193573e-05   4.969005313742569e-06   7.47591886957619e-05
-3.783517807193573e-05   4.969005313742569e-06   7.47591886957619e-05
-2.4332770806459794e-05   3.268252536433019e-06   5.3275628253020985e-05
-2.4332770806459794e-05   3.268252536433019e-06   5.3275628253020985e-05
-2.4332770806459794e-05   3.268252536433019e-06   5.3275628253020985e-05
-2.4332770806459794e-05   3.268252536433019e-06   5.3275628253020985e-05
-3.057616434582524e-05   5.1647753009946215e-06   6.254337049322657e-05
-3.057616434582524e-05   5.1647753009946215e-06   6.254337049322657e-05
-3.057616434582524e-05   5.1647753009946215e-06   6.254337049322657e-05
-3.057616434582524e-05   5.1647753009946215e-06   6.254337049322657e-05
-2.4332770806459794e-05   4.969005313742569e-06   7.57796403621472e-05
-2.4332770806459794e-05   4.969005313742569e-06   7.57796403621472e-05
-2.4332770806459794e-05   4.969005313742569e-06   7.57796403621472e-05
-2.4332770806459794e-05   4.969005313742569e-06   7.57796403621472e-05
-3.783517807193562e-05   3.268252536433019e-06   5.2255176586635255e-05
-3.783517807193562e-05   3.268252536433019e-06   5.2255176586635255e-05
-3.783517807193562e-05   3.268252536433019e-06   5.2255176586635255e-05
-3.783517807193562e-05   3.268252536433019e-06   5.2255176586635255e-05
-3.8487154478020246e-05   3.394269641124846e-06   7.631870794452779e-05
-3.8487154478020246e-05   3.394269641124846e-06   7.631870794452779e-05
-3.8487154478020246e-05   3.394269641124846e-06   7.631870794452779e-05
-3.8487154478020246e-05   3.394269641124846e-06   7.631870794452779e-05
-2.5075482636953297e-05   1.7927732721581373e-06   5.4926819364129994e-05
-2.5075482636953297e-05   1.7927732721581373e-06   5.4926819364129994e-05
-2.5075482636953297e-05   1.7927732721581373e-06   5.4926819364129994e-05
-2.5075482636953297e-05   1.7927732721581373e-06   5.4926819364129994e-05
-3.1166990738156614e-05   3.955938506963914e-06   6.378143372525195e-05
-3.1166990738156614e-05   3.955938506963914e-06   6.378143372525195e-05
-3.1166990738156614e-05   3.955938506963914e-06   6.378143372525195e-05
-3.1166990738156614e-05   3.955938506963914e-06   6.378143372525195e-05
-3.6548792722944866e-05   1.2248653556550318e-05   6.514919949464348e-05
-3.6548792722944866e-05   1.2248653556550318e-05   6.514919949464348e-05
-3.6548792722944866e-05   1.2248653556550318e-05   6.514919949464348e-05
-3.6548792722944866e-05   1.2248653556550318e-05   6.514919949464348e-05
-5.0019491692073555e-05   8.564750844438241e-06   4.048769291882797e-05
-5.0019491692073555e-05   8.564750844438241e-06   4.048769291882797e-05
-5.0019491692073555e-05   8.564750844438241e-06   4.048769291882797e-05
-5.0019491692073555e-05   8.564750844438241e-06   4.048769291882797e-05
-5.070076197659032e-05   1.0580960291268864e-05   6.322331722964604e-05
-5.070076197659032e-05   1.0580960291268864e-05   6.322331722964604e-05
-5.070076197659032e-05   1.0580960291268864e-05   6.322331722964604e-05
-5.070076197659032e-05   1.0580960291268864e-05   6.322331722964604e-05
-3.716940934007397e-05   6.955748154212522e-06   4.284619011768595e-05
-3.716940934007397e-05   6.955748154212522e-06   4.284619011768595e-05
-3.716940934007397e-05   6.955748154212522e-06   4.284619011768595e-05
-3.716940934007397e-05   6.955748154212522e-06   4.284619011768595e-05
-4.351734343674272e-05   9.51147750023187e-06   5.189264267118905e-05
-4.351734343674272e-05   9.51147750023187e-06   5.189264267118905e-05
-4.351734343674272e-05   9.51147750023187e-06   5.189264267118905e-05
-4.351734343674272e-05   9.51147750023187e-06   5.189264267118905e-05
-3.716940934007397e-05   1.058096029126843e-05   6.539844451187993e-05
-3.716940934007397e-05   1.058096029126843e-05   6.539844451187993e-05
-3.716940934007397e-05   1.058096029126843e-05   6.539844451187993e-05
-3.716940934007397e-05   1.058096029126843e-05   6.539844451187993e-05
-5.07007619765901e-05   6.955748154212522e-06   4.067106283545249e-05
-5.07007619765901e-05   6.955748154212522e-06   4.067106283545249e-05
-5.07007619765901e-05   6.955748154212522e-06   4.067106283545249e-05
-5.07007619765901e-05   6.955748154212522e-06   4.067106283545249e-05
-5.164611679398586e-05   9.06741776114401e-06   6.532929173066462e-05
-5.164611679398586e-05   9.06741776114401e-06   6.532929173066462e-05
-5.164611679398586e-05   9.06741776114401e-06   6.532929173066462e-05
-5.164611679398586e-05   9.06741776114401e-06   6.532929173066462e-05
-3.783517807193573e-05   5.526389272622872e-06   4.4435677620360435e-05
-3.783517807193573e-05   5.526389272622872e-06   4.4435677620360435e-05
-3.783517807193573e-05   5.526389272622872e-06   4.4435677620360435e-05
-3.783517807193573e-05   5.526389272622872e-06   4.4435677620360435e-05
-4.3887963319196597e-05   8.32267352010108e-06   5.284588248397537e-05
-4.3887963319196597e-05   8.32267352010108e-06   5.284588248397537e-05
-4.3887963319196597e-05   8.32267352010108e-06   5.284588248397537e-05
-4.3887963319196597e-05   8.32267352010108e-06   5.284588248397537e-05
-3.783517807193562e-05   9.06741776114401e-06   6.745390882377652e-05
-3.783517807193562e-05   9.06741776114401e-06   6.745390882377652e-05
-3.783517807193562e-05   9.06741776114401e-06   6.745390882377652e-05
-3.783517807193562e-05   9.06741776114401e-06   6.745390882377652e-05
-5.164611679398564e-05   5.526389272622438e-06   4.231106052724821e-05
-5.164611679398564e-05   5.526389272622438e-06   4.231106052724821e-05
-5.164611679398564e-05   5.526389272622438e-06   4.231106052724821e-05
-5.164611679398564e-05   5.526389272622438e-06   4.231106052724821e-05
-5.240488145287698e-05   7.452775999193962e-06   6.767935299740405e-05
-5.240488145287698e-05   7.452775999193962e-06   6.767935299740405e-05
-5.240488145287698e-05   7.452775999193962e-06   6.767935299740405e-05
-5.240488145287698e-05   7.452775999193962e-06   6.767935299740405e-05
-3.8487154478020246e-05   4.072499902175574e-06   4.651130703085403e-05
-3.8487154478020246e-05   4.072499902175574e-06   4.651130703085403e-05
-3.8487154478020246e-05   4.072499902175574e-06   4.651130703085403e-05
-3.8487154478020246e-05   4.072499902175574e-06   4.651130703085403e-05
-4.466883068340128e-05   7.194636249844774e-06   5.49408188978888e-05
-4.466883068340128e-05   7.194636249844774e-06   5.49408188978888e-05
-4.466883068340128e-05   7.194636249844774e-06   5.49408188978888e-05
-4.466883068340128e-05   7.194636249844774e-06   5.49408188978888e-05
-5.0019491692073555e-05   1.502571383192857e-05   2.8653587724566942e-05
-5.0019491692073555e-05   1.502571383192857e-05   2.8653587724566942e-05
-5.0019491692073555e-05   1.502571383192857e-05   2.8653587724566942e-05
-5.0019491692073555e-05   1.502571383192857e-05   2.8653587724566942e-05
-6.049334206921562e-05   1.0081224133423085e-05   8.230476610227285e-06
-6.049334206921562e-05   1.0081224133423085e-05   8.230476610227285e-06
-6.049334206921562e-05   1.0081224133423085e-05   8.230476610227285e-06
-6.049334206921562e-05   1.0081224133423085e-05   8.230476610227285e-06
-6.309147252960175e-05   1.4166363752564446e-05   3.356067969497063e-05
-6.309147252960175e-05   1.4166363752564446e-05   3.356067969497063e-05
-6.309147252960175e-05   1.4166363752564446e-05   3.356067969497063e-05
-6.309147252960175e-05   1.4166363752564446e-05   3.356067969497063e-05
-5.070076197659021e-05   9.009978722196096e-06   1.6003326458171804e-05
-5.070076197659021e-05   9.009978722196096e-06   1.6003326458171804e-05
-5.070076197659021e-05   9.009978722196096e-06   1.6003326458171804e-05
-5.070076197659021e-05   9.009978722196096e-06   1.6003326458171804e-05
-5.413310910990665e-05   1.1956468209440869e-05   1.9956011321352503e-05
-5.413310910990665e-05   1.1956468209440869e-05   1.9956011321352503e-05
-5.413310910990665e-05   1.1956468209440869e-05   1.9956011321352503e-05
-5.413310910990665e-05   1.1956468209440869e-05   1.9956011321352503e-05
-5.07007619765901e-05   1.4166363752564446e-05   3.6654510713191035e-05
-5.07007619765901e-05   1.4166363752564446e-05   3.6654510713191035e-05
-5.07007619765901e-05   1.4166363752564446e-05   3.6654510713191035e-05
-5.07007619765901e-05   1.4166363752564446e-05   3.6654510713191035e-05
-6.309147252960196e-05   9.009978722195663e-06   1.2909495439951022e-05
-6.309147252960196e-05   9.009978722195663e-06   1.2909495439951022e-05
-6.309147252960196e-05   9.009978722195663e-06   1.2909495439951022e-05
-6.309147252960196e-05   9.009978722195663e-06   1.2909495439951022e-05
-6.532500449049302e-05   1.345385240141125e-05   3.953243495501092e-05
-6.532500449049302e-05   1.345385240141125e-05   3.953243495501092e-05
-6.532500449049302e-05   1.345385240141125e-05   3.953243495501092e-05
-6.532500449049302e-05   1.345385240141125e-05   3.953243495501092e-05
-5.164611679398575e-05   8.276261919115072e-06   1.9840843083542784e-05
-5.164611679398575e-05   8.276261919115072e-06   1.9840843083542784e-05
-5.164611679398575e-05   8.276261919115072e-06   1.9840843083542784e-05
-5.164611679398575e-05   8.276261919115072e-06   1.9840843083542784e-05
-5.632953227665427e-05   1.1532403398262572e-05   2.5692850667170287e-05
-5.632953227665427e-05   1.1532403398262572e-05   2.5692850667170287e-05
-5.632953227665427e-05   1.1532403398262572e-05   2.5692850667170287e-05
-5.632953227665427e-05   1.1532403398262572e-05   2.5692850667170287e-05
-5.164611679398575e-05   1.345385240141125e-05   4.263898924438802e-05
-5.164611679398575e-05   1.345385240141125e-05   4.263898924438802e-05
-5.164611679398575e-05   1.345385240141125e-05   4.263898924438802e-05
-5.164611679398575e-05   1.345385240141125e-05   4.263898924438802e-05
-6.532500449049324e-05   8.276261919115506e-06   1.6734288794165458e-05
-6.532500449049324e-05   8.276261919115506e-06   1.6734288794165458e-05
-6.532500449049324e-05   8.276261919115506e-06   1.6734288794165458e-05
-6.532500449049324e-05   8.276261919115506e-06   1.6734288794165458e-05
-6.81755052298217e-05   1.152484074119298e-05   5.034750821523602e-05
-6.81755052298217e-05   1.152484074119298e-05   5.034750821523602e-05
-6.81755052298217e-05   1.152484074119298e-05   5.034750821523602e-05
-6.81755052298217e-05   1.152484074119298e-05   5.034750821523602e-05
-5.240488145287676e-05   6.601220376563528e-06   2.7017307472439927e-05
-5.240488145287676e-05   6.601220376563528e-06   2.7017307472439927e-05
-5.240488145287676e-05   6.601220376563528e-06   2.7017307472439927e-05
-5.240488145287676e-05   6.601220376563528e-06   2.7017307472439927e-05
-5.696582295603315e-05   1.073259000292353e-05   3.2140054868550405e-05
-5.696582295603315e-05   1.073259000292353e-05   3.2140054868550405e-05
-5.696582295603315e-05   1.073259000292353e-05   3.2140054868550405e-05
-5.696582295603315e-05   1.073259000292353e-05   3.2140054868550405e-05
-2.5703571333658383e-05   4.631045043796984e-06   2.9461721983666802e-05
-2.5703571333658383e-05   4.631045043796984e-06   2.9461721983666802e-05
-2.5703571333658383e-05   4.631045043796984e-06   2.9461721983666802e-05
-2.5703571333658383e-05   4.631045043796984e-06   2.9461721983666802e-05
-2.7699366020111213e-05   8.672423062418147e-06   2.856022431741833e-05
-2.7699366020111213e-05   8.672423062418147e-06   2.856022431741833e-05
-2.7699366020111213e-05   8.672423062418147e-06   2.856022431741833e-05
-2.7699366020111213e-05   8.672423062418147e-06   2.856022431741833e-05
-2.839113530986858e-05   3.1602934658244396e-06   3.176058055752028e-05
-2.839113530986858e-05   3.1602934658244396e-06   3.176058055752028e-05
-2.839113530986858e-05   3.1602934658244396e-06   3.176058055752028e-05
-2.839113530986858e-05   3.1602934658244396e-06   3.176058055752028e-05
-2.8655363016567208e-05   6.790354560723888e-06   3.002292341174501e-05
-2.8655363016567208e-05   6.790354560723888e-06   3.002292341174501e-05
-2.8655363016567208e-05   6.790354560723888e-06   3.002292341174501e-05
-2.8655363016567208e-05   6.790354560723888e-06   3.002292341174501e-05
-2.691421812467485e-05   5.4415647411086045e-06   2.7930289150359918e-05
-2.691421812467485e-05   5.4415647411086045e-06   2.7930289150359918e-05
-2.691421812467485e-05   5.4415647411086045e-06   2.7930289150359918e-05
-2.691421812467485e-05   5.4415647411086045e-06   2.7930289150359918e-05
-2.8655363016567262e-05   3.1602934658248732e-06   2.9582543900580176e-05
-2.8655363016567262e-05   3.1602934658248732e-06   2.9582543900580176e-05
-2.8655363016567262e-05   3.1602934658248732e-06   2.9582543900580176e-05
-2.8655363016567262e-05   3.1602934658248732e-06   2.9582543900580176e-05
-2.839113530986858e-05   6.790354560723888e-06   3.2200960068684515e-05
-2.839113530986858e-05   6.790354560723888e-06   3.2200960068684515e-05
-2.839113530986858e-05   6.790354560723888e-06   3.2200960068684515e-05
-2.839113530986858e-05   6.790354560723888e-06   3.2200960068684515e-05
-2.9289775111200156e-05   2.34509908299263e-06   3.283005737724355e-05
-2.9289775111200156e-05   2.34509908299263e-06   3.283005737724355e-05
-2.9289775111200156e-05   2.34509908299263e-06   3.283005737724355e-05
-2.9289775111200156e-05   2.34509908299263e-06   3.283005737724355e-05
-3.1521495465917384e-05   5.483416187200725e-06   3.4666601039246676e-05
-3.1521495465917384e-05   5.483416187200725e-06   3.4666601039246676e-05
-3.1521495465917384e-05   5.483416187200725e-06   3.4666601039246676e-05
-3.1521495465917384e-05   5.483416187200725e-06   3.4666601039246676e-05
-2.867343621442929e-05   4.62803292314122e-06   3.0433065578534964e-05
-2.867343621442929e-05   4.62803292314122e-06   3.0433065578534964e-05
-2.867343621442929e-05   4.62803292314122e-06   3.0433065578534964e-05
-2.867343621442929e-05   4.62803292314122e-06   3.0433065578534964e-05
-3.152149546591744e-05   2.34509908299263e-06   3.0947067114717565e-05
-3.152149546591744e-05   2.34509908299263e-06   3.0947067114717565e-05
-3.152149546591744e-05   2.34509908299263e-06   3.0947067114717565e-05
-3.152149546591744e-05   2.34509908299263e-06   3.0947067114717565e-05
-2.9289775111200156e-05   5.483416187200725e-06   3.654959130177152e-05
-2.9289775111200156e-05   5.483416187200725e-06   3.654959130177152e-05
-2.9289775111200156e-05   5.483416187200725e-06   3.654959130177152e-05
-2.9289775111200156e-05   5.483416187200725e-06   3.654959130177152e-05
-2.9854251317820263e-05   6.10684967000067e-07   3.6195965149186634e-05
-2.9854251317820263e-05   6.10684967000067e-07   3.6195965149186634e-05
-2.9854251317820263e-05   6.10684967000067e-07   3.6195965149186634e-05
-2.9854251317820263e-05   6.10684967000067e-07   3.6195965149186634e-05
-3.4570129776894136e-05   2.265635610915022e-06   4.306279219462686e-05
-3.4570129776894136e-05   2.265635610915022e-06   4.306279219462686e-05
-3.4570129776894136e-05   2.265635610915022e-06   4.306279219462686e-05
-3.4570129776894136e-05   2.265635610915022e-06   4.306279219462686e-05
-2.9885158481633683e-05   3.6222100808424793e-06   3.4440562020568596e-05
-2.9885158481633683e-05   3.6222100808424793e-06   3.4440562020568596e-05
-2.9885158481633683e-05   3.6222100808424793e-06   3.4440562020568596e-05
-2.9885158481633683e-05   3.6222100808424793e-06   3.4440562020568596e-05
-2.769936602011116e-05   5.3243901336347266e-06   5.9062466799328275e-05
-2.769936602011116e-05   5.3243901336347266e-06   5.9062466799328275e-05
-2.769936602011116e-05   5.3243901336347266e-06   5.9062466799328275e-05
-2.769936602011116e-05   5.3243901336347266e-06   5.9062466799328275e-05
-2.7826394865864562e-05   2.240973205817941e-06   5.7000701899715734e-05
-2.7826394865864562e-05   2.240973205817941e-06   5.7000701899715734e-05
-2.7826394865864562e-05   2.240973205817941e-06   5.7000701899715734e-05
-2.7826394865864562e-05   2.240973205817941e-06   5.7000701899715734e-05
-2.8029157373868276e-05   3.678916166011993e-06   5.683293132541798e-05
-2.8029157373868276e-05   3.678916166011993e-06   5.683293132541798e-05
-2.8029157373868276e-05   3.678916166011993e-06   5.683293132541798e-05
-2.8029157373868276e-05   3.678916166011993e-06   5.683293132541798e-05
-2.839113530986858e-05   1.0852932616602431e-06   5.899240162802959e-05
-2.839113530986858e-05   1.0852932616602431e-06   5.899240162802959e-05
-2.839113530986858e-05   1.0852932616602431e-06   5.899240162802959e-05
-2.839113530986858e-05   1.0852932616602431e-06   5.899240162802959e-05
-2.789534454809509e-05   2.7300481746346875e-06   5.7179230743955494e-05
-2.789534454809509e-05   2.7300481746346875e-06   5.7179230743955494e-05
-2.789534454809509e-05   2.7300481746346875e-06   5.7179230743955494e-05
-2.789534454809509e-05   2.7300481746346875e-06   5.7179230743955494e-05
-2.839113530986854e-05   3.678916166011993e-06   5.838910506802833e-05
-2.839113530986854e-05   3.678916166011993e-06   5.838910506802833e-05
-2.839113530986854e-05   3.678916166011993e-06   5.838910506802833e-05
-2.839113530986854e-05   3.678916166011993e-06   5.838910506802833e-05
-2.8029157373868222e-05   1.0852932616602431e-06   5.7436227885418445e-05
-2.8029157373868222e-05   1.0852932616602431e-06   5.7436227885418445e-05
-2.8029157373868222e-05   1.0852932616602431e-06   5.7436227885418445e-05
-2.8029157373868222e-05   1.0852932616602431e-06   5.7436227885418445e-05
-2.828254793368971e-05   2.1549126935672958e-06   5.764530322985187e-05
-2.828254793368971e-05   2.1549126935672958e-06   5.764530322985187e-05
-2.828254793368971e-05   2.1549126935672958e-06   5.764530322985187e-05
-2.828254793368971e-05   2.1549126935672958e-06   5.764530322985187e-05
-2.9289775111200156e-05   -2.646100125403006e-07   6.0775728816032915e-05
-2.9289775111200156e-05   -2.646100125403006e-07   6.0775728816032915e-05
-2.9289775111200156e-05   -2.646100125403006e-07   6.0775728816032915e-05
-2.9289775111200156e-05   -2.646100125403006e-07   6.0775728816032915e-05
-2.814617828259539e-05   1.7674591780182658e-06   5.765049258735569e-05
-2.814617828259539e-05   1.7674591780182658e-06   5.765049258735569e-05
-2.814617828259539e-05   1.7674591780182658e-06   5.765049258735569e-05
-2.814617828259539e-05   1.7674591780182658e-06   5.765049258735569e-05
-2.9289775111200156e-05   2.1549126935672958e-06   5.9097016853515254e-05
-2.9289775111200156e-05   2.1549126935672958e-06   5.9097016853515254e-05
-2.9289775111200156e-05   2.1549126935672958e-06   5.9097016853515254e-05
-2.9289775111200156e-05   2.1549126935672958e-06   5.9097016853515254e-05
-2.8282547933689657e-05   -2.646100125403006e-07   5.932401519236855e-05
-2.8282547933689657e-05   -2.646100125403006e-07   5.932401519236855e-05
-2.8282547933689657e-05   -2.646100125403006e-07   5.932401519236855e-05
-2.8282547933689657e-05   -2.646100125403006e-07   5.932401519236855e-05
-2.8460596549199696e-05   4.984400083902184e-07   5.9336139342047126e-05
-2.8460596549199696e-05   4.984400083902184e-07   5.9336139342047126e-05
-2.8460596549199696e-05   4.984400083902184e-07   5.9336139342047126e-05
-2.8460596549199696e-05   4.984400083902184e-07   5.9336139342047126e-05
-2.9854251317820235e-05   -2.0445322630141365e-06   6.318468065258986e-05
-2.9854251317820235e-05   -2.0445322630141365e-06   6.318468065258986e-05
-2.9854251317820235e-05   -2.0445322630141365e-06   6.318468065258986e-05
-2.9854251317820235e-05   -2.0445322630141365e-06   6.318468065258986e-05
-2.8552771496135708e-05   6.303497190186629e-07   5.9410618427228076e-05
-2.8552771496135708e-05   6.303497190186629e-07   5.9410618427228076e-05
-2.8552771496135708e-05   6.303497190186629e-07   5.9410618427228076e-05
-2.8552771496135708e-05   6.303497190186629e-07   5.9410618427228076e-05
-2.782639486586467e-05   6.351429813066575e-06   6.516734840325859e-05
-2.782639486586467e-05   6.351429813066575e-06   6.516734840325859e-05
-2.782639486586467e-05   6.351429813066575e-06   6.516734840325859e-05
-2.782639486586467e-05   6.351429813066575e-06   6.516734840325859e-05
-2.9764442435023454e-05   6.180830709134021e-07   5.849726107603505e-05
-2.9764442435023454e-05   6.180830709134021e-07   5.849726107603505e-05
-2.9764442435023454e-05   6.180830709134021e-07   5.849726107603505e-05
-2.9764442435023454e-05   6.180830709134021e-07   5.849726107603505e-05
-2.982142918933595e-05   4.822547811936251e-06   6.183151483696997e-05
-2.982142918933595e-05   4.822547811936251e-06   6.183151483696997e-05
-2.982142918933595e-05   4.822547811936251e-06   6.183151483696997e-05
-2.982142918933595e-05   4.822547811936251e-06   6.183151483696997e-05
-2.8029157373868222e-05   -3.642007263620576e-07   6.195644426750272e-05
-2.8029157373868222e-05   -3.642007263620576e-07   6.195644426750272e-05
-2.8029157373868222e-05   -3.642007263620576e-07   6.195644426750272e-05
-2.8029157373868222e-05   -3.642007263620576e-07   6.195644426750272e-05
-2.8808284616532395e-05   2.7637180320724125e-06   6.137823841688233e-05
-2.8808284616532395e-05   2.7637180320724125e-06   6.137823841688233e-05
-2.8808284616532395e-05   2.7637180320724125e-06   6.137823841688233e-05
-2.8808284616532395e-05   2.7637180320724125e-06   6.137823841688233e-05
-2.8029157373868222e-05   4.822547811936251e-06   6.494356395994822e-05
-2.8029157373868222e-05   4.822547811936251e-06   6.494356395994822e-05
-2.8029157373868222e-05   4.822547811936251e-06   6.494356395994822e-05
-2.8029157373868222e-05   4.822547811936251e-06   6.494356395994822e-05
-2.9821429189335843e-05   -3.642007263620576e-07   5.8844395144523446e-05
-2.9821429189335843e-05   -3.642007263620576e-07   5.8844395144523446e-05
-2.9821429189335843e-05   -3.642007263620576e-07   5.8844395144523446e-05
-2.9821429189335843e-05   -3.642007263620576e-07   5.8844395144523446e-05
-2.993786663991354e-05   3.268252536433019e-06   6.28179774233152e-05
-2.993786663991354e-05   3.268252536433019e-06   6.28179774233152e-05
-2.993786663991354e-05   3.268252536433019e-06   6.28179774233152e-05
-2.993786663991354e-05   3.268252536433019e-06   6.28179774233152e-05
-2.8282547933689657e-05   -1.540913689001373e-06   6.294461264820246e-05
-2.8282547933689657e-05   -1.540913689001373e-06   6.294461264820246e-05
-2.8282547933689657e-05   -1.540913689001373e-06   6.294461264820246e-05
-2.8282547933689657e-05   -1.540913689001373e-06   6.294461264820246e-05
-2.8808586279449182e-05   1.7881732618726942e-06   6.182389105394235e-05
-2.8808586279449182e-05   1.7881732618726942e-06   6.182389105394235e-05
-2.8808586279449182e-05   1.7881732618726942e-06   6.182389105394235e-05
-2.8808586279449182e-05   1.7881732618726942e-06   6.182389105394235e-05
-2.828254793368971e-05   3.2682525364334525e-06   6.570347715857531e-05
-2.828254793368971e-05   3.2682525364334525e-06   6.570347715857531e-05
-2.828254793368971e-05   3.2682525364334525e-06   6.570347715857531e-05
-2.828254793368971e-05   3.2682525364334525e-06   6.570347715857531e-05
-2.9937866639913433e-05   -1.540913689001373e-06   6.005911291294164e-05
-2.9937866639913433e-05   -1.540913689001373e-06   6.005911291294164e-05
-2.9937866639913433e-05   -1.540913689001373e-06   6.005911291294164e-05
-2.9937866639913433e-05   -1.540913689001373e-06   6.005911291294164e-05
-3.0005952986822642e-05   1.7927732721581373e-06   6.456927106319055e-05
-3.0005952986822642e-05   1.7927732721581373e-06   6.456927106319055e-05
-3.0005952986822642e-05   1.7927732721581373e-06   6.456927106319055e-05
-3.0005952986822642e-05   1.7927732721581373e-06   6.456927106319055e-05
-2.8460596549199587e-05   -2.726326419497105e-06   6.470513681547808e-05
-2.8460596549199587e-05   -2.726326419497105e-06   6.470513681547808e-05
-2.8460596549199587e-05   -2.726326419497105e-06   6.470513681547808e-05
-2.8460596549199587e-05   -2.726326419497105e-06   6.470513681547808e-05
-2.8855910843968196e-05   7.843977795616609e-07   6.325755945398872e-05
-2.8855910843968196e-05   7.843977795616609e-07   6.325755945398872e-05
-2.8855910843968196e-05   7.843977795616609e-07   6.325755945398872e-05
-2.8855910843968196e-05   7.843977795616609e-07   6.325755945398872e-05
-2.9764442435023454e-05   8.564750844438241e-06   5.301930590539917e-05
-2.9764442435023454e-05   8.564750844438241e-06   5.301930590539917e-05
-2.9764442435023454e-05   8.564750844438241e-06   5.301930590539917e-05
-2.9764442435023454e-05   8.564750844438241e-06   5.301930590539917e-05
-3.2653328010292105e-05   2.8020648312656726e-06   4.4746885005381386e-05
-3.2653328010292105e-05   2.8020648312656726e-06   4.4746885005381386e-05
-3.2653328010292105e-05   2.8020648312656726e-06   4.4746885005381386e-05
-3.2653328010292105e-05   2.8020648312656726e-06   4.4746885005381386e-05
-3.2690268505034545e-05   6.955748154212522e-06   5.006096645960396e-05
-3.2690268505034545e-05   6.955748154212522e-06   5.006096645960396e-05
-3.2690268505034545e-05   6.955748154212522e-06   5.006096645960396e-05
-3.2690268505034545e-05   6.955748154212522e-06   5.006096645960396e-05
-2.982142918933595e-05   1.5100045669749762e-06   4.854701375244853e-05
-2.982142918933595e-05   1.5100045669749762e-06   4.854701375244853e-05
-2.982142918933595e-05   1.5100045669749762e-06   4.854701375244853e-05
-2.982142918933595e-05   1.5100045669749762e-06   4.854701375244853e-05
-3.11502483906979e-05   5.080780296354195e-06   4.861924698375763e-05
-3.11502483906979e-05   5.080780296354195e-06   4.861924698375763e-05
-3.11502483906979e-05   5.080780296354195e-06   4.861924698375763e-05
-3.11502483906979e-05   5.080780296354195e-06   4.861924698375763e-05
-2.982142918933595e-05   6.955748154212522e-06   5.3328412611945535e-05
-2.982142918933595e-05   6.955748154212522e-06   5.3328412611945535e-05
-2.982142918933595e-05   6.955748154212522e-06   5.3328412611945535e-05
-2.982142918933595e-05   6.955748154212522e-06   5.3328412611945535e-05
-3.2690268505034545e-05   1.5100045669749762e-06   4.5279567600106e-05
-3.2690268505034545e-05   1.5100045669749762e-06   4.5279567600106e-05
-3.2690268505034545e-05   1.5100045669749762e-06   4.5279567600106e-05
-3.2690268505034545e-05   1.5100045669749762e-06   4.5279567600106e-05
-3.3031204924291826e-05   5.526389272622872e-06   5.1925534992782255e-05
-3.3031204924291826e-05   5.526389272622872e-06   5.1925534992782255e-05
-3.3031204924291826e-05   5.526389272622872e-06   5.1925534992782255e-05
-3.3031204924291826e-05   5.526389272622872e-06   5.1925534992782255e-05
-2.9937866639913433e-05   4.048168321905011e-07   4.984291464974356e-05
-2.9937866639913433e-05   4.048168321905011e-07   4.984291464974356e-05
-2.9937866639913433e-05   4.048168321905011e-07   4.984291464974356e-05
-2.9937866639913433e-05   4.048168321905011e-07   4.984291464974356e-05
-3.1046310351747354e-05   4.016429850038292e-06   4.952335302542215e-05
-3.1046310351747354e-05   4.016429850038292e-06   4.952335302542215e-05
-3.1046310351747354e-05   4.016429850038292e-06   4.952335302542215e-05
-3.1046310351747354e-05   4.016429850038292e-06   4.952335302542215e-05
-2.9937866639913433e-05   5.526389272622438e-06   5.499847845703951e-05
-2.9937866639913433e-05   5.526389272622438e-06   5.499847845703951e-05
-2.9937866639913433e-05   5.526389272622438e-06   5.499847845703951e-05
-2.9937866639913433e-05   5.526389272622438e-06   5.499847845703951e-05
-3.3031204924291826e-05   4.048168321905011e-07   4.676997118548419e-05
-3.3031204924291826e-05   4.048168321905011e-07   4.676997118548419e-05
-3.3031204924291826e-05   4.048168321905011e-07   4.676997118548419e-05
-3.3031204924291826e-05   4.048168321905011e-07   4.676997118548419e-05
-3.322989365425353e-05   4.072499902175574e-06   5.424605015865239e-05
-3.322989365425353e-05   4.072499902175574e-06   5.424605015865239e-05
-3.322989365425353e-05   4.072499902175574e-06   5.424605015865239e-05
-3.322989365425353e-05   4.072499902175574e-06   5.424605015865239e-05
-3.0005952986822534e-05   -7.085107522283602e-07   5.174142210557543e-05
-3.0005952986822534e-05   -7.085107522283602e-07   5.174142210557543e-05
-3.0005952986822534e-05   -7.085107522283602e-07   5.174142210557543e-05
-3.0005952986822534e-05   -7.085107522283602e-07   5.174142210557543e-05
-3.118607519448177e-05   3.0674072481807514e-06   5.1442741651428056e-05
-3.118607519448177e-05   3.0674072481807514e-06   5.1442741651428056e-05
-3.118607519448177e-05   3.0674072481807514e-06   5.1442741651428056e-05
-3.118607519448177e-05   3.0674072481807514e-06   5.1442741651428056e-05
-3.2653328010292e-05   1.0081224133423085e-05   2.0271171807998258e-05
-3.2653328010292e-05   1.0081224133423085e-05   2.0271171807998258e-05
-3.2653328010292e-05   1.0081224133423085e-05   2.0271171807998258e-05
-3.2653328010292e-05   1.0081224133423085e-05   2.0271171807998258e-05
-3.201427401764399e-05   4.590543223956765e-06   1.8041853250064894e-05
-3.201427401764399e-05   4.590543223956765e-06   1.8041853250064894e-05
-3.201427401764399e-05   4.590543223956765e-06   1.8041853250064894e-05
-3.201427401764399e-05   4.590543223956765e-06   1.8041853250064894e-05
-3.36593530112356e-05   9.009978722195663e-06   2.21950454646915e-05
-3.36593530112356e-05   9.009978722195663e-06   2.21950454646915e-05
-3.36593530112356e-05   9.009978722195663e-06   2.21950454646915e-05
-3.36593530112356e-05   9.009978722195663e-06   2.21950454646915e-05
-3.269026850503444e-05   3.6796710261438603e-06   2.377808923865435e-05
-3.269026850503444e-05   3.6796710261438603e-06   2.377808923865435e-05
-3.269026850503444e-05   3.6796710261438603e-06   2.377808923865435e-05
-3.269026850503444e-05   3.6796710261438603e-06   2.377808923865435e-05
-3.169239759776753e-05   7.082321383398461e-06   2.0073380845523747e-05
-3.169239759776753e-05   7.082321383398461e-06   2.0073380845523747e-05
-3.169239759776753e-05   7.082321383398461e-06   2.0073380845523747e-05
-3.169239759776753e-05   7.082321383398461e-06   2.0073380845523747e-05
-3.269026850503433e-05   9.009978722196096e-06   2.5393230082322192e-05
-3.269026850503433e-05   9.009978722196096e-06   2.5393230082322192e-05
-3.269026850503433e-05   9.009978722196096e-06   2.5393230082322192e-05
-3.269026850503433e-05   9.009978722196096e-06   2.5393230082322192e-05
-3.3659353011235814e-05   3.6796710261438603e-06   2.0579904621023442e-05
-3.3659353011235814e-05   3.6796710261438603e-06   2.0579904621023442e-05
-3.3659353011235814e-05   3.6796710261438603e-06   2.0579904621023442e-05
-3.3659353011235814e-05   3.6796710261438603e-06   2.0579904621023442e-05
-3.510566500808843e-05   8.276261919115072e-06   2.6339473601632527e-05
-3.510566500808843e-05   8.276261919115072e-06   2.6339473601632527e-05
-3.510566500808843e-05   8.276261919115072e-06   2.6339473601632527e-05
-3.510566500808843e-05   8.276261919115072e-06   2.6339473601632527e-05
-3.303120492429172e-05   3.0831886733758296e-06   2.599788407608105e-05
-3.303120492429172e-05   3.0831886733758296e-06   2.599788407608105e-05
-3.303120492429172e-05   3.0831886733758296e-06   2.599788407608105e-05
-3.303120492429172e-05   3.0831886733758296e-06   2.599788407608105e-05
-3.285870437142195e-05   6.544816628025439e-06   2.3633406381840406e-05
-3.285870437142195e-05   6.544816628025439e-06   2.3633406381840406e-05
-3.285870437142195e-05   6.544816628025439e-06   2.3633406381840406e-05
-3.285870437142195e-05   6.544816628025439e-06   2.3633406381840406e-05
-3.303120492429172e-05   8.276261919115072e-06   2.9455317549075422e-05
-3.303120492429172e-05   8.276261919115072e-06   2.9455317549075422e-05
-3.303120492429172e-05   8.276261919115072e-06   2.9455317549075422e-05
-3.303120492429172e-05   8.276261919115072e-06   2.9455317549075422e-05
-3.5105665008088646e-05   3.0831886733758296e-06   2.288204012863761e-05
-3.5105665008088646e-05   3.0831886733758296e-06   2.288204012863761e-05
-3.5105665008088646e-05   3.0831886733758296e-06   2.288204012863761e-05
-3.5105665008088646e-05   3.0831886733758296e-06   2.288204012863761e-05
-3.727029163374759e-05   6.601220376563528e-06   3.395573651600488e-05
-3.727029163374759e-05   6.601220376563528e-06   3.395573651600488e-05
-3.727029163374759e-05   6.601220376563528e-06   3.395573651600488e-05
-3.727029163374759e-05   6.601220376563528e-06   3.395573651600488e-05
-3.322989365425353e-05   1.893754139157362e-06   3.0046219625957764e-05
-3.322989365425353e-05   1.893754139157362e-06   3.0046219625957764e-05
-3.322989365425353e-05   1.893754139157362e-06   3.0046219625957764e-05
-3.322989365425353e-05   1.893754139157362e-06   3.0046219625957764e-05
-3.3251628263367746e-05   5.913756910134148e-06   2.7670442311893096e-05
-3.3251628263367746e-05   5.913756910134148e-06   2.7670442311893096e-05
-3.3251628263367746e-05   5.913756910134148e-06   2.7670442311893096e-05
-3.3251628263367746e-05   5.913756910134148e-06   2.7670442311893096e-05
-6.553156444601612e-05   8.672423062418147e-06   2.449238360611116e-05
-6.553156444601612e-05   8.672423062418147e-06   2.449238360611116e-05
-6.553156444601612e-05   8.672423062418147e-06   2.449238360611116e-05
-6.553156444601612e-05   8.672423062418147e-06   2.449238360611116e-05
-4.404257747289624e-05   1.2032964851538762e-05   6.232368696811681e-05
-4.404257747289624e-05   1.2032964851538762e-05   6.232368696811681e-05
-4.404257747289624e-05   1.2032964851538762e-05   6.232368696811681e-05
-4.404257747289624e-05   1.2032964851538762e-05   6.232368696811681e-05
-4.400761775095979e-05   6.790354560723888e-06   2.8009823365525237e-05
-4.400761775095979e-05   6.790354560723888e-06   2.8009823365525237e-05
-4.400761775095979e-05   6.790354560723888e-06   2.8009823365525237e-05
-4.400761775095979e-05   6.790354560723888e-06   2.8009823365525237e-05
-7.207158859496497e-05   4.974995195387399e-06   7.587232372473644e-05
-7.207158859496497e-05   4.974995195387399e-06   7.587232372473644e-05
-7.207158859496497e-05   4.974995195387399e-06   7.587232372473644e-05
-7.207158859496497e-05   4.974995195387399e-06   7.587232372473644e-05
-5.3506444704823685e-05   7.153848628682711e-06   4.3623105181190376e-05
-5.3506444704823685e-05   7.153848628682711e-06   4.3623105181190376e-05
-5.3506444704823685e-05   7.153848628682711e-06   4.3623105181190376e-05
-5.3506444704823685e-05   7.153848628682711e-06   4.3623105181190376e-05
-7.207158859496511e-05   6.790354560723888e-06   2.9099038984727217e-05
-7.207158859496511e-05   6.790354560723888e-06   2.9099038984727217e-05
-7.207158859496511e-05   6.790354560723888e-06   2.9099038984727217e-05
-7.207158859496511e-05   6.790354560723888e-06   2.9099038984727217e-05
-4.400761775095979e-05   4.974995195387399e-06   7.478310810553443e-05
-4.400761775095979e-05   4.974995195387399e-06   7.478310810553443e-05
-4.400761775095979e-05   4.974995195387399e-06   7.478310810553443e-05
-4.400761775095979e-05   4.974995195387399e-06   7.478310810553443e-05
-4.457263102022917e-05   5.483416187200725e-06   3.1418542127846375e-05
-4.457263102022917e-05   5.483416187200725e-06   3.1418542127846375e-05
-4.457263102022917e-05   5.483416187200725e-06   3.1418542127846375e-05
-4.457263102022917e-05   5.483416187200725e-06   3.1418542127846375e-05
-7.229322688640573e-05   3.6055818685111138e-06   7.87462358293541e-05
-7.229322688640573e-05   3.6055818685111138e-06   7.87462358293541e-05
-7.229322688640573e-05   3.6055818685111138e-06   7.87462358293541e-05
-7.229322688640573e-05   3.6055818685111138e-06   7.87462358293541e-05
-5.703923063413341e-05   4.506251400271952e-06   5.278250702317645e-05
-5.703923063413341e-05   4.506251400271952e-06   5.278250702317645e-05
-5.703923063413341e-05   4.506251400271952e-06   5.278250702317645e-05
-5.703923063413341e-05   4.506251400271952e-06   5.278250702317645e-05
-7.229322688640587e-05   5.483416187200725e-06   3.2545242719060055e-05
-7.229322688640587e-05   5.483416187200725e-06   3.2545242719060055e-05
-7.229322688640587e-05   5.483416187200725e-06   3.2545242719060055e-05
-7.229322688640587e-05   5.483416187200725e-06   3.2545242719060055e-05
-4.457263102022909e-05   3.6055818685111138e-06   7.76195352381405e-05
-4.457263102022909e-05   3.6055818685111138e-06   7.76195352381405e-05
-4.457263102022909e-05   3.6055818685111138e-06   7.76195352381405e-05
-4.457263102022909e-05   3.6055818685111138e-06   7.76195352381405e-05
-4.406204374394976e-05   2.265635610915022e-06   3.738756909972855e-05
-4.406204374394976e-05   2.265635610915022e-06   3.738756909972855e-05
-4.406204374394976e-05   2.265635610915022e-06   3.738756909972855e-05
-4.406204374394976e-05   2.265635610915022e-06   3.738756909972855e-05
-7.302041145736512e-05   -2.1969648097279774e-06   8.832907554113972e-05
-7.302041145736512e-05   -2.1969648097279774e-06   8.832907554113972e-05
-7.302041145736512e-05   -2.1969648097279774e-06   8.832907554113972e-05
-7.302041145736512e-05   -2.1969648097279774e-06   8.832907554113972e-05
-5.613284135276435e-05   2.229814654022052e-06   5.752705768855519e-05
-5.613284135276435e-05   2.229814654022052e-06   5.752705768855519e-05
-5.613284135276435e-05   2.229814654022052e-06   5.752705768855519e-05
-5.613284135276435e-05   2.229814654022052e-06   5.752705768855519e-05
-4.404257747289631e-05   2.240973205818158e-06   5.679923641857109e-05
-4.404257747289631e-05   2.240973205818158e-06   5.679923641857109e-05
-4.404257747289631e-05   2.240973205818158e-06   5.679923641857109e-05
-4.404257747289631e-05   2.240973205818158e-06   5.679923641857109e-05
-2.6928558585687047e-05   -1.3265085334891974e-05   7.601896610616047e-05
-2.6928558585687047e-05   -1.3265085334891974e-05   7.601896610616047e-05
-2.6928558585687047e-05   -1.3265085334891974e-05   7.601896610616047e-05
-2.6928558585687047e-05   -1.3265085334891974e-05   7.601896610616047e-05
-2.6960688673289212e-05   1.0852932616602431e-06   4.765057480485453e-05
-2.6960688673289212e-05   1.0852932616602431e-06   4.765057480485453e-05
-2.6960688673289212e-05   1.0852932616602431e-06   4.765057480485453e-05
-2.6960688673289212e-05   1.0852932616602431e-06   4.765057480485453e-05
-4.400761775095979e-05   -1.0832523605032603e-05   8.321281338765515e-05
-4.400761775095979e-05   -1.0832523605032603e-05   8.321281338765515e-05
-4.400761775095979e-05   -1.0832523605032603e-05   8.321281338765515e-05
-4.400761775095979e-05   -1.0832523605032603e-05   8.321281338765515e-05
-3.5288212533321175e-05   -6.553586277055837e-06   6.61131089614716e-05
-3.5288212533321175e-05   -6.553586277055837e-06   6.61131089614716e-05
-3.5288212533321175e-05   -6.553586277055837e-06   6.61131089614716e-05
-3.5288212533321175e-05   -6.553586277055837e-06   6.61131089614716e-05
-4.400761775095984e-05   1.0852932616602431e-06   5.480126492486996e-05
-4.400761775095984e-05   1.0852932616602431e-06   5.480126492486996e-05
-4.400761775095984e-05   1.0852932616602431e-06   5.480126492486996e-05
-4.400761775095984e-05   1.0852932616602431e-06   5.480126492486996e-05
-2.6960688673289158e-05   -1.0832523605032603e-05   7.606212326763932e-05
-2.6960688673289158e-05   -1.0832523605032603e-05   7.606212326763932e-05
-2.6960688673289158e-05   -1.0832523605032603e-05   7.606212326763932e-05
-2.6960688673289158e-05   -1.0832523605032603e-05   7.606212326763932e-05
-2.703470158315187e-05   -2.646100125403006e-07   4.915065072313377e-05
-2.703470158315187e-05   -2.646100125403006e-07   4.915065072313377e-05
-2.703470158315187e-05   -2.646100125403006e-07   4.915065072313377e-05
-2.703470158315187e-05   -2.646100125403006e-07   4.915065072313377e-05
-4.457263102022909e-05   -1.1087991544163085e-05   8.48745620372359e-05
-4.457263102022909e-05   -1.1087991544163085e-05   8.48745620372359e-05
-4.457263102022909e-05   -1.1087991544163085e-05   8.48745620372359e-05
-4.457263102022909e-05   -1.1087991544163085e-05   8.48745620372359e-05
-3.500787170711704e-05   -5.724303432273585e-06   6.571508364824858e-05
-3.500787170711704e-05   -5.724303432273585e-06   6.571508364824858e-05
-3.500787170711704e-05   -5.724303432273585e-06   6.571508364824858e-05
-3.500787170711704e-05   -5.724303432273585e-06   6.571508364824858e-05
-4.457263102022917e-05   -2.646100125403006e-07   5.564467964210766e-05
-4.457263102022917e-05   -2.646100125403006e-07   5.564467964210766e-05
-4.457263102022917e-05   -2.646100125403006e-07   5.564467964210766e-05
-4.457263102022917e-05   -2.646100125403006e-07   5.564467964210766e-05
-2.7034701583151816e-05   -1.1087991544163085e-05   7.838053311826228e-05
-2.7034701583151816e-05   -1.1087991544163085e-05   7.838053311826228e-05
-2.7034701583151816e-05   -1.1087991544163085e-05   7.838053311826228e-05
-2.7034701583151816e-05   -1.1087991544163085e-05   7.838053311826228e-05
-2.673255368986025e-05   -2.0445322630141365e-06   5.1013553546132686e-05
-2.673255368986025e-05   -2.0445322630141365e-06   5.1013553546132686e-05
-2.673255368986025e-05   -2.0445322630141365e-06   5.1013553546132686e-05
-2.673255368986025e-05   -2.0445322630141365e-06   5.1013553546132686e-05
-4.406204374394964e-05   -1.121608830503037e-05   8.53989705948246e-05
-4.406204374394964e-05   -1.121608830503037e-05   8.53989705948246e-05
-4.406204374394964e-05   -1.121608830503037e-05   8.53989705948246e-05
-4.406204374394964e-05   -1.121608830503037e-05   8.53989705948246e-05
-3.513696422542542e-05   -6.446143244476623e-06   6.766187102761863e-05
-3.513696422542542e-05   -6.446143244476623e-06   6.766187102761863e-05
-3.513696422542542e-05   -6.446143244476623e-06   6.766187102761863e-05
-3.513696422542542e-05   -6.446143244476623e-06   6.766187102761863e-05
-2.6928558585687047e-05   6.180830709134021e-07   5.2432168515756297e-05
-2.6928558585687047e-05   6.180830709134021e-07   5.2432168515756297e-05
-2.6928558585687047e-05   6.180830709134021e-07   5.2432168515756297e-05
-2.6928558585687047e-05   6.180830709134021e-07   5.2432168515756297e-05
-1.970502039568868e-05   -1.035940997877005e-05   5.78849030026103e-05
-1.970502039568868e-05   -1.035940997877005e-05   5.78849030026103e-05
-1.970502039568868e-05   -1.035940997877005e-05   5.78849030026103e-05
-1.970502039568868e-05   -1.035940997877005e-05   5.78849030026103e-05
-1.9504053210453887e-05   -3.642007263620576e-07   4.6284903297997984e-05
-1.9504053210453887e-05   -3.642007263620576e-07   4.6284903297997984e-05
-1.9504053210453887e-05   -3.642007263620576e-07   4.6284903297997984e-05
-1.9504053210453887e-05   -3.642007263620576e-07   4.6284903297997984e-05
-2.6960688673289158e-05   -1.0174013874595755e-05   6.459851695833087e-05
-2.6960688673289158e-05   -1.0174013874595755e-05   6.459851695833087e-05
-2.6960688673289158e-05   -1.0174013874595755e-05   6.459851695833087e-05
-2.6960688673289158e-05   -1.0174013874595755e-05   6.459851695833087e-05
-2.312779061015708e-05   -5.241655642281365e-06   5.525093858038926e-05
-2.312779061015708e-05   -5.241655642281365e-06   5.525093858038926e-05
-2.312779061015708e-05   -5.241655642281365e-06   5.525093858038926e-05
-2.312779061015708e-05   -5.241655642281365e-06   5.525093858038926e-05
-2.6960688673289158e-05   -3.642007263620576e-07   5.217079118693827e-05
-2.6960688673289158e-05   -3.642007263620576e-07   5.217079118693827e-05
-2.6960688673289158e-05   -3.642007263620576e-07   5.217079118693827e-05
-2.6960688673289158e-05   -3.642007263620576e-07   5.217079118693827e-05
-1.9504053210453996e-05   -1.0174013874595755e-05   5.871262906939079e-05
-1.9504053210453996e-05   -1.0174013874595755e-05   5.871262906939079e-05
-1.9504053210453996e-05   -1.0174013874595755e-05   5.871262906939079e-05
-1.9504053210453996e-05   -1.0174013874595755e-05   5.871262906939079e-05
-1.932327385746678e-05   -1.540913689001373e-06   4.740160131866877e-05
-1.932327385746678e-05   -1.540913689001373e-06   4.740160131866877e-05
-1.932327385746678e-05   -1.540913689001373e-06   4.740160131866877e-05
-1.932327385746678e-05   -1.540913689001373e-06   4.740160131866877e-05
-2.7034701583151816e-05   -1.0490325122833213e-05   6.562362772177604e-05
-2.7034701583151816e-05   -1.0490325122833213e-05   6.562362772177604e-05
-2.7034701583151816e-05   -1.0490325122833213e-05   6.562362772177604e-05
-2.7034701583151816e-05   -1.0490325122833213e-05   6.562362772177604e-05
-2.2898578983314373e-05   -5.60299954808466e-06   5.579769471052978e-05
-2.2898578983314373e-05   -5.60299954808466e-06   5.579769471052978e-05
-2.2898578983314373e-05   -5.60299954808466e-06   5.579769471052978e-05
-2.2898578983314373e-05   -5.60299954808466e-06   5.579769471052978e-05
-2.7034701583151816e-05   -1.540913689001373e-06   5.2771248178967896e-05
-2.7034701583151816e-05   -1.540913689001373e-06   5.2771248178967896e-05
-2.7034701583151816e-05   -1.540913689001373e-06   5.2771248178967896e-05
-2.7034701583151816e-05   -1.540913689001373e-06   5.2771248178967896e-05
-1.9323273857466887e-05   -1.0490325122833213e-05   6.025398086147693e-05
-1.9323273857466887e-05   -1.0490325122833213e-05   6.025398086147693e-05
-1.9323273857466887e-05   -1.0490325122833213e-05   6.025398086147693e-05
-1.9323273857466887e-05   -1.0490325122833213e-05   6.025398086147693e-05
-1.8909423162630267e-05   -2.726326419497105e-06   4.91269866505883e-05
-1.8909423162630267e-05   -2.726326419497105e-06   4.91269866505883e-05
-1.8909423162630267e-05   -2.726326419497105e-06   4.91269866505883e-05
-1.8909423162630267e-05   -2.726326419497105e-06   4.91269866505883e-05
-2.673255368986025e-05   -1.0947670454955634e-05   6.709834395057953e-05
-2.673255368986025e-05   -1.0947670454955634e-05   6.709834395057953e-05
-2.673255368986025e-05   -1.0947670454955634e-05   6.709834395057953e-05
-2.673255368986025e-05   -1.0947670454955634e-05   6.709834395057953e-05
-2.262874162230281e-05   -6.124173412866462e-06   5.7364558946063873e-05
-2.262874162230281e-05   -6.124173412866462e-06   5.7364558946063873e-05
-2.262874162230281e-05   -6.124173412866462e-06   5.7364558946063873e-05
-2.262874162230281e-05   -6.124173412866462e-06   5.7364558946063873e-05
-1.970502039568857e-05   2.8020648312656726e-06   3.5552908223195545e-05
-1.970502039568857e-05   2.8020648312656726e-06   3.5552908223195545e-05
-1.970502039568857e-05   2.8020648312656726e-06   3.5552908223195545e-05
-1.970502039568857e-05   2.8020648312656726e-06   3.5552908223195545e-05
-1.6304075367953386e-05   -4.240100157634763e-06   3.6995850942747534e-05
-1.6304075367953386e-05   -4.240100157634763e-06   3.6995850942747534e-05
-1.6304075367953386e-05   -4.240100157634763e-06   3.6995850942747534e-05
-1.6304075367953386e-05   -4.240100157634763e-06   3.6995850942747534e-05
-1.5925209317929276e-05   1.5100045669749762e-06   3.209743575703248e-05
-1.5925209317929276e-05   1.5100045669749762e-06   3.209743575703248e-05
-1.5925209317929276e-05   1.5100045669749762e-06   3.209743575703248e-05
-1.5925209317929276e-05   1.5100045669749762e-06   3.209743575703248e-05
-1.9504053210453887e-05   -4.973472347843044e-06   4.195226172679805e-05
-1.9504053210453887e-05   -4.973472347843044e-06   4.195226172679805e-05
-1.9504053210453887e-05   -4.973472347843044e-06   4.195226172679805e-05
-1.9504053210453887e-05   -4.973472347843044e-06   4.195226172679805e-05
-1.772798464769285e-05   -9.65554048003997e-07   3.6587396475626886e-05
-1.772798464769285e-05   -9.65554048003997e-07   3.6587396475626886e-05
-1.772798464769285e-05   -9.65554048003997e-07   3.6587396475626886e-05
-1.772798464769285e-05   -9.65554048003997e-07   3.6587396475626886e-05
-1.9504053210453887e-05   1.5100045669749762e-06   3.598752190592312e-05
-1.9504053210453887e-05   1.5100045669749762e-06   3.598752190592312e-05
-1.9504053210453887e-05   1.5100045669749762e-06   3.598752190592312e-05
-1.9504053210453887e-05   1.5100045669749762e-06   3.598752190592312e-05
-1.5925209317929276e-05   -4.973472347843044e-06   3.8062175577907196e-05
-1.5925209317929276e-05   -4.973472347843044e-06   3.8062175577907196e-05
-1.5925209317929276e-05   -4.973472347843044e-06   3.8062175577907196e-05
-1.5925209317929276e-05   -4.973472347843044e-06   3.8062175577907196e-05
-1.57379327220986e-05   4.0481683219028425e-07   3.36229197126091e-05
-1.57379327220986e-05   4.0481683219028425e-07   3.36229197126091e-05
-1.57379327220986e-05   4.0481683219028425e-07   3.36229197126091e-05
-1.57379327220986e-05   4.0481683219028425e-07   3.36229197126091e-05
-1.932327385746678e-05   -5.53265540591155e-06   4.3160971614417164e-05
-1.932327385746678e-05   -5.53265540591155e-06   4.3160971614417164e-05
-1.932327385746678e-05   -5.53265540591155e-06   4.3160971614417164e-05
-1.932327385746678e-05   -5.53265540591155e-06   4.3160971614417164e-05
-1.7353235745549717e-05   -1.7568611857543288e-06   3.761209822912581e-05
-1.7353235745549717e-05   -1.7568611857543288e-06   3.761209822912581e-05
-1.7353235745549717e-05   -1.7568611857543288e-06   3.761209822912581e-05
-1.7353235745549717e-05   -1.7568611857543288e-06   3.761209822912581e-05
-1.932327385746678e-05   4.0481683219028425e-07   3.718540305546977e-05
-1.932327385746678e-05   4.0481683219028425e-07   3.718540305546977e-05
-1.932327385746678e-05   4.0481683219028425e-07   3.718540305546977e-05
-1.932327385746678e-05   4.0481683219028425e-07   3.718540305546977e-05
-1.57379327220986e-05   -5.5326554059116585e-06   3.9598488271555955e-05
-1.57379327220986e-05   -5.5326554059116585e-06   3.9598488271555955e-05
-1.57379327220986e-05   -5.5326554059116585e-06   3.9598488271555955e-05
-1.57379327220986e-05   -5.5326554059116585e-06   3.9598488271555955e-05
-1.5446785411441302e-05   -7.085107522281434e-07   3.5538708782111884e-05
-1.5446785411441302e-05   -7.085107522281434e-07   3.5538708782111884e-05
-1.5446785411441302e-05   -7.085107522281434e-07   3.5538708782111884e-05
-1.5446785411441302e-05   -7.085107522281434e-07   3.5538708782111884e-05
-1.8909423162630267e-05   -6.268549041506624e-06   4.464579467432705e-05
-1.8909423162630267e-05   -6.268549041506624e-06   4.464579467432705e-05
-1.8909423162630267e-05   -6.268549041506624e-06   4.464579467432705e-05
-1.8909423162630267e-05   -6.268549041506624e-06   4.464579467432705e-05
-1.7052525873378574e-05   -2.447713746359364e-06   3.925846468182028e-05
-1.7052525873378574e-05   -2.447713746359364e-06   3.925846468182028e-05
-1.7052525873378574e-05   -2.447713746359364e-06   3.925846468182028e-05
-1.7052525873378574e-05   -2.447713746359364e-06   3.925846468182028e-05
-1.6304075367953386e-05   4.590543223956765e-06   7.916986020218772e-06
-1.6304075367953386e-05   4.590543223956765e-06   7.916986020218772e-06
-1.6304075367953386e-05   4.590543223956765e-06   7.916986020218772e-06
-1.6304075367953386e-05   4.590543223956765e-06   7.916986020218772e-06
-9.23599170934335e-06   -4.919265107839257e-07   1.6647643610390953e-05
-9.23599170934335e-06   -4.919265107839257e-07   1.6647643610390953e-05
-9.23599170934335e-06   -4.919265107839257e-07   1.6647643610390953e-05
-9.23599170934335e-06   -4.919265107839257e-07   1.6647643610390953e-05
-9.738076220635944e-06   3.6796710261438603e-06   7.981018478946025e-06
-9.738076220635944e-06   3.6796710261438603e-06   7.981018478946025e-06
-9.738076220635944e-06   3.6796710261438603e-06   7.981018478946025e-06
-9.738076220635944e-06   3.6796710261438603e-06   7.981018478946025e-06
-1.5925209317929276e-05   -6.785605015809625e-07   2.0907845891070427e-05
-1.5925209317929276e-05   -6.785605015809625e-07   2.0907845891070427e-05
-1.5925209317929276e-05   -6.785605015809625e-07   2.0907845891070427e-05
-1.5925209317929276e-05   -6.785605015809625e-07   2.0907845891070427e-05
-1.236120213072298e-05   2.355485108513798e-06   1.3147406546336771e-05
-1.236120213072298e-05   2.355485108513798e-06   1.3147406546336771e-05
-1.236120213072298e-05   2.355485108513798e-06   1.3147406546336771e-05
-1.236120213072298e-05   2.355485108513798e-06   1.3147406546336771e-05
-1.5925209317929276e-05   3.6796710261438603e-06   1.0595957395580311e-05
-1.5925209317929276e-05   3.6796710261438603e-06   1.0595957395580311e-05
-1.5925209317929276e-05   3.6796710261438603e-06   1.0595957395580311e-05
-1.5925209317929276e-05   3.6796710261438603e-06   1.0595957395580311e-05
-9.738076220635727e-06   -6.785605015809625e-07   1.8292906974435707e-05
-9.738076220635727e-06   -6.785605015809625e-07   1.8292906974435707e-05
-9.738076220635727e-06   -6.785605015809625e-07   1.8292906974435707e-05
-9.738076220635727e-06   -6.785605015809625e-07   1.8292906974435707e-05
-1.0146475228723284e-05   3.0831886733758296e-06   1.0440734722669438e-05
-1.0146475228723284e-05   3.0831886733758296e-06   1.0440734722669438e-05
-1.0146475228723284e-05   3.0831886733758296e-06   1.0440734722669438e-05
-1.0146475228723284e-05   3.0831886733758296e-06   1.0440734722669438e-05
-1.57379327220986e-05   -9.336411275187497e-07   2.216992842549799e-05
-1.57379327220986e-05   -9.336411275187497e-07   2.216992842549799e-05
-1.57379327220986e-05   -9.336411275187497e-07   2.216992842549799e-05
-1.57379327220986e-05   -9.336411275187497e-07   2.216992842549799e-05
-1.2549267676984573e-05   1.9004815213843895e-06   1.5155013094298418e-05
-1.2549267676984573e-05   1.9004815213843895e-06   1.5155013094298418e-05
-1.2549267676984573e-05   1.9004815213843895e-06   1.5155013094298418e-05
-1.2549267676984573e-05   1.9004815213843895e-06   1.5155013094298418e-05
-1.57379327220986e-05   3.0831886733758296e-06   1.2850832603206663e-05
-1.57379327220986e-05   3.0831886733758296e-06   1.2850832603206663e-05
-1.57379327220986e-05   3.0831886733758296e-06   1.2850832603206663e-05
-1.57379327220986e-05   3.0831886733758296e-06   1.2850832603206663e-05
-1.01464752287235e-05   -9.336411275187497e-07   1.97598305449612e-05
-1.01464752287235e-05   -9.336411275187497e-07   1.97598305449612e-05
-1.01464752287235e-05   -9.336411275187497e-07   1.97598305449612e-05
-1.01464752287235e-05   -9.336411275187497e-07   1.97598305449612e-05
-1.12005939453012e-05   1.893754139157362e-06   1.483489428778231e-05
-1.12005939453012e-05   1.893754139157362e-06   1.483489428778231e-05
-1.12005939453012e-05   1.893754139157362e-06   1.483489428778231e-05
-1.12005939453012e-05   1.893754139157362e-06   1.483489428778231e-05
-1.5446785411441302e-05   -1.2349432064334438e-06   2.378909847203627e-05
-1.5446785411441302e-05   -1.2349432064334438e-06   2.378909847203627e-05
-1.5446785411441302e-05   -1.2349432064334438e-06   2.378909847203627e-05
-1.5446785411441302e-05   -1.2349432064334438e-06   2.378909847203627e-05
-1.2553112265896557e-05   1.5969920661817842e-06   1.7267148732559535e-05
-1.2553112265896557e-05   1.5969920661817842e-06   1.7267148732559535e-05
-1.2553112265896557e-05   1.5969920661817842e-06   1.7267148732559535e-05
-1.2553112265896557e-05   1.5969920661817842e-06   1.7267148732559535e-05
-0.00015239144995690692   1.2032964851538762e-05   6.397467072957481e-05
-0.00015239144995690692   1.2032964851538762e-05   6.397467072957481e-05
-0.00015239144995690692   1.2032964851538762e-05   6.397467072957481e-05
-0.00015239144995690692   1.2032964851538762e-05   6.397467072957481e-05
-3.5978725835007346e-05   -7.283657357346232e-05   0.0002070741545444069
-3.5978725835007346e-05   -7.283657357346232e-05   0.0002070741545444069
-3.5978725835007346e-05   -7.283657357346232e-05   0.0002070741545444069
-3.5978725835007346e-05   -7.283657357346232e-05   0.0002070741545444069
-4.212507494438355e-05   4.974995195387399e-06   3.525142702065753e-05
-4.212507494438355e-05   4.974995195387399e-06   3.525142702065753e-05
-4.212507494438355e-05   4.974995195387399e-06   3.525142702065753e-05
-4.212507494438355e-05   4.974995195387399e-06   3.525142702065753e-05
-0.00013898433704985082   -5.6365985505914254e-05   0.00023348811895055043
-0.00013898433704985082   -5.6365985505914254e-05   0.00023348811895055043
-0.00013898433704985082   -5.6365985505914254e-05   0.00023348811895055043
-0.00013898433704985082   -5.6365985505914254e-05   0.00023348811895055043
-9.27076241215381e-05   -2.8072718425932106e-05   0.00013938430382203987
-9.27076241215381e-05   -2.8072718425932106e-05   0.00013938430382203987
-9.27076241215381e-05   -2.8072718425932106e-05   0.00013938430382203987
-9.27076241215381e-05   -2.8072718425932106e-05   0.00013938430382203987
-0.00013898433704985058   4.974995195387399e-06   7.205601544143847e-05
-0.00013898433704985058   4.974995195387399e-06   7.205601544143847e-05
-0.00013898433704985058   4.974995195387399e-06   7.205601544143847e-05
-0.00013898433704985058   4.974995195387399e-06   7.205601544143847e-05
-4.2125074944383606e-05   -5.6365985505914254e-05   0.0001966835305297694
-4.2125074944383606e-05   -5.6365985505914254e-05   0.0001966835305297694
-4.2125074944383606e-05   -5.6365985505914254e-05   0.0001966835305297694
-4.2125074944383606e-05   -5.6365985505914254e-05   0.0001966835305297694
-4.302524111596495e-05   3.605581868511222e-06   3.87277399825414e-05
-4.302524111596495e-05   3.605581868511222e-06   3.87277399825414e-05
-4.302524111596495e-05   3.605581868511222e-06   3.87277399825414e-05
-4.302524111596495e-05   3.605581868511222e-06   3.87277399825414e-05
-0.00013112402664554025   -4.839670336129369e-05   0.0002167604203363828
-0.00013112402664554025   -4.839670336129369e-05   0.0002167604203363828
-0.00013112402664554025   -4.839670336129369e-05   0.0002167604203363828
-0.00013112402664554025   -4.839670336129369e-05   0.0002167604203363828
-8.989359739835831e-05   -2.656991791865791e-05   0.00013494696699216485
-8.989359739835831e-05   -2.656991791865791e-05   0.00013494696699216485
-8.989359739835831e-05   -2.656991791865791e-05   0.00013494696699216485
-8.989359739835831e-05   -2.656991791865791e-05   0.00013494696699216485
-0.00013112402664554004   3.605581868511222e-06   6.992911112042421e-05
-0.00013112402664554004   3.605581868511222e-06   6.992911112042421e-05
-0.00013112402664554004   3.605581868511222e-06   6.992911112042421e-05
-0.00013112402664554004   3.605581868511222e-06   6.992911112042421e-05
-4.302524111596503e-05   -4.839670336129369e-05   0.0001855590491984999
-4.302524111596503e-05   -4.839670336129369e-05   0.0001855590491984999
-4.302524111596503e-05   -4.839670336129369e-05   0.0001855590491984999
-4.302524111596503e-05   -4.839670336129369e-05   0.0001855590491984999
-4.702250965305446e-05   -2.1969648097279774e-06   4.854510681394494e-05
-4.702250965305446e-05   -2.1969648097279774e-06   4.854510681394494e-05
-4.702250965305446e-05   -2.1969648097279774e-06   4.854510681394494e-05
-4.702250965305446e-05   -2.1969648097279774e-06   4.854510681394494e-05
-0.00012106589952248882   -3.7834611176105795e-05   0.00019333334441616195
-0.00012106589952248882   -3.7834611176105795e-05   0.00019333334441616195
-0.00012106589952248882   -3.7834611176105795e-05   0.00019333334441616195
-0.00012106589952248882   -3.7834611176105795e-05   0.00019333334441616195
-8.640958826326439e-05   -2.451480585387685e-05   0.00012758094245745062
-8.640958826326439e-05   -2.451480585387685e-05   0.00012758094245745062
-8.640958826326439e-05   -2.451480585387685e-05   0.00012758094245745062
-8.640958826326439e-05   -2.451480585387685e-05   0.00012758094245745062
-3.597872583500729e-05   -1.3265085334891974e-05   3.605186193704382e-05
-3.597872583500729e-05   -1.3265085334891974e-05   3.605186193704382e-05
-3.597872583500729e-05   -1.3265085334891974e-05   3.605186193704382e-05
-3.597872583500729e-05   -1.3265085334891974e-05   3.605186193704382e-05
-1.257767163005528e-05   -2.2128929799186052e-05   6.973531226672108e-05
-1.257767163005528e-05   -2.2128929799186052e-05   6.973531226672108e-05
-1.257767163005528e-05   -2.2128929799186052e-05   6.973531226672108e-05
-1.257767163005528e-05   -2.2128929799186052e-05   6.973531226672108e-05
-1.3988960094666952e-05   -1.0832523605032712e-05   3.246425467437681e-05
-1.3988960094666952e-05   -1.0832523605032712e-05   3.246425467437681e-05
-1.3988960094666952e-05   -1.0832523605032712e-05   3.246425467437681e-05
-1.3988960094666952e-05   -1.0832523605032712e-05   3.246425467437681e-05
-4.2125074944383606e-05   -2.952731965236834e-05   9.05746570523058e-05
-4.2125074944383606e-05   -2.952731965236834e-05   9.05746570523058e-05
-4.2125074944383606e-05   -2.952731965236834e-05   9.05746570523058e-05
-4.2125074944383606e-05   -2.952731965236834e-05   9.05746570523058e-05
-2.4803967329834845e-05   -1.553813173052487e-05   5.331263160828479e-05
-2.4803967329834845e-05   -1.553813173052487e-05   5.331263160828479e-05
-2.4803967329834845e-05   -1.553813173052487e-05   5.331263160828479e-05
-2.4803967329834845e-05   -1.553813173052487e-05   5.331263160828479e-05
-4.21250749443835e-05   -1.0832523605032712e-05   4.368113230277784e-05
-4.21250749443835e-05   -1.0832523605032712e-05   4.368113230277784e-05
-4.21250749443835e-05   -1.0832523605032712e-05   4.368113230277784e-05
-4.21250749443835e-05   -1.0832523605032712e-05   4.368113230277784e-05
-1.3988960094666952e-05   -2.952731965236834e-05   7.935777942390433e-05
-1.3988960094666952e-05   -2.952731965236834e-05   7.935777942390433e-05
-1.3988960094666952e-05   -2.952731965236834e-05   7.935777942390433e-05
-1.3988960094666952e-05   -2.952731965236834e-05   7.935777942390433e-05
-1.5193353370274382e-05   -1.1087991544163085e-05   3.649521981498186e-05
-1.5193353370274382e-05   -1.1087991544163085e-05   3.649521981498186e-05
-1.5193353370274382e-05   -1.1087991544163085e-05   3.649521981498186e-05
-1.5193353370274382e-05   -1.1087991544163085e-05   3.649521981498186e-05
-4.302524111596503e-05   -2.690056982192187e-05   9.236924635778787e-05
-4.302524111596503e-05   -2.690056982192187e-05   9.236924635778787e-05
-4.302524111596503e-05   -2.690056982192187e-05   9.236924635778787e-05
-4.302524111596503e-05   -2.690056982192187e-05   9.236924635778787e-05
-2.7900426017686813e-05   -1.905626281343371e-05   6.245463698889835e-05
-2.7900426017686813e-05   -1.905626281343371e-05   6.245463698889835e-05
-2.7900426017686813e-05   -1.905626281343371e-05   6.245463698889835e-05
-2.7900426017686813e-05   -1.905626281343371e-05   6.245463698889835e-05
-4.302524111596495e-05   -1.1087991544163085e-05   4.598276678163696e-05
-4.302524111596495e-05   -1.1087991544163085e-05   4.598276678163696e-05
-4.302524111596495e-05   -1.1087991544163085e-05   4.598276678163696e-05
-4.302524111596495e-05   -1.1087991544163085e-05   4.598276678163696e-05
-1.5193353370274382e-05   -2.690056982192187e-05   8.288169939113264e-05
-1.5193353370274382e-05   -2.690056982192187e-05   8.288169939113264e-05
-1.5193353370274382e-05   -2.690056982192187e-05   8.288169939113264e-05
-1.5193353370274382e-05   -2.690056982192187e-05   8.288169939113264e-05
-1.7142202258159378e-05   -1.121608830503037e-05   3.986929718473135e-05
-1.7142202258159378e-05   -1.121608830503037e-05   3.986929718473135e-05
-1.7142202258159378e-05   -1.121608830503037e-05   3.986929718473135e-05
-1.7142202258159378e-05   -1.121608830503037e-05   3.986929718473135e-05
-4.7022509653054485e-05   -2.525486319717102e-05   9.809307444484059e-05
-4.7022509653054485e-05   -2.525486319717102e-05   9.809307444484059e-05
-4.7022509653054485e-05   -2.525486319717102e-05   9.809307444484059e-05
-4.7022509653054485e-05   -2.525486319717102e-05   9.809307444484059e-05
-2.9672313248936782e-05   -1.738939913903311e-05   6.445680200309507e-05
-2.9672313248936782e-05   -1.738939913903311e-05   6.445680200309507e-05
-2.9672313248936782e-05   -1.738939913903311e-05   6.445680200309507e-05
-2.9672313248936782e-05   -1.738939913903311e-05   6.445680200309507e-05
-1.257767163005528e-05   -1.0359409978769941e-05   1.9185987984727355e-05
-1.257767163005528e-05   -1.0359409978769941e-05   1.9185987984727355e-05
-1.257767163005528e-05   -1.0359409978769941e-05   1.9185987984727355e-05
-1.257767163005528e-05   -1.0359409978769941e-05   1.9185987984727355e-05
-6.989684237968473e-06   -5.9277972508519375e-06   3.1158267941622654e-05
-6.989684237968473e-06   -5.9277972508519375e-06   3.1158267941622654e-05
-6.989684237968473e-06   -5.9277972508519375e-06   3.1158267941622654e-05
-6.989684237968473e-06   -5.9277972508519375e-06   3.1158267941622654e-05
-6.686606144346843e-06   -1.0174013874595755e-05   2.2399338996648447e-05
-6.686606144346843e-06   -1.0174013874595755e-05   2.2399338996648447e-05
-6.686606144346843e-06   -1.0174013874595755e-05   2.2399338996648447e-05
-6.686606144346843e-06   -1.0174013874595755e-05   2.2399338996648447e-05
-1.3988960094666952e-05   -7.842862821962624e-06   3.317123828226829e-05
-1.3988960094666952e-05   -7.842862821962624e-06   3.317123828226829e-05
-1.3988960094666952e-05   -7.842862821962624e-06   3.317123828226829e-05
-1.3988960094666952e-05   -7.842862821962624e-06   3.317123828226829e-05
-9.427074962869248e-06   -8.15854142878188e-06   2.5757503560029887e-05
-9.427074962869248e-06   -8.15854142878188e-06   2.5757503560029887e-05
-9.427074962869248e-06   -8.15854142878188e-06   2.5757503560029887e-05
-9.427074962869248e-06   -8.15854142878188e-06   2.5757503560029887e-05
-1.3988960094666952e-05   -1.0174013874595755e-05   2.1000648365068417e-05
-1.3988960094666952e-05   -1.0174013874595755e-05   2.1000648365068417e-05
-1.3988960094666952e-05   -1.0174013874595755e-05   2.1000648365068417e-05
-1.3988960094666952e-05   -1.0174013874595755e-05   2.1000648365068417e-05
-6.686606144346843e-06   -7.842862821962624e-06   3.456992891384821e-05
-6.686606144346843e-06   -7.842862821962624e-06   3.456992891384821e-05
-6.686606144346843e-06   -7.842862821962624e-06   3.456992891384821e-05
-6.686606144346843e-06   -7.842862821962624e-06   3.456992891384821e-05
-6.666259831158766e-06   -1.0490325122833213e-05   2.3928599544076595e-05
-6.666259831158766e-06   -1.0490325122833213e-05   2.3928599544076595e-05
-6.666259831158766e-06   -1.0490325122833213e-05   2.3928599544076595e-05
-6.666259831158766e-06   -1.0490325122833213e-05   2.3928599544076595e-05
-1.5193353370274382e-05   -1.0173183246864567e-05   3.795013698368777e-05
-1.5193353370274382e-05   -1.0173183246864567e-05   3.795013698368777e-05
-1.5193353370274382e-05   -1.0173183246864567e-05   3.795013698368777e-05
-1.5193353370274382e-05   -1.0173183246864567e-05   3.795013698368777e-05
-9.956811549424353e-06   -8.922205775898132e-06   2.8471980799691103e-05
-9.956811549424353e-06   -8.922205775898132e-06   2.8471980799691103e-05
-9.956811549424353e-06   -8.922205775898132e-06   2.8471980799691103e-05
-9.956811549424353e-06   -8.922205775898132e-06   2.8471980799691103e-05
-1.5193353370274328e-05   -1.0490325122833213e-05   2.3738314418495182e-05
-1.5193353370274328e-05   -1.0490325122833213e-05   2.3738314418495182e-05
-1.5193353370274328e-05   -1.0490325122833213e-05   2.3738314418495182e-05
-1.5193353370274328e-05   -1.0490325122833213e-05   2.3738314418495182e-05
-6.666259831158766e-06   -1.0173183246864567e-05   3.8140422109268855e-05
-6.666259831158766e-06   -1.0173183246864567e-05   3.8140422109268855e-05
-6.666259831158766e-06   -1.0173183246864567e-05   3.8140422109268855e-05
-6.666259831158766e-06   -1.0173183246864567e-05   3.8140422109268855e-05
-6.71052560552313e-06   -1.0947670454955634e-05   2.620463825929128e-05
-6.71052560552313e-06   -1.0947670454955634e-05   2.620463825929128e-05
-6.71052560552313e-06   -1.0947670454955634e-05   2.620463825929128e-05
-6.71052560552313e-06   -1.0947670454955634e-05   2.620463825929128e-05
-1.7142202258159432e-05   -1.2392613632297264e-05   4.445773192008945e-05
-1.7142202258159432e-05   -1.2392613632297264e-05   4.445773192008945e-05
-1.7142202258159432e-05   -1.2392613632297264e-05   4.445773192008945e-05
-1.7142202258159432e-05   -1.2392613632297264e-05   4.445773192008945e-05
-1.0552767336538023e-05   -9.772539453122215e-06   3.190329587654886e-05
-1.0552767336538023e-05   -9.772539453122215e-06   3.190329587654886e-05
-1.0552767336538023e-05   -9.772539453122215e-06   3.190329587654886e-05
-1.0552767336538023e-05   -9.772539453122215e-06   3.190329587654886e-05
-6.989684237968473e-06   -4.240100157634763e-06   5.181202554955817e-06
-6.989684237968473e-06   -4.240100157634763e-06   5.181202554955817e-06
-6.989684237968473e-06   -4.240100157634763e-06   5.181202554955817e-06
-6.989684237968473e-06   -4.240100157634763e-06   5.181202554955817e-06
-5.130211182350361e-06   1.310769713923918e-06   1.1610846237254755e-05
-5.130211182350361e-06   1.310769713923918e-06   1.1610846237254755e-05
-5.130211182350361e-06   1.310769713923918e-06   1.1610846237254755e-05
-5.130211182350361e-06   1.310769713923918e-06   1.1610846237254755e-05
-4.1253754056341015e-06   -4.973472347843044e-06   9.011192851149288e-06
-4.1253754056341015e-06   -4.973472347843044e-06   9.011192851149288e-06
-4.1253754056341015e-06   -4.973472347843044e-06   9.011192851149288e-06
-4.1253754056341015e-06   -4.973472347843044e-06   9.011192851149288e-06
-6.686606144346843e-06   6.468963139795328e-07   9.9076895519099e-06
-6.686606144346843e-06   6.468963139795328e-07   9.9076895519099e-06
-6.686606144346843e-06   6.468963139795328e-07   9.9076895519099e-06
-6.686606144346843e-06   6.468963139795328e-07   9.9076895519099e-06
-5.381450180290555e-06   -1.904237787885574e-06   9.263110072934514e-06
-5.381450180290555e-06   -1.904237787885574e-06   9.263110072934514e-06
-5.381450180290555e-06   -1.904237787885574e-06   9.263110072934514e-06
-5.381450180290555e-06   -1.904237787885574e-06   9.263110072934514e-06
-6.686606144346843e-06   -4.973472347843044e-06   5.638971654055801e-06
-6.686606144346843e-06   -4.973472347843044e-06   5.638971654055801e-06
-6.686606144346843e-06   -4.973472347843044e-06   5.638971654055801e-06
-6.686606144346843e-06   -4.973472347843044e-06   5.638971654055801e-06
-4.1253754056341015e-06   6.468963139795328e-07   1.3279910749003278e-05
-4.1253754056341015e-06   6.468963139795328e-07   1.3279910749003278e-05
-4.1253754056341015e-06   6.468963139795328e-07   1.3279910749003278e-05
-4.1253754056341015e-06   6.468963139795328e-07   1.3279910749003278e-05
-3.5630039862399876e-06   -5.5326554059116585e-06   9.896464923220922e-06
-3.5630039862399876e-06   -5.5326554059116585e-06   9.896464923220922e-06
-3.5630039862399876e-06   -5.5326554059116585e-06   9.896464923220922e-06
-3.5630039862399876e-06   -5.5326554059116585e-06   9.896464923220922e-06
-6.666259831158766e-06   -4.3119769557143045e-07   1.2007683371880861e-05
-6.666259831158766e-06   -4.3119769557143045e-07   1.2007683371880861e-05
-6.666259831158766e-06   -4.3119769557143045e-07   1.2007683371880861e-05
-6.666259831158766e-06   -4.3119769557143045e-07   1.2007683371880861e-05
-4.8537992231451055e-06   -2.4579468252075186e-06   1.0202965169639911e-05
-4.8537992231451055e-06   -2.4579468252075186e-06   1.0202965169639911e-05
-4.8537992231451055e-06   -2.4579468252075186e-06   1.0202965169639911e-05
-4.8537992231451055e-06   -2.4579468252075186e-06   1.0202965169639911e-05
-6.666259831158874e-06   -5.5326554059116585e-06   6.835590297016303e-06
-6.666259831158874e-06   -5.5326554059116585e-06   6.835590297016303e-06
-6.666259831158874e-06   -5.5326554059116585e-06   6.835590297016303e-06
-6.666259831158874e-06   -5.5326554059116585e-06   6.835590297016303e-06
-3.5630039862399876e-06   -4.3119769557143045e-07   1.5068557998085047e-05
-3.5630039862399876e-06   -4.3119769557143045e-07   1.5068557998085047e-05
-3.5630039862399876e-06   -4.3119769557143045e-07   1.5068557998085047e-05
-3.5630039862399876e-06   -4.3119769557143045e-07   1.5068557998085047e-05
-2.6988077782062834e-06   -6.268549041506732e-06   1.0839449422194456e-05
-2.6988077782062834e-06   -6.268549041506732e-06   1.0839449422194456e-05
-2.6988077782062834e-06   -6.268549041506732e-06   1.0839449422194456e-05
-2.6988077782062834e-06   -6.268549041506732e-06   1.0839449422194456e-05
-6.71052560552313e-06   -2.6776256783715685e-06   1.537109178317451e-05
-6.71052560552313e-06   -2.6776256783715685e-06   1.537109178317451e-05
-6.71052560552313e-06   -2.6776256783715685e-06   1.537109178317451e-05
-6.71052560552313e-06   -2.6776256783715685e-06   1.537109178317451e-05
-4.411381735696664e-06   -3.3172531443537547e-06   1.1922961813054262e-05
-4.411381735696664e-06   -3.3172531443537547e-06   1.1922961813054262e-05
-4.411381735696664e-06   -3.3172531443537547e-06   1.1922961813054262e-05
-4.411381735696664e-06   -3.3172531443537547e-06   1.1922961813054262e-05
-5.130211182350361e-06   -4.919265107838173e-07   -8.787001013621596e-06
-5.130211182350361e-06   -4.919265107838173e-07   -8.787001013621596e-06
-5.130211182350361e-06   -4.919265107838173e-07   -8.787001013621596e-06
-5.130211182350361e-06   -4.919265107838173e-07   -8.787001013621596e-06
-8.905142383527735e-07   7.602226775291118e-07   -9.695499273048355e-07
-8.905142383527735e-07   7.602226775291118e-07   -9.695499273048355e-07
-8.905142383527735e-07   7.602226775291118e-07   -9.695499273048355e-07
-8.905142383527735e-07   7.602226775291118e-07   -9.695499273048355e-07
9.85585486611238e-08   -6.785605015809625e-07   -6.940795073317931e-06
9.85585486611238e-08   -6.785605015809625e-07   -6.940795073317931e-06
9.85585486611238e-08   -6.785605015809625e-07   -6.940795073317931e-06
9.85585486611238e-08   -6.785605015809625e-07   -6.940795073317931e-06
-4.1253754056341015e-06   1.3253424357020054e-06   -1.103246911862612e-06
-4.1253754056341015e-06   1.3253424357020054e-06   -1.103246911862612e-06
-4.1253754056341015e-06   1.3253424357020054e-06   -1.103246911862612e-06
-4.1253754056341015e-06   1.3253424357020054e-06   -1.103246911862612e-06
-2.296427933931068e-06   3.438214915329812e-07   -3.5625801315334465e-06
-2.296427933931068e-06   3.438214915329812e-07   -3.5625801315334465e-06
-2.296427933931068e-06   3.438214915329812e-07   -3.5625801315334465e-06
-2.296427933931068e-06   3.438214915329812e-07   -3.5625801315334465e-06
-4.1253754056341015e-06   -6.785605015809625e-07   -8.143136835688132e-06
-4.1253754056341015e-06   -6.785605015809625e-07   -8.143136835688132e-06
-4.1253754056341015e-06   -6.785605015809625e-07   -8.143136835688132e-06
-4.1253754056341015e-06   -6.785605015809625e-07   -8.143136835688132e-06
9.85585486611238e-08   1.3253424357020054e-06   9.909485050737209e-08
9.85585486611238e-08   1.3253424357020054e-06   9.909485050737209e-08
9.85585486611238e-08   1.3253424357020054e-06   9.909485050737209e-08
9.85585486611238e-08   1.3253424357020054e-06   9.909485050737209e-08
6.281504442665498e-07   -9.336411275187497e-07   -6.274544925696703e-06
6.281504442665498e-07   -9.336411275187497e-07   -6.274544925696703e-06
6.281504442665498e-07   -9.336411275187497e-07   -6.274544925696703e-06
6.281504442665498e-07   -9.336411275187497e-07   -6.274544925696703e-06
-3.5630039862399876e-06   1.162275534381498e-06   -5.4683753865966e-07
-3.5630039862399876e-06   1.162275534381498e-06   -5.4683753865966e-07
-3.5630039862399876e-06   1.162275534381498e-06   -5.4683753865966e-07
-3.5630039862399876e-06   1.162275534381498e-06   -5.4683753865966e-07
-1.5598756863010764e-06   2.2679023715878495e-07   -3.3240935268898705e-06
-1.5598756863010764e-06   2.2679023715878495e-07   -3.3240935268898705e-06
-1.5598756863010764e-06   2.2679023715878495e-07   -3.3240935268898705e-06
-1.5598756863010764e-06   2.2679023715878495e-07   -3.3240935268898705e-06
-3.5630039862399876e-06   -9.336411275187497e-07   -7.532094922836933e-06
-3.5630039862399876e-06   -9.336411275187497e-07   -7.532094922836933e-06
-3.5630039862399876e-06   -9.336411275187497e-07   -7.532094922836933e-06
-3.5630039862399876e-06   -9.336411275187497e-07   -7.532094922836933e-06
6.281504442665498e-07   1.162275534381498e-06   7.1071245848057e-07
6.281504442665498e-07   1.162275534381498e-06   7.1071245848057e-07
6.281504442665498e-07   1.162275534381498e-06   7.1071245848057e-07
6.281504442665498e-07   1.162275534381498e-06   7.1071245848057e-07
1.2947391194739494e-06   -1.2349432064334438e-06   -5.3106756606122185e-06
1.2947391194739494e-06   -1.2349432064334438e-06   -5.3106756606122185e-06
1.2947391194739494e-06   -1.2349432064334438e-06   -5.3106756606122185e-06
1.2947391194739494e-06   -1.2349432064334438e-06   -5.3106756606122185e-06
-2.6988077782062834e-06   1.0493037034268104e-06   -2.531231039549532e-08
-2.6988077782062834e-06   1.0493037034268104e-06   -2.531231039549532e-08
-2.6988077782062834e-06   1.0493037034268104e-06   -2.531231039549532e-08
-2.6988077782062834e-06   1.0493037034268104e-06   -2.531231039549532e-08
-8.906143791972835e-07   9.045151213931627e-08   -2.4636566606378325e-06
-8.906143791972835e-07   9.045151213931627e-08   -2.4636566606378325e-06
-8.906143791972835e-07   9.045151213931627e-08   -2.4636566606378325e-06
-8.906143791972835e-07   9.045151213931627e-08   -2.4636566606378325e-06
              </DataArray>   
             <DataArray type="Float64" NumberOfComponents="3" Name="Stress" format="ascii">   
-7.887467074743721   -1.9718667686859304   -1.9718667686859304
-7.887467074743721   -1.9718667686859304   -1.9718667686859304
-7.887467074743721   -1.9718667686859304   -1.9718667686859304
-7.887467074743721   -1.9718667686859304   -1.9718667686859304
-4.565093926588104   -0.14318206842567205   -0.09095875308423615
-4.565093926588104   -0.14318206842567205   -0.09095875308423615
-4.565093926588104   -0.14318206842567205   -0.09095875308423615
-4.565093926588104   -0.14318206842567205   -0.09095875308423615
-4.9219565070611395   -1.2304891267652849   -1.2304891267652849
-4.9219565070611395   -1.2304891267652849   -1.2304891267652849
-4.9219565070611395   -1.2304891267652849   -1.2304891267652849
-4.9219565070611395   -1.2304891267652849   -1.2304891267652849
-7.6024289871488   -0.623180279428321   -0.23796404282638184
-7.6024289871488   -0.623180279428321   -0.23796404282638184
-7.6024289871488   -0.623180279428321   -0.23796404282638184
-7.6024289871488   -0.623180279428321   -0.23796404282638184
-5.962898721931349   -0.9769043651166606   -0.016386185479193988
-5.962898721931349   -0.9769043651166606   -0.016386185479193988
-5.962898721931349   -0.9769043651166606   -0.016386185479193988
-5.962898721931349   -0.9769043651166606   -0.016386185479193988
-8.255777914108746   -2.0639444785271865   -2.0639444785271865
-8.255777914108746   -2.0639444785271865   -2.0639444785271865
-8.255777914108746   -2.0639444785271865   -2.0639444785271865
-8.255777914108746   -2.0639444785271865   -2.0639444785271865
-4.423433067880999   0.05544958455378701   -0.023810642183650088
-4.423433067880999   0.05544958455378701   -0.023810642183650088
-4.423433067880999   0.05544958455378701   -0.023810642183650088
-4.423433067880999   0.05544958455378701   -0.023810642183650088
-4.93686067523359   -1.2342151688083975   -1.2342151688083975
-4.93686067523359   -1.2342151688083975   -1.2342151688083975
-4.93686067523359   -1.2342151688083975   -1.2342151688083975
-4.93686067523359   -1.2342151688083975   -1.2342151688083975
-7.859081429253492   -0.6294791922983121   -0.34883825883030645
-7.859081429253492   -0.6294791922983121   -0.34883825883030645
-7.859081429253492   -0.6294791922983121   -0.34883825883030645
-7.859081429253492   -0.6294791922983121   -0.34883825883030645
-6.18639919757872   -0.9201398969036939   -0.32841926496970075
-6.18639919757872   -0.9201398969036939   -0.32841926496970075
-6.18639919757872   -0.9201398969036939   -0.32841926496970075
-6.18639919757872   -0.9201398969036939   -0.32841926496970075
-8.514908821141981   -2.1287272052854953   -2.1287272052854953
-8.514908821141981   -2.1287272052854953   -2.1287272052854953
-8.514908821141981   -2.1287272052854953   -2.1287272052854953
-8.514908821141981   -2.1287272052854953   -2.1287272052854953
-4.41153079045105   0.13453533707285037   0.023683749223054995
-4.41153079045105   0.13453533707285037   0.023683749223054995
-4.41153079045105   0.13453533707285037   0.023683749223054995
-4.41153079045105   0.13453533707285037   0.023683749223054995
-4.9354193871498975   -1.2338548467874744   -1.2338548467874744
-4.9354193871498975   -1.2338548467874744   -1.2338548467874744
-4.9354193871498975   -1.2338548467874744   -1.2338548467874744
-4.9354193871498975   -1.2338548467874744   -1.2338548467874744
-8.317241150612844   -0.5528628711260322   -0.20874622308326318
-8.317241150612844   -0.5528628711260322   -0.20874622308326318
-8.317241150612844   -0.5528628711260322   -0.20874622308326318
-8.317241150612844   -0.5528628711260322   -0.20874622308326318
-6.352626242754992   -0.9061337814194943   -0.5937589636987961
-6.352626242754992   -0.9061337814194943   -0.5937589636987961
-6.352626242754992   -0.9061337814194943   -0.5937589636987961
-6.352626242754992   -0.9061337814194943   -0.5937589636987961
-5.020295291429033   -1.2550738228572582   -1.2550738228572582
-5.020295291429033   -1.2550738228572582   -1.2550738228572582
-5.020295291429033   -1.2550738228572582   -1.2550738228572582
-5.020295291429033   -1.2550738228572582   -1.2550738228572582
-2.0932516131435914   -0.1383272819553329   -0.04504306740601634
-2.0932516131435914   -0.1383272819553329   -0.04504306740601634
-2.0932516131435914   -0.1383272819553329   -0.04504306740601634
-2.0932516131435914   -0.1383272819553329   -0.04504306740601634
-2.1987609654722555   -0.5496902413680639   -0.5496902413680639
-2.1987609654722555   -0.5496902413680639   -0.5496902413680639
-2.1987609654722555   -0.5496902413680639   -0.5496902413680639
-2.1987609654722555   -0.5496902413680639   -0.5496902413680639
-4.571378917052656   -0.5370924716634523   -0.17099783182470105
-4.571378917052656   -0.5370924716634523   -0.17099783182470105
-4.571378917052656   -0.5370924716634523   -0.17099783182470105
-4.571378917052656   -0.5370924716634523   -0.17099783182470105
-3.370923432713745   -0.6382524849865503   0.0265118994456963
-3.370923432713745   -0.6382524849865503   0.0265118994456963
-3.370923432713745   -0.6382524849865503   0.0265118994456963
-3.370923432713745   -0.6382524849865503   0.0265118994456963
-4.921956507061135   -1.2304891267652838   -1.2304891267652838
-4.921956507061135   -1.2304891267652838   -1.2304891267652838
-4.921956507061135   -1.2304891267652838   -1.2304891267652838
-4.921956507061135   -1.2304891267652838   -1.2304891267652838
-1.9758479406645215   0.016041848533019487   -0.0008572072304770806
-1.9758479406645215   0.016041848533019487   -0.0008572072304770806
-1.9758479406645215   0.016041848533019487   -0.0008572072304770806
-1.9758479406645215   0.016041848533019487   -0.0008572072304770806
-2.15069641070554   -0.537674102676385   -0.537674102676385
-2.15069641070554   -0.537674102676385   -0.537674102676385
-2.15069641070554   -0.537674102676385   -0.537674102676385
-2.15069641070554   -0.537674102676385   -0.537674102676385
-4.560874609448792   -0.43842595107069815   -0.15007405762210588
-4.560874609448792   -0.43842595107069815   -0.15007405762210588
-4.560874609448792   -0.43842595107069815   -0.15007405762210588
-4.560874609448792   -0.43842595107069815   -0.15007405762210588
-3.324991073017005   -0.5375324592758615   -0.17395384083416582
-3.324991073017005   -0.5375324592758615   -0.17395384083416582
-3.324991073017005   -0.5375324592758615   -0.17395384083416582
-3.324991073017005   -0.5375324592758615   -0.17395384083416582
-4.93686067523359   -1.2342151688083975   -1.2342151688083975
-4.93686067523359   -1.2342151688083975   -1.2342151688083975
-4.93686067523359   -1.2342151688083975   -1.2342151688083975
-4.93686067523359   -1.2342151688083975   -1.2342151688083975
-1.8983580715767696   0.13446738840528683   0.05187610188579653
-1.8983580715767696   0.13446738840528683   0.05187610188579653
-1.8983580715767696   0.13446738840528683   0.05187610188579653
-1.8983580715767696   0.13446738840528683   0.05187610188579653
-2.107098925377759   -0.5267747313444398   -0.5267747313444398
-2.107098925377759   -0.5267747313444398   -0.5267747313444398
-2.107098925377759   -0.5267747313444398   -0.5267747313444398
-2.107098925377759   -0.5267747313444398   -0.5267747313444398
-4.528460407948494   -0.33858796323081863   -0.09432683433716962
-4.528460407948494   -0.33858796323081863   -0.09432683433716962
-4.528460407948494   -0.33858796323081863   -0.09432683433716962
-4.528460407948494   -0.33858796323081863   -0.09432683433716962
-3.3425185260087966   -0.4759706509252103   -0.3877128777432418
-3.3425185260087966   -0.4759706509252103   -0.3877128777432418
-3.3425185260087966   -0.4759706509252103   -0.3877128777432418
-3.3425185260087966   -0.4759706509252103   -0.3877128777432418
-2.285086159190361   -0.5712715397975903   -0.5712715397975903
-2.285086159190361   -0.5712715397975903   -0.5712715397975903
-2.285086159190361   -0.5712715397975903   -0.5712715397975903
-2.285086159190361   -0.5712715397975903   -0.5712715397975903
0.2741716135952277   0.018443288428579264   0.002202106577767855
0.2741716135952277   0.018443288428579264   0.002202106577767855
0.2741716135952277   0.018443288428579264   0.002202106577767855
0.2741716135952277   0.018443288428579264   0.002202106577767855
0.3546740956548262   0.08866852391370655   0.08866852391370655
0.3546740956548262   0.08866852391370655   0.08866852391370655
0.3546740956548262   0.08866852391370655   0.08866852391370655
0.3546740956548262   0.08866852391370655   0.08866852391370655
-2.0670661433390425   -0.3573048791800332   -0.08360149289004662
-2.0670661433390425   -0.3573048791800332   -0.08360149289004662
-2.0670661433390425   -0.3573048791800332   -0.08360149289004662
-2.0670661433390425   -0.3573048791800332   -0.08360149289004662
-0.8833758704015824   -0.22415608105687837   0.15070387200390087
-0.8833758704015824   -0.22415608105687837   0.15070387200390087
-0.8833758704015824   -0.22415608105687837   0.15070387200390087
-0.8833758704015824   -0.22415608105687837   0.15070387200390087
-2.1987609654722555   -0.5496902413680639   -0.5496902413680639
-2.1987609654722555   -0.5496902413680639   -0.5496902413680639
-2.1987609654722555   -0.5496902413680639   -0.5496902413680639
-2.1987609654722555   -0.5496902413680639   -0.5496902413680639
0.36084686869481253   0.15553183700851292   0.05266907601882894
0.36084686869481253   0.15553183700851292   0.05266907601882894
0.36084686869481253   0.15553183700851292   0.05266907601882894
0.36084686869481253   0.15553183700851292   0.05266907601882894
0.39765379194320494   0.09941344798580123   0.09941344798580123
0.39765379194320494   0.09941344798580123   0.09941344798580123
0.39765379194320494   0.09941344798580123   0.09941344798580123
0.39765379194320494   0.09941344798580123   0.09941344798580123
-1.995017264547265   -0.24087752737316367   -0.05607494718826277
-1.995017264547265   -0.24087752737316367   -0.05607494718826277
-1.995017264547265   -0.24087752737316367   -0.05607494718826277
-1.995017264547265   -0.24087752737316367   -0.05607494718826277
-0.8484685545830996   -0.13869041290526202   -0.05116121956988087
-0.8484685545830996   -0.13869041290526202   -0.05116121956988087
-0.8484685545830996   -0.13869041290526202   -0.05116121956988087
-0.8484685545830996   -0.13869041290526202   -0.05116121956988087
-2.15069641070554   -0.537674102676385   -0.537674102676385
-2.15069641070554   -0.537674102676385   -0.537674102676385
-2.15069641070554   -0.537674102676385   -0.537674102676385
-2.15069641070554   -0.537674102676385   -0.537674102676385
0.4303349581433632   0.2732120433309112   0.08902068364147928
0.4303349581433632   0.2732120433309112   0.08902068364147928
0.4303349581433632   0.2732120433309112   0.08902068364147928
0.4303349581433632   0.2732120433309112   0.08902068364147928
0.45582289583740915   0.11395572395935229   0.11395572395935229
0.45582289583740915   0.11395572395935229   0.11395572395935229
0.45582289583740915   0.11395572395935229   0.11395572395935229
0.45582289583740915   0.11395572395935229   0.11395572395935229
-1.9165890038154334   -0.10194691052856886   0.0009470556512914674
-1.9165890038154334   -0.10194691052856886   0.0009470556512914674
-1.9165890038154334   -0.10194691052856886   0.0009470556512914674
-1.9165890038154334   -0.10194691052856886   0.0009470556512914674
-0.8241982329316252   -0.0563002663514221   -0.2512254898534171
-0.8241982329316252   -0.0563002663514221   -0.2512254898534171
-0.8241982329316252   -0.0563002663514221   -0.2512254898534171
-0.8241982329316252   -0.0563002663514221   -0.2512254898534171
0.3000472606599542   0.07501181516498855   0.07501181516498855
0.3000472606599542   0.07501181516498855   0.07501181516498855
0.3000472606599542   0.07501181516498855   0.07501181516498855
0.3000472606599542   0.07501181516498855   0.07501181516498855
2.864860988485352   0.26272521553995126   0.08773059726445419
2.864860988485352   0.26272521553995126   0.08773059726445419
2.864860988485352   0.26272521553995126   0.08773059726445419
2.864860988485352   0.26272521553995126   0.08773059726445419
3.1094885350264114   0.7773721337566029   0.7773721337566029
3.1094885350264114   0.7773721337566029   0.7773721337566029
3.1094885350264114   0.7773721337566029   0.7773721337566029
3.1094885350264114   0.7773721337566029   0.7773721337566029
0.27031489848119794   -0.20183420325831652   -0.04262473478241724
0.27031489848119794   -0.20183420325831652   -0.04262473478241724
0.27031489848119794   -0.20183420325831652   -0.04262473478241724
0.27031489848119794   -0.20183420325831652   -0.04262473478241724
1.6344065406916113   0.20342055766475015   0.2971566054989855
1.6344065406916113   0.20342055766475015   0.2971566054989855
1.6344065406916113   0.20342055766475015   0.2971566054989855
1.6344065406916113   0.20342055766475015   0.2971566054989855
0.3546740956548275   0.08866852391370687   0.08866852391370687
0.3546740956548275   0.08866852391370687   0.08866852391370687
0.3546740956548275   0.08866852391370687   0.08866852391370687
0.3546740956548275   0.08866852391370687   0.08866852391370687
2.8975666081334985   0.35930667686529605   0.13582795618334528
2.8975666081334985   0.35930667686529605   0.13582795618334528
2.8975666081334985   0.35930667686529605   0.13582795618334528
2.8975666081334985   0.35930667686529605   0.13582795618334528
3.0950222778139804   0.7737555694534951   0.7737555694534951
3.0950222778139804   0.7737555694534951   0.7737555694534951
3.0950222778139804   0.7737555694534951   0.7737555694534951
3.0950222778139804   0.7737555694534951   0.7737555694534951
0.3402496629252044   -0.08803084715134002   -0.0001629019670632767
0.3402496629252044   -0.08803084715134002   -0.0001629019670632767
0.3402496629252044   -0.08803084715134002   -0.0001629019670632767
0.3402496629252044   -0.08803084715134002   -0.0001629019670632767
1.6211746841105041   0.26653614257716574   0.07752043767053644
1.6211746841105041   0.26653614257716574   0.07752043767053644
1.6211746841105041   0.26653614257716574   0.07752043767053644
1.6211746841105041   0.26653614257716574   0.07752043767053644
0.3976537919432053   0.09941344798580133   0.09941344798580133
0.3976537919432053   0.09941344798580133   0.09941344798580133
0.3976537919432053   0.09941344798580133   0.09941344798580133
0.3976537919432053   0.09941344798580133   0.09941344798580133
2.9112748221676017   0.45996794768797644   0.1688059129871214
2.9112748221676017   0.45996794768797644   0.1688059129871214
2.9112748221676017   0.45996794768797644   0.1688059129871214
2.9112748221676017   0.45996794768797644   0.1688059129871214
3.153859732035062   0.7884649330087655   0.7884649330087655
3.153859732035062   0.7884649330087655   0.7884649330087655
3.153859732035062   0.7884649330087655   0.7884649330087655
3.153859732035062   0.7884649330087655   0.7884649330087655
0.4322243408546486   0.0626354345727869   0.047283238432111505
0.4322243408546486   0.0626354345727869   0.047283238432111505
0.4322243408546486   0.0626354345727869   0.047283238432111505
0.4322243408546486   0.0626354345727869   0.047283238432111505
1.6452126687886481   0.36129591402707645   -0.12613799903493197
1.6452126687886481   0.36129591402707645   -0.12613799903493197
1.6452126687886481   0.36129591402707645   -0.12613799903493197
1.6452126687886481   0.36129591402707645   -0.12613799903493197
3.1052998065827455   0.7763249516456864   0.7763249516456864
3.1052998065827455   0.7763249516456864   0.7763249516456864
3.1052998065827455   0.7763249516456864   0.7763249516456864
3.1052998065827455   0.7763249516456864   0.7763249516456864
6.43461559899621   0.4901193384560053   0.1667156181122473
6.43461559899621   0.4901193384560053   0.1667156181122473
6.43461559899621   0.4901193384560053   0.1667156181122473
6.43461559899621   0.4901193384560053   0.1667156181122473
6.575788120737835   1.6439470301844588   1.6439470301844588
6.575788120737835   1.6439470301844588   1.6439470301844588
6.575788120737835   1.6439470301844588   1.6439470301844588
6.575788120737835   1.6439470301844588   1.6439470301844588
2.763726529641502   -0.15752035149919663   -0.016545407912145843
2.763726529641502   -0.15752035149919663   -0.016545407912145843
2.763726529641502   -0.15752035149919663   -0.016545407912145843
2.763726529641502   -0.15752035149919663   -0.016545407912145843
4.590059035099378   0.6492562217784108   0.5185911172471676
4.590059035099378   0.6492562217784108   0.5185911172471676
4.590059035099378   0.6492562217784108   0.5185911172471676
4.590059035099378   0.6492562217784108   0.5185911172471676
3.1094885350264088   0.7773721337566022   0.7773721337566022
3.1094885350264088   0.7773721337566022   0.7773721337566022
3.1094885350264088   0.7773721337566022   0.7773721337566022
3.1094885350264088   0.7773721337566022   0.7773721337566022
6.093332272220417   0.5723607017961698   0.3032541159857637
6.093332272220417   0.5723607017961698   0.3032541159857637
6.093332272220417   0.5723607017961698   0.3032541159857637
6.093332272220417   0.5723607017961698   0.3032541159857637
6.3779836597202015   1.5944959149300504   1.5944959149300504
6.3779836597202015   1.5944959149300504   1.5944959149300504
6.3779836597202015   1.5944959149300504   1.5944959149300504
6.3779836597202015   1.5944959149300504   1.5944959149300504
2.772308210989258   -0.08747844716505038   0.021419251948427004
2.772308210989258   -0.08747844716505038   0.021419251948427004
2.772308210989258   -0.08747844716505038   0.021419251948427004
2.772308210989258   -0.08747844716505038   0.021419251948427004
4.452638990311313   0.6676463059010858   0.2487362074756148
4.452638990311313   0.6676463059010858   0.2487362074756148
4.452638990311313   0.6676463059010858   0.2487362074756148
4.452638990311313   0.6676463059010858   0.2487362074756148
3.0950222778139804   0.7737555694534951   0.7737555694534951
3.0950222778139804   0.7737555694534951   0.7737555694534951
3.0950222778139804   0.7737555694534951   0.7737555694534951
3.0950222778139804   0.7737555694534951   0.7737555694534951
5.895918776705046   0.5739110821210911   0.2047563326633306
5.895918776705046   0.5739110821210911   0.2047563326633306
5.895918776705046   0.5739110821210911   0.2047563326633306
5.895918776705046   0.5739110821210911   0.2047563326633306
6.084311380266635   1.5210778450666587   1.5210778450666587
6.084311380266635   1.5210778450666587   1.5210778450666587
6.084311380266635   1.5210778450666587   1.5210778450666587
6.084311380266635   1.5210778450666587   1.5210778450666587
2.8737352147891215   0.08916906484499898   0.08713821494282983
2.8737352147891215   0.08916906484499898   0.08713821494282983
2.8737352147891215   0.08916906484499898   0.08713821494282983
2.8737352147891215   0.08916906484499898   0.08713821494282983
4.262402925786845   0.7234880283375441   -0.0649741300847303
4.262402925786845   0.7234880283375441   -0.0649741300847303
4.262402925786845   0.7234880283375441   -0.0649741300847303
4.262402925786845   0.7234880283375441   -0.0649741300847303
-6.243806838873492   -0.44693084554482876   0.06901027360537573
-6.243806838873492   -0.44693084554482876   0.06901027360537573
-6.243806838873492   -0.44693084554482876   0.06901027360537573
-6.243806838873492   -0.44693084554482876   0.06901027360537573
-3.9730181253397756   -0.0904429059209867   -0.02524570427461162
-3.9730181253397756   -0.0904429059209867   -0.02524570427461162
-3.9730181253397756   -0.0904429059209867   -0.02524570427461162
-3.9730181253397756   -0.0904429059209867   -0.02524570427461162
-4.000971696208014   0.16125459235468298   0.08275302514785221
-4.000971696208014   0.16125459235468298   0.08275302514785221
-4.000971696208014   0.16125459235468298   0.08275302514785221
-4.000971696208014   0.16125459235468298   0.08275302514785221
-6.337290043492927   -0.4316399326516802   -0.07447536775830094
-6.337290043492927   -0.4316399326516802   -0.07447536775830094
-6.337290043492927   -0.4316399326516802   -0.07447536775830094
-6.337290043492927   -0.4316399326516802   -0.07447536775830094
-4.936427491326608   -0.1681978386127979   -0.0189114109339569
-4.936427491326608   -0.1681978386127979   -0.0189114109339569
-4.936427491326608   -0.1681978386127979   -0.0189114109339569
-4.936427491326608   -0.1681978386127979   -0.0189114109339569
-6.291804372665822   -0.3076666143511162   0.028979668076664522
-6.291804372665822   -0.3076666143511162   0.028979668076664522
-6.291804372665822   -0.3076666143511162   0.028979668076664522
-6.291804372665822   -0.3076666143511162   0.028979668076664522
-4.053168412956697   0.03057022813255661   -0.047546194373362466
-4.053168412956697   0.03057022813255661   -0.047546194373362466
-4.053168412956697   0.03057022813255661   -0.047546194373362466
-4.053168412956697   0.03057022813255661   -0.047546194373362466
-4.006410362399567   0.22971194712386267   0.09444637142664908
-4.006410362399567   0.22971194712386267   0.09444637142664908
-4.006410362399567   0.22971194712386267   0.09444637142664908
-4.006410362399567   0.22971194712386267   0.09444637142664908
-6.376646240859369   -0.38044767430737103   -0.09838277359832676
-6.376646240859369   -0.38044767430737103   -0.09838277359832676
-6.376646240859369   -0.38044767430737103   -0.09838277359832676
-6.376646240859369   -0.38044767430737103   -0.09838277359832676
-5.075890616312497   -0.11287197444193131   -0.04781874575577394
-5.075890616312497   -0.11287197444193131   -0.04781874575577394
-5.075890616312497   -0.11287197444193131   -0.04781874575577394
-5.075890616312497   -0.11287197444193131   -0.04781874575577394
-6.262817021813865   -0.185329607983312   0.27564525530507417
-6.262817021813865   -0.185329607983312   0.27564525530507417
-6.262817021813865   -0.185329607983312   0.27564525530507417
-6.262817021813865   -0.185329607983312   0.27564525530507417
-4.072663275599883   0.08217018664498787   -0.08927643409601899
-4.072663275599883   0.08217018664498787   -0.08927643409601899
-4.072663275599883   0.08217018664498787   -0.08927643409601899
-4.072663275599883   0.08217018664498787   -0.08927643409601899
-3.9342892171747255   0.3999184994489503   0.17220869635353786
-3.9342892171747255   0.3999184994489503   0.17220869635353786
-3.9342892171747255   0.3999184994489503   0.17220869635353786
-3.9342892171747255   0.3999184994489503   0.17220869635353786
-6.2018249021172585   -0.30755720274268095   -0.1612488108169996
-6.2018249021172585   -0.30755720274268095   -0.1612488108169996
-6.2018249021172585   -0.30755720274268095   -0.1612488108169996
-6.2018249021172585   -0.30755720274268095   -0.1612488108169996
-4.882816707804946   0.044916098839263396   0.10799100112330545
-4.882816707804946   0.044916098839263396   0.10799100112330545
-4.882816707804946   0.044916098839263396   0.10799100112330545
-4.882816707804946   0.044916098839263396   0.10799100112330545
-4.072081531424866   -0.5394048168788286   -0.07160082374222045
-4.072081531424866   -0.5394048168788286   -0.07160082374222045
-4.072081531424866   -0.5394048168788286   -0.07160082374222045
-4.072081531424866   -0.5394048168788286   -0.07160082374222045
-1.8743779678694819   -0.04086943923936204   0.020085617358831243
-1.8743779678694819   -0.04086943923936204   0.020085617358831243
-1.8743779678694819   -0.04086943923936204   0.020085617358831243
-1.8743779678694819   -0.04086943923936204   0.020085617358831243
-1.9025400145320672   0.0364873093198706   0.028062170571328357
-1.9025400145320672   0.0364873093198706   0.028062170571328357
-1.9025400145320672   0.0364873093198706   0.028062170571328357
-1.9025400145320672   0.0364873093198706   0.028062170571328357
-4.1532011448868875   -0.39495491574333164   -0.12218471014850307
-4.1532011448868875   -0.39495491574333164   -0.12218471014850307
-4.1532011448868875   -0.39495491574333164   -0.12218471014850307
-4.1532011448868875   -0.39495491574333164   -0.12218471014850307
-3.0004074871725788   -0.2432290905375185   -0.06845198183591641
-3.0004074871725788   -0.2432290905375185   -0.06845198183591641
-3.0004074871725788   -0.2432290905375185   -0.06845198183591641
-3.0004074871725788   -0.2432290905375185   -0.06845198183591641
-4.149423318400074   -0.4317932368829596   -0.06645725657481678
-4.149423318400074   -0.4317932368829596   -0.06645725657481678
-4.149423318400074   -0.4317932368829596   -0.06645725657481678
-4.149423318400074   -0.4317932368829596   -0.06645725657481678
-1.8989021798776986   0.080741291600685   0.0019973615623758156
-1.8989021798776986   0.080741291600685   0.0019973615623758156
-1.8989021798776986   0.080741291600685   0.0019973615623758156
-1.8989021798776986   0.080741291600685   0.0019973615623758156
-1.895980000095803   0.13223894224963728   0.03835579962658986
-1.895980000095803   0.13223894224963728   0.03835579962658986
-1.895980000095803   0.13223894224963728   0.03835579962658986
-1.895980000095803   0.13223894224963728   0.03835579962658986
-4.155616316595378   -0.28976802641744037   -0.13210342601110014
-4.155616316595378   -0.28976802641744037   -0.13210342601110014
-4.155616316595378   -0.28976802641744037   -0.13210342601110014
-4.155616316595378   -0.28976802641744037   -0.13210342601110014
-2.995204655746464   -0.13550423125619948   -0.03251825364030006
-2.995204655746464   -0.13550423125619948   -0.03251825364030006
-2.995204655746464   -0.13550423125619948   -0.03251825364030006
-2.995204655746464   -0.13550423125619948   -0.03251825364030006
-4.1394781894990285   -0.3269733491214045   -0.014207467825393671
-4.1394781894990285   -0.3269733491214045   -0.014207467825393671
-4.1394781894990285   -0.3269733491214045   -0.014207467825393671
-4.1394781894990285   -0.3269733491214045   -0.014207467825393671
-1.898356487121557   0.18320590502420092   -0.024493598276713435
-1.898356487121557   0.18320590502420092   -0.024493598276713435
-1.898356487121557   0.18320590502420092   -0.024493598276713435
-1.898356487121557   0.18320590502420092   -0.024493598276713435
-1.8648087769161543   0.22848565257339115   0.07738961365153932
-1.8648087769161543   0.22848565257339115   0.07738961365153932
-1.8648087769161543   0.22848565257339115   0.07738961365153932
-1.8648087769161543   0.22848565257339115   0.07738961365153932
-4.111800520645981   -0.16824283426630138   -0.14718648728749806
-4.111800520645981   -0.16824283426630138   -0.14718648728749806
-4.111800520645981   -0.16824283426630138   -0.14718648728749806
-4.111800520645981   -0.16824283426630138   -0.14718648728749806
-2.9833561201961394   -0.03357554662578688   0.015008142522928425
-2.9833561201961394   -0.03357554662578688   0.015008142522928425
-2.9833561201961394   -0.03357554662578688   0.015008142522928425
-2.9833561201961394   -0.03357554662578688   0.015008142522928425
-1.976789877212706   -0.44896508730657814   -0.08387828129008909
-1.976789877212706   -0.44896508730657814   -0.08387828129008909
-1.976789877212706   -0.44896508730657814   -0.08387828129008909
-1.976789877212706   -0.44896508730657814   -0.08387828129008909
0.20817146513988494   0.04735338632029981   0.07701382969055548
0.20817146513988494   0.04735338632029981   0.07701382969055548
0.20817146513988494   0.04735338632029981   0.07701382969055548
0.20817146513988494   0.04735338632029981   0.07701382969055548
0.19823274634503324   0.11368784627416031   0.006063244696845174
0.19823274634503324   0.11368784627416031   0.006063244696845174
0.19823274634503324   0.11368784627416031   0.006063244696845174
0.19823274634503324   0.11368784627416031   0.006063244696845174
-1.9856881572573757   -0.29765725088705575   -0.05353398284828625
-1.9856881572573757   -0.29765725088705575   -0.05353398284828625
-1.9856881572573757   -0.29765725088705575   -0.05353398284828625
-1.9856881572573757   -0.29765725088705575   -0.05353398284828625
-0.8976054469624531   -0.14863185643117102   -0.02822738289747076
-0.8976054469624531   -0.14863185643117102   -0.02822738289747076
-0.8976054469624531   -0.14863185643117102   -0.02822738289747076
-0.8976054469624531   -0.14863185643117102   -0.02822738289747076
-1.999407495216562   -0.34250869640315196   -0.07727922712812094
-1.999407495216562   -0.34250869640315196   -0.07727922712812094
-1.999407495216562   -0.34250869640315196   -0.07727922712812094
-1.999407495216562   -0.34250869640315196   -0.07727922712812094
0.21962271899971836   0.16620992648575292   0.06049102775867825
0.21962271899971836   0.16620992648575292   0.06049102775867825
0.21962271899971836   0.16620992648575292   0.06049102775867825
0.21962271899971836   0.16620992648575292   0.06049102775867825
0.21316622474584854   0.21914528738393663   0.035855637304121266
0.21316622474584854   0.21914528738393663   0.035855637304121266
0.21316622474584854   0.21914528738393663   0.035855637304121266
0.21316622474584854   0.21914528738393663   0.035855637304121266
-1.979854196027267   -0.18202911482785022   -0.06674712295324495
-1.979854196027267   -0.18202911482785022   -0.06674712295324495
-1.979854196027267   -0.18202911482785022   -0.06674712295324495
-1.979854196027267   -0.18202911482785022   -0.06674712295324495
-0.8840933433603984   -0.03652055002636154   0.010704441555803072
-0.8840933433603984   -0.03652055002636154   0.010704441555803072
-0.8840933433603984   -0.03652055002636154   0.010704441555803072
-0.8840933433603984   -0.03652055002636154   0.010704441555803072
-1.9851112889972664   -0.23557806945977378   -0.03948363317131609
-1.9851112889972664   -0.23557806945977378   -0.03948363317131609
-1.9851112889972664   -0.23557806945977378   -0.03948363317131609
-1.9851112889972664   -0.23557806945977378   -0.03948363317131609
0.2266713190744615   0.28094224337447404   0.04158415295664745
0.2266713190744615   0.28094224337447404   0.04158415295664745
0.2266713190744615   0.28094224337447404   0.04158415295664745
0.2266713190744615   0.28094224337447404   0.04158415295664745
0.21754771286176983   0.3365158196462603   0.05912398984823044
0.21754771286176983   0.3365158196462603   0.05912398984823044
0.21754771286176983   0.3365158196462603   0.05912398984823044
0.21754771286176983   0.3365158196462603   0.05912398984823044
-1.9544651515067286   -0.05837507880778492   -0.0840315279201456
-1.9544651515067286   -0.05837507880778492   -0.0840315279201456
-1.9544651515067286   -0.05837507880778492   -0.0840315279201456
-1.9544651515067286   -0.05837507880778492   -0.0840315279201456
-0.8624727576801653   0.08072416037711111   0.053323903218049154
-0.8624727576801653   0.08072416037711111   0.053323903218049154
-0.8624727576801653   0.08072416037711111   0.053323903218049154
-0.8624727576801653   0.08072416037711111   0.053323903218049154
0.09696614230940344   -0.3289431273136991   -0.10271627082785306
0.09696614230940344   -0.3289431273136991   -0.10271627082785306
0.09696614230940344   -0.3289431273136991   -0.10271627082785306
0.09696614230940344   -0.3289431273136991   -0.10271627082785306
2.360388658450094   0.16325805303044932   0.14114963665584684
2.360388658450094   0.16325805303044932   0.14114963665584684
2.360388658450094   0.16325805303044932   0.14114963665584684
2.360388658450094   0.16325805303044932   0.14114963665584684
2.35709109230409   0.21955447650707227   -0.02245752977837351
2.35709109230409   0.21955447650707227   -0.02245752977837351
2.35709109230409   0.21955447650707227   -0.02245752977837351
2.35709109230409   0.21955447650707227   -0.02245752977837351
0.1374458170844828   -0.1979846484559681   0.013801093124221453
0.1374458170844828   -0.1979846484559681   0.013801093124221453
0.1374458170844828   -0.1979846484559681   0.013801093124221453
0.1374458170844828   -0.1979846484559681   0.013801093124221453
1.2227528580719527   -0.027946357530575616   0.0027720753903849177
1.2227528580719527   -0.027946357530575616   0.0027720753903849177
1.2227528580719527   -0.027946357530575616   0.0027720753903849177
1.2227528580719527   -0.027946357530575616   0.0027720753903849177
0.11087533652317244   -0.24050363360091348   -0.07653232453738398
0.11087533652317244   -0.24050363360091348   -0.07653232453738398
0.11087533652317244   -0.24050363360091348   -0.07653232453738398
0.11087533652317244   -0.24050363360091348   -0.07653232453738398
2.3974138899047253   0.2758257786913393   0.12288515604051592
2.3974138899047253   0.2758257786913393   0.12288515604051592
2.3974138899047253   0.2758257786913393   0.12288515604051592
2.3974138899047253   0.2758257786913393   0.12288515604051592
2.3751080964383964   0.32382125379058946   0.02423916922938433
2.3751080964383964   0.32382125379058946   0.02423916922938433
2.3751080964383964   0.32382125379058946   0.02423916922938433
2.3751080964383964   0.32382125379058946   0.02423916922938433
0.14177964413251953   -0.09467700488889591   -0.007254973489691289
0.14177964413251953   -0.09467700488889591   -0.007254973489691289
0.14177964413251953   -0.09467700488889591   -0.007254973489691289
0.14177964413251953   -0.09467700488889591   -0.007254973489691289
1.238509835109636   0.07174108998924192   0.050615130972662604
1.238509835109636   0.07174108998924192   0.050615130972662604
1.238509835109636   0.07174108998924192   0.050615130972662604
1.238509835109636   0.07174108998924192   0.050615130972662604
0.12247978978794533   -0.14269874283805883   -0.0557325072633983
0.12247978978794533   -0.14269874283805883   -0.0557325072633983
0.12247978978794533   -0.14269874283805883   -0.0557325072633983
0.12247978978794533   -0.14269874283805883   -0.0557325072633983
2.4043541285761045   0.38178916953287867   0.11250141417559628
2.4043541285761045   0.38178916953287867   0.11250141417559628
2.4043541285761045   0.38178916953287867   0.11250141417559628
2.4043541285761045   0.38178916953287867   0.11250141417559628
2.3365146661306846   0.44417594832291785   0.05069548190672624
2.3365146661306846   0.44417594832291785   0.05069548190672624
2.3365146661306846   0.44417594832291785   0.05069548190672624
2.3365146661306846   0.44417594832291785   0.05069548190672624
0.14004201517179088   0.033367897952814536   -0.02525657690821858
0.14004201517179088   0.033367897952814536   -0.02525657690821858
0.14004201517179088   0.033367897952814536   -0.02525657690821858
0.14004201517179088   0.033367897952814536   -0.02525657690821858
1.2562730164074254   0.1857271456726339   0.0948680983965258
1.2562730164074254   0.1857271456726339   0.0948680983965258
1.2562730164074254   0.1857271456726339   0.0948680983965258
1.2562730164074254   0.1857271456726339   0.0948680983965258
2.1750263704291797   -0.43301865080292085   -0.18938509961535357
2.1750263704291797   -0.43301865080292085   -0.18938509961535357
2.1750263704291797   -0.43301865080292085   -0.18938509961535357
2.1750263704291797   -0.43301865080292085   -0.18938509961535357
4.4758101307774245   0.29560173363003783   0.13694417911373508
4.4758101307774245   0.29560173363003783   0.13694417911373508
4.4758101307774245   0.29560173363003783   0.13694417911373508
4.4758101307774245   0.29560173363003783   0.13694417911373508
4.525818100467925   0.14124322332457762   -0.2848191046196976
4.525818100467925   0.14124322332457762   -0.2848191046196976
4.525818100467925   0.14124322332457762   -0.2848191046196976
4.525818100467925   0.14124322332457762   -0.2848191046196976
2.316070453055167   -0.08970052873894152   0.08169427922298247
2.316070453055167   -0.08970052873894152   0.08169427922298247
2.316070453055167   -0.08970052873894152   0.08169427922298247
2.316070453055167   -0.08970052873894152   0.08169427922298247
3.2055990491090665   -0.05536447974072056   -0.07971838126884415
3.2055990491090665   -0.05536447974072056   -0.07971838126884415
3.2055990491090665   -0.05536447974072056   -0.07971838126884415
3.2055990491090665   -0.05536447974072056   -0.07971838126884415
2.2356065375477594   -0.2849170281217569   -0.12540879893121204
2.2356065375477594   -0.2849170281217569   -0.12540879893121204
2.2356065375477594   -0.2849170281217569   -0.12540879893121204
2.2356065375477594   -0.2849170281217569   -0.12540879893121204
4.647251765176634   0.3774294719086996   0.086162970339722
4.647251765176634   0.3774294719086996   0.086162970339722
4.647251765176634   0.3774294719086996   0.086162970339722
4.647251765176634   0.3774294719086996   0.086162970339722
4.574762582740981   0.2559814420226424   -0.0637356738648309
4.574762582740981   0.2559814420226424   -0.0637356738648309
4.574762582740981   0.2559814420226424   -0.0637356738648309
4.574762582740981   0.2559814420226424   -0.0637356738648309
2.3062101878485137   -0.03825698318373805   0.04182786325425811
2.3062101878485137   -0.03825698318373805   0.04182786325425811
2.3062101878485137   -0.03825698318373805   0.04182786325425811
2.3062101878485137   -0.03825698318373805   0.04182786325425811
3.372385660492903   0.08418253778198315   0.05529389307481522
3.372385660492903   0.08418253778198315   0.05529389307481522
3.372385660492903   0.08418253778198315   0.05529389307481522
3.372385660492903   0.08418253778198315   0.05529389307481522
2.2417548518336234   -0.218011774488868   -0.10069402551504236
2.2417548518336234   -0.218011774488868   -0.10069402551504236
2.2417548518336234   -0.218011774488868   -0.10069402551504236
2.2417548518336234   -0.218011774488868   -0.10069402551504236
4.633726335892672   0.4302446504645807   0.05681988345169306
4.633726335892672   0.4302446504645807   0.05681988345169306
4.633726335892672   0.4302446504645807   0.05681988345169306
4.633726335892672   0.4302446504645807   0.05681988345169306
4.566073668370735   0.3906355536325057   -0.09786779470125015
4.566073668370735   0.3906355536325057   -0.09786779470125015
4.566073668370735   0.3906355536325057   -0.09786779470125015
4.566073668370735   0.3906355536325057   -0.09786779470125015
2.2582556847304   0.08054385977358369   0.02303266345459634
2.2582556847304   0.08054385977358369   0.02303266345459634
2.2582556847304   0.08054385977358369   0.02303266345459634
2.2582556847304   0.08054385977358369   0.02303266345459634
3.2854344995956626   0.14716397792815916   0.040615099770854174
3.2854344995956626   0.14716397792815916   0.040615099770854174
3.2854344995956626   0.14716397792815916   0.040615099770854174
3.2854344995956626   0.14716397792815916   0.040615099770854174
-4.915424533615424   -0.2235728151788432   0.2515111577117689
-4.915424533615424   -0.2235728151788432   0.2515111577117689
-4.915424533615424   -0.2235728151788432   0.2515111577117689
-4.915424533615424   -0.2235728151788432   0.2515111577117689
-3.2620484140524613   -0.12294424265328185   -0.06544494375868634
-3.2620484140524613   -0.12294424265328185   -0.06544494375868634
-3.2620484140524613   -0.12294424265328185   -0.06544494375868634
-3.2620484140524613   -0.12294424265328185   -0.06544494375868634
-3.1452672428488917   0.26389407469827075   0.21117186834741813
-3.1452672428488917   0.26389407469827075   0.21117186834741813
-3.1452672428488917   0.26389407469827075   0.21117186834741813
-3.1452672428488917   0.26389407469827075   0.21117186834741813
-4.938359667115391   -0.35221498384425765   -0.10264137615086277
-4.938359667115391   -0.35221498384425765   -0.10264137615086277
-4.938359667115391   -0.35221498384425765   -0.10264137615086277
-4.938359667115391   -0.35221498384425765   -0.10264137615086277
-3.9000439580982986   -0.06032273819273393   -0.006505728041359876
-3.9000439580982986   -0.06032273819273393   -0.006505728041359876
-3.9000439580982986   -0.06032273819273393   -0.006505728041359876
-3.9000439580982986   -0.06032273819273393   -0.006505728041359876
-4.801612339286634   -0.053194385357523744   0.2820746645061883
-4.801612339286634   -0.053194385357523744   0.2820746645061883
-4.801612339286634   -0.053194385357523744   0.2820746645061883
-4.801612339286634   -0.053194385357523744   0.2820746645061883
-3.260461571825685   -0.013573524936499548   -0.08733217690177875
-3.260461571825685   -0.013573524936499548   -0.08733217690177875
-3.260461571825685   -0.013573524936499548   -0.08733217690177875
-3.260461571825685   -0.013573524936499548   -0.08733217690177875
-3.1327307296802163   0.327184835395009   0.1958642637344204
-3.1327307296802163   0.327184835395009   0.1958642637344204
-3.1327307296802163   0.327184835395009   0.1958642637344204
-3.1327307296802163   0.327184835395009   0.1958642637344204
-4.862548767557336   -0.2948769042779479   -0.14064221231200244
-4.862548767557336   -0.2948769042779479   -0.14064221231200244
-4.862548767557336   -0.2948769042779479   -0.14064221231200244
-4.862548767557336   -0.2948769042779479   -0.14064221231200244
-3.9089024365103446   0.014047159211689642   0.04539195369064922
-3.9089024365103446   0.014047159211689642   0.04539195369064922
-3.9089024365103446   0.014047159211689642   0.04539195369064922
-3.9089024365103446   0.014047159211689642   0.04539195369064922
-4.735165010616174   0.006504216736754165   0.1948954513791043
-4.735165010616174   0.006504216736754165   0.1948954513791043
-4.735165010616174   0.006504216736754165   0.1948954513791043
-4.735165010616174   0.006504216736754165   0.1948954513791043
-3.2530072761413935   0.03291092486029501   -0.1112445580367297
-3.2530072761413935   0.03291092486029501   -0.1112445580367297
-3.2530072761413935   0.03291092486029501   -0.1112445580367297
-3.2530072761413935   0.03291092486029501   -0.1112445580367297
-3.136025446467692   0.3689331973238712   0.155403733866195
-3.136025446467692   0.3689331973238712   0.155403733866195
-3.136025446467692   0.3689331973238712   0.155403733866195
-3.136025446467692   0.3689331973238712   0.155403733866195
-4.763960899343298   -0.23412426596755997   -0.17944440540377787
-4.763960899343298   -0.23412426596755997   -0.17944440540377787
-4.763960899343298   -0.23412426596755997   -0.17944440540377787
-4.763960899343298   -0.23412426596755997   -0.17944440540377787
-3.7970290686435177   0.08056270838265833   0.0938627159621892
-3.7970290686435177   0.08056270838265833   0.0938627159621892
-3.7970290686435177   0.08056270838265833   0.0938627159621892
-3.7970290686435177   0.08056270838265833   0.0938627159621892
-3.272235215066656   -0.3102688753726258   0.07094568388968597
-3.272235215066656   -0.3102688753726258   0.07094568388968597
-3.272235215066656   -0.3102688753726258   0.07094568388968597
-3.272235215066656   -0.3102688753726258   0.07094568388968597
-1.650298963325822   -0.0591156766724254   0.0032699137523143768
-1.650298963325822   -0.0591156766724254   0.0032699137523143768
-1.650298963325822   -0.0591156766724254   0.0032699137523143768
-1.650298963325822   -0.0591156766724254   0.0032699137523143768
-1.6038820055368905   0.1623099934281383   0.11482069635884956
-1.6038820055368905   0.1623099934281383   0.11482069635884956
-1.6038820055368905   0.1623099934281383   0.11482069635884956
-1.6038820055368905   0.1623099934281383   0.11482069635884956
-3.3243810396634372   -0.3059836838973633   -0.11451935712969777
-3.3243810396634372   -0.3059836838973633   -0.11451935712969777
-3.3243810396634372   -0.3059836838973633   -0.11451935712969777
-3.3243810396634372   -0.3059836838973633   -0.11451935712969777
-2.4538743945338504   -0.12040810772336863   -0.04939675880029412
-2.4538743945338504   -0.12040810772336863   -0.04939675880029412
-2.4538743945338504   -0.12040810772336863   -0.04939675880029412
-2.4538743945338504   -0.12040810772336863   -0.04939675880029412
-3.262229452215806   -0.17856054661432774   0.06881544282543506
-3.262229452215806   -0.17856054661432774   0.06881544282543506
-3.262229452215806   -0.17856054661432774   0.06881544282543506
-3.262229452215806   -0.17856054661432774   0.06881544282543506
-1.653412964251348   0.047507484878285655   -0.018031588663572837
-1.653412964251348   0.047507484878285655   -0.018031588663572837
-1.653412964251348   0.047507484878285655   -0.018031588663572837
-1.653412964251348   0.047507484878285655   -0.018031588663572837
-1.599039001936522   0.26784632237775574   0.0993910033060253
-1.599039001936522   0.26784632237775574   0.0993910033060253
-1.599039001936522   0.26784632237775574   0.0993910033060253
-1.599039001936522   0.26784632237775574   0.0993910033060253
-3.3058621002199415   -0.20742514664655587   -0.13518260692264134
-3.3058621002199415   -0.20742514664655587   -0.13518260692264134
-3.3058621002199415   -0.20742514664655587   -0.13518260692264134
-3.3058621002199415   -0.20742514664655587   -0.13518260692264134
-2.427345300394035   -0.013538430540093627   1.2718404318601273e-07
-2.427345300394035   -0.013538430540093627   1.2718404318601273e-07
-2.427345300394035   -0.013538430540093627   1.2718404318601273e-07
-2.427345300394035   -0.013538430540093627   1.2718404318601273e-07
-3.242434470062665   -0.07150407705436734   0.04603447427155272
-3.242434470062665   -0.07150407705436734   0.04603447427155272
-3.242434470062665   -0.07150407705436734   0.04603447427155272
-3.242434470062665   -0.07150407705436734   0.04603447427155272
-1.652187978365754   0.14220390651362208   -0.04071146297596953
-1.652187978365754   0.14220390651362208   -0.04071146297596953
-1.652187978365754   0.14220390651362208   -0.04071146297596953
-1.652187978365754   0.14220390651362208   -0.04071146297596953
-1.598795742346147   0.3786988466519517   0.07451713900391876
-1.598795742346147   0.3786988466519517   0.07451713900391876
-1.598795742346147   0.3786988466519517   0.07451713900391876
-1.598795742346147   0.3786988466519517   0.07451713900391876
-3.290221111947311   -0.10114323836505634   -0.14549815784298342
-3.290221111947311   -0.10114323836505634   -0.14549815784298342
-3.290221111947311   -0.10114323836505634   -0.14549815784298342
-3.290221111947311   -0.10114323836505634   -0.14549815784298342
-2.429208067716079   0.08437561016845674   0.03771195857183249
-2.429208067716079   0.08437561016845674   0.03771195857183249
-2.429208067716079   0.08437561016845674   0.03771195857183249
-2.429208067716079   0.08437561016845674   0.03771195857183249
-1.7119632824534377   -0.3540915007067638   -0.010075857851440249
-1.7119632824534377   -0.3540915007067638   -0.010075857851440249
-1.7119632824534377   -0.3540915007067638   -0.010075857851440249
-1.7119632824534377   -0.3540915007067638   -0.010075857851440249
-0.0536375306171251   0.018241162024338467   0.07313145723806178
-0.0536375306171251   0.018241162024338467   0.07313145723806178
-0.0536375306171251   0.018241162024338467   0.07313145723806178
-0.0536375306171251   0.018241162024338467   0.07313145723806178
-0.060125087138388586   0.10514471677142087   0.03491278532512498
-0.060125087138388586   0.10514471677142087   0.03491278532512498
-0.060125087138388586   0.10514471677142087   0.03491278532512498
-0.060125087138388586   0.10514471677142087   0.03491278532512498
-1.7133460352449685   -0.2272275778803097   -0.042961880873091794
-1.7133460352449685   -0.2272275778803097   -0.042961880873091794
-1.7133460352449685   -0.2272275778803097   -0.042961880873091794
-1.7133460352449685   -0.2272275778803097   -0.042961880873091794
-0.8874656722415001   -0.11079404807534801   -0.02758004333127715
-0.8874656722415001   -0.11079404807534801   -0.02758004333127715
-0.8874656722415001   -0.11079404807534801   -0.02758004333127715
-0.8874656722415001   -0.11079404807534801   -0.02758004333127715
-1.711504404895916   -0.23692497103894525   -0.024056335969193703
-1.711504404895916   -0.23692497103894525   -0.024056335969193703
-1.711504404895916   -0.23692497103894525   -0.024056335969193703
-1.711504404895916   -0.23692497103894525   -0.024056335969193703
-0.05255311669526567   0.12425571072223446   0.05366164358992622
-0.05255311669526567   0.12425571072223446   0.05366164358992622
-0.05255311669526567   0.12425571072223446   0.05366164358992622
-0.05255311669526567   0.12425571072223446   0.05366164358992622
-0.05255577146443413   0.2201486078636509   0.016843065941427343
-0.05255577146443413   0.2201486078636509   0.016843065941427343
-0.05255577146443413   0.2201486078636509   0.016843065941427343
-0.05255577146443413   0.2201486078636509   0.016843065941427343
-1.7092791149056232   -0.12104743615968738   -0.06291580300202246
-1.7092791149056232   -0.12104743615968738   -0.06291580300202246
-1.7092791149056232   -0.12104743615968738   -0.06291580300202246
-1.7092791149056232   -0.12104743615968738   -0.06291580300202246
-0.8790727654746915   -0.004417062171905406   0.012318416628687823
-0.8790727654746915   -0.004417062171905406   0.012318416628687823
-0.8790727654746915   -0.004417062171905406   0.012318416628687823
-0.8790727654746915   -0.004417062171905406   0.012318416628687823
-1.7066995003283654   -0.12355148696042084   -0.047513679315000196
-1.7066995003283654   -0.12355148696042084   -0.047513679315000196
-1.7066995003283654   -0.12355148696042084   -0.047513679315000196
-1.7066995003283654   -0.12355148696042084   -0.047513679315000196
-0.047360221431911056   0.23042782327416536   0.03254160069352902
-0.047360221431911056   0.23042782327416536   0.03254160069352902
-0.047360221431911056   0.23042782327416536   0.03254160069352902
-0.047360221431911056   0.23042782327416536   0.03254160069352902
-0.051135072093249134   0.33860846652977306   -0.002443880645834881
-0.051135072093249134   0.33860846652977306   -0.002443880645834881
-0.051135072093249134   0.33860846652977306   -0.002443880645834881
-0.051135072093249134   0.33860846652977306   -0.002443880645834881
-1.7086587109650315   -0.01304372220000527   -0.0830551352385505
-1.7086587109650315   -0.01304372220000527   -0.0830551352385505
-1.7086587109650315   -0.01304372220000527   -0.0830551352385505
-1.7086587109650315   -0.01304372220000527   -0.0830551352385505
-0.872608440603165   0.10205943635101067   0.0489018776051825
-0.872608440603165   0.10205943635101067   0.0489018776051825
-0.872608440603165   0.10205943635101067   0.0489018776051825
-0.872608440603165   0.10205943635101067   0.0489018776051825
-0.16633026790851146   -0.38727822750945606   -0.08481283968507498
-0.16633026790851146   -0.38727822750945606   -0.08481283968507498
-0.16633026790851146   -0.38727822750945606   -0.08481283968507498
-0.16633026790851146   -0.38727822750945606   -0.08481283968507498
1.5374559412313091   0.10887407138672434   0.13899311616699678
1.5374559412313091   0.10887407138672434   0.13899311616699678
1.5374559412313091   0.10887407138672434   0.13899311616699678
1.5374559412313091   0.10887407138672434   0.13899311616699678
1.4872433286288895   0.05832127838038764   -0.054466784238406396
1.4872433286288895   0.05832127838038764   -0.054466784238406396
1.4872433286288895   0.05832127838038764   -0.054466784238406396
1.4872433286288895   0.05832127838038764   -0.054466784238406396
-0.11063989392735873   -0.14216607001621123   0.029649538167906657
-0.11063989392735873   -0.14216607001621123   0.029649538167906657
-0.11063989392735873   -0.14216607001621123   0.029649538167906657
-0.11063989392735873   -0.14216607001621123   0.029649538167906657
0.6772332781144821   -0.08920969033472295   -0.015489308260869604
0.6772332781144821   -0.08920969033472295   -0.015489308260869604
0.6772332781144821   -0.08920969033472295   -0.015489308260869604
0.6772332781144821   -0.08920969033472295   -0.015489308260869604
-0.16595996724081005   -0.28270783635748603   -0.10640906205807522
-0.16595996724081005   -0.28270783635748603   -0.10640906205807522
-0.16595996724081005   -0.28270783635748603   -0.10640906205807522
-0.16595996724081005   -0.28270783635748603   -0.10640906205807522
1.5532677348512198   0.2095673776305466   0.12440914762308655
1.5532677348512198   0.2095673776305466   0.12440914762308655
1.5532677348512198   0.2095673776305466   0.12440914762308655
1.5532677348512198   0.2095673776305466   0.12440914762308655
1.5108554684794933   0.16528210196028878   -0.07653526359074142
1.5108554684794933   0.16528210196028878   -0.07653526359074142
1.5108554684794933   0.16528210196028878   -0.07653526359074142
1.5108554684794933   0.16528210196028878   -0.07653526359074142
-0.10768790022464217   -0.04704376227963672   0.008374792283676684
-0.10768790022464217   -0.04704376227963672   0.008374792283676684
-0.10768790022464217   -0.04704376227963672   0.008374792283676684
-0.10768790022464217   -0.04704376227963672   0.008374792283676684
0.6828209230271399   0.006953563601340862   0.024128670744855488
0.6828209230271399   0.006953563601340862   0.024128670744855488
0.6828209230271399   0.006953563601340862   0.024128670744855488
0.6828209230271399   0.006953563601340862   0.024128670744855488
-0.16148247873677798   -0.17950567273012102   -0.12813618982651948
-0.16148247873677798   -0.17950567273012102   -0.12813618982651948
-0.16148247873677798   -0.17950567273012102   -0.12813618982651948
-0.16148247873677798   -0.17950567273012102   -0.12813618982651948
1.5763129772822013   0.30940694270134517   0.10662743968174257
1.5763129772822013   0.30940694270134517   0.10662743968174257
1.5763129772822013   0.30940694270134517   0.10662743968174257
1.5763129772822013   0.30940694270134517   0.10662743968174257
1.525285658246496   0.29951449915627   -0.0797672139656464
1.525285658246496   0.29951449915627   -0.0797672139656464
1.525285658246496   0.29951449915627   -0.0797672139656464
1.525285658246496   0.29951449915627   -0.0797672139656464
-0.10809241029587777   0.06422358050407782   -0.012845685633281832
-0.10809241029587777   0.06422358050407782   -0.012845685633281832
-0.10809241029587777   0.06422358050407782   -0.012845685633281832
-0.10809241029587777   0.06422358050407782   -0.012845685633281832
0.705992516590266   0.11430113604918904   0.07122577847007865
0.705992516590266   0.11430113604918904   0.07122577847007865
0.705992516590266   0.11430113604918904   0.07122577847007865
0.705992516590266   0.11430113604918904   0.07122577847007865
1.3780558835816095   -0.38430380980902096   -0.1648292908857441
1.3780558835816095   -0.38430380980902096   -0.1648292908857441
1.3780558835816095   -0.38430380980902096   -0.1648292908857441
1.3780558835816095   -0.38430380980902096   -0.1648292908857441
3.026135195216607   0.22477854329185976   0.15409572176566907
3.026135195216607   0.22477854329185976   0.15409572176566907
3.026135195216607   0.22477854329185976   0.15409572176566907
3.026135195216607   0.22477854329185976   0.15409572176566907
3.00244418846364   -0.012640113246714213   -0.21937737872436924
3.00244418846364   -0.012640113246714213   -0.21937737872436924
3.00244418846364   -0.012640113246714213   -0.21937737872436924
3.00244418846364   -0.012640113246714213   -0.21937737872436924
1.5005774596903168   -0.03276454677693591   0.10328969622606628
1.5005774596903168   -0.03276454677693591   0.10328969622606628
1.5005774596903168   -0.03276454677693591   0.10328969622606628
1.5005774596903168   -0.03276454677693591   0.10328969622606628
2.1187362857861   -0.07457333352305523   -0.06921719257981573
2.1187362857861   -0.07457333352305523   -0.06921719257981573
2.1187362857861   -0.07457333352305523   -0.06921719257981573
2.1187362857861   -0.07457333352305523   -0.06921719257981573
1.3791315184246355   -0.3339734024045816   -0.20273115447468623
1.3791315184246355   -0.3339734024045816   -0.20273115447468623
1.3791315184246355   -0.3339734024045816   -0.20273115447468623
1.3791315184246355   -0.3339734024045816   -0.20273115447468623
3.1326260367034644   0.29730464935507334   0.12158709987296508
3.1326260367034644   0.29730464935507334   0.12158709987296508
3.1326260367034644   0.29730464935507334   0.12158709987296508
3.1326260367034644   0.29730464935507334   0.12158709987296508
3.075222588561516   0.048368929619794554   -0.294054973441081
3.075222588561516   0.048368929619794554   -0.294054973441081
3.075222588561516   0.048368929619794554   -0.294054973441081
3.075222588561516   0.048368929619794554   -0.294054973441081
1.5112266930907146   0.01376291473400465   0.07684004669167714
1.5112266930907146   0.01376291473400465   0.07684004669167714
1.5112266930907146   0.01376291473400465   0.07684004669167714
1.5112266930907146   0.01376291473400465   0.07684004669167714
2.2138969120878698   -0.008690741266032809   -0.021283916314593337
2.2138969120878698   -0.008690741266032809   -0.021283916314593337
2.2138969120878698   -0.008690741266032809   -0.021283916314593337
2.2138969120878698   -0.008690741266032809   -0.021283916314593337
1.3943979345477318   -0.2730776439604964   -0.22046318732875178
1.3943979345477318   -0.2730776439604964   -0.22046318732875178
1.3943979345477318   -0.2730776439604964   -0.22046318732875178
1.3943979345477318   -0.2730776439604964   -0.22046318732875178
3.211335260553202   0.35449340176299976   0.08038391437416557
3.211335260553202   0.35449340176299976   0.08038391437416557
3.211335260553202   0.35449340176299976   0.08038391437416557
3.211335260553202   0.35449340176299976   0.08038391437416557
3.190830389395292   0.20717773002864925   -0.2763726899349678
3.190830389395292   0.20717773002864925   -0.2763726899349678
3.190830389395292   0.20717773002864925   -0.2763726899349678
3.190830389395292   0.20717773002864925   -0.2763726899349678
1.515905492243895   0.11681825086985648   0.056028204307785115
1.515905492243895   0.11681825086985648   0.056028204307785115
1.515905492243895   0.11681825086985648   0.056028204307785115
1.515905492243895   0.11681825086985648   0.056028204307785115
2.2295194658995716   0.06675828320004135   0.03164144354862884
2.2295194658995716   0.06675828320004135   0.03164144354862884
2.2295194658995716   0.06675828320004135   0.03164144354862884
2.2295194658995716   0.06675828320004135   0.03164144354862884
-3.5200562297606433   -0.11579620356811804   0.2283030673753146
-3.5200562297606433   -0.11579620356811804   0.2283030673753146
-3.5200562297606433   -0.11579620356811804   0.2283030673753146
-3.5200562297606433   -0.11579620356811804   0.2283030673753146
-2.4596911699953026   -0.1634872280393428   -0.08642107343879682
-2.4596911699953026   -0.1634872280393428   -0.08642107343879682
-2.4596911699953026   -0.1634872280393428   -0.08642107343879682
-2.4596911699953026   -0.1634872280393428   -0.08642107343879682
-2.31566748335049   0.23180806908475826   0.19478170472931589
-2.31566748335049   0.23180806908475826   0.19478170472931589
-2.31566748335049   0.23180806908475826   0.19478170472931589
-2.31566748335049   0.23180806908475826   0.19478170472931589
-3.520366949196777   -0.2895869289531733   -0.12637245693101115
-3.520366949196777   -0.2895869289531733   -0.12637245693101115
-3.520366949196777   -0.2895869289531733   -0.12637245693101115
-3.520366949196777   -0.2895869289531733   -0.12637245693101115
-2.832754500728836   -0.04533193920348089   -0.005589068310953016
-2.832754500728836   -0.04533193920348089   -0.005589068310953016
-2.832754500728836   -0.04533193920348089   -0.005589068310953016
-2.832754500728836   -0.04533193920348089   -0.005589068310953016
-3.3894089281154756   0.021557985908635224   0.21727273361368615
-3.3894089281154756   0.021557985908635224   0.21727273361368615
-3.3894089281154756   0.021557985908635224   0.21727273361368615
-3.3894089281154756   0.021557985908635224   0.21727273361368615
-2.4359861337187083   -0.06869747506396418   -0.10630600296303441
-2.4359861337187083   -0.06869747506396418   -0.10630600296303441
-2.4359861337187083   -0.06869747506396418   -0.10630600296303441
-2.4359861337187083   -0.06869747506396418   -0.10630600296303441
-2.293888782188081   0.27991974214678317   0.1646810344423986
-2.293888782188081   0.27991974214678317   0.1646810344423986
-2.293888782188081   0.27991974214678317   0.1646810344423986
-2.293888782188081   0.27991974214678317   0.1646810344423986
-3.4374646817530836   -0.23597510333940763   -0.1598571339883905
-3.4374646817530836   -0.23597510333940763   -0.1598571339883905
-3.4374646817530836   -0.23597510333940763   -0.1598571339883905
-3.4374646817530836   -0.23597510333940763   -0.1598571339883905
-2.813253577558688   0.018168017320434382   0.030161974911417033
-2.813253577558688   0.018168017320434382   0.030161974911417033
-2.813253577558688   0.018168017320434382   0.030161974911417033
-2.813253577558688   0.018168017320434382   0.030161974911417033
-3.307571949387718   0.07914432226515167   0.17448710223387867
-3.307571949387718   0.07914432226515167   0.17448710223387867
-3.307571949387718   0.07914432226515167   0.17448710223387867
-3.307571949387718   0.07914432226515167   0.17448710223387867
-2.4141489614661915   -0.02556713037051772   -0.13113298943083326
-2.4141489614661915   -0.02556713037051772   -0.13113298943083326
-2.4141489614661915   -0.02556713037051772   -0.13113298943083326
-2.4141489614661915   -0.02556713037051772   -0.13113298943083326
-2.281815867259   0.3265374263370697   0.14171902403510397
-2.281815867259   0.3265374263370697   0.14171902403510397
-2.281815867259   0.3265374263370697   0.14171902403510397
-2.281815867259   0.3265374263370697   0.14171902403510397
-3.32630884325725   -0.16520019261821928   -0.19145627327268902
-3.32630884325725   -0.16520019261821928   -0.19145627327268902
-3.32630884325725   -0.16520019261821928   -0.19145627327268902
-3.32630884325725   -0.16520019261821928   -0.19145627327268902
-2.707900434558386   0.0775626598172019   0.08045012756789682
-2.707900434558386   0.0775626598172019   0.08045012756789682
-2.707900434558386   0.0775626598172019   0.08045012756789682
-2.707900434558386   0.0775626598172019   0.08045012756789682
-2.43249842165943   -0.1991653858744799   0.08522082607568034
-2.43249842165943   -0.1991653858744799   0.08522082607568034
-2.43249842165943   -0.1991653858744799   0.08522082607568034
-2.43249842165943   -0.1991653858744799   0.08522082607568034
-1.4076144630956395   -0.10595698494022265   -0.013935918323601332
-1.4076144630956395   -0.10595698494022265   -0.013935918323601332
-1.4076144630956395   -0.10595698494022265   -0.013935918323601332
-1.4076144630956395   -0.10595698494022265   -0.013935918323601332
-1.3361638496582915   0.13557045822256925   0.10503416346481939
-1.3361638496582915   0.13557045822256925   0.10503416346481939
-1.3361638496582915   0.13557045822256925   0.10503416346481939
-1.3361638496582915   0.13557045822256925   0.10503416346481939
-2.4689344020797566   -0.23681045465369793   -0.10293436517855868
-2.4689344020797566   -0.23681045465369793   -0.10293436517855868
-2.4689344020797566   -0.23681045465369793   -0.10293436517855868
-2.4689344020797566   -0.23681045465369793   -0.10293436517855868
-1.9035259476004793   -0.09301868937273944   -0.038583838745030616
-1.9035259476004793   -0.09301868937273944   -0.038583838745030616
-1.9035259476004793   -0.09301868937273944   -0.038583838745030616
-1.9035259476004793   -0.09301868937273944   -0.038583838745030616
-2.4040751429281335   -0.08509028161599014   0.06964175754183345
-2.4040751429281335   -0.08509028161599014   0.06964175754183345
-2.4040751429281335   -0.08509028161599014   0.06964175754183345
-2.4040751429281335   -0.08509028161599014   0.06964175754183345
-1.392708398454273   -0.00783500445948404   -0.034283117833034074
-1.392708398454273   -0.00783500445948404   -0.034283117833034074
-1.392708398454273   -0.00783500445948404   -0.034283117833034074
-1.392708398454273   -0.00783500445948404   -0.034283117833034074
-1.3191578498788836   0.2341831377637944   0.08615456478802183
-1.3191578498788836   0.2341831377637944   0.08615456478802183
-1.3191578498788836   0.2341831377637944   0.08615456478802183
-1.3191578498788836   0.2341831377637944   0.08615456478802183
-2.435791042035361   -0.1436525275280386   -0.12125799511917987
-2.435791042035361   -0.1436525275280386   -0.12125799511917987
-2.435791042035361   -0.1436525275280386   -0.12125799511917987
-2.435791042035361   -0.1436525275280386   -0.12125799511917987
-1.8669947802939078   0.004022520557513565   0.0030971153424747128
-1.8669947802939078   0.004022520557513565   0.0030971153424747128
-1.8669947802939078   0.004022520557513565   0.0030971153424747128
-1.8669947802939078   0.004022520557513565   0.0030971153424747128
-2.366021456395059   0.020305820511511086   0.06363158504278041
-2.366021456395059   0.020305820511511086   0.06363158504278041
-2.366021456395059   0.020305820511511086   0.06363158504278041
-2.366021456395059   0.020305820511511086   0.06363158504278041
-1.378601637515734   0.08055058772770862   -0.05743182336013225
-1.378601637515734   0.08055058772770862   -0.05743182336013225
-1.378601637515734   0.08055058772770862   -0.05743182336013225
-1.378601637515734   0.08055058772770862   -0.05743182336013225
-1.302730380124204   0.33916916108551154   0.06857310758671836
-1.302730380124204   0.33916916108551154   0.06857310758671836
-1.302730380124204   0.33916916108551154   0.06857310758671836
-1.302730380124204   0.33916916108551154   0.06857310758671836
-2.410948191344651   -0.04335480060304675   -0.13405036945303095
-2.410948191344651   -0.04335480060304675   -0.13405036945303095
-2.410948191344651   -0.04335480060304675   -0.13405036945303095
-2.410948191344651   -0.04335480060304675   -0.13405036945303095
-1.8528881162062742   0.09521510399879557   0.042743401254467794
-1.8528881162062742   0.09521510399879557   0.042743401254467794
-1.8528881162062742   0.09521510399879557   0.042743401254467794
-1.8528881162062742   0.09521510399879557   0.042743401254467794
-1.437513419810936   -0.2725315371917447   0.0031438503514262155
-1.437513419810936   -0.2725315371917447   0.0031438503514262155
-1.437513419810936   -0.2725315371917447   0.0031438503514262155
-1.437513419810936   -0.2725315371917447   0.0031438503514262155
-0.3666737498709993   -0.031138553691801844   0.05867511381831921
-0.3666737498709993   -0.031138553691801844   0.05867511381831921
-0.3666737498709993   -0.031138553691801844   0.05867511381831921
-0.3666737498709993   -0.031138553691801844   0.05867511381831921
-0.3575414209925231   0.056527302600438145   0.020007907278202113
-0.3575414209925231   0.056527302600438145   0.020007907278202113
-0.3575414209925231   0.056527302600438145   0.020007907278202113
-0.3575414209925231   0.056527302600438145   0.020007907278202113
-1.421732042553816   -0.15972358796921368   -0.02751275482103483
-1.421732042553816   -0.15972358796921368   -0.02751275482103483
-1.421732042553816   -0.15972358796921368   -0.02751275482103483
-1.421732042553816   -0.15972358796921368   -0.02751275482103483
-0.8973784016496219   -0.09739062974906758   -0.02738674008009025
-0.8973784016496219   -0.09739062974906758   -0.02738674008009025
-0.8973784016496219   -0.09739062974906758   -0.02738674008009025
-0.8973784016496219   -0.09739062974906758   -0.02738674008009025
-1.4194321065079787   -0.16249979039208814   -0.0132368721689737
-1.4194321065079787   -0.16249979039208814   -0.0132368721689737
-1.4194321065079787   -0.16249979039208814   -0.0132368721689737
-1.4194321065079787   -0.16249979039208814   -0.0132368721689737
-0.3515062712507202   0.06763859081095284   0.039072367776702
-0.3515062712507202   0.06763859081095284   0.039072367776702
-0.3515062712507202   0.06763859081095284   0.039072367776702
-0.3515062712507202   0.06763859081095284   0.039072367776702
-0.33701379771630324   0.16705464679878057   0.00532929460102792
-0.33701379771630324   0.16705464679878057   0.00532929460102792
-0.33701379771630324   0.16705464679878057   0.00532929460102792
-0.33701379771630324   0.16705464679878057   0.00532929460102792
-1.404713651222281   -0.06027011389202769   -0.04717119027314447
-1.404713651222281   -0.06027011389202769   -0.04717119027314447
-1.404713651222281   -0.06027011389202769   -0.04717119027314447
-1.404713651222281   -0.06027011389202769   -0.04717119027314447
-0.8754576663710797   0.001982438361908312   0.011875175015565821
-0.8754576663710797   0.001982438361908312   0.011875175015565821
-0.8754576663710797   0.001982438361908312   0.011875175015565821
-0.8754576663710797   0.001982438361908312   0.011875175015565821
-1.3995068507613047   -0.052326069252069174   -0.029081232608219446
-1.3995068507613047   -0.052326069252069174   -0.029081232608219446
-1.3995068507613047   -0.052326069252069174   -0.029081232608219446
-1.3995068507613047   -0.052326069252069174   -0.029081232608219446
-0.3345253683324101   0.16680583200369242   0.018020256315585015
-0.3345253683324101   0.16680583200369242   0.018020256315585015
-0.3345253683324101   0.16680583200369242   0.018020256315585015
-0.3345253683324101   0.16680583200369242   0.018020256315585015
-0.318614366921191   0.2791845990048343   -0.011957873258193183
-0.318614366921191   0.2791845990048343   -0.011957873258193183
-0.318614366921191   0.2791845990048343   -0.011957873258193183
-0.318614366921191   0.2791845990048343   -0.011957873258193183
-1.3897501352078803   0.040345944748290674   -0.06770245149444666
-1.3897501352078803   0.040345944748290674   -0.06770245149444666
-1.3897501352078803   0.040345944748290674   -0.06770245149444666
-1.3897501352078803   0.040345944748290674   -0.06770245149444666
-0.855440607988031   0.101830921819825   0.04969969710452668
-0.855440607988031   0.101830921819825   0.04969969710452668
-0.855440607988031   0.101830921819825   0.04969969710452668
-0.855440607988031   0.101830921819825   0.04969969710452668
-0.4541470157559791   -0.33267591425317466   -0.0771538550452101
-0.4541470157559791   -0.33267591425317466   -0.0771538550452101
-0.4541470157559791   -0.33267591425317466   -0.0771538550452101
-0.4541470157559791   -0.33267591425317466   -0.0771538550452101
0.6611275358640379   0.05281934406440249   0.12727599957918456
0.6611275358640379   0.05281934406440249   0.12727599957918456
0.6611275358640379   0.05281934406440249   0.12727599957918456
0.6611275358640379   0.05281934406440249   0.12727599957918456
0.6157899649733469   -0.01690935889795786   -0.07049676514153211
0.6157899649733469   -0.01690935889795786   -0.07049676514153211
0.6157899649733469   -0.01690935889795786   -0.07049676514153211
0.6157899649733469   -0.01690935889795786   -0.07049676514153211
-0.3789525907903967   -0.07747307956960647   0.0469524404588788
-0.3789525907903967   -0.07747307956960647   0.0469524404588788
-0.3789525907903967   -0.07747307956960647   0.0469524404588788
-0.3789525907903967   -0.07747307956960647   0.0469524404588788
0.10675723586746677   -0.09097173857161933   -0.019468000564247082
0.10675723586746677   -0.09097173857161933   -0.019468000564247082
0.10675723586746677   -0.09097173857161933   -0.019468000564247082
0.10675723586746677   -0.09097173857161933   -0.019468000564247082
-0.43834464609799806   -0.23261092601138944   -0.09486998963734505
-0.43834464609799806   -0.23261092601138944   -0.09486998963734505
-0.43834464609799806   -0.23261092601138944   -0.09486998963734505
-0.43834464609799806   -0.23261092601138944   -0.09486998963734505
0.6851044958580258   0.14815096312091156   0.11101556726298488
0.6851044958580258   0.14815096312091156   0.11101556726298488
0.6851044958580258   0.14815096312091156   0.11101556726298488
0.6851044958580258   0.14815096312091156   0.11101556726298488
0.6539287133853257   0.08763559952748681   -0.07984501229070423
0.6539287133853257   0.08763559952748681   -0.07984501229070423
0.6539287133853257   0.08763559952748681   -0.07984501229070423
0.6539287133853257   0.08763559952748681   -0.07984501229070423
-0.36413410981292343   0.011469415845533182   0.02531296507117742
-0.36413410981292343   0.011469415845533182   0.02531296507117742
-0.36413410981292343   0.011469415845533182   0.02531296507117742
-0.36413410981292343   0.011469415845533182   0.02531296507117742
0.12700949432507508   -0.000934739609294799   0.02045030695847196
0.12700949432507508   -0.000934739609294799   0.02045030695847196
0.12700949432507508   -0.000934739609294799   0.02045030695847196
0.12700949432507508   -0.000934739609294799   0.02045030695847196
-0.4214487234309519   -0.1345241856769338   -0.11526650149649897
-0.4214487234309519   -0.1345241856769338   -0.11526650149649897
-0.4214487234309519   -0.1345241856769338   -0.11526650149649897
-0.4214487234309519   -0.1345241856769338   -0.11526650149649897
0.7198463705865547   0.24223224463313736   0.09514662860978157
0.7198463705865547   0.24223224463313736   0.09514662860978157
0.7198463705865547   0.24223224463313736   0.09514662860978157
0.7198463705865547   0.24223224463313736   0.09514662860978157
0.6846183802626523   0.20689198134369494   -0.09221447199369572
0.6846183802626523   0.20689198134369494   -0.09221447199369572
0.6846183802626523   0.20689198134369494   -0.09221447199369572
0.6846183802626523   0.20689198134369494   -0.09221447199369572
-0.3482912438402473   0.11411368861506418   0.0047286525362919204
-0.3482912438402473   0.11411368861506418   0.0047286525362919204
-0.3482912438402473   0.11411368861506418   0.0047286525362919204
-0.3482912438402473   0.11411368861506418   0.0047286525362919204
0.1584101159159047   0.09714716778924735   0.06183229120611032
0.1584101159159047   0.09714716778924735   0.06183229120611032
0.1584101159159047   0.09714716778924735   0.06183229120611032
0.1584101159159047   0.09714716778924735   0.06183229120611032
0.5274703728000183   -0.3361763832332495   -0.1520140884432577
0.5274703728000183   -0.3361763832332495   -0.1520140884432577
0.5274703728000183   -0.3361763832332495   -0.1520140884432577
0.5274703728000183   -0.3361763832332495   -0.1520140884432577
1.5768057208468682   0.1550655016243817   0.16441423621977014
1.5768057208468682   0.1550655016243817   0.16441423621977014
1.5768057208468682   0.1550655016243817   0.16441423621977014
1.5768057208468682   0.1550655016243817   0.16441423621977014
1.5613515469672836   -0.0812823040367388   -0.2000731773499153
1.5613515469672836   -0.0812823040367388   -0.2000731773499153
1.5613515469672836   -0.0812823040367388   -0.2000731773499153
1.5613515469672836   -0.0812823040367388   -0.2000731773499153
0.663279783167523   0.027416988920321433   0.12262597801106533
0.663279783167523   0.027416988920321433   0.12262597801106533
0.663279783167523   0.027416988920321433   0.12262597801106533
0.663279783167523   0.027416988920321433   0.12262597801106533
1.0258589982807165   -0.06911964054579914   -0.05380316901983885
1.0258589982807165   -0.06911964054579914   -0.05380316901983885
1.0258589982807165   -0.06911964054579914   -0.05380316901983885
1.0258589982807165   -0.06911964054579914   -0.05380316901983885
0.5420524739698626   -0.28028849914801934   -0.1758050799088966
0.5420524739698626   -0.28028849914801934   -0.1758050799088966
0.5420524739698626   -0.28028849914801934   -0.1758050799088966
0.5420524739698626   -0.28028849914801934   -0.1758050799088966
1.6926958031066277   0.2365401309732789   0.1388256683368094
1.6926958031066277   0.2365401309732789   0.1388256683368094
1.6926958031066277   0.2365401309732789   0.1388256683368094
1.6926958031066277   0.2365401309732789   0.1388256683368094
1.645635299535897   -0.022685175835001126   -0.23980901259856477
1.645635299535897   -0.022685175835001126   -0.23980901259856477
1.645635299535897   -0.022685175835001126   -0.23980901259856477
1.645635299535897   -0.022685175835001126   -0.23980901259856477
0.6855445642306779   0.070330377625169   0.09553946383836681
0.6855445642306779   0.070330377625169   0.09553946383836681
0.6855445642306779   0.070330377625169   0.09553946383836681
0.6855445642306779   0.070330377625169   0.09553946383836681
1.1112550303560993   -0.010102820491616427   -0.006710094098880348
1.1112550303560993   -0.010102820491616427   -0.006710094098880348
1.1112550303560993   -0.010102820491616427   -0.006710094098880348
1.1112550303560993   -0.010102820491616427   -0.006710094098880348
0.5653098350595666   -0.23154102257413656   -0.2037627818178807
0.5653098350595666   -0.23154102257413656   -0.2037627818178807
0.5653098350595666   -0.23154102257413656   -0.2037627818178807
0.5653098350595666   -0.23154102257413656   -0.2037627818178807
1.7763994825106828   0.2897156781679794   0.10161104827241416
1.7763994825106828   0.2897156781679794   0.10161104827241416
1.7763994825106828   0.2897156781679794   0.10161104827241416
1.7763994825106828   0.2897156781679794   0.10161104827241416
1.7749086785507884   0.10609711541030659   -0.2565806592968574
1.7749086785507884   0.10609711541030659   -0.2565806592968574
1.7749086785507884   0.10609711541030659   -0.2565806592968574
1.7749086785507884   0.10609711541030659   -0.2565806592968574
0.7083388152044418   0.15740084621017386   0.07587883784876476
0.7083388152044418   0.15740084621017386   0.07587883784876476
0.7083388152044418   0.15740084621017386   0.07587883784876476
0.7083388152044418   0.15740084621017386   0.07587883784876476
1.1534333993748722   0.055058559704608157   0.03371087259074913
1.1534333993748722   0.055058559704608157   0.03371087259074913
1.1534333993748722   0.055058559704608157   0.03371087259074913
1.1534333993748722   0.055058559704608157   0.03371087259074913
-2.1160613743138907   -0.03645400567506352   0.20511524270118806
-2.1160613743138907   -0.03645400567506352   0.20511524270118806
-2.1160613743138907   -0.03645400567506352   0.20511524270118806
-2.1160613743138907   -0.03645400567506352   0.20511524270118806
-1.6463279224464193   -0.20825391952232078   -0.10180679985492852
-1.6463279224464193   -0.20825391952232078   -0.10180679985492852
-1.6463279224464193   -0.20825391952232078   -0.10180679985492852
-1.6463279224464193   -0.20825391952232078   -0.10180679985492852
-1.4903898105213977   0.176781582271747   0.17549296051821126
-1.4903898105213977   0.176781582271747   0.17549296051821126
-1.4903898105213977   0.176781582271747   0.17549296051821126
-1.4903898105213977   0.176781582271747   0.17549296051821126
-2.1069135758256383   -0.22934936849950097   -0.13843900645362292
-2.1069135758256383   -0.22934936849950097   -0.13843900645362292
-2.1069135758256383   -0.22934936849950097   -0.13843900645362292
-2.1069135758256383   -0.22934936849950097   -0.13843900645362292
-1.7693054662821754   -0.04891422578011223   -0.025377211803755906
-1.7693054662821754   -0.04891422578011223   -0.025377211803755906
-1.7693054662821754   -0.04891422578011223   -0.025377211803755906
-1.7693054662821754   -0.04891422578011223   -0.025377211803755906
-1.9774532855659892   0.0834774253568421   0.19603565098827838
-1.9774532855659892   0.0834774253568421   0.19603565098827838
-1.9774532855659892   0.0834774253568421   0.19603565098827838
-1.9774532855659892   0.0834774253568421   0.19603565098827838
-1.610894121381423   -0.1270892321849596   -0.12315777932519241
-1.610894121381423   -0.1270892321849596   -0.12315777932519241
-1.610894121381423   -0.1270892321849596   -0.12315777932519241
-1.610894121381423   -0.1270892321849596   -0.12315777932519241
-1.4531865852055244   0.22255273241485762   0.1485039482353759
-1.4531865852055244   0.22255273241485762   0.1485039482353759
-1.4531865852055244   0.22255273241485762   0.1485039482353759
-1.4531865852055244   0.22255273241485762   0.1485039482353759
-2.010441310580954   -0.17749238451379185   -0.1730822146561959
-2.010441310580954   -0.17749238451379185   -0.1730822146561959
-2.010441310580954   -0.17749238451379185   -0.1730822146561959
-2.010441310580954   -0.17749238451379185   -0.1730822146561959
-1.7188809214192184   0.011047785091154727   0.012820862262416258
-1.7188809214192184   0.011047785091154727   0.012820862262416258
-1.7188809214192184   0.011047785091154727   0.012820862262416258
-1.7188809214192184   0.011047785091154727   0.012820862262416258
-1.8808252136879198   0.1390211617752783   0.1584847235198749
-1.8808252136879198   0.1390211617752783   0.1584847235198749
-1.8808252136879198   0.1390211617752783   0.1584847235198749
-1.8808252136879198   0.1390211617752783   0.1584847235198749
-1.5743106598323562   -0.08546879160801546   -0.1490949008759116
-1.5743106598323562   -0.08546879160801546   -0.1490949008759116
-1.5743106598323562   -0.08546879160801546   -0.1490949008759116
-1.5743106598323562   -0.08546879160801546   -0.1490949008759116
-1.4229826289350362   0.2793740057611202   0.12808850430173307
-1.4229826289350362   0.2793740057611202   0.12808850430173307
-1.4229826289350362   0.2793740057611202   0.12808850430173307
-1.4229826289350362   0.2793740057611202   0.12808850430173307
-1.8808009004787183   -0.09450796288092966   -0.2003478520213054
-1.8808009004787183   -0.09450796288092966   -0.2003478520213054
-1.8808009004787183   -0.09450796288092966   -0.2003478520213054
-1.8808009004787183   -0.09450796288092966   -0.2003478520213054
-1.6169374317243537   0.07006645297241387   0.06029893385679816
-1.6169374317243537   0.07006645297241387   0.06029893385679816
-1.6169374317243537   0.07006645297241387   0.06029893385679816
-1.6169374317243537   0.07006645297241387   0.06029893385679816
-1.5890820602144815   -0.1201913352856627   0.09635992706810181
-1.5890820602144815   -0.1201913352856627   0.09635992706810181
-1.5890820602144815   -0.1201913352856627   0.09635992706810181
-1.5890820602144815   -0.1201913352856627   0.09635992706810181
-1.1628515238852826   -0.15794730042828936   -0.03016601712038586
-1.1628515238852826   -0.15794730042828936   -0.03016601712038586
-1.1628515238852826   -0.15794730042828936   -0.03016601712038586
-1.1628515238852826   -0.15794730042828936   -0.03016601712038586
-1.075732696052103   0.08035742291894465   0.08970331665693947
-1.075732696052103   0.08035742291894465   0.08970331665693947
-1.075732696052103   0.08035742291894465   0.08970331665693947
-1.075732696052103   0.08035742291894465   0.08970331665693947
-1.6121739670579869   -0.16943417918349446   -0.08721206070947679
-1.6121739670579869   -0.16943417918349446   -0.08721206070947679
-1.6121739670579869   -0.16943417918349446   -0.08721206070947679
-1.6121739670579869   -0.16943417918349446   -0.08721206070947679
-1.3561107852628325   -0.08462872438227773   -0.03629973709209194
-1.3561107852628325   -0.08462872438227773   -0.03629973709209194
-1.3561107852628325   -0.08462872438227773   -0.03629973709209194
-1.3561107852628325   -0.08462872438227773   -0.03629973709209194
-1.5475513496461368   -0.015544668081674762   0.08201151524793772
-1.5475513496461368   -0.015544668081674762   0.08201151524793772
-1.5475513496461368   -0.015544668081674762   0.08201151524793772
-1.5475513496461368   -0.015544668081674762   0.08201151524793772
-1.1331306593625916   -0.06630743408152684   -0.05062164289503379
-1.1331306593625916   -0.06630743408152684   -0.05062164289503379
-1.1331306593625916   -0.06630743408152684   -0.05062164289503379
-1.1331306593625916   -0.06630743408152684   -0.05062164289503379
-1.0436270138092933   0.17338740535269026   0.07177764105839671
-1.0436270138092933   0.17338740535269026   0.07177764105839671
-1.0436270138092933   0.17338740535269026   0.07177764105839671
-1.0436270138092933   0.17338740535269026   0.07177764105839671
-1.5642503566312596   -0.07987583045021751   -0.10438634602820974
-1.5642503566312596   -0.07987583045021751   -0.10438634602820974
-1.5642503566312596   -0.07987583045021751   -0.10438634602820974
-1.5642503566312596   -0.07987583045021751   -0.10438634602820974
-1.3098006532041582   0.005187863702702911   0.003929984319089488
-1.3098006532041582   0.005187863702702911   0.003929984319089488
-1.3098006532041582   0.005187863702702911   0.003929984319089488
-1.3098006532041582   0.005187863702702911   0.003929984319089488
-1.4958400490285855   0.08345595200344846   0.07433340953147974
-1.4958400490285855   0.08345595200344846   0.07433340953147974
-1.4958400490285855   0.08345595200344846   0.07433340953147974
-1.4958400490285855   0.08345595200344846   0.07433340953147974
-1.1036961617775765   0.018396782533411427   -0.0735774759637481
-1.1036961617775765   0.018396782533411427   -0.0735774759637481
-1.1036961617775765   0.018396782533411427   -0.0735774759637481
-1.1036961617775765   0.018396782533411427   -0.0735774759637481
-1.0116279685844576   0.2742602879330487   0.05470485046719106
-1.0116279685844576   0.2742602879330487   0.05470485046719106
-1.0116279685844576   0.2742602879330487   0.05470485046719106
-1.0116279685844576   0.2742602879330487   0.05470485046719106
-1.5246067613036143   0.017835175890449417   -0.11849332767047022
-1.5246067613036143   0.017835175890449417   -0.11849332767047022
-1.5246067613036143   0.017835175890449417   -0.11849332767047022
-1.5246067613036143   0.017835175890449417   -0.11849332767047022
-1.276274323747759   0.09310968952300264   0.04323370271632386
-1.276274323747759   0.09310968952300264   0.04323370271632386
-1.276274323747759   0.09310968952300264   0.04323370271632386
-1.276274323747759   0.09310968952300264   0.04323370271632386
-1.1615766379721852   -0.19850160972695421   0.016762721743743235
-1.1615766379721852   -0.19850160972695421   0.016762721743743235
-1.1615766379721852   -0.19850160972695421   0.016762721743743235
-1.1615766379721852   -0.19850160972695421   0.016762721743743235
-0.6861861372562891   -0.08279058086169838   0.04279007228678823
-0.6861861372562891   -0.08279058086169838   0.04279007228678823
-0.6861861372562891   -0.08279058086169838   0.04279007228678823
-0.6861861372562891   -0.08279058086169838   0.04279007228678823
-0.6621969982495638   -0.0012024928832950477   0.00555767630430614
-0.6621969982495638   -0.0012024928832950477   0.00555767630430614
-0.6621969982495638   -0.0012024928832950477   0.00555767630430614
-0.6621969982495638   -0.0012024928832950477   0.00555767630430614
-1.1299267584985067   -0.0907649739156349   -0.010144598740499777
-1.1299267584985067   -0.0907649739156349   -0.010144598740499777
-1.1299267584985067   -0.0907649739156349   -0.010144598740499777
-1.1299267584985067   -0.0907649739156349   -0.010144598740499777
-0.9114111326357898   -0.08896336620146983   -0.02640001001541501
-0.9114111326357898   -0.08896336620146983   -0.02640001001541501
-0.9114111326357898   -0.08896336620146983   -0.02640001001541501
-0.9114111326357898   -0.08896336620146983   -0.02640001001541501
-1.1286190115593429   -0.09539383199848192   0.0010229940381508082
-1.1286190115593429   -0.09539383199848192   0.0010229940381508082
-1.1286190115593429   -0.09539383199848192   0.0010229940381508082
-1.1286190115593429   -0.09539383199848192   0.0010229940381508082
-0.6563229693044305   0.010608141083856798   0.023117187062821197
-0.6563229693044305   0.010608141083856798   0.023117187062821197
-0.6563229693044305   0.010608141083856798   0.023117187062821197
-0.6563229693044305   0.010608141083856798   0.023117187062821197
-0.6273563866182901   0.10282343999124888   -0.009060685460752768
-0.6273563866182901   0.10282343999124888   -0.009060685460752768
-0.6273563866182901   0.10282343999124888   -0.009060685460752768
-0.6273563866182901   0.10282343999124888   -0.009060685460752768
-1.0977665903010927   0.003962088515424622   -0.029494924563343725
-1.0977665903010927   0.003962088515424622   -0.029494924563343725
-1.0977665903010927   0.003962088515424622   -0.029494924563343725
-1.0977665903010927   0.003962088515424622   -0.029494924563343725
-0.8746785556307085   0.004613843497615733   0.012589143917140971
-0.8746785556307085   0.004613843497615733   0.012589143917140971
-0.8746785556307085   0.004613843497615733   0.012589143917140971
-0.8746785556307085   0.004613843497615733   0.012589143917140971
-1.0939874587115281   0.008318272537275906   -0.014955450637379228
-1.0939874587115281   0.008318272537275906   -0.014955450637379228
-1.0939874587115281   0.008318272537275906   -0.014955450637379228
-1.0939874587115281   0.008318272537275906   -0.014955450637379228
-0.6246425291111308   0.10496024506612112   0.0023717970001766175
-0.6246425291111308   0.10496024506612112   0.0023717970001766175
-0.6246425291111308   0.10496024506612112   0.0023717970001766175
-0.6246425291111308   0.10496024506612112   0.0023717970001766175
-0.5944533052714729   0.20779218910404224   -0.025768059652157574
-0.5944533052714729   0.20779218910404224   -0.025768059652157574
-0.5944533052714729   0.20779218910404224   -0.025768059652157574
-0.5944533052714729   0.20779218910404224   -0.025768059652157574
-1.0675655273525855   0.09942337512085819   -0.050146030561259006
-1.0675655273525855   0.09942337512085819   -0.050146030561259006
-1.0675655273525855   0.09942337512085819   -0.050146030561259006
-1.0675655273525855   0.09942337512085819   -0.050146030561259006
-0.8399136265847447   0.09852551711331514   0.05001184482357586
-0.8399136265847447   0.09852551711331514   0.05001184482357586
-0.8399136265847447   0.09852551711331514   0.05001184482357586
-0.8399136265847447   0.09852551711331514   0.05001184482357586
-0.7442688696273843   -0.2664983091964986   -0.06391586123389865
-0.7442688696273843   -0.2664983091964986   -0.06391586123389865
-0.7442688696273843   -0.2664983091964986   -0.06391586123389865
-0.7442688696273843   -0.2664983091964986   -0.06391586123389865
-0.22217501745773527   -0.0029753922875708286   0.11225105845891509
-0.22217501745773527   -0.0029753922875708286   0.11225105845891509
-0.22217501745773527   -0.0029753922875708286   0.11225105845891509
-0.22217501745773527   -0.0029753922875708286   0.11225105845891509
-0.25356403218509155   -0.07815738803023528   -0.08185766044957046
-0.25356403218509155   -0.07815738803023528   -0.08185766044957046
-0.25356403218509155   -0.07815738803023528   -0.08185766044957046
-0.25356403218509155   -0.07815738803023528   -0.08185766044957046
-0.6522911922422813   -0.010202470003757957   0.06408668346117635
-0.6522911922422813   -0.010202470003757957   0.06408668346117635
-0.6522911922422813   -0.010202470003757957   0.06408668346117635
-0.6522911922422813   -0.010202470003757957   0.06408668346117635
-0.46807542755591286   -0.08554314232423375   -0.01904225843476824
-0.46807542755591286   -0.08554314232423375   -0.01904225843476824
-0.46807542755591286   -0.08554314232423375   -0.01904225843476824
-0.46807542755591286   -0.08554314232423375   -0.01904225843476824
-0.7131942459371394   -0.16986509141175546   -0.0807659636051235
-0.7131942459371394   -0.16986509141175546   -0.0807659636051235
-0.7131942459371394   -0.16986509141175546   -0.0807659636051235
-0.7131942459371394   -0.16986509141175546   -0.0807659636051235
-0.184609038856879   0.0895571730111053   0.0952027451501518
-0.184609038856879   0.0895571730111053   0.0952027451501518
-0.184609038856879   0.0895571730111053   0.0952027451501518
-0.184609038856879   0.0895571730111053   0.0952027451501518
-0.2027720331362087   0.02025130409857509   -0.09213967034032779
-0.2027720331362087   0.02025130409857509   -0.09213967034032779
-0.2027720331362087   0.02025130409857509   -0.09213967034032779
-0.2027720331362087   0.02025130409857509   -0.09213967034032779
-0.6225938494584856   0.07486171459523328   0.042713725734285474
-0.6225938494584856   0.07486171459523328   0.042713725734285474
-0.6225938494584856   0.07486171459523328   0.042713725734285474
-0.6225938494584856   0.07486171459523328   0.042713725734285474
-0.4290693144782933   0.0015566132193335636   0.02067240662950983
-0.4290693144782933   0.0015566132193335636   0.02067240662950983
-0.4290693144782933   0.0015566132193335636   0.02067240662950983
-0.4290693144782933   0.0015566132193335636   0.02067240662950983
-0.6815660949228721   -0.07711394299098044   -0.10017184400144198
-0.6815660949228721   -0.07711394299098044   -0.10017184400144198
-0.6815660949228721   -0.07711394299098044   -0.10017184400144198
-0.6815660949228721   -0.07711394299098044   -0.10017184400144198
-0.13630600328039352   0.17972074607621602   0.08072103696110719
-0.13630600328039352   0.17972074607621602   0.08072103696110719
-0.13630600328039352   0.17972074607621602   0.08072103696110719
-0.13630600328039352   0.17972074607621602   0.08072103696110719
-0.15979479032305455   0.13023087324112315   -0.10318187785054464
-0.15979479032305455   0.13023087324112315   -0.10318187785054464
-0.15979479032305455   0.13023087324112315   -0.10318187785054464
-0.15979479032305455   0.13023087324112315   -0.10318187785054464
-0.5921936573991385   0.17121070540350444   0.022111663410051746
-0.5921936573991385   0.17121070540350444   0.022111663410051746
-0.5921936573991385   0.17121070540350444   0.022111663410051746
-0.5921936573991385   0.17121070540350444   0.022111663410051746
-0.3886159292106186   0.09247473950126874   0.060435520843999974
-0.3886159292106186   0.09247473950126874   0.060435520843999974
-0.3886159292106186   0.09247473950126874   0.060435520843999974
-0.3886159292106186   0.09247473950126874   0.060435520843999974
-0.32911457471207045   -0.28673819062617845   -0.13868392947415334
-0.32911457471207045   -0.28673819062617845   -0.13868392947415334
-0.32911457471207045   -0.28673819062617845   -0.13868392947415334
-0.32911457471207045   -0.28673819062617845   -0.13868392947415334
0.1309357170025805   0.0860212505703262   0.17075243693105718
0.1309357170025805   0.0860212505703262   0.17075243693105718
0.1309357170025805   0.0860212505703262   0.17075243693105718
0.1309357170025805   0.0860212505703262   0.17075243693105718
0.13216995734650194   -0.1400368491740956   -0.18353338663999857
0.13216995734650194   -0.1400368491740956   -0.18353338663999857
0.13216995734650194   -0.1400368491740956   -0.18353338663999857
0.13216995734650194   -0.1400368491740956   -0.18353338663999857
-0.17596442767202491   0.08824559934329687   0.1397373747422307
-0.17596442767202491   0.08824559934329687   0.1397373747422307
-0.17596442767202491   0.08824559934329687   0.1397373747422307
-0.17596442767202491   0.08824559934329687   0.1397373747422307
-0.06486728022758204   -0.060460218255293616   -0.03277621074691619
-0.06486728022758204   -0.060460218255293616   -0.03277621074691619
-0.06486728022758204   -0.060460218255293616   -0.03277621074691619
-0.06486728022758204   -0.060460218255293616   -0.03277621074691619
-0.2976788271679775   -0.22118144452319902   -0.15940757887103635
-0.2976788271679775   -0.22118144452319902   -0.15940757887103635
-0.2976788271679775   -0.22118144452319902   -0.15940757887103635
-0.2976788271679775   -0.22118144452319902   -0.15940757887103635
0.2624988588077075   0.17800469665765584   0.15006957483429317
0.2624988588077075   0.17800469665765584   0.15006957483429317
0.2624988588077075   0.17800469665765584   0.15006957483429317
0.2624988588077075   0.17800469665765584   0.15006957483429317
0.22916671261312713   -0.08363616735137899   -0.21791540942682228
0.22916671261312713   -0.08363616735137899   -0.21791540942682228
0.22916671261312713   -0.08363616735137899   -0.21791540942682228
0.22916671261312713   -0.08363616735137899   -0.21791540942682228
-0.14015800393788283   0.12916688518178882   0.11201489456808772
-0.14015800393788283   0.12916688518178882   0.11201489456808772
-0.14015800393788283   0.12916688518178882   0.11201489456808772
-0.14015800393788283   0.12916688518178882   0.11201489456808772
0.015146390712253219   -0.0024897493182794196   0.010326720765913663
0.015146390712253219   -0.0024897493182794196   0.010326720765913663
0.015146390712253219   -0.0024897493182794196   0.010326720765913663
0.015146390712253219   -0.0024897493182794196   0.010326720765913663
-0.2602036005483975   -0.17478032396571566   -0.184265879336981
-0.2602036005483975   -0.17478032396571566   -0.184265879336981
-0.2602036005483975   -0.17478032396571566   -0.184265879336981
-0.2602036005483975   -0.17478032396571566   -0.184265879336981
0.3578244798579523   0.22892321243044622   0.11281404701547829
0.3578244798579523   0.22892321243044622   0.11281404701547829
0.3578244798579523   0.22892321243044622   0.11281404701547829
0.3578244798579523   0.22892321243044622   0.11281404701547829
0.36485476715021875   0.026875065565542814   -0.2332660173201675
0.36485476715021875   0.026875065565542814   -0.2332660173201675
0.36485476715021875   0.026875065565542814   -0.2332660173201675
0.36485476715021875   0.026875065565542814   -0.2332660173201675
-0.10668703078003633   0.20157259238311184   0.0910152007225578
-0.10668703078003633   0.20157259238311184   0.0910152007225578
-0.10668703078003633   0.20157259238311184   0.0910152007225578
-0.10668703078003633   0.20157259238311184   0.0910152007225578
0.08681878571048413   0.05852612683949506   0.05236628213886987
0.08681878571048413   0.05852612683949506   0.05236628213886987
0.08681878571048413   0.05852612683949506   0.05236628213886987
0.08681878571048413   0.05852612683949506   0.05236628213886987
-0.7077687847265104   0.03882420113111175   0.19502466569232518
-0.7077687847265104   0.03882420113111175   0.19502466569232518
-0.7077687847265104   0.03882420113111175   0.19502466569232518
-0.7077687847265104   0.03882420113111175   0.19502466569232518
-0.8332870522482336   -0.2546528005207281   -0.11531829835142701
-0.8332870522482336   -0.2546528005207281   -0.11531829835142701
-0.8332870522482336   -0.2546528005207281   -0.11531829835142701
-0.8332870522482336   -0.2546528005207281   -0.11531829835142701
-0.6652664580636383   0.11862407471754369   0.15978109186960054
-0.6652664580636383   0.11862407471754369   0.15978109186960054
-0.6652664580636383   0.11862407471754369   0.15978109186960054
-0.6652664580636383   0.11862407471754369   0.15978109186960054
-0.6870662583244271   -0.16854425371064466   -0.14842881575269956
-0.6870662583244271   -0.16854425371064466   -0.14842881575269956
-0.6870662583244271   -0.16854425371064466   -0.14842881575269956
-0.6870662583244271   -0.16854425371064466   -0.14842881575269956
-0.7048007764550707   -0.05425806303031416   -0.052974000252332315
-0.7048007764550707   -0.05425806303031416   -0.052974000252332315
-0.7048007764550707   -0.05425806303031416   -0.052974000252332315
-0.7048007764550707   -0.05425806303031416   -0.052974000252332315
-0.5584613626133099   0.14436596437677862   0.181685444715447
-0.5584613626133099   0.14436596437677862   0.181685444715447
-0.5584613626133099   0.14436596437677862   0.181685444715447
-0.5584613626133099   0.14436596437677862   0.181685444715447
-0.7858680068349206   -0.18628279643004741   -0.13831978083921984
-0.7858680068349206   -0.18628279643004741   -0.13831978083921984
-0.7858680068349206   -0.18628279643004741   -0.13831978083921984
-0.7858680068349206   -0.18628279643004741   -0.13831978083921984
-0.6130325610702274   0.16351279599416707   0.13453493837287203
-0.6130325610702274   0.16351279599416707   0.13453493837287203
-0.6130325610702274   0.16351279599416707   0.13453493837287203
-0.6130325610702274   0.16351279599416707   0.13453493837287203
-0.5758382051299253   -0.11781417468266969   -0.18503050755543482
-0.5758382051299253   -0.11781417468266969   -0.18503050755543482
-0.5758382051299253   -0.11781417468266969   -0.18503050755543482
-0.5758382051299253   -0.11781417468266969   -0.18503050755543482
-0.6227302224303504   0.003150834183466844   -0.010672085512935636
-0.6227302224303504   0.003150834183466844   -0.010672085512935636
-0.6227302224303504   0.003150834183466844   -0.010672085512935636
-0.6227302224303504   0.003150834183466844   -0.010672085512935636
-0.4464307870958179   0.19897053725079827   0.14522187068161868
-0.4464307870958179   0.19897053725079827   0.14522187068161868
-0.4464307870958179   0.19897053725079827   0.14522187068161868
-0.4464307870958179   0.19897053725079827   0.14522187068161868
-0.7348748225902189   -0.14570675942520536   -0.16545681380769706
-0.7348748225902189   -0.14570675942520536   -0.16545681380769706
-0.7348748225902189   -0.14570675942520536   -0.16545681380769706
-0.7348748225902189   -0.14570675942520536   -0.16545681380769706
-0.5651877697830195   0.23192595911830272   0.11620862727921939
-0.5651877697830195   0.23192595911830272   0.11620862727921939
-0.5651877697830195   0.23192595911830272   0.11620862727921939
-0.5651877697830195   0.23192595911830272   0.11620862727921939
-0.42739794389469066   -0.021368793178918044   -0.20848394799027078
-0.42739794389469066   -0.021368793178918044   -0.20848394799027078
-0.42739794389469066   -0.021368793178918044   -0.20848394799027078
-0.42739794389469066   -0.021368793178918044   -0.20848394799027078
-0.5238947088083648   0.06303134298868784   0.03468840069792674
-0.5238947088083648   0.06303134298868784   0.03468840069792674
-0.5238947088083648   0.06303134298868784   0.03468840069792674
-0.5238947088083648   0.06303134298868784   0.03468840069792674
-0.7465015426620896   -0.046544009123222166   0.11050045818175713
-0.7465015426620896   -0.046544009123222166   0.11050045818175713
-0.7465015426620896   -0.046544009123222166   0.11050045818175713
-0.7465015426620896   -0.046544009123222166   0.11050045818175713
-0.9212366929957749   -0.20768134755665113   -0.04506665758567928
-0.9212366929957749   -0.20768134755665113   -0.04506665758567928
-0.9212366929957749   -0.20768134755665113   -0.04506665758567928
-0.9212366929957749   -0.20768134755665113   -0.04506665758567928
-0.8205293324905012   0.02116118345910803   0.07412011793604989
-0.8205293324905012   0.02116118345910803   0.07412011793604989
-0.8205293324905012   0.02116118345910803   0.07412011793604989
-0.8205293324905012   0.02116118345910803   0.07412011793604989
-0.754418851345644   -0.09895225146343427   -0.06840454835945034
-0.754418851345644   -0.09895225146343427   -0.06840454835945034
-0.754418851345644   -0.09895225146343427   -0.06840454835945034
-0.754418851345644   -0.09895225146343427   -0.06840454835945034
-0.8111609910143861   -0.07669097641373744   -0.03747639934740933
-0.8111609910143861   -0.07669097641373744   -0.03747639934740933
-0.8111609910143861   -0.07669097641373744   -0.03747639934740933
-0.8111609910143861   -0.07669097641373744   -0.03747639934740933
-0.6913633466017151   0.05146208485750364   0.09645863903924184
-0.6913633466017151   0.05146208485750364   0.09645863903924184
-0.6913633466017151   0.05146208485750364   0.09645863903924184
-0.6913633466017151   0.05146208485750364   0.09645863903924184
-0.8773228197903234   -0.12299113541770637   -0.06569499968625436
-0.8773228197903234   -0.12299113541770637   -0.06569499968625436
-0.8773228197903234   -0.12299113541770637   -0.06569499968625436
-0.8773228197903234   -0.12299113541770637   -0.06569499968625436
-0.7738553063951485   0.11039524135999856   0.056573962786759927
-0.7738553063951485   0.11039524135999856   0.056573962786759927
-0.7738553063951485   0.11039524135999856   0.056573962786759927
-0.7738553063951485   0.11039524135999856   0.056573962786759927
-0.6921842438927341   -0.012820175650575999   -0.08489050409488827
-0.6921842438927341   -0.012820175650575999   -0.08489050409488827
-0.6921842438927341   -0.012820175650575999   -0.08489050409488827
-0.6921842438927341   -0.012820175650575999   -0.08489050409488827
-0.7554923214418006   0.00668919070094165   0.0016049993894152945
-0.7554923214418006   0.00668919070094165   0.0016049993894152945
-0.7554923214418006   0.00668919070094165   0.0016049993894152945
-0.7554923214418006   0.00668919070094165   0.0016049993894152945
-0.626071092300195   0.146006922720898   0.08684815549630336
-0.626071092300195   0.146006922720898   0.08684815549630336
-0.626071092300195   0.146006922720898   0.08684815549630336
-0.626071092300195   0.146006922720898   0.08684815549630336
-0.8332959332800791   -0.041759332303853924   -0.08847459797405581
-0.8332959332800791   -0.041759332303853924   -0.08847459797405581
-0.8332959332800791   -0.041759332303853924   -0.08847459797405581
-0.8332959332800791   -0.041759332303853924   -0.08847459797405581
-0.7269644485703242   0.20904188125563072   0.0398978864221462
-0.7269644485703242   0.20904188125563072   0.0398978864221462
-0.7269644485703242   0.20904188125563072   0.0398978864221462
-0.7269644485703242   0.20904188125563072   0.0398978864221462
-0.6383812773277476   0.0826531679533698   -0.10048611927948779
-0.6383812773277476   0.0826531679533698   -0.10048611927948779
-0.6383812773277476   0.0826531679533698   -0.10048611927948779
-0.6383812773277476   0.0826531679533698   -0.10048611927948779
-0.7028732070110415   0.0926631977832251   0.041334168165688745
-0.7028732070110415   0.0926631977832251   0.041334168165688745
-0.7028732070110415   0.0926631977832251   0.041334168165688745
-0.7028732070110415   0.0926631977832251   0.041334168165688745
-0.8896849966651946   -0.125871893248937   0.030882369759500636
-0.8896849966651946   -0.125871893248937   0.030882369759500636
-0.8896849966651946   -0.125871893248937   0.030882369759500636
-0.8896849966651946   -0.125871893248937   0.030882369759500636
-1.0091869981729717   -0.1304940794592382   0.027330906048096414
-1.0091869981729717   -0.1304940794592382   0.027330906048096414
-1.0091869981729717   -0.1304940794592382   0.027330906048096414
-1.0091869981729717   -0.1304940794592382   0.027330906048096414
-0.9716691083632011   -0.05899396384678415   -0.00954719853161285
-0.9716691083632011   -0.05899396384678415   -0.00954719853161285
-0.9716691083632011   -0.05899396384678415   -0.00954719853161285
-0.9716691083632011   -0.05899396384678415   -0.00954719853161285
-0.8414222070312098   -0.018012983689129708   0.008829912380736472
-0.8414222070312098   -0.018012983689129708   0.008829912380736472
-0.8414222070312098   -0.018012983689129708   0.008829912380736472
-0.8414222070312098   -0.018012983689129708   0.008829912380736472
-0.9293811189945808   -0.07861496695631465   -0.024805620188922725
-0.9293811189945808   -0.07861496695631465   -0.024805620188922725
-0.9293811189945808   -0.07861496695631465   -0.024805620188922725
-0.9293811189945808   -0.07861496695631465   -0.024805620188922725
-0.8421741938200417   -0.028145118568618094   0.015202113316057968
-0.8421741938200417   -0.028145118568618094   0.015202113316057968
-0.8421741938200417   -0.028145118568618094   0.015202113316057968
-0.8421741938200417   -0.028145118568618094   0.015202113316057968
-0.9650209020819986   -0.04296560947490441   0.007665478502528911
-0.9650209020819986   -0.04296560947490441   0.007665478502528911
-0.9650209020819986   -0.04296560947490441   0.007665478502528911
-0.9650209020819986   -0.04296560947490441   0.007665478502528911
-0.9226745601920756   0.04002554956626386   -0.024269649418226416
-0.9226745601920756   0.04002554956626386   -0.024269649418226416
-0.9226745601920756   0.04002554956626386   -0.024269649418226416
-0.9226745601920756   0.04002554956626386   -0.024269649418226416
-0.7949066355343786   0.07193841183511074   -0.010225853384501965
-0.7949066355343786   0.07193841183511074   -0.010225853384501965
-0.7949066355343786   0.07193841183511074   -0.010225853384501965
-0.7949066355343786   0.07193841183511074   -0.010225853384501965
-0.8782207169143667   0.009948099755567485   0.0137522686557527
-0.8782207169143667   0.009948099755567485   0.0137522686557527
-0.8782207169143667   0.009948099755567485   0.0137522686557527
-0.8782207169143667   0.009948099755567485   0.0137522686557527
-0.7933610548679417   0.07052522739273254   -0.0010847656099553932
-0.7933610548679417   0.07052522739273254   -0.0010847656099553932
-0.7933610548679417   0.07052522739273254   -0.0010847656099553932
-0.7933610548679417   0.07052522739273254   -0.0010847656099553932
-0.9190821074252358   0.04657676744190578   -0.01285860345966941
-0.9190821074252358   0.04657676744190578   -0.01285860345966941
-0.9190821074252358   0.04657676744190578   -0.01285860345966941
-0.9190821074252358   0.04657676744190578   -0.01285860345966941
-0.8757649133104095   0.13962891486558807   -0.040918945879785715
-0.8757649133104095   0.13962891486558807   -0.040918945879785715
-0.8757649133104095   0.13962891486558807   -0.040918945879785715
-0.8757649133104095   0.13962891486558807   -0.040918945879785715
-0.7505241792076112   0.1622579126584512   -0.031116798167101195
-0.7505241792076112   0.1622579126584512   -0.031116798167101195
-0.7505241792076112   0.1622579126584512   -0.031116798167101195
-0.7505241792076112   0.1622579126584512   -0.031116798167101195
-0.8293986425445543   0.09866838311440629   0.05050920038138068
-0.8293986425445543   0.09866838311440629   0.05050920038138068
-0.8293986425445543   0.09866838311440629   0.05050920038138068
-0.8293986425445543   0.09866838311440629   0.05050920038138068
-1.0385062884834395   -0.19886981931432857   -0.05088980564916941
-1.0385062884834395   -0.19886981931432857   -0.05088980564916941
-1.0385062884834395   -0.19886981931432857   -0.05088980564916941
-1.0385062884834395   -0.19886981931432857   -0.05088980564916941
-1.104282675210742   -0.0549213980908147   0.09658703383995547
-1.104282675210742   -0.0549213980908147   0.09658703383995547
-1.104282675210742   -0.0549213980908147   0.09658703383995547
-1.104282675210742   -0.0549213980908147   0.09658703383995547
-1.1216679174252095   -0.13573504202917114   -0.09419945148289983
-1.1216679174252095   -0.13573504202917114   -0.09419945148289983
-1.1216679174252095   -0.13573504202917114   -0.09419945148289983
-1.1216679174252095   -0.13573504202917114   -0.09419945148289983
-0.9297500806515994   0.05978072561282888   0.08127325056678272
-0.9297500806515994   0.05978072561282888   0.08127325056678272
-0.9297500806515994   0.05978072561282888   0.08127325056678272
-0.9297500806515994   0.05978072561282888   0.08127325056678272
-1.0442520291056367   -0.07706131752195974   -0.015564099516236406
-1.0442520291056367   -0.07706131752195974   -0.015564099516236406
-1.0442520291056367   -0.07706131752195974   -0.015564099516236406
-1.0442520291056367   -0.07706131752195974   -0.015564099516236406
-0.9922624775251926   -0.10442972115855027   -0.06707828702981262
-0.9922624775251926   -0.10442972115855027   -0.06707828702981262
-0.9922624775251926   -0.10442972115855027   -0.06707828702981262
-0.9922624775251926   -0.10442972115855027   -0.06707828702981262
-1.0529715477777206   0.034659377516082   0.07888797720929223
-1.0529715477777206   0.034659377516082   0.07888797720929223
-1.0529715477777206   0.034659377516082   0.07888797720929223
-1.0529715477777206   0.034659377516082   0.07888797720929223
-1.0576409859637907   -0.041826535028528594   -0.10568038587915735
-1.0576409859637907   -0.041826535028528594   -0.10568038587915735
-1.0576409859637907   -0.041826535028528594   -0.10568038587915735
-1.0576409859637907   -0.041826535028528594   -0.10568038587915735
-0.8855740393366143   0.14092544289895698   0.06033306152637806
-0.8855740393366143   0.14092544289895698   0.06033306152637806
-0.8855740393366143   0.14092544289895698   0.06033306152637806
-0.8855740393366143   0.14092544289895698   0.06033306152637806
-0.9862510825425215   0.00818080781211944   0.0242156658562223
-0.9862510825425215   0.00818080781211944   0.0242156658562223
-0.9862510825425215   0.00818080781211944   0.0242156658562223
-0.9862510825425215   0.00818080781211944   0.0242156658562223
-0.9461547132604063   -0.015601813625613054   -0.0860430515680253
-0.9461547132604063   -0.015601813625613054   -0.0860430515680253
-0.9461547132604063   -0.015601813625613054   -0.0860430515680253
-0.9461547132604063   -0.015601813625613054   -0.0860430515680253
-0.9908102573459292   0.12095077619014113   0.06569594599149105
-0.9908102573459292   0.12095077619014113   0.06569594599149105
-0.9908102573459292   0.12095077619014113   0.06569594599149105
-0.9908102573459292   0.12095077619014113   0.06569594599149105
-1.001585578235787   0.061723107401168154   -0.11593440576498111
-1.001585578235787   0.061723107401168154   -0.11593440576498111
-1.001585578235787   0.061723107401168154   -0.11593440576498111
-1.001585578235787   0.061723107401168154   -0.11593440576498111
-0.8412743966922801   0.23147913906492382   0.03968341301152532
-0.8412743966922801   0.23147913906492382   0.03968341301152532
-0.8412743966922801   0.23147913906492382   0.03968341301152532
-0.8412743966922801   0.23147913906492382   0.03968341301152532
-0.9368185362168674   0.09289377720273487   0.06229486744878181
-0.9368185362168674   0.09289377720273487   0.06229486744878181
-0.9368185362168674   0.09289377720273487   0.06229486744878181
-0.9368185362168674   0.09289377720273487   0.06229486744878181
-1.1854162359029696   -0.23683338411616542   -0.1271687835958507
-1.1854162359029696   -0.23683338411616542   -0.1271687835958507
-1.1854162359029696   -0.23683338411616542   -0.1271687835958507
-1.1854162359029696   -0.23683338411616542   -0.1271687835958507
-1.3053916074134857   0.01958509347216425   0.17324243946159995
-1.3053916074134857   0.01958509347216425   0.17324243946159995
-1.3053916074134857   0.01958509347216425   0.17324243946159995
-1.3053916074134857   0.01958509347216425   0.17324243946159995
-1.2869773288356117   -0.19574097948749541   -0.169182618248144
-1.2869773288356117   -0.19574097948749541   -0.169182618248144
-1.2869773288356117   -0.19574097948749541   -0.169182618248144
-1.2869773288356117   -0.19574097948749541   -0.169182618248144
-1.014790146556577   0.1491537847017736   0.15530057612930614
-1.014790146556577   0.1491537847017736   0.15530057612930614
-1.014790146556577   0.1491537847017736   0.15530057612930614
-1.014790146556577   0.1491537847017736   0.15530057612930614
-1.1502513798375347   -0.050438325439056575   -0.008147679957343973
-1.1502513798375347   -0.050438325439056575   -0.008147679957343973
-1.1502513798375347   -0.050438325439056575   -0.008147679957343973
-1.1502513798375347   -0.050438325439056575   -0.008147679957343973
-1.1369499851784992   -0.16097329463512794   -0.14537153764341892
-1.1369499851784992   -0.16097329463512794   -0.14537153764341892
-1.1369499851784992   -0.16097329463512794   -0.14537153764341892
-1.1369499851784992   -0.16097329463512794   -0.14537153764341892
-1.1582776586032766   0.12092593145983166   0.1576488219661733
-1.1582776586032766   0.12092593145983166   0.1576488219661733
-1.1582776586032766   0.12092593145983166   0.1576488219661733
-1.1582776586032766   0.12092593145983166   0.1576488219661733
-1.1767704904656753   -0.14087045615391447   -0.20155932558269746
-1.1767704904656753   -0.14087045615391447   -0.20155932558269746
-1.1767704904656753   -0.14087045615391447   -0.20155932558269746
-1.1767704904656753   -0.14087045615391447   -0.20155932558269746
-0.965164343361971   0.18779895792682305   0.12707733417459038
-0.965164343361971   0.18779895792682305   0.12707733417459038
-0.965164343361971   0.18779895792682305   0.12707733417459038
-0.965164343361971   0.18779895792682305   0.12707733417459038
-1.075263275201778   0.006847777148056816   0.030078858385942327
-1.075263275201778   0.006847777148056816   0.030078858385942327
-1.075263275201778   0.006847777148056816   0.030078858385942327
-1.075263275201778   0.006847777148056816   0.030078858385942327
-1.0849235587975847   -0.11581096809924135   -0.16810881697742253
-1.0849235587975847   -0.11581096809924135   -0.16810881697742253
-1.0849235587975847   -0.11581096809924135   -0.16810881697742253
-1.0849235587975847   -0.11581096809924135   -0.16810881697742253
-1.05016243312479   0.16958831177741998   0.12102219319039419
-1.05016243312479   0.16958831177741998   0.12102219319039419
-1.05016243312479   0.16958831177741998   0.12102219319039419
-1.05016243312479   0.16958831177741998   0.12102219319039419
-1.0324001557461067   -0.045808517992602465   -0.22017722618994326
-1.0324001557461067   -0.045808517992602465   -0.22017722618994326
-1.0324001557461067   -0.045808517992602465   -0.22017722618994326
-1.0324001557461067   -0.045808517992602465   -0.22017722618994326
-0.9206700330302519   0.2456938267060472   0.10467260095780774
-0.9206700330302519   0.2456938267060472   0.10467260095780774
-0.9206700330302519   0.2456938267060472   0.10467260095780774
-0.9206700330302519   0.2456938267060472   0.10467260095780774
-0.9734823488111521   0.0641924590457178   0.0742318954730865
-0.9734823488111521   0.0641924590457178   0.0742318954730865
-0.9734823488111521   0.0641924590457178   0.0742318954730865
-0.9734823488111521   0.0641924590457178   0.0742318954730865
0.7162844255428948   0.1161616552711846   0.18918250281713067
0.7162844255428948   0.1161616552711846   0.18918250281713067
0.7162844255428948   0.1161616552711846   0.18918250281713067
0.7162844255428948   0.1161616552711846   0.18918250281713067
-0.019697115594461814   -0.30440155038995886   -0.12525705595718095
-0.019697115594461814   -0.30440155038995886   -0.12525705595718095
-0.019697115594461814   -0.30440155038995886   -0.12525705595718095
-0.019697115594461814   -0.30440155038995886   -0.12525705595718095
0.160095334950933   0.05982455826406481   0.14625365084536487
0.160095334950933   0.05982455826406481   0.14625365084536487
0.160095334950933   0.05982455826406481   0.14625365084536487
0.160095334950933   0.05982455826406481   0.14625365084536487
0.7483692523977661   -0.10784311221654427   -0.1566070472871851
0.7483692523977661   -0.10784311221654427   -0.1566070472871851
0.7483692523977661   -0.10784311221654427   -0.1566070472871851
0.7483692523977661   -0.10784311221654427   -0.1566070472871851
0.3652783520076926   -0.05960124179325621   -0.08988458907517344
0.3652783520076926   -0.05960124179325621   -0.08988458907517344
0.3652783520076926   -0.05960124179325621   -0.08988458907517344
0.3652783520076926   -0.05960124179325621   -0.08988458907517344
0.877025518529427   0.2081050825346714   0.17072608861990382
0.877025518529427   0.2081050825346714   0.17072608861990382
0.877025518529427   0.2081050825346714   0.17072608861990382
0.877025518529427   0.2081050825346714   0.17072608861990382
0.03929127466529485   -0.2482714306411486   -0.14967066167761262
0.03929127466529485   -0.2482714306411486   -0.14967066167761262
0.03929127466529485   -0.2482714306411486   -0.14967066167761262
0.03929127466529485   -0.2482714306411486   -0.14967066167761262
0.22611072991948178   0.10400856145607576   0.12213423808888527
0.22611072991948178   0.10400856145607576   0.12213423808888527
0.22611072991948178   0.10400856145607576   0.12213423808888527
0.22611072991948178   0.10400856145607576   0.12213423808888527
0.8740921736984   -0.05791339260907319   -0.1961013833939103
0.8740921736984   -0.05791339260907319   -0.1961013833939103
0.8740921736984   -0.05791339260907319   -0.1961013833939103
0.8740921736984   -0.05791339260907319   -0.1961013833939103
0.478656835641436   -0.004439019528779203   -0.042042477372675344
0.478656835641436   -0.004439019528779203   -0.042042477372675344
0.478656835641436   -0.004439019528779203   -0.042042477372675344
0.478656835641436   -0.004439019528779203   -0.042042477372675344
1.0042248563541223   0.2621118888169603   0.1345367484586675
1.0042248563541223   0.2621118888169603   0.1345367484586675
1.0042248563541223   0.2621118888169603   0.1345367484586675
1.0042248563541223   0.2621118888169603   0.1345367484586675
0.10368644600600764   -0.20830832122770707   -0.17767029879468732
0.10368644600600764   -0.20830832122770707   -0.17767029879468732
0.10368644600600764   -0.20830832122770707   -0.17767029879468732
0.10368644600600764   -0.20830832122770707   -0.17767029879468732
0.29020682495695793   0.18498867052793927   0.1056986016923672
0.29020682495695793   0.18498867052793927   0.1056986016923672
0.29020682495695793   0.18498867052793927   0.1056986016923672
0.29020682495695793   0.18498867052793927   0.1056986016923672
1.0409077316921576   0.05388395796572852   -0.21632703019694413
1.0409077316921576   0.05388395796572852   -0.21632703019694413
1.0409077316921576   0.05388395796572852   -0.21632703019694413
1.0409077316921576   0.05388395796572852   -0.21632703019694413
0.5741900684755881   0.05727627644121766   0.003282346124207143
0.5741900684755881   0.05727627644121766   0.003282346124207143
0.5741900684755881   0.05727627644121766   0.003282346124207143
0.5741900684755881   0.05727627644121766   0.003282346124207143
0.09799650485051933   0.030783768921080645   0.12802572695668532
0.09799650485051933   0.030783768921080645   0.12802572695668532
0.09799650485051933   0.030783768921080645   0.12802572695668532
0.09799650485051933   0.030783768921080645   0.12802572695668532
-0.6865963442953213   -0.258265170308589   -0.05742751429133733
-0.6865963442953213   -0.258265170308589   -0.05742751429133733
-0.6865963442953213   -0.258265170308589   -0.05742751429133733
-0.6865963442953213   -0.258265170308589   -0.05742751429133733
-0.572873847583504   -0.037222817539031894   0.058697617500298754
-0.572873847583504   -0.037222817539031894   0.058697617500298754
-0.572873847583504   -0.037222817539031894   0.058697617500298754
-0.572873847583504   -0.037222817539031894   0.058697617500298754
0.10359939529122333   -0.030570037905888862   -0.04583145128322991
0.10359939529122333   -0.030570037905888862   -0.04583145128322991
0.10359939529122333   -0.030570037905888862   -0.04583145128322991
0.10359939529122333   -0.030570037905888862   -0.04583145128322991
-0.2700795508723107   -0.06720192072891013   -0.04330920794082141
-0.2700795508723107   -0.06720192072891013   -0.04330920794082141
-0.2700795508723107   -0.06720192072891013   -0.04330920794082141
-0.2700795508723107   -0.06720192072891013   -0.04330920794082141
0.16590043911321084   0.12151105190365624   0.11359267801714719
0.16590043911321084   0.12151105190365624   0.11359267801714719
0.16590043911321084   0.12151105190365624   0.11359267801714719
0.16590043911321084   0.12151105190365624   0.11359267801714719
-0.6294777787327116   -0.18360679467579966   -0.07793806110897153
-0.6294777787327116   -0.18360679467579966   -0.07793806110897153
-0.6294777787327116   -0.18360679467579966   -0.07793806110897153
-0.6294777787327116   -0.18360679467579966   -0.07793806110897153
-0.5126442035374336   0.04836846184277016   0.041512643016418924
-0.5126442035374336   0.04836846184277016   0.041512643016418924
-0.5126442035374336   0.04836846184277016   0.041512643016418924
-0.5126442035374336   0.04836846184277016   0.041512643016418924
0.17864265286689626   0.05079042849257994   -0.061988014210546616
0.17864265286689626   0.05079042849257994   -0.061988014210546616
0.17864265286689626   0.05079042849257994   -0.061988014210546616
0.17864265286689626   0.05079042849257994   -0.061988014210546616
-0.20626020662614597   0.008406244142556356   -0.005168903306297476
-0.20626020662614597   0.008406244142556356   -0.005168903306297476
-0.20626020662614597   0.008406244142556356   -0.005168903306297476
-0.20626020662614597   0.008406244142556356   -0.005168903306297476
0.24355082127341518   0.21164465788713094   0.10169859842749698
0.24355082127341518   0.21164465788713094   0.10169859842749698
0.24355082127341518   0.21164465788713094   0.10169859842749698
0.24355082127341518   0.21164465788713094   0.10169859842749698
-0.5720775906361301   -0.10701098624397891   -0.10027484439031464
-0.5720775906361301   -0.10701098624397891   -0.10027484439031464
-0.5720775906361301   -0.10701098624397891   -0.10027484439031464
-0.5720775906361301   -0.10701098624397891   -0.10027484439031464
-0.45207240512593827   0.14503808445118527   0.0251295910077802
-0.45207240512593827   0.14503808445118527   0.0251295910077802
-0.45207240512593827   0.14503808445118527   0.0251295910077802
-0.45207240512593827   0.14503808445118527   0.0251295910077802
0.244812951775451   0.142917699756704   -0.07919979344391645
0.244812951775451   0.142917699756704   -0.07919979344391645
0.244812951775451   0.142917699756704   -0.07919979344391645
0.244812951775451   0.142917699756704   -0.07919979344391645
-0.13581261106204606   0.0917551768019448   0.03544500869249355
-0.13581261106204606   0.0917551768019448   0.03544500869249355
-0.13581261106204606   0.0917551768019448   0.03544500869249355
-0.13581261106204606   0.0917551768019448   0.03544500869249355
-0.624232538891891   -0.04978675027432895   0.04591309269156195
-0.624232538891891   -0.04978675027432895   0.04591309269156195
-0.624232538891891   -0.04978675027432895   0.04591309269156195
-0.624232538891891   -0.04978675027432895   0.04591309269156195
-1.3415110551933014   -0.18281173340796242   0.012077036770208386
-1.3415110551933014   -0.18281173340796242   0.012077036770208386
-1.3415110551933014   -0.18281173340796242   0.012077036770208386
-1.3415110551933014   -0.18281173340796242   0.012077036770208386
-1.2886427520889134   -0.11428683431819461   -0.025318795706884743
-1.2886427520889134   -0.11428683431819461   -0.025318795706884743
-1.2886427520889134   -0.11428683431819461   -0.025318795706884743
-1.2886427520889134   -0.11428683431819461   -0.025318795706884743
-0.5619168829232086   0.04758184268162402   0.028677780581127826
-0.5619168829232086   0.04758184268162402   0.028677780581127826
-0.5619168829232086   0.04758184268162402   0.028677780581127826
-0.5619168829232086   0.04758184268162402   0.028677780581127826
-0.9554749312744526   -0.06866663351322858   -0.025124322033957328
-0.9554749312744526   -0.06866663351322858   -0.025124322033957328
-0.9554749312744526   -0.06866663351322858   -0.025124322033957328
-0.9554749312744526   -0.06866663351322858   -0.025124322033957328
-0.5627227676963041   0.042005801317652997   0.03022439807962138
-0.5627227676963041   0.042005801317652997   0.03022439807962138
-0.5627227676963041   0.042005801317652997   0.03022439807962138
-0.5627227676963041   0.042005801317652997   0.03022439807962138
-1.282967307220216   -0.10384123285860136   -0.007387172822991589
-1.282967307220216   -0.10384123285860136   -0.007387172822991589
-1.282967307220216   -0.10384123285860136   -0.007387172822991589
-1.282967307220216   -0.10384123285860136   -0.007387172822991589
-1.2253418613985756   -0.020067271827072297   -0.03981904583122006
-1.2253418613985756   -0.020067271827072297   -0.03981904583122006
-1.2253418613985756   -0.020067271827072297   -0.03981904583122006
-1.2253418613985756   -0.020067271827072297   -0.03981904583122006
-0.5022776362055662   0.13124217932242305   0.010471762196102088
-0.5022776362055662   0.13124217932242305   0.010471762196102088
-0.5022776362055662   0.13124217932242305   0.010471762196102088
-0.5022776362055662   0.13124217932242305   0.010471762196102088
-0.890141616877833   0.014136207250447314   0.013268117170171928
-0.890141616877833   0.014136207250447314   0.013268117170171928
-0.890141616877833   0.014136207250447314   0.013268117170171928
-0.890141616877833   0.014136207250447314   0.013268117170171928
-0.5008278703542965   0.13549324141916858   0.01346952935570521
-0.5008278703542965   0.13549324141916858   0.01346952935570521
-0.5008278703542965   0.13549324141916858   0.01346952935570521
-0.5008278703542965   0.13549324141916858   0.01346952935570521
-1.222913072354626   -0.020439779028600336   -0.02730259340995507
-1.222913072354626   -0.020439779028600336   -0.02730259340995507
-1.222913072354626   -0.020439779028600336   -0.02730259340995507
-1.222913072354626   -0.020439779028600336   -0.02730259340995507
-1.1646034026033545   0.07438519209998745   -0.05640117756367681
-1.1646034026033545   0.07438519209998745   -0.05640117756367681
-1.1646034026033545   0.07438519209998745   -0.05640117756367681
-1.1646034026033545   0.07438519209998745   -0.05640117756367681
-0.44516822141685763   0.2151494727517011   -0.010460878747324154
-0.44516822141685763   0.2151494727517011   -0.010460878747324154
-0.44516822141685763   0.2151494727517011   -0.010460878747324154
-0.44516822141685763   0.2151494727517011   -0.010460878747324154
-0.8281848027758163   0.09669947018200858   0.049153531388277924
-0.8281848027758163   0.09669947018200858   0.049153531388277924
-0.8281848027758163   0.09669947018200858   0.049153531388277924
-0.8281848027758163   0.09669947018200858   0.049153531388277924
-1.3409921143625365   -0.12934057598829002   -0.03879941649562692
-1.3409921143625365   -0.12934057598829002   -0.03879941649562692
-1.3409921143625365   -0.12934057598829002   -0.03879941649562692
-1.3409921143625365   -0.12934057598829002   -0.03879941649562692
-1.988657736501983   -0.11193062054855557   0.08039523840571952
-1.988657736501983   -0.11193062054855557   0.08039523840571952
-1.988657736501983   -0.11193062054855557   0.08039523840571952
-1.988657736501983   -0.11193062054855557   0.08039523840571952
-1.9884913221885188   -0.18966276666187393   -0.10720296926981174
-1.9884913221885188   -0.18966276666187393   -0.10720296926981174
-1.9884913221885188   -0.18966276666187393   -0.10720296926981174
-1.9884913221885188   -0.18966276666187393   -0.10720296926981174
-1.2167443124674329   0.12191153007112204   0.09797503801120044
-1.2167443124674329   0.12191153007112204   0.09797503801120044
-1.2167443124674329   0.12191153007112204   0.09797503801120044
-1.2167443124674329   0.12191153007112204   0.09797503801120044
-1.624625299211993   -0.06922175423662696   -0.010505981783756793
-1.624625299211993   -0.06922175423662696   -0.010505981783756793
-1.624625299211993   -0.06922175423662696   -0.010505981783756793
-1.624625299211993   -0.06922175423662696   -0.010505981783756793
-1.2789298977477561   -0.037098466319699874   -0.053942891999581674
-1.2789298977477561   -0.037098466319699874   -0.053942891999581674
-1.2789298977477561   -0.037098466319699874   -0.053942891999581674
-1.2789298977477561   -0.037098466319699874   -0.053942891999581674
-1.922302977980035   -0.026650011342927715   0.060725996453676614
-1.922302977980035   -0.026650011342927715   0.060725996453676614
-1.922302977980035   -0.026650011342927715   0.060725996453676614
-1.922302977980035   -0.026650011342927715   0.060725996453676614
-1.9093587691818674   -0.09975248321905772   -0.11927183921856509
-1.9093587691818674   -0.09975248321905772   -0.11927183921856509
-1.9093587691818674   -0.09975248321905772   -0.11927183921856509
-1.9093587691818674   -0.09975248321905772   -0.11927183921856509
-1.1581566814547617   0.19808031929913084   0.07795926276164566
-1.1581566814547617   0.19808031929913084   0.07795926276164566
-1.1581566814547617   0.19808031929913084   0.07795926276164566
-1.1581566814547617   0.19808031929913084   0.07795926276164566
-1.5464664137928719   0.014222195652410285   0.029019551348600223
-1.5464664137928719   0.014222195652410285   0.029019551348600223
-1.5464664137928719   0.014222195652410285   0.029019551348600223
-1.5464664137928719   0.014222195652410285   0.029019551348600223
-1.2182895245748997   0.04782567236505436   -0.07245030590497249
-1.2182895245748997   0.04782567236505436   -0.07245030590497249
-1.2182895245748997   0.04782567236505436   -0.07245030590497249
-1.2182895245748997   0.04782567236505436   -0.07245030590497249
-1.8447192004383444   0.05500888933840292   0.04916463194158888
-1.8447192004383444   0.05500888933840292   0.04916463194158888
-1.8447192004383444   0.05500888933840292   0.04916463194158888
-1.8447192004383444   0.05500888933840292   0.04916463194158888
-1.8385404824379246   -0.0015820953536431204   -0.12835667333566486
-1.8385404824379246   -0.0015820953536431204   -0.12835667333566486
-1.8385404824379246   -0.0015820953536431204   -0.12835667333566486
-1.8385404824379246   -0.0015820953536431204   -0.12835667333566486
-1.1001718858563183   0.2823399988133868   0.05780159945810387
-1.1001718858563183   0.2823399988133868   0.05780159945810387
-1.1001718858563183   0.2823399988133868   0.05780159945810387
-1.1001718858563183   0.2823399988133868   0.05780159945810387
-1.4876614872879286   0.09216894153991667   0.06448199194918114
-1.4876614872879286   0.09216894153991667   0.06448199194918114
-1.4876614872879286   0.09216894153991667   0.06448199194918114
-1.4876614872879286   0.09216894153991667   0.06448199194918114
-2.0430444068696754   -0.1860730842563571   -0.11739564972493965
-2.0430444068696754   -0.1860730842563571   -0.11739564972493965
-2.0430444068696754   -0.1860730842563571   -0.11739564972493965
-2.0430444068696754   -0.1860730842563571   -0.11739564972493965
-2.7254786049773676   -0.046854037360563705   0.17336288495604585
-2.7254786049773676   -0.046854037360563705   0.17336288495604585
-2.7254786049773676   -0.046854037360563705   0.17336288495604585
-2.7254786049773676   -0.046854037360563705   0.17336288495604585
-2.686328029035476   -0.247485708053426   -0.15635900516791612
-2.686328029035476   -0.247485708053426   -0.15635900516791612
-2.686328029035476   -0.247485708053426   -0.15635900516791612
-2.686328029035476   -0.247485708053426   -0.15635900516791612
-1.853786127546483   0.20575379414330214   0.17090644313519107
-1.853786127546483   0.20575379414330214   0.17090644313519107
-1.853786127546483   0.20575379414330214   0.17090644313519107
-1.853786127546483   0.20575379414330214   0.17090644313519107
-2.226925542209716   -0.039385682805265054   0.01810789990192875
-2.226925542209716   -0.039385682805265054   0.01810789990192875
-2.226925542209716   -0.039385682805265054   0.01810789990192875
-2.226925542209716   -0.039385682805265054   0.01810789990192875
-1.975797386099962   -0.10065582460876521   -0.13274023088012554
-1.975797386099962   -0.10065582460876521   -0.13274023088012554
-1.975797386099962   -0.10065582460876521   -0.13274023088012554
-1.975797386099962   -0.10065582460876521   -0.13274023088012554
-2.5607000515751253   0.06254062960550966   0.16175454447487111
-2.5607000515751253   0.06254062960550966   0.16175454447487111
-2.5607000515751253   0.06254062960550966   0.16175454447487111
-2.5607000515751253   0.06254062960550966   0.16175454447487111
-2.561546087104718   -0.19409465381443786   -0.18600898078896727
-2.561546087104718   -0.19409465381443786   -0.18600898078896727
-2.561546087104718   -0.19409465381443786   -0.18600898078896727
-2.561546087104718   -0.19409465381443786   -0.18600898078896727
-1.7892156568006727   0.240848147091838   0.14084309237650222
-1.7892156568006727   0.240848147091838   0.14084309237650222
-1.7892156568006727   0.240848147091838   0.14084309237650222
-1.7892156568006727   0.240848147091838   0.14084309237650222
-2.155571550754567   0.016581366060314184   0.05008220199843576
-2.155571550754567   0.016581366060314184   0.05008220199843576
-2.155571550754567   0.016581366060314184   0.05008220199843576
-2.155571550754567   0.016581366060314184   0.05008220199843576
-1.9075365046640065   -0.05672795094847155   -0.1531850488998469
-1.9075365046640065   -0.05672795094847155   -0.1531850488998469
-1.9075365046640065   -0.05672795094847155   -0.1531850488998469
-1.9075365046640065   -0.05672795094847155   -0.1531850488998469
-2.4387860153124836   0.1079206681547702   0.125776056202974
-2.4387860153124836   0.1079206681547702   0.125776056202974
-2.4387860153124836   0.1079206681547702   0.125776056202974
-2.4387860153124836   0.1079206681547702   0.125776056202974
-2.4080981333853204   -0.11419045354165769   -0.2073206999255258
-2.4080981333853204   -0.11419045354165769   -0.2073206999255258
-2.4080981333853204   -0.11419045354165769   -0.2073206999255258
-2.4080981333853204   -0.11419045354165769   -0.2073206999255258
-1.7323834475694535   0.2835136675044669   0.11733273814857983
-1.7323834475694535   0.2835136675044669   0.11733273814857983
-1.7323834475694535   0.2835136675044669   0.11733273814857983
-1.7323834475694535   0.2835136675044669   0.11733273814857983
-2.0235071084709166   0.06911335222247389   0.0949920907596139
-2.0235071084709166   0.06911335222247389   0.0949920907596139
-2.0235071084709166   0.06911335222247389   0.0949920907596139
-2.0235071084709166   0.06911335222247389   0.0949920907596139
2.1742156725994835   0.19735269820787482   0.18960139883804222
2.1742156725994835   0.19735269820787482   0.18960139883804222
2.1742156725994835   0.19735269820787482   0.18960139883804222
2.1742156725994835   0.19735269820787482   0.18960139883804222
0.797497479731939   -0.363438077802058   -0.12485342478540207
0.797497479731939   -0.363438077802058   -0.12485342478540207
0.797497479731939   -0.363438077802058   -0.12485342478540207
0.797497479731939   -0.363438077802058   -0.12485342478540207
0.9864041111317158   -0.0016104490824298268   0.1365214096495604
0.9864041111317158   -0.0016104490824298268   0.1365214096495604
0.9864041111317158   -0.0016104490824298268   0.1365214096495604
0.9864041111317158   -0.0016104490824298268   0.1365214096495604
2.2146196082639014   -0.0519192967785117   -0.15932727915991313
2.2146196082639014   -0.0519192967785117   -0.15932727915991313
2.2146196082639014   -0.0519192967785117   -0.15932727915991313
2.2146196082639014   -0.0519192967785117   -0.15932727915991313
1.448245784682286   -0.06623127521260813   -0.140299597870618
1.448245784682286   -0.06623127521260813   -0.140299597870618
1.448245784682286   -0.06623127521260813   -0.140299597870618
1.448245784682286   -0.06623127521260813   -0.140299597870618
2.3449841669321967   0.27576376969029864   0.16481244771272185
2.3449841669321967   0.27576376969029864   0.16481244771272185
2.3449841669321967   0.27576376969029864   0.16481244771272185
2.3449841669321967   0.27576376969029864   0.16481244771272185
0.8652217550427737   -0.3201113129718922   -0.15088950690568786
0.8652217550427737   -0.3201113129718922   -0.15088950690568786
0.8652217550427737   -0.3201113129718922   -0.15088950690568786
0.8652217550427737   -0.3201113129718922   -0.15088950690568786
1.061359057749156   0.04129135113889365   0.11265545129516806
1.061359057749156   0.04129135113889365   0.11265545129516806
1.061359057749156   0.04129135113889365   0.11265545129516806
1.061359057749156   0.04129135113889365   0.11265545129516806
2.3506885482441824   -0.0031244078566676214   -0.20092363341628816
2.3506885482441824   -0.0031244078566676214   -0.20092363341628816
2.3506885482441824   -0.0031244078566676214   -0.20092363341628816
2.3506885482441824   -0.0031244078566676214   -0.20092363341628816
1.5901231243032121   -0.01346636670516127   -0.08484318360212009
1.5901231243032121   -0.01346636670516127   -0.08484318360212009
1.5901231243032121   -0.01346636670516127   -0.08484318360212009
1.5901231243032121   -0.01346636670516127   -0.08484318360212009
2.4825543631101734   0.32837960713621456   0.12690142592075476
2.4825543631101734   0.32837960713621456   0.12690142592075476
2.4825543631101734   0.32837960713621456   0.12690142592075476
2.4825543631101734   0.32837960713621456   0.12690142592075476
0.9393039387708811   -0.2804019679662543   -0.17592682449104277
0.9393039387708811   -0.2804019679662543   -0.17592682449104277
0.9393039387708811   -0.2804019679662543   -0.17592682449104277
0.9393039387708811   -0.2804019679662543   -0.17592682449104277
1.1362002553142343   0.1357361397833673   0.09764135526917286
1.1362002553142343   0.1357361397833673   0.09764135526917286
1.1362002553142343   0.1357361397833673   0.09764135526917286
1.1362002553142343   0.1357361397833673   0.09764135526917286
2.5292613691797556   0.12416037130890972   -0.21681204420341627
2.5292613691797556   0.12416037130890972   -0.21681204420341627
2.5292613691797556   0.12416037130890972   -0.21681204420341627
2.5292613691797556   0.12416037130890972   -0.21681204420341627
1.6782248434855334   0.05061818317322614   -0.036746677192106655
1.6782248434855334   0.05061818317322614   -0.036746677192106655
1.6782248434855334   0.05061818317322614   -0.036746677192106655
1.6782248434855334   0.05061818317322614   -0.036746677192106655
0.9474237221239361   0.1102435730900292   0.15109613628249624
0.9474237221239361   0.1102435730900292   0.15109613628249624
0.9474237221239361   0.1102435730900292   0.15109613628249624
0.9474237221239361   0.1102435730900292   0.15109613628249624
-0.4593758388057658   -0.33902409709406134   -0.06532679546467049
-0.4593758388057658   -0.33902409709406134   -0.06532679546467049
-0.4593758388057658   -0.33902409709406134   -0.06532679546467049
-0.4593758388057658   -0.33902409709406134   -0.06532679546467049
-0.32917016031817126   -0.0987661536020158   0.04595752584540731
-0.32917016031817126   -0.0987661536020158   0.04595752584540731
-0.32917016031817126   -0.0987661536020158   0.04595752584540731
-0.32917016031817126   -0.0987661536020158   0.04595752584540731
0.9556295791973395   0.0013147418559646962   -0.02027644096071589
0.9556295791973395   0.0013147418559646962   -0.02027644096071589
0.9556295791973395   0.0013147418559646962   -0.02027644096071589
0.9556295791973395   0.0013147418559646962   -0.02027644096071589
0.2661771783872945   -0.07210018701047255   -0.05994094468340876
0.2661771783872945   -0.07210018701047255   -0.05994094468340876
0.2661771783872945   -0.07210018701047255   -0.05994094468340876
0.2661771783872945   -0.07210018701047255   -0.05994094468340876
1.024358171912015   0.18973688380722106   0.13494438066140535
1.024358171912015   0.18973688380722106   0.13494438066140535
1.024358171912015   0.18973688380722106   0.13494438066140535
1.024358171912015   0.18973688380722106   0.13494438066140535
-0.3924044043341941   -0.28169394685461946   -0.08728590098210305
-0.3924044043341941   -0.28169394685461946   -0.08728590098210305
-0.3924044043341941   -0.28169394685461946   -0.08728590098210305
-0.3924044043341941   -0.28169394685461946   -0.08728590098210305
-0.25931182197719793   -0.018582881040282648   0.029099912969234618
-0.25931182197719793   -0.018582881040282648   0.029099912969234618
-0.25931182197719793   -0.018582881040282648   0.029099912969234618
-0.25931182197719793   -0.018582881040282648   0.029099912969234618
1.0376973622813714   0.07334203996562066   -0.03770371487046571
1.0376973622813714   0.07334203996562066   -0.03770371487046571
1.0376973622813714   0.07334203996562066   -0.03770371487046571
1.0376973622813714   0.07334203996562066   -0.03770371487046571
0.3337282182343344   -0.008694153132031868   -0.023859702280737742
0.3337282182343344   -0.008694153132031868   -0.023859702280737742
0.3337282182343344   -0.008694153132031868   -0.023859702280737742
0.3337282182343344   -0.008694153132031868   -0.023859702280737742
1.1091645461278712   0.27323938237701   0.11973486195062881
1.1091645461278712   0.27323938237701   0.11973486195062881
1.1091645461278712   0.27323938237701   0.11973486195062881
1.1091645461278712   0.27323938237701   0.11973486195062881
-0.3252661616282979   -0.21296737925627476   -0.10628728707027331
-0.3252661616282979   -0.21296737925627476   -0.10628728707027331
-0.3252661616282979   -0.21296737925627476   -0.10628728707027331
-0.3252661616282979   -0.21296737925627476   -0.10628728707027331
-0.19035759025852206   0.07418522981819653   0.012308398897642042
-0.19035759025852206   0.07418522981819653   0.012308398897642042
-0.19035759025852206   0.07418522981819653   0.012308398897642042
-0.19035759025852206   0.07418522981819653   0.012308398897642042
1.1105659281611033   0.15899991025552684   -0.053794050968642135
1.1105659281611033   0.15899991025552684   -0.053794050968642135
1.1105659281611033   0.15899991025552684   -0.053794050968642135
1.1105659281611033   0.15899991025552684   -0.053794050968642135
0.4169179823339757   0.06895988634557357   0.01823217798642519
0.4169179823339757   0.06895988634557357   0.01823217798642519
0.4169179823339757   0.06895988634557357   0.01823217798642519
0.4169179823339757   0.06895988634557357   0.01823217798642519
-0.3609452172972171   0.023705391511680565   0.06409682347233897
-0.3609452172972171   0.023705391511680565   0.06409682347233897
-0.3609452172972171   0.023705391511680565   0.06409682347233897
-0.3609452172972171   0.023705391511680565   0.06409682347233897
-1.6912474933060335   -0.2990774626475816   -0.008460646655536218
-1.6912474933060335   -0.2990774626475816   -0.008460646655536218
-1.6912474933060335   -0.2990774626475816   -0.008460646655536218
-1.6912474933060335   -0.2990774626475816   -0.008460646655536218
-1.6082926085332454   -0.17538775416650643   -0.03979447804948774
-1.6082926085332454   -0.17538775416650643   -0.03979447804948774
-1.6082926085332454   -0.17538775416650643   -0.03979447804948774
-1.6082926085332454   -0.17538775416650643   -0.03979447804948774
-0.3013893110257976   0.04335024099593595   0.042745377709324156
-0.3013893110257976   0.04335024099593595   0.042745377709324156
-0.3013893110257976   0.04335024099593595   0.042745377709324156
-0.3013893110257976   0.04335024099593595   0.042745377709324156
-0.9922259292692285   -0.09208892649696415   -0.03738477166771513
-0.9922259292692285   -0.09208892649696415   -0.03738477166771513
-0.9922259292692285   -0.09208892649696415   -0.03738477166771513
-0.9922259292692285   -0.09208892649696415   -0.03738477166771513
-0.28764589509573024   0.10638585316834454   0.04842684518725206
-0.28764589509573024   0.10638585316834454   0.04842684518725206
-0.28764589509573024   0.10638585316834454   0.04842684518725206
-0.28764589509573024   0.10638585316834454   0.04842684518725206
-1.6184006043762937   -0.23478794625189608   -0.030934265179340018
-1.6184006043762937   -0.23478794625189608   -0.030934265179340018
-1.6184006043762937   -0.23478794625189608   -0.030934265179340018
-1.6184006043762937   -0.23478794625189608   -0.030934265179340018
-1.531320965275252   -0.08741538594082343   -0.05377273505044476
-1.531320965275252   -0.08741538594082343   -0.05377273505044476
-1.531320965275252   -0.08741538594082343   -0.05377273505044476
-1.531320965275252   -0.08741538594082343   -0.05377273505044476
-0.23338112415356865   0.116094147185132   0.02407637386197386
-0.23338112415356865   0.116094147185132   0.02407637386197386
-0.23338112415356865   0.116094147185132   0.02407637386197386
-0.23338112415356865   0.116094147185132   0.02407637386197386
-0.914609640421674   -0.018467923108099443   -0.0005935570637973023
-0.914609640421674   -0.018467923108099443   -0.0005935570637973023
-0.914609640421674   -0.018467923108099443   -0.0005935570637973023
-0.914609640421674   -0.018467923108099443   -0.0005935570637973023
-0.21680963565053785   0.19237251642221692   0.030655447140042966
-0.21680963565053785   0.19237251642221692   0.030655447140042966
-0.21680963565053785   0.19237251642221692   0.030655447140042966
-0.21680963565053785   0.19237251642221692   0.030655447140042966
-1.544508533065414   -0.16030983446506006   -0.046816125477018335
-1.544508533065414   -0.16030983446506006   -0.046816125477018335
-1.544508533065414   -0.16030983446506006   -0.046816125477018335
-1.544508533065414   -0.16030983446506006   -0.046816125477018335
-1.4596861844346245   0.00023354572246386818   -0.07052255087574345
-1.4596861844346245   0.00023354572246386818   -0.07052255087574345
-1.4596861844346245   0.00023354572246386818   -0.07052255087574345
-1.4596861844346245   0.00023354572246386818   -0.07052255087574345
-0.16842016105302166   0.19042115487275307   0.005759619870587505
-0.16842016105302166   0.19042115487275307   0.005759619870587505
-0.16842016105302166   0.19042115487275307   0.005759619870587505
-0.16842016105302166   0.19042115487275307   0.005759619870587505
-0.8432821592187258   0.05486860206660188   0.034430301494908666
-0.8432821592187258   0.05486860206660188   0.034430301494908666
-0.8432821592187258   0.05486860206660188   0.034430301494908666
-0.8432821592187258   0.05486860206660188   0.034430301494908666
-1.6478600033945803   -0.06497521129782247   -0.025625448448017923
-1.6478600033945803   -0.06497521129782247   -0.025625448448017923
-1.6478600033945803   -0.06497521129782247   -0.025625448448017923
-1.6478600033945803   -0.06497521129782247   -0.025625448448017923
-2.8938394549481576   -0.24182866560662447   0.05662064474515198
-2.8938394549481576   -0.24182866560662447   0.05662064474515198
-2.8938394549481576   -0.24182866560662447   0.05662064474515198
-2.8938394549481576   -0.24182866560662447   0.05662064474515198
-2.852881353711787   -0.2488787062138489   -0.11983910216929988
-2.852881353711787   -0.2488787062138489   -0.11983910216929988
-2.852881353711787   -0.2488787062138489   -0.11983910216929988
-2.852881353711787   -0.2488787062138489   -0.11983910216929988
-1.5213445418883387   0.1118522207091946   0.10770588029935796
-1.5213445418883387   0.1118522207091946   0.10770588029935796
-1.5213445418883387   0.1118522207091946   0.10770588029935796
-1.5213445418883387   0.1118522207091946   0.10770588029935796
-2.2135560636688276   -0.09687301686762473   -0.012995098128768895
-2.2135560636688276   -0.09687301686762473   -0.012995098128768895
-2.2135560636688276   -0.09687301686762473   -0.012995098128768895
-2.2135560636688276   -0.09687301686762473   -0.012995098128768895
-1.5681624245014045   0.02427219804227687   -0.038803510099053695
-1.5681624245014045   0.02427219804227687   -0.038803510099053695
-1.5681624245014045   0.02427219804227687   -0.038803510099053695
-1.5681624245014045   0.02427219804227687   -0.038803510099053695
-2.805976158514389   -0.16121137096259508   0.027019538566459667
-2.805976158514389   -0.16121137096259508   0.027019538566459667
-2.805976158514389   -0.16121137096259508   0.027019538566459667
-2.805976158514389   -0.16121137096259508   0.027019538566459667
-2.7524257041971536   -0.16287400740198854   -0.13254334800155926
-2.7524257041971536   -0.16287400740198854   -0.13254334800155926
-2.7524257041971536   -0.16287400740198854   -0.13254334800155926
-2.7524257041971536   -0.16287400740198854   -0.13254334800155926
-1.449622110316272   0.1812726091005019   0.08603354470314237
-1.449622110316272   0.1812726091005019   0.08603354470314237
-1.449622110316272   0.1812726091005019   0.08603354470314237
-1.449622110316272   0.1812726091005019   0.08603354470314237
-2.1114952882574354   -0.015468660380975607   0.02385509090264723
-2.1114952882574354   -0.015468660380975607   0.02385509090264723
-2.1114952882574354   -0.015468660380975607   0.02385509090264723
-2.1114952882574354   -0.015468660380975607   0.02385509090264723
-1.493568217889876   0.10410106887241855   -0.05652545293680131
-1.493568217889876   0.10410106887241855   -0.05652545293680131
-1.493568217889876   0.10410106887241855   -0.05652545293680131
-1.493568217889876   0.10410106887241855   -0.05652545293680131
-2.7062568263427975   -0.08347969689315438   0.018906730761386575
-2.7062568263427975   -0.08347969689315438   0.018906730761386575
-2.7062568263427975   -0.08347969689315438   0.018906730761386575
-2.7062568263427975   -0.08347969689315438   0.018906730761386575
-2.662587142278663   -0.06956824918909776   -0.13932438413197493
-2.662587142278663   -0.06956824918909776   -0.13932438413197493
-2.662587142278663   -0.06956824918909776   -0.13932438413197493
-2.662587142278663   -0.06956824918909776   -0.13932438413197493
-1.3801549572038396   0.2577088120102895   0.06965831899036642
-1.3801549572038396   0.2577088120102895   0.06965831899036642
-1.3801549572038396   0.2577088120102895   0.06965831899036642
-1.3801549572038396   0.2577088120102895   0.06965831899036642
-2.0420849366215474   0.054205352688208586   0.05567295034901232
-2.0420849366215474   0.054205352688208586   0.05567295034901232
-2.0420849366215474   0.054205352688208586   0.05567295034901232
-2.0420849366215474   0.054205352688208586   0.05567295034901232
-2.906419274067754   -0.13944680955145106   -0.10866030690800449
-2.906419274067754   -0.13944680955145106   -0.10866030690800449
-2.906419274067754   -0.13944680955145106   -0.10866030690800449
-2.906419274067754   -0.13944680955145106   -0.10866030690800449
-4.140015900402341   -0.14895401432426325   0.18844052760507546
-4.140015900402341   -0.14895401432426325   0.18844052760507546
-4.140015900402341   -0.14895401432426325   0.18844052760507546
-4.140015900402341   -0.14895401432426325   0.18844052760507546
-4.058852202298559   -0.2981551196264238   -0.14357205096136297
-4.058852202298559   -0.2981551196264238   -0.14357205096136297
-4.058852202298559   -0.2981551196264238   -0.14357205096136297
-4.058852202298559   -0.2981551196264238   -0.14357205096136297
-2.6943948085300238   0.23236634197963746   0.19134857554602952
-2.6943948085300238   0.23236634197963746   0.19134857554602952
-2.6943948085300238   0.23236634197963746   0.19134857554602952
-2.6943948085300238   0.23236634197963746   0.19134857554602952
-3.2969938718334704   -0.040791919531854015   0.03768766215524841
-3.2969938718334704   -0.040791919531854015   0.03768766215524841
-3.2969938718334704   -0.040791919531854015   0.03768766215524841
-3.2969938718334704   -0.040791919531854015   0.03768766215524841
-2.8121402341102284   -0.04425063155964937   -0.12076157881569866
-2.8121402341102284   -0.04425063155964937   -0.12076157881569866
-2.8121402341102284   -0.04425063155964937   -0.12076157881569866
-2.8121402341102284   -0.04425063155964937   -0.12076157881569866
-3.9392485299312487   -0.019679899300055315   0.17597109054879106
-3.9392485299312487   -0.019679899300055315   0.17597109054879106
-3.9392485299312487   -0.019679899300055315   0.17597109054879106
-3.9392485299312487   -0.019679899300055315   0.17597109054879106
-3.9072486986893495   -0.24472889784897156   -0.16900909043886853
-3.9072486986893495   -0.24472889784897156   -0.16900909043886853
-3.9072486986893495   -0.24472889784897156   -0.16900909043886853
-3.9072486986893495   -0.24472889784897156   -0.16900909043886853
-2.609970039208253   0.2653316107672897   0.15152935877366375
-2.609970039208253   0.2653316107672897   0.15152935877366375
-2.609970039208253   0.2653316107672897   0.15152935877366375
-2.609970039208253   0.2653316107672897   0.15152935877366375
-3.217970821329302   0.017488724799435196   0.06849324533913256
-3.217970821329302   0.017488724799435196   0.06849324533913256
-3.217970821329302   0.017488724799435196   0.06849324533913256
-3.217970821329302   0.017488724799435196   0.06849324533913256
-2.721038771757644   -0.001151360846714078   -0.13733133235928685
-2.721038771757644   -0.001151360846714078   -0.13733133235928685
-2.721038771757644   -0.001151360846714078   -0.13733133235928685
-2.721038771757644   -0.001151360846714078   -0.13733133235928685
-3.794345552797592   0.0235884871073887   0.12718925406349785
-3.794345552797592   0.0235884871073887   0.12718925406349785
-3.794345552797592   0.0235884871073887   0.12718925406349785
-3.794345552797592   0.0235884871073887   0.12718925406349785
-3.7417905681457664   -0.18032927274941524   -0.19247484254451816
-3.7417905681457664   -0.18032927274941524   -0.19247484254451816
-3.7417905681457664   -0.18032927274941524   -0.19247484254451816
-3.7417905681457664   -0.18032927274941524   -0.19247484254451816
-2.5356563340425464   0.29669886604953344   0.12906254180997434
-2.5356563340425464   0.29669886604953344   0.12906254180997434
-2.5356563340425464   0.29669886604953344   0.12906254180997434
-2.5356563340425464   0.29669886604953344   0.12906254180997434
-3.051403682007123   0.06603868861621609   0.11481860998315785
-3.051403682007123   0.06603868861621609   0.11481860998315785
-3.051403682007123   0.06603868861621609   0.11481860998315785
-3.051403682007123   0.06603868861621609   0.11481860998315785
3.66112521479764   0.27326009840486454   0.1950097211835098
3.66112521479764   0.27326009840486454   0.1950097211835098
3.66112521479764   0.27326009840486454   0.1950097211835098
3.66112521479764   0.27326009840486454   0.1950097211835098
1.6167218357662798   -0.4331619966035641   -0.08916131068352146
1.6167218357662798   -0.4331619966035641   -0.08916131068352146
1.6167218357662798   -0.4331619966035641   -0.08916131068352146
1.6167218357662798   -0.4331619966035641   -0.08916131068352146
1.8042261967447089   -0.07530889209878172   0.13411815575780714
1.8042261967447089   -0.07530889209878172   0.13411815575780714
1.8042261967447089   -0.07530889209878172   0.13411815575780714
1.8042261967447089   -0.07530889209878172   0.13411815575780714
3.7023924603682143   -0.00880079099363229   -0.14006404238705428
3.7023924603682143   -0.00880079099363229   -0.14006404238705428
3.7023924603682143   -0.00880079099363229   -0.14006404238705428
3.7023924603682143   -0.00880079099363229   -0.14006404238705428
2.5381067964850392   -0.07775987447707489   -0.19924316757198815
2.5381067964850392   -0.07775987447707489   -0.19924316757198815
2.5381067964850392   -0.07775987447707489   -0.19924316757198815
2.5381067964850392   -0.07775987447707489   -0.19924316757198815
3.832013190023432   0.33606053198706276   0.16317828290830624
3.832013190023432   0.33606053198706276   0.16317828290830624
3.832013190023432   0.33606053198706276   0.16317828290830624
3.832013190023432   0.33606053198706276   0.16317828290830624
1.6870346438861077   -0.4077410382828633   -0.11940746235110239
1.6870346438861077   -0.4077410382828633   -0.11940746235110239
1.6870346438861077   -0.4077410382828633   -0.11940746235110239
1.6870346438861077   -0.4077410382828633   -0.11940746235110239
1.8778909441468936   -0.035797795094755   0.10850703449056358
1.8778909441468936   -0.035797795094755   0.10850703449056358
1.8778909441468936   -0.035797795094755   0.10850703449056358
1.8778909441468936   -0.035797795094755   0.10850703449056358
3.8306162966157626   0.03479983434050005   -0.1752221245735125
3.8306162966157626   0.03479983434050005   -0.1752221245735125
3.8306162966157626   0.03479983434050005   -0.1752221245735125
3.8306162966157626   0.03479983434050005   -0.1752221245735125
2.698784461277047   -0.031088202867836645   -0.1354007820578373
2.698784461277047   -0.031088202867836645   -0.1354007820578373
2.698784461277047   -0.031088202867836645   -0.1354007820578373
2.698784461277047   -0.031088202867836645   -0.1354007820578373
3.9595081209794616   0.38302633307561934   0.12101049850986699
3.9595081209794616   0.38302633307561934   0.12101049850986699
3.9595081209794616   0.38302633307561934   0.12101049850986699
3.9595081209794616   0.38302633307561934   0.12101049850986699
1.7598968479206478   -0.3731265656924206   -0.1441346760430008
1.7598968479206478   -0.3731265656924206   -0.1441346760430008
1.7598968479206478   -0.3731265656924206   -0.1441346760430008
1.7598968479206478   -0.3731265656924206   -0.1441346760430008
1.9445774683302113   0.06961214060679538   0.09513070313543323
1.9445774683302113   0.06961214060679538   0.09513070313543323
1.9445774683302113   0.06961214060679538   0.09513070313543323
1.9445774683302113   0.06961214060679538   0.09513070313543323
3.9882060658096283   0.16230306451863075   -0.18356908593879656
3.9882060658096283   0.16230306451863075   -0.18356908593879656
3.9882060658096283   0.16230306451863075   -0.18356908593879656
3.9882060658096283   0.16230306451863075   -0.18356908593879656
2.7595395571478427   0.031617210747923674   -0.09109276951310927
2.7595395571478427   0.031617210747923674   -0.09109276951310927
2.7595395571478427   0.031617210747923674   -0.09109276951310927
2.7595395571478427   0.031617210747923674   -0.09109276951310927
1.7886103093009529   0.15921858641453573   0.17790047397171943
1.7886103093009529   0.15921858641453573   0.17790047397171943
1.7886103093009529   0.15921858641453573   0.17790047397171943
1.7886103093009529   0.15921858641453573   0.17790047397171943
-0.21762201427962402   -0.5345197457337979   -0.05065298999694853
-0.21762201427962402   -0.5345197457337979   -0.05065298999694853
-0.21762201427962402   -0.5345197457337979   -0.05065298999694853
-0.21762201427962402   -0.5345197457337979   -0.05065298999694853
-0.05577068311452797   -0.18778147020397082   0.045642761051596724
-0.05577068311452797   -0.18778147020397082   0.045642761051596724
-0.05577068311452797   -0.18778147020397082   0.045642761051596724
-0.05577068311452797   -0.18778147020397082   0.045642761051596724
1.7738437436179129   -0.10166539348539361   0.008562391510439221
1.7738437436179129   -0.10166539348539361   0.008562391510439221
1.7738437436179129   -0.10166539348539361   0.008562391510439221
1.7738437436179129   -0.10166539348539361   0.008562391510439221
0.8000028803437114   -0.1498894670390085   -0.09534139791123394
0.8000028803437114   -0.1498894670390085   -0.09534139791123394
0.8000028803437114   -0.1498894670390085   -0.09534139791123394
0.8000028803437114   -0.1498894670390085   -0.09534139791123394
1.8678305263723238   0.21931366820208373   0.1575172435950174
1.8678305263723238   0.21931366820208373   0.1575172435950174
1.8678305263723238   0.21931366820208373   0.1575172435950174
1.8678305263723238   0.21931366820208373   0.1575172435950174
-0.14324444183790472   -0.5022475078604138   -0.077259994908844
-0.14324444183790472   -0.5022475078604138   -0.077259994908844
-0.14324444183790472   -0.5022475078604138   -0.077259994908844
-0.14324444183790472   -0.5022475078604138   -0.077259994908844
0.019366640586313655   -0.11718952283824302   0.027969192805273782
0.019366640586313655   -0.11718952283824302   0.027969192805273782
0.019366640586313655   -0.11718952283824302   0.027969192805273782
0.019366640586313655   -0.11718952283824302   0.027969192805273782
1.8506950084664862   -0.0484527143564783   -0.014817724649751257
1.8506950084664862   -0.0484527143564783   -0.014817724649751257
1.8506950084664862   -0.0484527143564783   -0.014817724649751257
1.8506950084664862   -0.0484527143564783   -0.014817724649751257
0.8654049615862843   -0.10657913660813195   -0.06187547232068143
0.8654049615862843   -0.10657913660813195   -0.06187547232068143
0.8654049615862843   -0.10657913660813195   -0.06187547232068143
0.8654049615862843   -0.10657913660813195   -0.06187547232068143
1.9497312435839997   0.291393088763756   0.14051764781758302
1.9497312435839997   0.291393088763756   0.14051764781758302
1.9497312435839997   0.291393088763756   0.14051764781758302
1.9497312435839997   0.291393088763756   0.14051764781758302
-0.07582806634690127   -0.45319379777419905   -0.11200006692484483
-0.07582806634690127   -0.45319379777419905   -0.11200006692484483
-0.07582806634690127   -0.45319379777419905   -0.11200006692484483
-0.07582806634690127   -0.45319379777419905   -0.11200006692484483
0.0783255981096998   -0.03467128897430563   0.010090282933721594
0.0783255981096998   -0.03467128897430563   0.010090282933721594
0.0783255981096998   -0.03467128897430563   0.010090282933721594
0.0783255981096998   -0.03467128897430563   0.010090282933721594
1.9082987644404406   0.019315253244918396   -0.03596592895157441
1.9082987644404406   0.019315253244918396   -0.03596592895157441
1.9082987644404406   0.019315253244918396   -0.03596592895157441
1.9082987644404406   0.019315253244918396   -0.03596592895157441
0.9451342291635556   -0.04185923323356627   -0.02607088739856471
0.9451342291635556   -0.04185923323356627   -0.02607088739856471
0.9451342291635556   -0.04185923323356627   -0.02607088739856471
0.9451342291635556   -0.04185923323356627   -0.02607088739856471
-0.07420347540940156   0.04367288498912482   0.08824707363124114
-0.07420347540940156   0.04367288498912482   0.08824707363124114
-0.07420347540940156   0.04367288498912482   0.08824707363124114
-0.07420347540940156   0.04367288498912482   0.08824707363124114
-2.037965605678978   -0.6716684771722985   -0.04096397413532685
-2.037965605678978   -0.6716684771722985   -0.04096397413532685
-2.037965605678978   -0.6716684771722985   -0.04096397413532685
-2.037965605678978   -0.6716684771722985   -0.04096397413532685
-1.8737975788887464   -0.28824116913234965   -0.04280340506903241
-1.8737975788887464   -0.28824116913234965   -0.04280340506903241
-1.8737975788887464   -0.28824116913234965   -0.04280340506903241
-1.8737975788887464   -0.28824116913234965   -0.04280340506903241
-0.06633507637388829   -0.2345575184834449   0.039596843034269205
-0.06633507637388829   -0.2345575184834449   0.039596843034269205
-0.06633507637388829   -0.2345575184834449   0.039596843034269205
-0.06633507637388829   -0.2345575184834449   0.039596843034269205
-1.0177581563970455   -0.27229082248438397   -0.08527444889517494
-1.0177581563970455   -0.27229082248438397   -0.08527444889517494
-1.0177581563970455   -0.27229082248438397   -0.08527444889517494
-1.0177581563970455   -0.27229082248438397   -0.08527444889517494
0.009233619938521575   0.11125192739125807   0.07163087872161558
0.009233619938521575   0.11125192739125807   0.07163087872161558
0.009233619938521575   0.11125192739125807   0.07163087872161558
0.009233619938521575   0.11125192739125807   0.07163087872161558
-1.944676933815826   -0.629361273621702   -0.056080075215078545
-1.944676933815826   -0.629361273621702   -0.056080075215078545
-1.944676933815826   -0.629361273621702   -0.056080075215078545
-1.944676933815826   -0.629361273621702   -0.056080075215078545
-1.7806357638151615   -0.20985083029471718   -0.058393873875679334
-1.7806357638151615   -0.20985083029471718   -0.058393873875679334
-1.7806357638151615   -0.20985083029471718   -0.058393873875679334
-1.7806357638151615   -0.20985083029471718   -0.058393873875679334
0.0036984728103272232   -0.18344938208815548   0.015888213175254053
0.0036984728103272232   -0.18344938208815548   0.015888213175254053
0.0036984728103272232   -0.18344938208815548   0.015888213175254053
0.0036984728103272232   -0.18344938208815548   0.015888213175254053
-0.9273214414053085   -0.2159886863778744   -0.04748586418194359
-0.9273214414053085   -0.2159886863778744   -0.04748586418194359
-0.9273214414053085   -0.2159886863778744   -0.04748586418194359
-0.9273214414053085   -0.2159886863778744   -0.04748586418194359
0.0855992624227006   0.18621958796482016   0.055723191184145385
0.0855992624227006   0.18621958796482016   0.055723191184145385
0.0855992624227006   0.18621958796482016   0.055723191184145385
0.0855992624227006   0.18621958796482016   0.055723191184145385
-1.8626470860377127   -0.5796303329578686   -0.09867098232527152
-1.8626470860377127   -0.5796303329578686   -0.09867098232527152
-1.8626470860377127   -0.5796303329578686   -0.09867098232527152
-1.8626470860377127   -0.5796303329578686   -0.09867098232527152
-1.7148203802055138   -0.13518137347319595   -0.07585280270666547
-1.7148203802055138   -0.13518137347319595   -0.07585280270666547
-1.7148203802055138   -0.13518137347319595   -0.07585280270666547
-1.7148203802055138   -0.13518137347319595   -0.07585280270666547
0.049733073321935065   -0.14274545878597497   -0.024798171193432746
0.049733073321935065   -0.14274545878597497   -0.024798171193432746
0.049733073321935065   -0.14274545878597497   -0.024798171193432746
0.049733073321935065   -0.14274545878597497   -0.024798171193432746
-0.8609683816841367   -0.1635481515501941   -0.023926103970488232
-0.8609683816841367   -0.1635481515501941   -0.023926103970488232
-0.8609683816841367   -0.1635481515501941   -0.023926103970488232
-0.8609683816841367   -0.1635481515501941   -0.023926103970488232
-1.9073713946390713   -0.05649288476290382   -0.003168511345208236
-1.9073713946390713   -0.05649288476290382   -0.003168511345208236
-1.9073713946390713   -0.05649288476290382   -0.003168511345208236
-1.9073713946390713   -0.05649288476290382   -0.003168511345208236
-3.865926400994054   -0.7221243652100923   -0.03316264489502187
-3.865926400994054   -0.7221243652100923   -0.03316264489502187
-3.865926400994054   -0.7221243652100923   -0.03316264489502187
-3.865926400994054   -0.7221243652100923   -0.03316264489502187
-3.68917369975262   -0.36882383452335077   -0.12784523799908742
-3.68917369975262   -0.36882383452335077   -0.12784523799908742
-3.68917369975262   -0.36882383452335077   -0.12784523799908742
-3.68917369975262   -0.36882383452335077   -0.12784523799908742
-1.8394239757848678   -0.24354550496663227   0.0843689462846284
-1.8394239757848678   -0.24354550496663227   0.0843689462846284
-1.8394239757848678   -0.24354550496663227   0.0843689462846284
-1.8394239757848678   -0.24354550496663227   0.0843689462846284
-2.800606849051445   -0.32689626688291923   -0.06016330552738834
-2.800606849051445   -0.32689626688291923   -0.06016330552738834
-2.800606849051445   -0.32689626688291923   -0.06016330552738834
-2.800606849051445   -0.32689626688291923   -0.06016330552738834
-1.8044642383946057   0.0306762758349427   -0.015054147565634612
-1.8044642383946057   0.0306762758349427   -0.015054147565634612
-1.8044642383946057   0.0306762758349427   -0.015054147565634612
-1.8044642383946057   0.0306762758349427   -0.015054147565634612
-3.7257530843899827   -0.6446652625720202   -0.03490073313719635
-3.7257530843899827   -0.6446652625720202   -0.03490073313719635
-3.7257530843899827   -0.6446652625720202   -0.03490073313719635
-3.7257530843899827   -0.6446652625720202   -0.03490073313719635
-3.556127109464429   -0.28686330745412936   -0.14814103892185684
-3.556127109464429   -0.28686330745412936   -0.14814103892185684
-3.556127109464429   -0.28686330745412936   -0.14814103892185684
-3.556127109464429   -0.28686330745412936   -0.14814103892185684
-1.7488579655848682   -0.18192640514531014   0.07257069212639139
-1.7488579655848682   -0.18192640514531014   0.07257069212639139
-1.7488579655848682   -0.18192640514531014   0.07257069212639139
-1.7488579655848682   -0.18192640514531014   0.07257069212639139
-2.664083395491985   -0.24827079279463143   -0.020048885042606088
-2.664083395491985   -0.24827079279463143   -0.020048885042606088
-2.664083395491985   -0.24827079279463143   -0.020048885042606088
-2.664083395491985   -0.24827079279463143   -0.020048885042606088
-1.7110581726866996   0.10642278165014085   -0.026779530178235283
-1.7110581726866996   0.10642278165014085   -0.026779530178235283
-1.7110581726866996   0.10642278165014085   -0.026779530178235283
-1.7110581726866996   0.10642278165014085   -0.026779530178235283
-3.600450055854184   -0.5817356477411851   -0.07488343058354563
-3.600450055854184   -0.5817356477411851   -0.07488343058354563
-3.600450055854184   -0.5817356477411851   -0.07488343058354563
-3.600450055854184   -0.5817356477411851   -0.07488343058354563
-3.4479678252714208   -0.2003472201358507   -0.15280897367287588
-3.4479678252714208   -0.2003472201358507   -0.15280897367287588
-3.4479678252714208   -0.2003472201358507   -0.15280897367287588
-3.4479678252714208   -0.2003472201358507   -0.15280897367287588
-1.6967888930588206   -0.1427528860903834   0.021876145644003905
-1.6967888930588206   -0.1427528860903834   0.021876145644003905
-1.6967888930588206   -0.1427528860903834   0.021876145644003905
-1.6967888930588206   -0.1427528860903834   0.021876145644003905
-2.588200064458383   -0.20029634763275805   -0.007019006088348934
-2.588200064458383   -0.20029634763275805   -0.007019006088348934
-2.588200064458383   -0.20029634763275805   -0.007019006088348934
-2.588200064458383   -0.20029634763275805   -0.007019006088348934
-3.759544629666884   -0.1293529136600129   -0.09402523980925265
-3.759544629666884   -0.1293529136600129   -0.09402523980925265
-3.759544629666884   -0.1293529136600129   -0.09402523980925265
-3.759544629666884   -0.1293529136600129   -0.09402523980925265
-5.668454646715784   -0.48631105438543654   0.21645679159881537
-5.668454646715784   -0.48631105438543654   0.21645679159881537
-5.668454646715784   -0.48631105438543654   0.21645679159881537
-5.668454646715784   -0.48631105438543654   0.21645679159881537
-5.471374092513007   -0.38636176199643923   -0.1253126603514929
-5.471374092513007   -0.38636176199643923   -0.1253126603514929
-5.471374092513007   -0.38636176199643923   -0.1253126603514929
-5.471374092513007   -0.38636176199643923   -0.1253126603514929
-3.5300732585114356   0.10033356419994821   0.1984995694835068
-3.5300732585114356   0.10033356419994821   0.1984995694835068
-3.5300732585114356   0.10033356419994821   0.1984995694835068
-3.5300732585114356   0.10033356419994821   0.1984995694835068
-4.401460226485834   -0.1531874156730143   0.019894414841560737
-4.401460226485834   -0.1531874156730143   0.019894414841560737
-4.401460226485834   -0.1531874156730143   0.019894414841560737
-4.401460226485834   -0.1531874156730143   0.019894414841560737
-3.612757474431731   -0.010411246244587669   -0.10417669967338888
-3.612757474431731   -0.010411246244587669   -0.10417669967338888
-3.612757474431731   -0.010411246244587669   -0.10417669967338888
-3.612757474431731   -0.010411246244587669   -0.10417669967338888
-5.375345847061879   -0.262272922021083   0.23073972692879377
-5.375345847061879   -0.262272922021083   0.23073972692879377
-5.375345847061879   -0.262272922021083   0.23073972692879377
-5.375345847061879   -0.262272922021083   0.23073972692879377
-5.2601029726985855   -0.3248475117858769   -0.1492333205018373
-5.2601029726985855   -0.3248475117858769   -0.1492333205018373
-5.2601029726985855   -0.3248475117858769   -0.1492333205018373
-5.2601029726985855   -0.3248475117858769   -0.1492333205018373
-3.398396356136396   0.16178812936354758   0.1918612909006346
-3.398396356136396   0.16178812936354758   0.1918612909006346
-3.398396356136396   0.16178812936354758   0.1918612909006346
-3.398396356136396   0.16178812936354758   0.1918612909006346
-4.275699424487523   -0.06180844308715072   0.08734162291391431
-4.275699424487523   -0.06180844308715072   0.08734162291391431
-4.275699424487523   -0.06180844308715072   0.08734162291391431
-4.275699424487523   -0.06180844308715072   0.08734162291391431
-3.484064216248375   0.03772410628782963   -0.11241398658351526
-3.484064216248375   0.03772410628782963   -0.11241398658351526
-3.484064216248375   0.03772410628782963   -0.11241398658351526
-3.484064216248375   0.03772410628782963   -0.11241398658351526
-5.171806406874404   -0.19815478299798028   0.16555677983112518
-5.171806406874404   -0.19815478299798028   0.16555677983112518
-5.171806406874404   -0.19815478299798028   0.16555677983112518
-5.171806406874404   -0.19815478299798028   0.16555677983112518
-5.041716517006761   -0.2663814647346785   -0.18027892914674776
-5.041716517006761   -0.2663814647346785   -0.18027892914674776
-5.041716517006761   -0.2663814647346785   -0.18027892914674776
-5.041716517006761   -0.2663814647346785   -0.18027892914674776
-3.3004246539561684   0.23590906951937007   0.148650593248167
-3.3004246539561684   0.23590906951937007   0.148650593248167
-3.3004246539561684   0.23590906951937007   0.148650593248167
-3.3004246539561684   0.23590906951937007   0.148650593248167
-4.04147442711379   0.016438330176414162   0.15456764732333647
-4.04147442711379   0.016438330176414162   0.15456764732333647
-4.04147442711379   0.016438330176414162   0.15456764732333647
-4.04147442711379   0.016438330176414162   0.15456764732333647
5.007956384737119   0.29945724527541473   0.18270034974053428
5.007956384737119   0.29945724527541473   0.18270034974053428
5.007956384737119   0.29945724527541473   0.18270034974053428
5.007956384737119   0.29945724527541473   0.18270034974053428
2.3895838868028445   -0.4488868036653615   0.042054176816857525
2.3895838868028445   -0.4488868036653615   0.042054176816857525
2.3895838868028445   -0.4488868036653615   0.042054176816857525
2.3895838868028445   -0.4488868036653615   0.042054176816857525
2.522494143036724   -0.1885859749627491   0.14090835509873031
2.522494143036724   -0.1885859749627491   0.14090835509873031
2.522494143036724   -0.1885859749627491   0.14090835509873031
2.522494143036724   -0.1885859749627491   0.14090835509873031
5.034990255105907   0.0404626762597593   -0.039663919398820136
5.034990255105907   0.0404626762597593   -0.039663919398820136
5.034990255105907   0.0404626762597593   -0.039663919398820136
5.034990255105907   0.0404626762597593   -0.039663919398820136
3.5222228515651484   -0.09709550973327863   -0.23483377810375472
3.5222228515651484   -0.09709550973327863   -0.23483377810375472
3.5222228515651484   -0.09709550973327863   -0.23483377810375472
3.5222228515651484   -0.09709550973327863   -0.23483377810375472
5.130486163772297   0.333738681835999   0.14453961835689602
5.130486163772297   0.333738681835999   0.14453961835689602
5.130486163772297   0.333738681835999   0.14453961835689602
5.130486163772297   0.333738681835999   0.14453961835689602
2.4499905544449567   -0.4588696604643643   0.04867409764151159
2.4499905544449567   -0.4588696604643643   0.04867409764151159
2.4499905544449567   -0.4588696604643643   0.04867409764151159
2.4499905544449567   -0.4588696604643643   0.04867409764151159
2.573096662711706   -0.16019691428280325   0.10731376621402777
2.573096662711706   -0.16019691428280325   0.10731376621402777
2.573096662711706   -0.16019691428280325   0.10731376621402777
2.573096662711706   -0.16019691428280325   0.10731376621402777
5.1240163856886145   0.07251317708865535   -0.011169994526772975
5.1240163856886145   0.07251317708865535   -0.011169994526772975
5.1240163856886145   0.07251317708865535   -0.011169994526772975
5.1240163856886145   0.07251317708865535   -0.011169994526772975
3.668321329428746   -0.07695215264741861   -0.1601992349795395
3.668321329428746   -0.07695215264741861   -0.1601992349795395
3.668321329428746   -0.07695215264741861   -0.1601992349795395
3.668321329428746   -0.07695215264741861   -0.1601992349795395
5.204733634620153   0.36471134358333046   0.1002180836362484
5.204733634620153   0.36471134358333046   0.1002180836362484
5.204733634620153   0.36471134358333046   0.1002180836362484
5.204733634620153   0.36471134358333046   0.1002180836362484
2.5083757820304995   -0.43639871252714557   0.05991116105233757
2.5083757820304995   -0.43639871252714557   0.05991116105233757
2.5083757820304995   -0.43639871252714557   0.05991116105233757
2.5083757820304995   -0.43639871252714557   0.05991116105233757
2.647449562003834   -0.04951477403369253   0.09809822510538208
2.647449562003834   -0.04951477403369253   0.09809822510538208
2.647449562003834   -0.04951477403369253   0.09809822510538208
2.647449562003834   -0.04951477403369253   0.09809822510538208
5.2164247908028845   0.1455242395540678   -0.0007817436122049826
5.2164247908028845   0.1455242395540678   -0.0007817436122049826
5.2164247908028845   0.1455242395540678   -0.0007817436122049826
5.2164247908028845   0.1455242395540678   -0.0007817436122049826
3.6871907600183635   -0.03596560453489983   -0.11943457638851326
3.6871907600183635   -0.03596560453489983   -0.11943457638851326
3.6871907600183635   -0.03596560453489983   -0.11943457638851326
3.6871907600183635   -0.03596560453489983   -0.11943457638851326
2.5214065625821203   0.06156059837292971   0.19072015367494535
2.5214065625821203   0.06156059837292971   0.19072015367494535
2.5214065625821203   0.06156059837292971   0.19072015367494535
2.5214065625821203   0.06156059837292971   0.19072015367494535
0.13808101387729627   -0.8972480698057809   0.0931990069824053
0.13808101387729627   -0.8972480698057809   0.0931990069824053
0.13808101387729627   -0.8972480698057809   0.0931990069824053
0.13808101387729627   -0.8972480698057809   0.0931990069824053
0.3117258891737764   -0.37851805698771934   0.08641692844294727
0.3117258891737764   -0.37851805698771934   0.08641692844294727
0.3117258891737764   -0.37851805698771934   0.08641692844294727
0.3117258891737764   -0.37851805698771934   0.08641692844294727
2.4564184269561498   -0.4360455382062529   0.05798933793934036
2.4564184269561498   -0.4360455382062529   0.05798933793934036
2.4564184269561498   -0.4360455382062529   0.05798933793934036
2.4564184269561498   -0.4360455382062529   0.05798933793934036
1.312695785988221   -0.40387727683642394   -0.15093818533088416
1.312695785988221   -0.40387727683642394   -0.15093818533088416
1.312695785988221   -0.40387727683642394   -0.15093818533088416
1.312695785988221   -0.40387727683642394   -0.15093818533088416
2.5818627400153504   0.09004916708150523   0.15911619794761836
2.5818627400153504   0.09004916708150523   0.15911619794761836
2.5818627400153504   0.09004916708150523   0.15911619794761836
2.5818627400153504   0.09004916708150523   0.15911619794761836
0.21938832211993314   -0.8715060162701541   0.11771705245617353
0.21938832211993314   -0.8715060162701541   0.11771705245617353
0.21938832211993314   -0.8715060162701541   0.11771705245617353
0.21938832211993314   -0.8715060162701541   0.11771705245617353
0.3816964716184351   -0.32672222804712175   0.06283324374508237
0.3816964716184351   -0.32672222804712175   0.06283324374508237
0.3816964716184351   -0.32672222804712175   0.06283324374508237
0.3816964716184351   -0.32672222804712175   0.06283324374508237
2.5162401944281467   -0.4090528726813284   0.07188738319475674
2.5162401944281467   -0.4090528726813284   0.07188738319475674
2.5162401944281467   -0.4090528726813284   0.07188738319475674
2.5162401944281467   -0.4090528726813284   0.07188738319475674
1.3724225193680826   -0.3841550256696899   -0.07545624561188091
1.3724225193680826   -0.3841550256696899   -0.07545624561188091
1.3724225193680826   -0.3841550256696899   -0.07545624561188091
1.3724225193680826   -0.3841550256696899   -0.07545624561188091
2.638215629359264   0.13879774315483806   0.13391394201417575
2.638215629359264   0.13879774315483806   0.13391394201417575
2.638215629359264   0.13879774315483806   0.13391394201417575
2.638215629359264   0.13879774315483806   0.13391394201417575
0.2915858094700158   -0.842708071100611   0.12826577605647527
0.2915858094700158   -0.842708071100611   0.12826577605647527
0.2915858094700158   -0.842708071100611   0.12826577605647527
0.2915858094700158   -0.842708071100611   0.12826577605647527
0.4889872282411793   -0.24899324780739246   0.0418031019861326
0.4889872282411793   -0.24899324780739246   0.0418031019861326
0.4889872282411793   -0.24899324780739246   0.0418031019861326
0.4889872282411793   -0.24899324780739246   0.0418031019861326
2.581797137928388   -0.36796153670238896   0.08828286739686664
2.581797137928388   -0.36796153670238896   0.08828286739686664
2.581797137928388   -0.36796153670238896   0.08828286739686664
2.581797137928388   -0.36796153670238896   0.08828286739686664
1.4765739632013324   -0.3362003738594756   0.01232156452568034
1.4765739632013324   -0.3362003738594756   0.01232156452568034
1.4765739632013324   -0.3362003738594756   0.01232156452568034
1.4765739632013324   -0.3362003738594756   0.01232156452568034
0.28873780737893995   -0.1735733489972341   0.12280825368207701
0.28873780737893995   -0.1735733489972341   0.12280825368207701
0.28873780737893995   -0.1735733489972341   0.12280825368207701
0.28873780737893995   -0.1735733489972341   0.12280825368207701
-2.132802701858622   -1.5435081113880051   0.13423515596428093
-2.132802701858622   -1.5435081113880051   0.13423515596428093
-2.132802701858622   -1.5435081113880051   0.13423515596428093
-2.132802701858622   -1.5435081113880051   0.13423515596428093
-1.8578646422455023   -0.5988591848619078   0.009618077013446427
-1.8578646422455023   -0.5988591848619078   0.009618077013446427
-1.8578646422455023   -0.5988591848619078   0.009618077013446427
-1.8578646422455023   -0.5988591848619078   0.009618077013446427
0.15447708022147955   -1.1285608395988735   0.050215666292624916
0.15447708022147955   -1.1285608395988735   0.050215666292624916
0.15447708022147955   -1.1285608395988735   0.050215666292624916
0.15447708022147955   -1.1285608395988735   0.050215666292624916
-0.9151189717800821   -0.867350266689884   -0.18116023777401585
-0.9151189717800821   -0.867350266689884   -0.18116023777401585
-0.9151189717800821   -0.867350266689884   -0.18116023777401585
-0.9151189717800821   -0.867350266689884   -0.18116023777401585
0.36200360631840006   -0.13745971593012146   0.09674717310847543
0.36200360631840006   -0.13745971593012146   0.09674717310847543
0.36200360631840006   -0.13745971593012146   0.09674717310847543
0.36200360631840006   -0.13745971593012146   0.09674717310847543
-2.017606293880136   -1.5421754340683704   0.15422606804675554
-2.017606293880136   -1.5421754340683704   0.15422606804675554
-2.017606293880136   -1.5421754340683704   0.15422606804675554
-2.017606293880136   -1.5421754340683704   0.15422606804675554
-1.7518389566658037   -0.5375651621151614   0.0008467425162324155
-1.7518389566658037   -0.5375651621151614   0.0008467425162324155
-1.7518389566658037   -0.5375651621151614   0.0008467425162324155
-1.7518389566658037   -0.5375651621151614   0.0008467425162324155
0.22819874325223172   -1.1042983050581001   0.07292067892504406
0.22819874325223172   -1.1042983050581001   0.07292067892504406
0.22819874325223172   -1.1042983050581001   0.07292067892504406
0.22819874325223172   -1.1042983050581001   0.07292067892504406
-0.8078441172110087   -0.8382812408990781   -0.06787868766991781
-0.8078441172110087   -0.8382812408990781   -0.06787868766991781
-0.8078441172110087   -0.8382812408990781   -0.06787868766991781
-0.8078441172110087   -0.8382812408990781   -0.06787868766991781
0.4289818501470833   -0.08921897298965846   0.0617568813308602
0.4289818501470833   -0.08921897298965846   0.0617568813308602
0.4289818501470833   -0.08921897298965846   0.0617568813308602
0.4289818501470833   -0.08921897298965846   0.0617568813308602
-1.9093753100106177   -1.5093977406335815   0.18499755431061027
-1.9093753100106177   -1.5093977406335815   0.18499755431061027
-1.9093753100106177   -1.5093977406335815   0.18499755431061027
-1.9093753100106177   -1.5093977406335815   0.18499755431061027
-1.576908654097843   -0.46691001656293063   -0.018979232658310023
-1.576908654097843   -0.46691001656293063   -0.018979232658310023
-1.576908654097843   -0.46691001656293063   -0.018979232658310023
-1.576908654097843   -0.46691001656293063   -0.018979232658310023
0.3433124528695364   -1.0355972846966477   0.10003326201717355
0.3433124528695364   -1.0355972846966477   0.10003326201717355
0.3433124528695364   -1.0355972846966477   0.10003326201717355
0.3433124528695364   -1.0355972846966477   0.10003326201717355
-0.6685021689044287   -0.7723787649206005   0.05101435357718323
-0.6685021689044287   -0.7723787649206005   0.05101435357718323
-0.6685021689044287   -0.7723787649206005   0.05101435357718323
-0.6685021689044287   -0.7723787649206005   0.05101435357718323
-1.901426710192456   -0.31089208124112605   0.05849908414821202
-1.901426710192456   -0.31089208124112605   0.05849908414821202
-1.901426710192456   -0.31089208124112605   0.05849908414821202
-1.901426710192456   -0.31089208124112605   0.05849908414821202
-4.756047068004538   -2.4059488826753466   -0.11567087038052426
-4.756047068004538   -2.4059488826753466   -0.11567087038052426
-4.756047068004538   -2.4059488826753466   -0.11567087038052426
-4.756047068004538   -2.4059488826753466   -0.11567087038052426
-4.301882560859259   -0.7792675125037969   -0.1317825063268038
-4.301882560859259   -0.7792675125037969   -0.1317825063268038
-4.301882560859259   -0.7792675125037969   -0.1317825063268038
-4.301882560859259   -0.7792675125037969   -0.1317825063268038
-2.1352409831360166   -2.0154766119061933   0.039353799605159834
-2.1352409831360166   -2.0154766119061933   0.039353799605159834
-2.1352409831360166   -2.0154766119061933   0.039353799605159834
-2.1352409831360166   -2.0154766119061933   0.039353799605159834
-3.2698629563389177   -1.4228784699978818   -0.1900541267360044
-3.2698629563389177   -1.4228784699978818   -0.1900541267360044
-3.2698629563389177   -1.4228784699978818   -0.1900541267360044
-3.2698629563389177   -1.4228784699978818   -0.1900541267360044
-1.7760757265270548   -0.2365074585193668   0.05621092926314273
-1.7760757265270548   -0.2365074585193668   0.05621092926314273
-1.7760757265270548   -0.2365074585193668   0.05621092926314273
-1.7760757265270548   -0.2365074585193668   0.05621092926314273
-4.650724277348285   -2.5479131257706875   -0.10734547550504336
-4.650724277348285   -2.5479131257706875   -0.10734547550504336
-4.650724277348285   -2.5479131257706875   -0.10734547550504336
-4.650724277348285   -2.5479131257706875   -0.10734547550504336
-4.161015147604874   -0.7057041652372589   -0.13416092631322396
-4.161015147604874   -0.7057041652372589   -0.13416092631322396
-4.161015147604874   -0.7057041652372589   -0.13416092631322396
-4.161015147604874   -0.7057041652372589   -0.13416092631322396
-2.0326401247066257   -2.000315540415129   0.059591280612105835
-2.0326401247066257   -2.000315540415129   0.059591280612105835
-2.0326401247066257   -2.000315540415129   0.059591280612105835
-2.0326401247066257   -2.000315540415129   0.059591280612105835
-3.1224690982206793   -1.3852094151919845   -0.13445917193529283
-3.1224690982206793   -1.3852094151919845   -0.13445917193529283
-3.1224690982206793   -1.3852094151919845   -0.13445917193529283
-3.1224690982206793   -1.3852094151919845   -0.13445917193529283
-1.6763515388788528   -0.17816293696853647   0.01888160630436686
-1.6763515388788528   -0.17816293696853647   0.01888160630436686
-1.6763515388788528   -0.17816293696853647   0.01888160630436686
-1.6763515388788528   -0.17816293696853647   0.01888160630436686
-4.517502718181872   -2.5280557534330512   -0.0942471910023821
-4.517502718181872   -2.5280557534330512   -0.0942471910023821
-4.517502718181872   -2.5280557534330512   -0.0942471910023821
-4.517502718181872   -2.5280557534330512   -0.0942471910023821
-3.9415201624097222   -0.6264837849569251   -0.15204707933780282
-3.9415201624097222   -0.6264837849569251   -0.15204707933780282
-3.9415201624097222   -0.6264837849569251   -0.15204707933780282
-3.9415201624097222   -0.6264837849569251   -0.15204707933780282
-1.8107049045379036   -1.8012347374611524   0.14636423603963883
-1.8107049045379036   -1.8012347374611524   0.14636423603963883
-1.8107049045379036   -1.8012347374611524   0.14636423603963883
-1.8107049045379036   -1.8012347374611524   0.14636423603963883
-2.957677843206715   -1.2570527868125025   -0.0762277678052097
-2.957677843206715   -1.2570527868125025   -0.0762277678052097
-2.957677843206715   -1.2570527868125025   -0.0762277678052097
-2.957677843206715   -1.2570527868125025   -0.0762277678052097
-4.3106545679415875   -0.26414487291550715   -0.03051237982561153
-4.3106545679415875   -0.26414487291550715   -0.03051237982561153
-4.3106545679415875   -0.26414487291550715   -0.03051237982561153
-4.3106545679415875   -0.26414487291550715   -0.03051237982561153
-7.618333362422413   -1.5081548797715219   0.0775589635648033
-7.618333362422413   -1.5081548797715219   0.0775589635648033
-7.618333362422413   -1.5081548797715219   0.0775589635648033
-7.618333362422413   -1.5081548797715219   0.0775589635648033
-7.316775968721914   -0.7290582751290763   -0.16175691695113711
-7.316775968721914   -0.7290582751290763   -0.16175691695113711
-7.316775968721914   -0.7290582751290763   -0.16175691695113711
-7.316775968721914   -0.7290582751290763   -0.16175691695113711
-4.2116560857269665   -0.7785956214826892   0.31867797831351985
-4.2116560857269665   -0.7785956214826892   0.31867797831351985
-4.2116560857269665   -0.7785956214826892   0.31867797831351985
-4.2116560857269665   -0.7785956214826892   0.31867797831351985
-5.6265427439291065   -0.8756869835671093   0.08201231625085718
-5.6265427439291065   -0.8756869835671093   0.08201231625085718
-5.6265427439291065   -0.8756869835671093   0.08201231625085718
-5.6265427439291065   -0.8756869835671093   0.08201231625085718
-4.131349719475502   -0.059415670226609874   0.0010298583147820006
-4.131349719475502   -0.059415670226609874   0.0010298583147820006
-4.131349719475502   -0.059415670226609874   0.0010298583147820006
-4.131349719475502   -0.059415670226609874   0.0010298583147820006
-7.426115418883604   -1.4772713102953865   0.039758867406670895
-7.426115418883604   -1.4772713102953865   0.039758867406670895
-7.426115418883604   -1.4772713102953865   0.039758867406670895
-7.426115418883604   -1.4772713102953865   0.039758867406670895
-7.149714528474451   -0.6678996336188444   -0.20525935167326984
-7.149714528474451   -0.6678996336188444   -0.20525935167326984
-7.149714528474451   -0.6678996336188444   -0.20525935167326984
-7.149714528474451   -0.6678996336188444   -0.20525935167326984
-4.066607364461218   -0.7390722567155645   0.37124608088339595
-4.066607364461218   -0.7390722567155645   0.37124608088339595
-4.066607364461218   -0.7390722567155645   0.37124608088339595
-4.066607364461218   -0.7390722567155645   0.37124608088339595
-5.537561321940001   -0.7208234608900714   0.07852175414566724
-5.537561321940001   -0.7208234608900714   0.07852175414566724
-5.537561321940001   -0.7208234608900714   0.07852175414566724
-5.537561321940001   -0.7208234608900714   0.07852175414566724
-4.002088795731364   -0.005307735976793682   -0.03992559620610339
-4.002088795731364   -0.005307735976793682   -0.03992559620610339
-4.002088795731364   -0.005307735976793682   -0.03992559620610339
-4.002088795731364   -0.005307735976793682   -0.03992559620610339
-7.22517075274604   -1.4126018098993602   0.16216170324923862
-7.22517075274604   -1.4126018098993602   0.16216170324923862
-7.22517075274604   -1.4126018098993602   0.16216170324923862
-7.22517075274604   -1.4126018098993602   0.16216170324923862
-6.802894907149838   -0.5401261380144481   -0.2290551912272539
-6.802894907149838   -0.5401261380144481   -0.2290551912272539
-6.802894907149838   -0.5401261380144481   -0.2290551912272539
-6.802894907149838   -0.5401261380144481   -0.2290551912272539
-3.84121984857848   -0.6863748572861609   0.4093455621476758
-3.84121984857848   -0.6863748572861609   0.4093455621476758
-3.84121984857848   -0.6863748572861609   0.4093455621476758
-3.84121984857848   -0.6863748572861609   0.4093455621476758
-5.2036478763090255   -0.5507909827810455   0.1596231589185224
-5.2036478763090255   -0.5507909827810455   0.1596231589185224
-5.2036478763090255   -0.5507909827810455   0.1596231589185224
-5.2036478763090255   -0.5507909827810455   0.1596231589185224
5.484997306584922   0.1773271208923839   0.0777103798235077
5.484997306584922   0.1773271208923839   0.0777103798235077
5.484997306584922   0.1773271208923839   0.0777103798235077
5.484997306584922   0.1773271208923839   0.0777103798235077
2.8042970068333175   -0.14619150335396502   0.05817373558348249
2.8042970068333175   -0.14619150335396502   0.05817373558348249
2.8042970068333175   -0.14619150335396502   0.05817373558348249
2.8042970068333175   -0.14619150335396502   0.05817373558348249
2.6935710779133406   -0.3972526876506084   0.11317843824190738
2.6935710779133406   -0.3972526876506084   0.11317843824190738
2.6935710779133406   -0.3972526876506084   0.11317843824190738
2.6935710779133406   -0.3972526876506084   0.11317843824190738
5.4450323217796495   0.3069618280503158   0.042461685644898245
5.4450323217796495   0.3069618280503158   0.042461685644898245
5.4450323217796495   0.3069618280503158   0.042461685644898245
5.4450323217796495   0.3069618280503158   0.042461685644898245
3.8880652063097316   -0.05584758406821322   -0.14335697587230392
3.8880652063097316   -0.05584758406821322   -0.14335697587230392
3.8880652063097316   -0.05584758406821322   -0.14335697587230392
3.8880652063097316   -0.05584758406821322   -0.14335697587230392
5.414308882832929   0.13618370789770773   0.059622611063900266
5.414308882832929   0.13618370789770773   0.059622611063900266
5.414308882832929   0.13618370789770773   0.059622611063900266
5.414308882832929   0.13618370789770773   0.059622611063900266
2.715169008408843   -0.23560007594921872   0.05951547901803164
2.715169008408843   -0.23560007594921872   0.05951547901803164
2.715169008408843   -0.23560007594921872   0.05951547901803164
2.715169008408843   -0.23560007594921872   0.05951547901803164
2.6231548024553346   -0.40667600498474377   0.09374567833951125
2.6231548024553346   -0.40667600498474377   0.09374567833951125
2.6231548024553346   -0.40667600498474377   0.09374567833951125
2.6231548024553346   -0.40667600498474377   0.09374567833951125
5.380526386580158   0.29337755762521733   0.0728418362261799
5.380526386580158   0.29337755762521733   0.0728418362261799
5.380526386580158   0.29337755762521733   0.0728418362261799
5.380526386580158   0.29337755762521733   0.0728418362261799
3.8755843423251672   -0.07708704389595233   -0.16652695584695776
3.8755843423251672   -0.07708704389595233   -0.16652695584695776
3.8755843423251672   -0.07708704389595233   -0.16652695584695776
3.8755843423251672   -0.07708704389595233   -0.16652695584695776
5.334972883447837   0.12052404265315042   0.017927835536602155
5.334972883447837   0.12052404265315042   0.017927835536602155
5.334972883447837   0.12052404265315042   0.017927835536602155
5.334972883447837   0.12052404265315042   0.017927835536602155
2.652401037620444   -0.25012975797991555   0.08343060716022926
2.652401037620444   -0.25012975797991555   0.08343060716022926
2.652401037620444   -0.25012975797991555   0.08343060716022926
2.652401037620444   -0.25012975797991555   0.08343060716022926
2.5487515090560837   -0.3716675607086195   0.08093253682115961
2.5487515090560837   -0.3716675607086195   0.08093253682115961
2.5487515090560837   -0.3716675607086195   0.08093253682115961
2.5487515090560837   -0.3716675607086195   0.08093253682115961
5.2809924967890165   0.29588511661139827   0.10424190589499971
5.2809924967890165   0.29588511661139827   0.10424190589499971
5.2809924967890165   0.29588511661139827   0.10424190589499971
5.2809924967890165   0.29588511661139827   0.10424190589499971
3.729116738756816   -0.07799394280619765   -0.2253549386836611
3.729116738756816   -0.07799394280619765   -0.2253549386836611
3.729116738756816   -0.07799394280619765   -0.2253549386836611
3.729116738756816   -0.07799394280619765   -0.2253549386836611
2.7772258132670267   -0.3606113820372524   0.13723764643531733
2.7772258132670267   -0.3606113820372524   0.13723764643531733
2.7772258132670267   -0.3606113820372524   0.13723764643531733
2.7772258132670267   -0.3606113820372524   0.13723764643531733
0.5482283110801   -0.330897238081752   0.03047689069653646
0.5482283110801   -0.330897238081752   0.03047689069653646
0.5482283110801   -0.330897238081752   0.03047689069653646
0.5482283110801   -0.330897238081752   0.03047689069653646
0.3573838564213106   -0.8376546687610839   0.1489782557001476
0.3573838564213106   -0.8376546687610839   0.1489782557001476
0.3573838564213106   -0.8376546687610839   0.1489782557001476
0.3573838564213106   -0.8376546687610839   0.1489782557001476
2.7928378809982384   0.10594962910710548   0.10631013690868074
2.7928378809982384   0.10594962910710548   0.10631013690868074
2.7928378809982384   0.10594962910710548   0.10631013690868074
2.7928378809982384   0.10594962910710548   0.10631013690868074
1.5940779481810523   -0.3572100638427878   -0.00594260228389501
1.5940779481810523   -0.3572100638427878   -0.00594260228389501
1.5940779481810523   -0.3572100638427878   -0.00594260228389501
1.5940779481810523   -0.3572100638427878   -0.00594260228389501
2.698074038566771   -0.37635347725025736   0.1147940311086959
2.698074038566771   -0.37635347725025736   0.1147940311086959
2.698074038566771   -0.37635347725025736   0.1147940311086959
2.698074038566771   -0.37635347725025736   0.1147940311086959
0.42823498938448756   -0.3792642718719925   0.04484352362694102
0.42823498938448756   -0.3792642718719925   0.04484352362694102
0.42823498938448756   -0.3792642718719925   0.04484352362694102
0.42823498938448756   -0.3792642718719925   0.04484352362694102
0.2720498382346834   -0.8455815716378559   0.13343424460558329
0.2720498382346834   -0.8455815716378559   0.13343424460558329
0.2720498382346834   -0.8455815716378559   0.13343424460558329
0.2720498382346834   -0.8455815716378559   0.13343424460558329
2.727882306821136   0.08460753441120061   0.1260996607725741
2.727882306821136   0.08460753441120061   0.1260996607725741
2.727882306821136   0.08460753441120061   0.1260996607725741
2.727882306821136   0.08460753441120061   0.1260996607725741
1.4783199243639564   -0.380869779625466   -0.07686902724679015
1.4783199243639564   -0.380869779625466   -0.07686902724679015
1.4783199243639564   -0.380869779625466   -0.07686902724679015
1.4783199243639564   -0.380869779625466   -0.07686902724679015
2.6282780083564794   -0.3820713716354126   0.09475707449588017
2.6282780083564794   -0.3820713716354126   0.09475707449588017
2.6282780083564794   -0.3820713716354126   0.09475707449588017
2.6282780083564794   -0.3820713716354126   0.09475707449588017
0.3456843431956995   -0.4048724590948667   0.0608976568676744
0.3456843431956995   -0.4048724590948667   0.0608976568676744
0.3456843431956995   -0.4048724590948667   0.0608976568676744
0.3456843431956995   -0.4048724590948667   0.0608976568676744
0.17652296759036573   -0.845743729030451   0.10464607609457877
0.17652296759036573   -0.845743729030451   0.10464607609457877
0.17652296759036573   -0.845743729030451   0.10464607609457877
0.17652296759036573   -0.845743729030451   0.10464607609457877
2.65416571426431   0.0854387567239171   0.15089724542976746
2.65416571426431   0.0854387567239171   0.15089724542976746
2.65416571426431   0.0854387567239171   0.15089724542976746
2.65416571426431   0.0854387567239171   0.15089724542976746
1.4073401336214784   -0.378418219741882   -0.1373203017251447
1.4073401336214784   -0.378418219741882   -0.1373203017251447
1.4073401336214784   -0.378418219741882   -0.1373203017251447
1.4073401336214784   -0.378418219741882   -0.1373203017251447
0.4262464828298733   -1.0338426694753613   0.12351318083900464
0.4262464828298733   -1.0338426694753613   0.12351318083900464
0.4262464828298733   -1.0338426694753613   0.12351318083900464
0.4262464828298733   -1.0338426694753613   0.12351318083900464
-1.6199963237758574   -0.5147449799232212   0.0027652723853181307
-1.6199963237758574   -0.5147449799232212   0.0027652723853181307
-1.6199963237758574   -0.5147449799232212   0.0027652723853181307
-1.6199963237758574   -0.5147449799232212   0.0027652723853181307
-1.965273215295523   -1.5284015592186444   0.1707623637107729
-1.965273215295523   -1.5284015592186444   0.1707623637107729
-1.965273215295523   -1.5284015592186444   0.1707623637107729
-1.965273215295523   -1.5284015592186444   0.1707623637107729
0.490382056754321   -0.090643749036346   0.06695833764046187
0.490382056754321   -0.090643749036346   0.06695833764046187
0.490382056754321   -0.090643749036346   0.06695833764046187
0.490382056754321   -0.090643749036346   0.06695833764046187
-0.6580591861954822   -0.7807885966230699   0.02915451944631467
-0.6580591861954822   -0.7807885966230699   0.02915451944631467
-0.6580591861954822   -0.7807885966230699   0.02915451944631467
-0.6580591861954822   -0.7807885966230699   0.02915451944631467
0.29419937736625407   -1.092982729246406   0.08838392091018737
0.29419937736625407   -1.092982729246406   0.08838392091018737
0.29419937736625407   -1.092982729246406   0.08838392091018737
0.29419937736625407   -1.092982729246406   0.08838392091018737
-1.8024690589166075   -0.5594411020177383   0.015822688404428756
-1.8024690589166075   -0.5594411020177383   0.015822688404428756
-1.8024690589166075   -0.5594411020177383   0.015822688404428756
-1.8024690589166075   -0.5594411020177383   0.015822688404428756
-2.08428860142385   -1.553661428237513   0.13859240770418424
-2.08428860142385   -1.553661428237513   0.13859240770418424
-2.08428860142385   -1.553661428237513   0.13859240770418424
-2.08428860142385   -1.553661428237513   0.13859240770418424
0.41046208880124996   -0.11435656007010997   0.09427048587067002
0.41046208880124996   -0.11435656007010997   0.09427048587067002
0.41046208880124996   -0.11435656007010997   0.09427048587067002
0.41046208880124996   -0.11435656007010997   0.09427048587067002
-0.8066985592307225   -0.8286678301651448   -0.07023054328562564
-0.8066985592307225   -0.8286678301651448   -0.07023054328562564
-0.8066985592307225   -0.8286678301651448   -0.07023054328562564
-0.8066985592307225   -0.8286678301651448   -0.07023054328562564
0.20330145929266402   -1.1125331183195803   0.05664389657721103
0.20330145929266402   -1.1125331183195803   0.05664389657721103
0.20330145929266402   -1.1125331183195803   0.05664389657721103
0.20330145929266402   -1.1125331183195803   0.05664389657721103
-1.916702766256124   -0.5950596643288858   0.017919819634164745
-1.916702766256124   -0.5950596643288858   0.017919819634164745
-1.916702766256124   -0.5950596643288858   0.017919819634164745
-1.916702766256124   -0.5950596643288858   0.017919819634164745
-2.2130881457358207   -1.5433928643361425   0.1174559624250574
-2.2130881457358207   -1.5433928643361425   0.1174559624250574
-2.2130881457358207   -1.5433928643361425   0.1174559624250574
-2.2130881457358207   -1.5433928643361425   0.1174559624250574
0.32149759207814244   -0.1277161074667723   0.11149157696978337
0.32149759207814244   -0.1277161074667723   0.11149157696978337
0.32149759207814244   -0.1277161074667723   0.11149157696978337
0.32149759207814244   -0.1277161074667723   0.11149157696978337
-0.927158052104273   -0.8470347548100715   -0.16923045660288927
-0.927158052104273   -0.8470347548100715   -0.16923045660288927
-0.927158052104273   -0.8470347548100715   -0.16923045660288927
-0.927158052104273   -0.8470347548100715   -0.16923045660288927
-1.8423637515160676   -1.7707011787911138   0.1468843325521687
-1.8423637515160676   -1.7707011787911138   0.1468843325521687
-1.8423637515160676   -1.7707011787911138   0.1468843325521687
-1.8423637515160676   -1.7707011787911138   0.1468843325521687
-4.0896823515373155   -0.6412594016726989   -0.09539048238674318
-4.0896823515373155   -0.6412594016726989   -0.09539048238674318
-4.0896823515373155   -0.6412594016726989   -0.09539048238674318
-4.0896823515373155   -0.6412594016726989   -0.09539048238674318
-4.69269679227581   -2.561667438953256   -0.13414452649036068
-4.69269679227581   -2.561667438953256   -0.13414452649036068
-4.69269679227581   -2.561667438953256   -0.13414452649036068
-4.69269679227581   -2.561667438953256   -0.13414452649036068
-1.7116959792946478   -0.1476061273080963   0.057853111804585064
-1.7116959792946478   -0.1476061273080963   0.057853111804585064
-1.7116959792946478   -0.1476061273080963   0.057853111804585064
-1.7116959792946478   -0.1476061273080963   0.057853111804585064
-3.0548014003764172   -1.231348025142064   -0.10778868331382005
-3.0548014003764172   -1.231348025142064   -0.10778868331382005
-3.0548014003764172   -1.231348025142064   -0.10778868331382005
-3.0548014003764172   -1.231348025142064   -0.10778868331382005
-2.0847495184276   -2.003544350932661   0.048523639764404713
-2.0847495184276   -2.003544350932661   0.048523639764404713
-2.0847495184276   -2.003544350932661   0.048523639764404713
-2.0847495184276   -2.003544350932661   0.048523639764404713
-4.309781145093126   -0.695867107278977   -0.08536662225121788
-4.309781145093126   -0.695867107278977   -0.08536662225121788
-4.309781145093126   -0.695867107278977   -0.08536662225121788
-4.309781145093126   -0.695867107278977   -0.08536662225121788
-4.834089315225692   -2.6035529231527255   -0.15514644255693244
-4.834089315225692   -2.6035529231527255   -0.15514644255693244
-4.834089315225692   -2.6035529231527255   -0.15514644255693244
-4.834089315225692   -2.6035529231527255   -0.15514644255693244
-1.821199082247048   -0.18632194065935803   0.08670051601001669
-1.821199082247048   -0.18632194065935803   0.08670051601001669
-1.821199082247048   -0.18632194065935803   0.08670051601001669
-1.821199082247048   -0.18632194065935803   0.08670051601001669
-3.2273967239005543   -1.3635024132746576   -0.15098683115563113
-3.2273967239005543   -1.3635024132746576   -0.15098683115563113
-3.2273967239005543   -1.3635024132746576   -0.15098683115563113
-3.2273967239005543   -1.3635024132746576   -0.15098683115563113
-2.2061257767848605   -2.0431515886840645   0.018896691345661965
-2.2061257767848605   -2.0431515886840645   0.018896691345661965
-2.2061257767848605   -2.0431515886840645   0.018896691345661965
-2.2061257767848605   -2.0431515886840645   0.018896691345661965
-4.449256711564696   -0.7468173660048615   -0.08771898139985315
-4.449256711564696   -0.7468173660048615   -0.08771898139985315
-4.449256711564696   -0.7468173660048615   -0.08771898139985315
-4.449256711564696   -0.7468173660048615   -0.08771898139985315
-4.954894541997805   -2.4943420762258874   -0.17498282032413598
-4.954894541997805   -2.4943420762258874   -0.17498282032413598
-4.954894541997805   -2.4943420762258874   -0.17498282032413598
-4.954894541997805   -2.4943420762258874   -0.17498282032413598
-1.960067293813162   -0.24090957440529623   0.08007693210747358
-1.960067293813162   -0.24090957440529623   0.08007693210747358
-1.960067293813162   -0.24090957440529623   0.08007693210747358
-1.960067293813162   -0.24090957440529623   0.08007693210747358
-3.385946413306756   -1.4088576575135234   -0.19193718146291655
-3.385946413306756   -1.4088576575135234   -0.19193718146291655
-3.385946413306756   -1.4088576575135234   -0.19193718146291655
-3.385946413306756   -1.4088576575135234   -0.19193718146291655
-4.014633660873945   -0.7293400152694345   0.36793358452677216
-4.014633660873945   -0.7293400152694345   0.36793358452677216
-4.014633660873945   -0.7293400152694345   0.36793358452677216
-4.014633660873945   -0.7293400152694345   0.36793358452677216
-7.08698399802012   -0.5323528281424124   -0.1277772699857571
-7.08698399802012   -0.5323528281424124   -0.1277772699857571
-7.08698399802012   -0.5323528281424124   -0.1277772699857571
-7.08698399802012   -0.5323528281424124   -0.1277772699857571
-7.523788049209343   -1.4845185514682544   0.10119529186807075
-7.523788049209343   -1.4845185514682544   0.10119529186807075
-7.523788049209343   -1.4845185514682544   0.10119529186807075
-7.523788049209343   -1.4845185514682544   0.10119529186807075
-4.134879009066787   0.05787907013296678   0.03539788046849407
-4.134879009066787   0.05787907013296678   0.03539788046849407
-4.134879009066787   0.05787907013296678   0.03539788046849407
-4.134879009066787   0.05787907013296678   0.03539788046849407
-5.419057830687972   -0.5216145199359989   0.1093370081767257
-5.419057830687972   -0.5216145199359989   0.1093370081767257
-5.419057830687972   -0.5216145199359989   0.1093370081767257
-5.419057830687972   -0.5216145199359989   0.1093370081767257
-4.244932108785987   -0.7836534427967573   0.3266648948022006
-4.244932108785987   -0.7836534427967573   0.3266648948022006
-4.244932108785987   -0.7836534427967573   0.3266648948022006
-4.244932108785987   -0.7836534427967573   0.3266648948022006
-7.394282285649545   -0.6235333746979237   -0.11226106710319933
-7.394282285649545   -0.6235333746979237   -0.11226106710319933
-7.394282285649545   -0.6235333746979237   -0.11226106710319933
-7.394282285649545   -0.6235333746979237   -0.11226106710319933
-7.710301871942796   -1.5483179235601845   -0.0312877458581271
-7.710301871942796   -1.5483179235601845   -0.0312877458581271
-7.710301871942796   -1.5483179235601845   -0.0312877458581271
-7.710301871942796   -1.5483179235601845   -0.0312877458581271
-4.26632720508127   0.014677998171223727   0.06543318684119198
-4.26632720508127   0.014677998171223727   0.06543318684119198
-4.26632720508127   0.014677998171223727   0.06543318684119198
-4.26632720508127   0.014677998171223727   0.06543318684119198
-5.745989845303242   -0.689235361333881   0.04544123188719304
-5.745989845303242   -0.689235361333881   0.04544123188719304
-5.745989845303242   -0.689235361333881   0.04544123188719304
-5.745989845303242   -0.689235361333881   0.04544123188719304
-4.392925906948447   -0.8243013718786528   0.27141904755518254
-4.392925906948447   -0.8243013718786528   0.27141904755518254
-4.392925906948447   -0.8243013718786528   0.27141904755518254
-4.392925906948447   -0.8243013718786528   0.27141904755518254
-7.545004466464074   -0.6706398498987423   -0.08247879212583403
-7.545004466464074   -0.6706398498987423   -0.08247879212583403
-7.545004466464074   -0.6706398498987423   -0.08247879212583403
-7.545004466464074   -0.6706398498987423   -0.08247879212583403
-7.873740545101274   -1.5747442579881687   1.925516043010944e-05
-7.873740545101274   -1.5747442579881687   1.925516043010944e-05
-7.873740545101274   -1.5747442579881687   1.925516043010944e-05
-7.873740545101274   -1.5747442579881687   1.925516043010944e-05
-4.450676015792989   -0.17466074706783508   0.026428481541893617
-4.450676015792989   -0.17466074706783508   0.026428481541893617
-4.450676015792989   -0.17466074706783508   0.026428481541893617
-4.450676015792989   -0.17466074706783508   0.026428481541893617
-5.8178616613382514   -0.833489743603945   0.07187365872700628
-5.8178616613382514   -0.833489743603945   0.07187365872700628
-5.8178616613382514   -0.833489743603945   0.07187365872700628
-5.8178616613382514   -0.833489743603945   0.07187365872700628
4.793589936684114   0.2189463584402277   -0.1054298852962279
4.793589936684114   0.2189463584402277   -0.1054298852962279
4.793589936684114   0.2189463584402277   -0.1054298852962279
4.793589936684114   0.2189463584402277   -0.1054298852962279
2.4158429412381413   -0.04676349344384345   0.052420827857117214
2.4158429412381413   -0.04676349344384345   0.052420827857117214
2.4158429412381413   -0.04676349344384345   0.052420827857117214
2.4158429412381413   -0.04676349344384345   0.052420827857117214
2.2605441507973607   -0.3569748440267755   -0.0927335037582693
2.2605441507973607   -0.3569748440267755   -0.0927335037582693
2.2605441507973607   -0.3569748440267755   -0.0927335037582693
2.2605441507973607   -0.3569748440267755   -0.0927335037582693
4.737639799699749   0.34686187020181436   0.06133207627561535
4.737639799699749   0.34686187020181436   0.06133207627561535
4.737639799699749   0.34686187020181436   0.06133207627561535
4.737639799699749   0.34686187020181436   0.06133207627561535
3.365700245930347   0.008219030928192539   -0.13005910021980108
3.365700245930347   0.008219030928192539   -0.13005910021980108
3.365700245930347   0.008219030928192539   -0.13005910021980108
3.365700245930347   0.008219030928192539   -0.13005910021980108
4.65875780987987   0.11997615668082962   -0.10619215930275352
4.65875780987987   0.11997615668082962   -0.10619215930275352
4.65875780987987   0.11997615668082962   -0.10619215930275352
4.65875780987987   0.11997615668082962   -0.10619215930275352
2.3349994709642727   -0.13451580015875497   0.05708405320824547
2.3349994709642727   -0.13451580015875497   0.05708405320824547
2.3349994709642727   -0.13451580015875497   0.05708405320824547
2.3349994709642727   -0.13451580015875497   0.05708405320824547
2.1769930836040308   -0.3771848003811059   -0.07643665082930978
2.1769930836040308   -0.3771848003811059   -0.07643665082930978
2.1769930836040308   -0.3771848003811059   -0.07643665082930978
2.1769930836040308   -0.3771848003811059   -0.07643665082930978
4.621439095983058   0.31833198277976316   0.08930241760036503
4.621439095983058   0.31833198277976316   0.08930241760036503
4.621439095983058   0.31833198277976316   0.08930241760036503
4.621439095983058   0.31833198277976316   0.08930241760036503
3.3193355378794154   -0.03419920016185207   -0.15578369342332954
3.3193355378794154   -0.03419920016185207   -0.15578369342332954
3.3193355378794154   -0.03419920016185207   -0.15578369342332954
3.3193355378794154   -0.03419920016185207   -0.15578369342332954
4.542005322196388   0.09433173649381943   -0.08386620504704034
4.542005322196388   0.09433173649381943   -0.08386620504704034
4.542005322196388   0.09433173649381943   -0.08386620504704034
4.542005322196388   0.09433173649381943   -0.08386620504704034
2.2503392723599114   -0.1592721391259515   0.07238163169493836
2.2503392723599114   -0.1592721391259515   0.07238163169493836
2.2503392723599114   -0.1592721391259515   0.07238163169493836
2.2503392723599114   -0.1592721391259515   0.07238163169493836
2.095966952322879   -0.37243169283488464   -0.05231659687027751
2.095966952322879   -0.37243169283488464   -0.05231659687027751
2.095966952322879   -0.37243169283488464   -0.05231659687027751
2.095966952322879   -0.37243169283488464   -0.05231659687027751
4.477463029237274   0.2983276036279153   0.11586018123673889
4.477463029237274   0.2983276036279153   0.11586018123673889
4.477463029237274   0.2983276036279153   0.11586018123673889
4.477463029237274   0.2983276036279153   0.11586018123673889
3.153892148411077   -0.059819845104664204   -0.20495415336098197
3.153892148411077   -0.059819845104664204   -0.20495415336098197
3.153892148411077   -0.059819845104664204   -0.20495415336098197
3.153892148411077   -0.059819845104664204   -0.20495415336098197
2.4274334038534726   0.04297527652632965   0.02063437096357247
2.4274334038534726   0.04297527652632965   0.02063437096357247
2.4274334038534726   0.04297527652632965   0.02063437096357247
2.4274334038534726   0.04297527652632965   0.02063437096357247
0.23922422220136808   -0.14437925405273477   -0.004889661940073481
0.23922422220136808   -0.14437925405273477   -0.004889661940073481
0.23922422220136808   -0.14437925405273477   -0.004889661940073481
0.23922422220136808   -0.14437925405273477   -0.004889661940073481
0.09290086543629772   -0.4731058661981181   -0.08903032405549721
0.09290086543629772   -0.4731058661981181   -0.08903032405549721
0.09290086543629772   -0.4731058661981181   -0.08903032405549721
0.09290086543629772   -0.4731058661981181   -0.08903032405549721
2.430620128972166   0.2799521491635572   0.1207193939254023
2.430620128972166   0.2799521491635572   0.1207193939254023
2.430620128972166   0.2799521491635572   0.1207193939254023
2.430620128972166   0.2799521491635572   0.1207193939254023
1.2737215574749128   -0.06735237664440541   -0.05093541673867302
1.2737215574749128   -0.06735237664440541   -0.05093541673867302
1.2737215574749128   -0.06735237664440541   -0.05093541673867302
1.2737215574749128   -0.06735237664440541   -0.05093541673867302
2.358795833185921   0.005157670828712768   0.036392393329033546
2.358795833185921   0.005157670828712768   0.036392393329033546
2.358795833185921   0.005157670828712768   0.036392393329033546
2.358795833185921   0.005157670828712768   0.036392393329033546
0.16740939877819389   -0.1956271503076205   0.006033626763485955
0.16740939877819389   -0.1956271503076205   0.006033626763485955
0.16740939877819389   -0.1956271503076205   0.006033626763485955
0.16740939877819389   -0.1956271503076205   0.006033626763485955
0.012344097552839273   -0.49605874965622077   -0.06169355029623581
0.012344097552839273   -0.49605874965622077   -0.06169355029623581
0.012344097552839273   -0.49605874965622077   -0.06169355029623581
0.012344097552839273   -0.49605874965622077   -0.06169355029623581
2.342161751125502   0.23900184760391435   0.13322003879302524
2.342161751125502   0.23900184760391435   0.13322003879302524
2.342161751125502   0.23900184760391435   0.13322003879302524
2.342161751125502   0.23900184760391435   0.13322003879302524
1.1812114845258879   -0.10495550446895147   -0.07212642929321349
1.1812114845258879   -0.10495550446895147   -0.07212642929321349
1.1812114845258879   -0.10495550446895147   -0.07212642929321349
1.1812114845258879   -0.10495550446895147   -0.07212642929321349
2.274349163196958   -0.020572697597731504   0.053731644351968894
2.274349163196958   -0.020572697597731504   0.053731644351968894
2.274349163196958   -0.020572697597731504   0.053731644351968894
2.274349163196958   -0.020572697597731504   0.053731644351968894
0.07974970657404   -0.23689118336189474   0.01616692851544184
0.07974970657404   -0.23689118336189474   0.01616692851544184
0.07974970657404   -0.23689118336189474   0.01616692851544184
0.07974970657404   -0.23689118336189474   0.01616692851544184
-0.07419985984720234   -0.4987861933007555   -0.041861930582083734
-0.07419985984720234   -0.4987861933007555   -0.041861930582083734
-0.07419985984720234   -0.4987861933007555   -0.041861930582083734
-0.07419985984720234   -0.4987861933007555   -0.041861930582083734
2.2529227755539742   0.21273172190948575   0.14729910454083991
2.2529227755539742   0.21273172190948575   0.14729910454083991
2.2529227755539742   0.21273172190948575   0.14729910454083991
2.2529227755539742   0.21273172190948575   0.14729910454083991
1.108475180036454   -0.12026786776127141   -0.09046872488278723
1.108475180036454   -0.12026786776127141   -0.09046872488278723
1.108475180036454   -0.12026786776127141   -0.09046872488278723
1.108475180036454   -0.12026786776127141   -0.09046872488278723
0.24222886890318676   -0.14141844363434913   0.0071727611506344074
0.24222886890318676   -0.14141844363434913   0.0071727611506344074
0.24222886890318676   -0.14141844363434913   0.0071727611506344074
0.24222886890318676   -0.14141844363434913   0.0071727611506344074
-1.8640685193337303   -0.21581700401477993   -0.05876066253564187
-1.8640685193337303   -0.21581700401477993   -0.05876066253564187
-1.8640685193337303   -0.21581700401477993   -0.05876066253564187
-1.8640685193337303   -0.21581700401477993   -0.05876066253564187
-2.026733300584053   -0.6276928264900503   -0.10117169228968524
-2.026733300584053   -0.6276928264900503   -0.10117169228968524
-2.026733300584053   -0.6276928264900503   -0.10117169228968524
-2.026733300584053   -0.6276928264900503   -0.10117169228968524
0.26003331898678206   0.2044817243927085   0.06904435310609798
0.26003331898678206   0.2044817243927085   0.06904435310609798
0.26003331898678206   0.2044817243927085   0.06904435310609798
0.26003331898678206   0.2044817243927085   0.06904435310609798
-0.8497207587014074   -0.18574565826868125   -0.05069341095421436
-0.8497207587014074   -0.18574565826868125   -0.05069341095421436
-0.8497207587014074   -0.18574565826868125   -0.05069341095421436
-0.8497207587014074   -0.18574565826868125   -0.05069341095421436
0.18173610171034088   -0.15779717445826322   0.03983716557485602
0.18173610171034088   -0.15779717445826322   0.03983716557485602
0.18173610171034088   -0.15779717445826322   0.03983716557485602
0.18173610171034088   -0.15779717445826322   0.03983716557485602
-1.9424797420130535   -0.25945758634452143   -0.04813913958021618
-1.9424797420130535   -0.25945758634452143   -0.04813913958021618
-1.9424797420130535   -0.25945758634452143   -0.04813913958021618
-1.9424797420130535   -0.25945758634452143   -0.04813913958021618
-2.121251398807297   -0.6528775693750106   -0.0666210730451636
-2.121251398807297   -0.6528775693750106   -0.0666210730451636
-2.121251398807297   -0.6528775693750106   -0.0666210730451636
-2.121251398807297   -0.6528775693750106   -0.0666210730451636
0.17164351066720346   0.1606157386804603   0.07812902693890404
0.17164351066720346   0.1606157386804603   0.07812902693890404
0.17164351066720346   0.1606157386804603   0.07812902693890404
0.17164351066720346   0.1606157386804603   0.07812902693890404
-0.9278652073863616   -0.21198843651093224   -0.060849442009453386
-0.9278652073863616   -0.21198843651093224   -0.060849442009453386
-0.9278652073863616   -0.21198843651093224   -0.060849442009453386
-0.9278652073863616   -0.21198843651093224   -0.060849442009453386
0.09805845422676007   -0.18460623956309374   0.055425722980241114
0.09805845422676007   -0.18460623956309374   0.055425722980241114
0.09805845422676007   -0.18460623956309374   0.055425722980241114
0.09805845422676007   -0.18460623956309374   0.055425722980241114
-2.0464425105862265   -0.3064317593508104   -0.03902244196401952
-2.0464425105862265   -0.3064317593508104   -0.03902244196401952
-2.0464425105862265   -0.3064317593508104   -0.03902244196401952
-2.0464425105862265   -0.3064317593508104   -0.03902244196401952
-2.2261812634082614   -0.671398940983419   -0.05924373512716933
-2.2261812634082614   -0.671398940983419   -0.05924373512716933
-2.2261812634082614   -0.671398940983419   -0.05924373512716933
-2.2261812634082614   -0.671398940983419   -0.05924373512716933
0.07604421053947881   0.12314013505804192   0.08743209299251693
0.07604421053947881   0.12314013505804192   0.08743209299251693
0.07604421053947881   0.12314013505804192   0.08743209299251693
0.07604421053947881   0.12314013505804192   0.08743209299251693
-1.0294504679552858   -0.2434139185784691   -0.08524869333163088
-1.0294504679552858   -0.2434139185784691   -0.08524869333163088
-1.0294504679552858   -0.2434139185784691   -0.08524869333163088
-1.0294504679552858   -0.2434139185784691   -0.08524869333163088
-1.8364286794048097   -0.1656718867916825   0.029293419885833907
-1.8364286794048097   -0.1656718867916825   0.029293419885833907
-1.8364286794048097   -0.1656718867916825   0.029293419885833907
-1.8364286794048097   -0.1656718867916825   0.029293419885833907
-3.915009152320415   -0.25247306337280917   -0.10395575499296547
-3.915009152320415   -0.25247306337280917   -0.10395575499296547
-3.915009152320415   -0.25247306337280917   -0.10395575499296547
-3.915009152320415   -0.25247306337280917   -0.10395575499296547
-4.100083727318884   -0.6569771611620459   -0.10061430944092632
-4.100083727318884   -0.6569771611620459   -0.10061430944092632
-4.100083727318884   -0.6569771611620459   -0.10061430944092632
-4.100083727318884   -0.6569771611620459   -0.10061430944092632
-1.8459898117948519   0.15569537115929355   0.019157554006946964
-1.8459898117948519   0.15569537115929355   0.019157554006946964
-1.8459898117948519   0.15569537115929355   0.019157554006946964
-1.8459898117948519   0.15569537115929355   0.019157554006946964
-2.9001948765955787   -0.21918524310257426   -0.042867175692741816
-2.9001948765955787   -0.21918524310257426   -0.042867175692741816
-2.9001948765955787   -0.21918524310257426   -0.042867175692741816
-2.9001948765955787   -0.21918524310257426   -0.042867175692741816
-1.9034651168142287   -0.18336274763256621   0.07083914770193894
-1.9034651168142287   -0.18336274763256621   0.07083914770193894
-1.9034651168142287   -0.18336274763256621   0.07083914770193894
-1.9034651168142287   -0.18336274763256621   0.07083914770193894
-4.030869213542482   -0.3061798336131646   -0.10533906810783497
-4.030869213542482   -0.3061798336131646   -0.10533906810783497
-4.030869213542482   -0.3061798336131646   -0.10533906810783497
-4.030869213542482   -0.3061798336131646   -0.10533906810783497
-4.230972876675426   -0.699690741843139   -0.07036969548051022
-4.230972876675426   -0.699690741843139   -0.07036969548051022
-4.230972876675426   -0.699690741843139   -0.07036969548051022
-4.230972876675426   -0.699690741843139   -0.07036969548051022
-1.9511080386087918   0.10765953350233659   0.023558625070007805
-1.9511080386087918   0.10765953350233659   0.023558625070007805
-1.9511080386087918   0.10765953350233659   0.023558625070007805
-1.9511080386087918   0.10765953350233659   0.023558625070007805
-2.983289218898366   -0.24304443817736898   -0.04312730740562118
-2.983289218898366   -0.24304443817736898   -0.04312730740562118
-2.983289218898366   -0.24304443817736898   -0.04312730740562118
-2.983289218898366   -0.24304443817736898   -0.04312730740562118
-2.0079323897093935   -0.22632452061663866   0.07342092368595884
-2.0079323897093935   -0.22632452061663866   0.07342092368595884
-2.0079323897093935   -0.22632452061663866   0.07342092368595884
-2.0079323897093935   -0.22632452061663866   0.07342092368595884
-4.166293121142673   -0.35785128329201554   -0.08881037636787106
-4.166293121142673   -0.35785128329201554   -0.08881037636787106
-4.166293121142673   -0.35785128329201554   -0.08881037636787106
-4.166293121142673   -0.35785128329201554   -0.08881037636787106
-4.379186515247592   -0.7558511446883012   -0.07551169787312051
-4.379186515247592   -0.7558511446883012   -0.07551169787312051
-4.379186515247592   -0.7558511446883012   -0.07551169787312051
-4.379186515247592   -0.7558511446883012   -0.07551169787312051
-2.0646889966490964   0.04850337082635808   0.028315286858840216
-2.0646889966490964   0.04850337082635808   0.028315286858840216
-2.0646889966490964   0.04850337082635808   0.028315286858840216
-2.0646889966490964   0.04850337082635808   0.028315286858840216
-3.1298253438547934   -0.30038754240001975   -0.06976342526357154
-3.1298253438547934   -0.30038754240001975   -0.06976342526357154
-3.1298253438547934   -0.30038754240001975   -0.06976342526357154
-3.1298253438547934   -0.30038754240001975   -0.06976342526357154
-3.7815267391319427   0.18040893928976343   0.1305743082868222
-3.7815267391319427   0.18040893928976343   0.1305743082868222
-3.7815267391319427   0.18040893928976343   0.1305743082868222
-3.7815267391319427   0.18040893928976343   0.1305743082868222
-5.86496853855097   -0.2923662804922085   -0.07996597190686777
-5.86496853855097   -0.2923662804922085   -0.07996597190686777
-5.86496853855097   -0.2923662804922085   -0.07996597190686777
-5.86496853855097   -0.2923662804922085   -0.07996597190686777
-6.011211120183296   -0.29760141035624077   0.13432758913884202
-6.011211120183296   -0.29760141035624077   0.13432758913884202
-6.011211120183296   -0.29760141035624077   0.13432758913884202
-6.011211120183296   -0.29760141035624077   0.13432758913884202
-3.930934447142069   0.12066760963650192   -0.03251267935543262
-3.930934447142069   0.12066760963650192   -0.03251267935543262
-3.930934447142069   0.12066760963650192   -0.03251267935543262
-3.930934447142069   0.12066760963650192   -0.03251267935543262
-4.669042810180866   0.004007379195338556   0.11825862909471474
-4.669042810180866   0.004007379195338556   0.11825862909471474
-4.669042810180866   0.004007379195338556   0.11825862909471474
-4.669042810180866   0.004007379195338556   0.11825862909471474
-3.8890898357547963   0.1328607717876451   0.1645172154297725
-3.8890898357547963   0.1328607717876451   0.1645172154297725
-3.8890898357547963   0.1328607717876451   0.1645172154297725
-3.8890898357547963   0.1328607717876451   0.1645172154297725
-6.050361945817884   -0.30710078675468244   -0.05192716263566144
-6.050361945817884   -0.30710078675468244   -0.05192716263566144
-6.050361945817884   -0.30710078675468244   -0.05192716263566144
-6.050361945817884   -0.30710078675468244   -0.05192716263566144
-6.196047352639413   -0.3478480727301937   0.18252297989237146
-6.196047352639413   -0.3478480727301937   0.18252297989237146
-6.196047352639413   -0.3478480727301937   0.18252297989237146
-6.196047352639413   -0.3478480727301937   0.18252297989237146
-4.06642989678092   0.08655808348477945   -0.03390362133593211
-4.06642989678092   0.08655808348477945   -0.03390362133593211
-4.06642989678092   0.08655808348477945   -0.03390362133593211
-4.06642989678092   0.08655808348477945   -0.03390362133593211
-4.906483414692159   -0.05491041946400976   0.0638357628153976
-4.906483414692159   -0.05491041946400976   0.0638357628153976
-4.906483414692159   -0.05491041946400976   0.0638357628153976
-4.906483414692159   -0.05491041946400976   0.0638357628153976
-4.0281918113637385   0.08165618116120155   0.16218870807355074
-4.0281918113637385   0.08165618116120155   0.16218870807355074
-4.0281918113637385   0.08165618116120155   0.16218870807355074
-4.0281918113637385   0.08165618116120155   0.16218870807355074
-6.241484402635273   -0.3501451349852944   -0.0423652078318264
-6.241484402635273   -0.3501451349852944   -0.0423652078318264
-6.241484402635273   -0.3501451349852944   -0.0423652078318264
-6.241484402635273   -0.3501451349852944   -0.0423652078318264
-6.458553296517454   -0.5497229345338127   0.15899482493647124
-6.458553296517454   -0.5497229345338127   0.15899482493647124
-6.458553296517454   -0.5497229345338127   0.15899482493647124
-6.458553296517454   -0.5497229345338127   0.15899482493647124
-4.2226362833824345   -0.01675244256523034   -0.03185924067046772
-4.2226362833824345   -0.01675244256523034   -0.03185924067046772
-4.2226362833824345   -0.01675244256523034   -0.03185924067046772
-4.2226362833824345   -0.01675244256523034   -0.03185924067046772
-5.0091696454963754   -0.12881921859909962   0.015558620585913202
-5.0091696454963754   -0.12881921859909962   0.015558620585913202
-5.0091696454963754   -0.12881921859909962   0.015558620585913202
-5.0091696454963754   -0.12881921859909962   0.015558620585913202
3.873144216797919   0.20627574294548534   -0.13968426575601717
3.873144216797919   0.20627574294548534   -0.13968426575601717
3.873144216797919   0.20627574294548534   -0.13968426575601717
3.873144216797919   0.20627574294548534   -0.13968426575601717
1.922607625794721   -0.00022602074279259865   0.05106503618699278
1.922607625794721   -0.00022602074279259865   0.05106503618699278
1.922607625794721   -0.00022602074279259865   0.05106503618699278
1.922607625794721   -0.00022602074279259865   0.05106503618699278
1.7554473825070627   -0.2874001515957414   -0.12778561551947662
1.7554473825070627   -0.2874001515957414   -0.12778561551947662
1.7554473825070627   -0.2874001515957414   -0.12778561551947662
1.7554473825070627   -0.2874001515957414   -0.12778561551947662
3.7993425315368583   0.3140098358228198   0.0639844393977039
3.7993425315368583   0.3140098358228198   0.0639844393977039
3.7993425315368583   0.3140098358228198   0.0639844393977039
3.7993425315368583   0.3140098358228198   0.0639844393977039
2.6909341293047055   0.023848778460486386   -0.08851436220625244
2.6909341293047055   0.023848778460486386   -0.08851436220625244
2.6909341293047055   0.023848778460486386   -0.08851436220625244
2.6909341293047055   0.023848778460486386   -0.08851436220625244
3.7176084452293154   0.10371162732431005   -0.1343877836414726
3.7176084452293154   0.10371162732431005   -0.1343877836414726
3.7176084452293154   0.10371162732431005   -0.1343877836414726
3.7176084452293154   0.10371162732431005   -0.1343877836414726
1.8336446737011387   -0.08063873821069928   0.05643942706582797
1.8336446737011387   -0.08063873821069928   0.05643942706582797
1.8336446737011387   -0.08063873821069928   0.05643942706582797
1.8336446737011387   -0.08063873821069928   0.05643942706582797
1.6718242806675077   -0.3116469049659028   -0.11097720581253709
1.6718242806675077   -0.3116469049659028   -0.11097720581253709
1.6718242806675077   -0.3116469049659028   -0.11097720581253709
1.6718242806675077   -0.3116469049659028   -0.11097720581253709
3.6742083508635948   0.2807662698427502   0.08724209026896695
3.6742083508635948   0.2807662698427502   0.08724209026896695
3.6742083508635948   0.2807662698427502   0.08724209026896695
3.6742083508635948   0.2807662698427502   0.08724209026896695
2.624887198215209   -0.019668095185076395   -0.11679335435750673
2.624887198215209   -0.019668095185076395   -0.11679335435750673
2.624887198215209   -0.019668095185076395   -0.11679335435750673
2.624887198215209   -0.019668095185076395   -0.11679335435750673
3.5942534583588155   0.07390095937701513   -0.1056670617891329
3.5942534583588155   0.07390095937701513   -0.1056670617891329
3.5942534583588155   0.07390095937701513   -0.1056670617891329
3.5942534583588155   0.07390095937701513   -0.1056670617891329
1.7486358360113918   -0.10792493166107531   0.06935859760204205
1.7486358360113918   -0.10792493166107531   0.06935859760204205
1.7486358360113918   -0.10792493166107531   0.06935859760204205
1.7486358360113918   -0.10792493166107531   0.06935859760204205
1.5953879812856764   -0.31938571036322444   -0.0906313407673617
1.5953879812856764   -0.31938571036322444   -0.0906313407673617
1.5953879812856764   -0.31938571036322444   -0.0906313407673617
1.5953879812856764   -0.31938571036322444   -0.0906313407673617
3.5331374443105803   0.25120262849706143   0.1083425053321237
3.5331374443105803   0.25120262849706143   0.1083425053321237
3.5331374443105803   0.25120262849706143   0.1083425053321237
3.5331374443105803   0.25120262849706143   0.1083425053321237
2.4729376953362934   -0.049813901383460424   -0.15887042306254795
2.4729376953362934   -0.049813901383460424   -0.15887042306254795
2.4729376953362934   -0.049813901383460424   -0.15887042306254795
2.4729376953362934   -0.049813901383460424   -0.15887042306254795
1.9547550175046564   0.20168336016224048   0.009892613831636976
1.9547550175046564   0.20168336016224048   0.009892613831636976
1.9547550175046564   0.20168336016224048   0.009892613831636976
1.9547550175046564   0.20168336016224048   0.009892613831636976
0.0705362161536091   -0.06279297024504132   -0.007509019655123081
0.0705362161536091   -0.06279297024504132   -0.007509019655123081
0.0705362161536091   -0.06279297024504132   -0.007509019655123081
0.0705362161536091   -0.06279297024504132   -0.007509019655123081
-0.05544054134572241   -0.2587429338050936   -0.08669535059996333
-0.05544054134572241   -0.2587429338050936   -0.08669535059996333
-0.05544054134572241   -0.2587429338050936   -0.08669535059996333
-0.05544054134572241   -0.2587429338050936   -0.08669535059996333
1.9166307497139932   0.2840135031666624   0.10671756575273819
1.9166307497139932   0.2840135031666624   0.10671756575273819
1.9166307497139932   0.2840135031666624   0.10671756575273819
1.9166307497139932   0.2840135031666624   0.10671756575273819
0.9564992425625084   0.040432174809365395   -0.01113932397163564
0.9564992425625084   0.040432174809365395   -0.01113932397163564
0.9564992425625084   0.040432174809365395   -0.01113932397163564
0.9564992425625084   0.040432174809365395   -0.01113932397163564
1.8723915853754522   0.14839134258706294   0.02114390463964498
1.8723915853754522   0.14839134258706294   0.02114390463964498
1.8723915853754522   0.14839134258706294   0.02114390463964498
1.8723915853754522   0.14839134258706294   0.02114390463964498
-0.01042906845553624   -0.12234846467384565   0.001967544719727196
-0.01042906845553624   -0.12234846467384565   0.001967544719727196
-0.01042906845553624   -0.12234846467384565   0.001967544719727196
-0.01042906845553624   -0.12234846467384565   0.001967544719727196
-0.1346626004267325   -0.29797718652953875   -0.07485078032188296
-0.1346626004267325   -0.29797718652953875   -0.07485078032188296
-0.1346626004267325   -0.29797718652953875   -0.07485078032188296
-0.1346626004267325   -0.29797718652953875   -0.07485078032188296
1.8269006820655533   0.23461626652576903   0.11814162968600453
1.8269006820655533   0.23461626652576903   0.11814162968600453
1.8269006820655533   0.23461626652576903   0.11814162968600453
1.8269006820655533   0.23461626652576903   0.11814162968600453
0.8599042321430306   -0.008182265752776113   -0.0387910587749914
0.8599042321430306   -0.008182265752776113   -0.0387910587749914
0.8599042321430306   -0.008182265752776113   -0.0387910587749914
0.8599042321430306   -0.008182265752776113   -0.0387910587749914
1.7843028072114275   0.10728312954227193   0.03248539239888777
1.7843028072114275   0.10728312954227193   0.03248539239888777
1.7843028072114275   0.10728312954227193   0.03248539239888777
1.7843028072114275   0.10728312954227193   0.03248539239888777
-0.09198366365924998   -0.17056298763266198   0.011129704618652765
-0.09198366365924998   -0.17056298763266198   0.011129704618652765
-0.09198366365924998   -0.17056298763266198   0.011129704618652765
-0.09198366365924998   -0.17056298763266198   0.011129704618652765
-0.21310875611696548   -0.32181219875309464   -0.05938896710099923
-0.21310875611696548   -0.32181219875309464   -0.05938896710099923
-0.21310875611696548   -0.32181219875309464   -0.05938896710099923
-0.21310875611696548   -0.32181219875309464   -0.05938896710099923
1.74156584800014   0.19278558009141789   0.1280867023502903
1.74156584800014   0.19278558009141789   0.1280867023502903
1.74156584800014   0.19278558009141789   0.1280867023502903
1.74156584800014   0.19278558009141789   0.1280867023502903
0.7882035083887532   -0.039516368438178934   -0.05925211261889197
0.7882035083887532   -0.039516368438178934   -0.05925211261889197
0.7882035083887532   -0.039516368438178934   -0.05925211261889197
0.7882035083887532   -0.039516368438178934   -0.05925211261889197
0.1342435092566288   0.20437035777783927   0.043864117837095026
0.1342435092566288   0.20437035777783927   0.043864117837095026
0.1342435092566288   0.20437035777783927   0.043864117837095026
0.1342435092566288   0.20437035777783927   0.043864117837095026
-1.7235697968007855   -0.11071690654899269   -0.05941326151887777
-1.7235697968007855   -0.11071690654899269   -0.05941326151887777
-1.7235697968007855   -0.11071690654899269   -0.05941326151887777
-1.7235697968007855   -0.11071690654899269   -0.05941326151887777
-1.82186413677324   -0.23660199419232614   -0.05447678405905307
-1.82186413677324   -0.23660199419232614   -0.05447678405905307
-1.82186413677324   -0.23660199419232614   -0.05447678405905307
-1.82186413677324   -0.23660199419232614   -0.05447678405905307
0.07044895197938882   0.23248088388455476   0.05152829833595208
0.07044895197938882   0.23248088388455476   0.05152829833595208
0.07044895197938882   0.23248088388455476   0.05152829833595208
0.07044895197938882   0.23248088388455476   0.05152829833595208
-0.8341514860428624   0.026415842077967433   0.003058663123616516
-0.8341514860428624   0.026415842077967433   0.003058663123616516
-0.8341514860428624   0.026415842077967433   0.003058663123616516
-0.8341514860428624   0.026415842077967433   0.003058663123616516
0.05692550810684949   0.16110807013921907   0.05528389271858347
0.05692550810684949   0.16110807013921907   0.05528389271858347
0.05692550810684949   0.16110807013921907   0.05528389271858347
0.05692550810684949   0.16110807013921907   0.05528389271858347
-1.8061882779584415   -0.16307676550473238   -0.04962271867265346
-1.8061882779584415   -0.16307676550473238   -0.04962271867265346
-1.8061882779584415   -0.16307676550473238   -0.04962271867265346
-1.8061882779584415   -0.16307676550473238   -0.04962271867265346
-1.9068988136644094   -0.27973418635620795   -0.045078273912824623
-1.9068988136644094   -0.27973418635620795   -0.045078273912824623
-1.9068988136644094   -0.27973418635620795   -0.045078273912824623
-1.9068988136644094   -0.27973418635620795   -0.045078273912824623
-0.011245505085204312   0.18165296627305347   0.06260454358317341
-0.011245505085204312   0.18165296627305347   0.06260454358317341
-0.011245505085204312   0.18165296627305347   0.06260454358317341
-0.011245505085204312   0.18165296627305347   0.06260454358317341
-0.915603614582472   -0.015692427850624385   -0.01777906967395928
-0.915603614582472   -0.015692427850624385   -0.01777906967395928
-0.915603614582472   -0.015692427850624385   -0.01777906967395928
-0.915603614582472   -0.015692427850624385   -0.01777906967395928
-0.02281432588710154   0.1194842059592838   0.06692919988744925
-0.02281432588710154   0.1194842059592838   0.06692919988744925
-0.02281432588710154   0.1194842059592838   0.06692919988744925
-0.02281432588710154   0.1194842059592838   0.06692919988744925
-1.8934682046086455   -0.21570363778858961   -0.041955777201600646
-1.8934682046086455   -0.21570363778858961   -0.041955777201600646
-1.8934682046086455   -0.21570363778858961   -0.041955777201600646
-1.8934682046086455   -0.21570363778858961   -0.041955777201600646
-1.9913819477872845   -0.31372532365898737   -0.029469042265866472
-1.9913819477872845   -0.31372532365898737   -0.029469042265866472
-1.9913819477872845   -0.31372532365898737   -0.029469042265866472
-1.9913819477872845   -0.31372532365898737   -0.029469042265866472
-0.09587042237681359   0.13377129370416102   0.07121920914250465
-0.09587042237681359   0.13377129370416102   0.07121920914250465
-0.09587042237681359   0.13377129370416102   0.07121920914250465
-0.09587042237681359   0.13377129370416102   0.07121920914250465
-1.0032360044508781   -0.05852417542112662   -0.04052067830476333
-1.0032360044508781   -0.05852417542112662   -0.04052067830476333
-1.0032360044508781   -0.05852417542112662   -0.04052067830476333
-1.0032360044508781   -0.05852417542112662   -0.04052067830476333
-1.624899636812476   0.24248676425178023   0.0807338676219195
-1.624899636812476   0.24248676425178023   0.0807338676219195
-1.624899636812476   0.24248676425178023   0.0807338676219195
-1.624899636812476   0.24248676425178023   0.0807338676219195
-3.4564569267893206   -0.15253911202476067   -0.09756741484050455
-3.4564569267893206   -0.15253911202476067   -0.09756741484050455
-3.4564569267893206   -0.15253911202476067   -0.09756741484050455
-3.4564569267893206   -0.15253911202476067   -0.09756741484050455
-3.533147736714374   -0.18852655881814018   -0.014794170960822
-3.533147736714374   -0.18852655881814018   -0.014794170960822
-3.533147736714374   -0.18852655881814018   -0.014794170960822
-3.533147736714374   -0.18852655881814018   -0.014794170960822
-1.7291929260601222   0.17555981781264374   -0.003282542498417834
-1.7291929260601222   0.17555981781264374   -0.003282542498417834
-1.7291929260601222   0.17555981781264374   -0.003282542498417834
-1.7291929260601222   0.17555981781264374   -0.003282542498417834
-2.5672685688681414   0.027318973628630228   0.018619067389283206
-2.5672685688681414   0.027318973628630228   0.018619067389283206
-2.5672685688681414   0.027318973628630228   0.018619067389283206
-2.5672685688681414   0.027318973628630228   0.018619067389283206
-1.7059120488010193   0.19801312106553587   0.09066854054420367
-1.7059120488010193   0.19801312106553587   0.09066854054420367
-1.7059120488010193   0.19801312106553587   0.09066854054420367
-1.7059120488010193   0.19801312106553587   0.09066854054420367
-3.553467049927257   -0.20801829802481797   -0.09689899781859154
-3.553467049927257   -0.20801829802481797   -0.09689899781859154
-3.553467049927257   -0.20801829802481797   -0.09689899781859154
-3.553467049927257   -0.20801829802481797   -0.09689899781859154
-3.637897773245379   -0.23699156365014418   -0.012907126055808599
-3.637897773245379   -0.23699156365014418   -0.012907126055808599
-3.637897773245379   -0.23699156365014418   -0.012907126055808599
-3.637897773245379   -0.23699156365014418   -0.012907126055808599
-1.8152052868431612   0.12705495098823594   0.006600222848996279
-1.8152052868431612   0.12705495098823594   0.006600222848996279
-1.8152052868431612   0.12705495098823594   0.006600222848996279
-1.8152052868431612   0.12705495098823594   0.006600222848996279
-2.6408468426265603   -0.01133917929583883   0.0015025973358889777
-2.6408468426265603   -0.01133917929583883   0.0015025973358889777
-2.6408468426265603   -0.01133917929583883   0.0015025973358889777
-2.6408468426265603   -0.01133917929583883   0.0015025973358889777
-1.7897287383913643   0.15619270979257077   0.10484520630362915
-1.7897287383913643   0.15619270979257077   0.10484520630362915
-1.7897287383913643   0.15619270979257077   0.10484520630362915
-1.7897287383913643   0.15619270979257077   0.10484520630362915
-3.657411978601178   -0.26016697935847144   -0.08730273712652323
-3.657411978601178   -0.26016697935847144   -0.08730273712652323
-3.657411978601178   -0.26016697935847144   -0.08730273712652323
-3.657411978601178   -0.26016697935847144   -0.08730273712652323
-3.7344017261536666   -0.28882770894651844   0.011372617499028181
-3.7344017261536666   -0.28882770894651844   0.011372617499028181
-3.7344017261536666   -0.28882770894651844   0.011372617499028181
-3.7344017261536666   -0.28882770894651844   0.011372617499028181
-1.9063514614457908   0.06945813899495767   0.012499926787679763
-1.9063514614457908   0.06945813899495767   0.012499926787679763
-1.9063514614457908   0.06945813899495767   0.012499926787679763
-1.9063514614457908   0.06945813899495767   0.012499926787679763
-2.75504514733757   -0.0652743289235459   -0.021391875959095003
-2.75504514733757   -0.0652743289235459   -0.021391875959095003
-2.75504514733757   -0.0652743289235459   -0.021391875959095003
-2.75504514733757   -0.0652743289235459   -0.021391875959095003
-3.3332169933111206   0.2526632092018767   0.11342993132383061
-3.3332169933111206   0.2526632092018767   0.11342993132383061
-3.3332169933111206   0.2526632092018767   0.11342993132383061
-3.3332169933111206   0.2526632092018767   0.11342993132383061
-5.100676980099388   -0.23569242426625248   -0.09068788058543906
-5.100676980099388   -0.23569242426625248   -0.09068788058543906
-5.100676980099388   -0.23569242426625248   -0.09068788058543906
-5.100676980099388   -0.23569242426625248   -0.09068788058543906
-5.1718486018812975   -0.10165253243242822   0.0968007650390228
-5.1718486018812975   -0.10165253243242822   0.0968007650390228
-5.1718486018812975   -0.10165253243242822   0.0968007650390228
-5.1718486018812975   -0.10165253243242822   0.0968007650390228
-3.481942590593054   0.10405143835327868   -0.05134643752564186
-3.481942590593054   0.10405143835327868   -0.05134643752564186
-3.481942590593054   0.10405143835327868   -0.05134643752564186
-3.481942590593054   0.10405143835327868   -0.05134643752564186
-4.083337789561019   0.05305321320322953   0.09335376955965621
-4.083337789561019   0.05305321320322953   0.09335376955965621
-4.083337789561019   0.05305321320322953   0.09335376955965621
-4.083337789561019   0.05305321320322953   0.09335376955965621
-3.415140718548609   0.25639313619686976   0.13032122485294667
-3.415140718548609   0.25639313619686976   0.13032122485294667
-3.415140718548609   0.25639313619686976   0.13032122485294667
-3.415140718548609   0.25639313619686976   0.13032122485294667
-5.234702252273093   -0.2500460086233819   -0.0690740107289062
-5.234702252273093   -0.2500460086233819   -0.0690740107289062
-5.234702252273093   -0.2500460086233819   -0.0690740107289062
-5.234702252273093   -0.2500460086233819   -0.0690740107289062
-5.30190631947082   -0.1269996383219807   0.13378419232029026
-5.30190631947082   -0.1269996383219807   0.13378419232029026
-5.30190631947082   -0.1269996383219807   0.13378419232029026
-5.30190631947082   -0.1269996383219807   0.13378419232029026
-3.581832028356229   0.076165307199348   -0.045735272459551224
-3.581832028356229   0.076165307199348   -0.045735272459551224
-3.581832028356229   0.076165307199348   -0.045735272459551224
-3.581832028356229   0.076165307199348   -0.045735272459551224
-4.261272331765703   0.026076608522641487   0.059478339157402665
-4.261272331765703   0.026076608522641487   0.059478339157402665
-4.261272331765703   0.026076608522641487   0.059478339157402665
-4.261272331765703   0.026076608522641487   0.059478339157402665
-3.5080635693304343   0.23738878267982721   0.16188354718894382
-3.5080635693304343   0.23738878267982721   0.16188354718894382
-3.5080635693304343   0.23738878267982721   0.16188354718894382
-3.5080635693304343   0.23738878267982721   0.16188354718894382
-5.3718825536459445   -0.2844308889517746   -0.058665727925448774
-5.3718825536459445   -0.2844308889517746   -0.058665727925448774
-5.3718825536459445   -0.2844308889517746   -0.058665727925448774
-5.3718825536459445   -0.2844308889517746   -0.058665727925448774
-5.478272307168848   -0.2348401578507463   0.1333382066883653
-5.478272307168848   -0.2348401578507463   0.1333382066883653
-5.478272307168848   -0.2348401578507463   0.1333382066883653
-5.478272307168848   -0.2348401578507463   0.1333382066883653
-3.688844553922638   -0.006761144977688538   -0.04290808531465701
-3.688844553922638   -0.006761144977688538   -0.04290808531465701
-3.688844553922638   -0.006761144977688538   -0.04290808531465701
-3.688844553922638   -0.006761144977688538   -0.04290808531465701
-4.314408565407086   -0.012443995365927774   0.047972976382651605
-4.314408565407086   -0.012443995365927774   0.047972976382651605
-4.314408565407086   -0.012443995365927774   0.047972976382651605
-4.314408565407086   -0.012443995365927774   0.047972976382651605
2.9250464562144978   0.16178478076822694   -0.14131978667768613
2.9250464562144978   0.16178478076822694   -0.14131978667768613
2.9250464562144978   0.16178478076822694   -0.14131978667768613
2.9250464562144978   0.16178478076822694   -0.14131978667768613
1.3926918937671937   0.02950554650000925   0.05425607852195058
1.3926918937671937   0.02950554650000925   0.05425607852195058
1.3926918937671937   0.02950554650000925   0.05425607852195058
1.3926918937671937   0.02950554650000925   0.05425607852195058
1.2354993207332645   -0.23835206078415372   -0.13398183283356999
1.2354993207332645   -0.23835206078415372   -0.13398183283356999
1.2354993207332645   -0.23835206078415372   -0.13398183283356999
1.2354993207332645   -0.23835206078415372   -0.13398183283356999
2.8607215102999657   0.2697037896572568   0.06703568938932376
2.8607215102999657   0.2697037896572568   0.06703568938932376
2.8607215102999657   0.2697037896572568   0.06703568938932376
2.8607215102999657   0.2697037896572568   0.06703568938932376
1.994854335791886   0.027041499994155782   -0.05894619544045494
1.994854335791886   0.027041499994155782   -0.05894619544045494
1.994854335791886   0.027041499994155782   -0.05894619544045494
1.994854335791886   0.027041499994155782   -0.05894619544045494
2.780857240479502   0.07083292976721611   -0.1334147998229578
2.780857240479502   0.07083292976721611   -0.1334147998229578
2.780857240479502   0.07083292976721611   -0.1334147998229578
2.780857240479502   0.07083292976721611   -0.1334147998229578
1.313777510876274   -0.04106728057156955   0.06012433766888399
1.313777510876274   -0.04106728057156955   0.06012433766888399
1.313777510876274   -0.04106728057156955   0.06012433766888399
1.313777510876274   -0.04106728057156955   0.06012433766888399
1.1619890701195859   -0.26195707662657636   -0.11415536133365728
1.1619890701195859   -0.26195707662657636   -0.11415536133365728
1.1619890701195859   -0.26195707662657636   -0.11415536133365728
1.1619890701195859   -0.26195707662657636   -0.11415536133365728
2.746440926020288   0.23601960697542546   0.08796136860428375
2.746440926020288   0.23601960697542546   0.08796136860428375
2.746440926020288   0.23601960697542546   0.08796136860428375
2.746440926020288   0.23601960697542546   0.08796136860428375
1.9285318390361554   -0.01374933400442141   -0.08322380501073715
1.9285318390361554   -0.01374933400442141   -0.08322380501073715
1.9285318390361554   -0.01374933400442141   -0.08322380501073715
1.9285318390361554   -0.01374933400442141   -0.08322380501073715
2.668480443334501   0.04083998559441426   -0.10666142344361934
2.668480443334501   0.04083998559441426   -0.10666142344361934
2.668480443334501   0.04083998559441426   -0.10666142344361934
2.668480443334501   0.04083998559441426   -0.10666142344361934
1.2379779164613094   -0.06874909158962661   0.07258088533800208
1.2379779164613094   -0.06874909158962661   0.07258088533800208
1.2379779164613094   -0.06874909158962661   0.07258088533800208
1.2379779164613094   -0.06874909158962661   0.07258088533800208
1.0956660419808746   -0.2769689875100768   -0.0950441723738617
1.0956660419808746   -0.2769689875100768   -0.0950441723738617
1.0956660419808746   -0.2769689875100768   -0.0950441723738617
1.0956660419808746   -0.2769689875100768   -0.0950441723738617
2.6176351846824746   0.19920903283248292   0.10431944854185649
2.6176351846824746   0.19920903283248292   0.10431944854185649
2.6176351846824746   0.19920903283248292   0.10431944854185649
2.6176351846824746   0.19920903283248292   0.10431944854185649
1.7990201465972488   -0.04473879771622291   -0.11887298166018778
1.7990201465972488   -0.04473879771622291   -0.11887298166018778
1.7990201465972488   -0.04473879771622291   -0.11887298166018778
1.7990201465972488   -0.04473879771622291   -0.11887298166018778
1.4152634946341824   0.2058151793779031   -0.009195550020974236
1.4152634946341824   0.2058151793779031   -0.009195550020974236
1.4152634946341824   0.2058151793779031   -0.009195550020974236
1.4152634946341824   0.2058151793779031   -0.009195550020974236
-0.09075743868085878   -0.01893881324883327   -0.0002745605380760876
-0.09075743868085878   -0.01893881324883327   -0.0002745605380760876
-0.09075743868085878   -0.01893881324883327   -0.0002745605380760876
-0.09075743868085878   -0.01893881324883327   -0.0002745605380760876
-0.20147959409609098   -0.17794041278865938   -0.08494167021378671
-0.20147959409609098   -0.17794041278865938   -0.08494167021378671
-0.20147959409609098   -0.17794041278865938   -0.08494167021378671
-0.20147959409609098   -0.17794041278865938   -0.08494167021378671
1.377822171378735   0.24491611238780264   0.09436424722181755
1.377822171378735   0.24491611238780264   0.09436424722181755
1.377822171378735   0.24491611238780264   0.09436424722181755
1.377822171378735   0.24491611238780264   0.09436424722181755
0.615601356242127   0.06064434928349516   0.0042709669437135875
0.615601356242127   0.06064434928349516   0.0042709669437135875
0.615601356242127   0.06064434928349516   0.0042709669437135875
0.615601356242127   0.06064434928349516   0.0042709669437135875
1.3402906882967476   0.1481054721438372   0.0035174720558577635
1.3402906882967476   0.1481054721438372   0.0035174720558577635
1.3402906882967476   0.1481054721438372   0.0035174720558577635
1.3402906882967476   0.1481054721438372   0.0035174720558577635
-0.16329704532209818   -0.08047870685268665   0.008509367720204533
-0.16329704532209818   -0.08047870685268665   0.008509367720204533
-0.16329704532209818   -0.08047870685268665   0.008509367720204533
-0.16329704532209818   -0.08047870685268665   0.008509367720204533
-0.27073676258326523   -0.22256709226604737   -0.07013771962425894
-0.27073676258326523   -0.22256709226604737   -0.07013771962425894
-0.27073676258326523   -0.22256709226604737   -0.07013771962425894
-0.27073676258326523   -0.22256709226604737   -0.07013771962425894
1.2962064470901684   0.19179238822224415   0.1031820586704256
1.2962064470901684   0.19179238822224415   0.1031820586704256
1.2962064470901684   0.19179238822224415   0.1031820586704256
1.2962064470901684   0.19179238822224415   0.1031820586704256
0.5304004308775563   0.008165530543620875   -0.022093063631561306
0.5304004308775563   0.008165530543620875   -0.022093063631561306
0.5304004308775563   0.008165530543620875   -0.022093063631561306
0.5304004308775563   0.008165530543620875   -0.022093063631561306
1.2599084588205463   0.10023866420706698   0.013245841337501375
1.2599084588205463   0.10023866420706698   0.013245841337501375
1.2599084588205463   0.10023866420706698   0.013245841337501375
1.2599084588205463   0.10023866420706698   0.013245841337501375
-0.23494895891179454   -0.13152355284902006   0.017757759316067354
-0.23494895891179454   -0.13152355284902006   0.017757759316067354
-0.23494895891179454   -0.13152355284902006   0.017757759316067354
-0.23494895891179454   -0.13152355284902006   0.017757759316067354
-0.3391103215755274   -0.2602120835222788   -0.056225446142526087
-0.3391103215755274   -0.2602120835222788   -0.056225446142526087
-0.3391103215755274   -0.2602120835222788   -0.056225446142526087
-0.3391103215755274   -0.2602120835222788   -0.056225446142526087
1.2208546380686256   0.14251981048118242   0.11141001007362714
1.2208546380686256   0.14251981048118242   0.11141001007362714
1.2208546380686256   0.14251981048118242   0.11141001007362714
1.2208546380686256   0.14251981048118242   0.11141001007362714
0.4648164344268258   -0.03181536966158682   -0.04412437523941703
0.4648164344268258   -0.03181536966158682   -0.04412437523941703
0.4648164344268258   -0.03181536966158682   -0.04412437523941703
0.4648164344268258   -0.03181536966158682   -0.04412437523941703
-0.030788060948827717   0.24654066324987348   0.034092851623372514
-0.030788060948827717   0.24654066324987348   0.034092851623372514
-0.030788060948827717   0.24654066324987348   0.034092851623372514
-0.030788060948827717   0.24654066324987348   0.034092851623372514
-1.5425057952722772   -0.06589098268229493   -0.05117608047371683
-1.5425057952722772   -0.06589098268229493   -0.05117608047371683
-1.5425057952722772   -0.06589098268229493   -0.05117608047371683
-1.5425057952722772   -0.06589098268229493   -0.05117608047371683
-1.6138845594002365   -0.12266462979620302   -0.039865758688211586
-1.6138845594002365   -0.12266462979620302   -0.039865758688211586
-1.6138845594002365   -0.12266462979620302   -0.039865758688211586
-1.6138845594002365   -0.12266462979620302   -0.039865758688211586
-0.10113662571936716   0.1978294951476534   0.04100326373351957
-0.10113662571936716   0.1978294951476534   0.04100326373351957
-0.10113662571936716   0.1978294951476534   0.04100326373351957
-0.10113662571936716   0.1978294951476534   0.04100326373351957
-0.8201377260978471   0.06442626866273038   0.016108531201192627
-0.8201377260978471   0.06442626866273038   0.016108531201192627
-0.8201377260978471   0.06442626866273038   0.016108531201192627
-0.8201377260978471   0.06442626866273038   0.016108531201192627
-0.09972339578203247   0.19776711364887448   0.04813179491897198
-0.09972339578203247   0.19776711364887448   0.04813179491897198
-0.09972339578203247   0.19776711364887448   0.04813179491897198
-0.09972339578203247   0.19776711364887448   0.04813179491897198
-1.613952016660613   -0.12125647562046582   -0.041611199165830726
-1.613952016660613   -0.12125647562046582   -0.041611199165830726
-1.613952016660613   -0.12125647562046582   -0.041611199165830726
-1.613952016660613   -0.12125647562046582   -0.041611199165830726
-1.6848185610478321   -0.17096795632710812   -0.026927013455006747
-1.6848185610478321   -0.17096795632710812   -0.026927013455006747
-1.6848185610478321   -0.17096795632710812   -0.026927013455006747
-1.6848185610478321   -0.17096795632710812   -0.026927013455006747
-0.17332639556200405   0.14312315347769913   0.051223869738300516
-0.17332639556200405   0.14312315347769913   0.051223869738300516
-0.17332639556200405   0.14312315347769913   0.051223869738300516
-0.17332639556200405   0.14312315347769913   0.051223869738300516
-0.8918009646427439   0.016851768845716403   -0.005316625652664178
-0.8918009646427439   0.016851768845716403   -0.005316625652664178
-0.8918009646427439   0.016851768845716403   -0.005316625652664178
-0.8918009646427439   0.016851768845716403   -0.005316625652664178
-0.17048972426953368   0.1491577413793527   0.05937263829899896
-0.17048972426953368   0.1491577413793527   0.05937263829899896
-0.17048972426953368   0.1491577413793527   0.05937263829899896
-0.17048972426953368   0.1491577413793527   0.05937263829899896
-1.6872456433315342   -0.17659295521999333   -0.03343742598063166
-1.6872456433315342   -0.17659295521999333   -0.03343742598063166
-1.6872456433315342   -0.17659295521999333   -0.03343742598063166
-1.6872456433315342   -0.17659295521999333   -0.03343742598063166
-1.7549423436748044   -0.21511344570347546   -0.014132566597809593
-1.7549423436748044   -0.21511344570347546   -0.014132566597809593
-1.7549423436748044   -0.21511344570347546   -0.014132566597809593
-1.7549423436748044   -0.21511344570347546   -0.014132566597809593
-0.24579322246004306   0.09021195728032852   0.059936008632288124
-0.24579322246004306   0.09021195728032852   0.059936008632288124
-0.24579322246004306   0.09021195728032852   0.059936008632288124
-0.24579322246004306   0.09021195728032852   0.059936008632288124
-0.9667283987670534   -0.031134480931969605   -0.029162102217279384
-0.9667283987670534   -0.031134480931969605   -0.029162102217279384
-0.9667283987670534   -0.031134480931969605   -0.029162102217279384
-0.9667283987670534   -0.031134480931969605   -0.029162102217279384
-1.4474054708644408   0.2837263115874774   0.07470824729568365
-1.4474054708644408   0.2837263115874774   0.07470824729568365
-1.4474054708644408   0.2837263115874774   0.07470824729568365
-1.4474054708644408   0.2837263115874774   0.07470824729568365
-2.9598690615677916   -0.11377106851587837   -0.09249196658769457
-2.9598690615677916   -0.11377106851587837   -0.09249196658769457
-2.9598690615677916   -0.11377106851587837   -0.09249196658769457
-2.9598690615677916   -0.11377106851587837   -0.09249196658769457
-2.998928205065743   -0.07587656156975442   0.009270839595212271
-2.998928205065743   -0.07587656156975442   0.009270839595212271
-2.998928205065743   -0.07587656156975442   0.009270839595212271
-2.998928205065743   -0.07587656156975442   0.009270839595212271
-1.555440041647975   0.14189744457441483   -0.012205244297514461
-1.555440041647975   0.14189744457441483   -0.012205244297514461
-1.555440041647975   0.14189744457441483   -0.012205244297514461
-1.555440041647975   0.14189744457441483   -0.012205244297514461
-2.2259209569941785   0.06189297716271669   0.027321725156700477
-2.2259209569941785   0.06189297716271669   0.027321725156700477
-2.2259209569941785   0.06189297716271669   0.027321725156700477
-2.2259209569941785   0.06189297716271669   0.027321725156700477
-1.516452423685856   0.23640873733723183   0.08822155275025648
-1.516452423685856   0.23640873733723183   0.08822155275025648
-1.516452423685856   0.23640873733723183   0.08822155275025648
-1.516452423685856   0.23640873733723183   0.08822155275025648
-3.0375253313912376   -0.16999736269594856   -0.08959399090606834
-3.0375253313912376   -0.16999736269594856   -0.08959399090606834
-3.0375253313912376   -0.16999736269594856   -0.08959399090606834
-3.0375253313912376   -0.16999736269594856   -0.08959399090606834
-3.081510242369867   -0.12469466669513996   0.014157089958823504
-3.081510242369867   -0.12469466669513996   0.014157089958823504
-3.081510242369867   -0.12469466669513996   0.014157089958823504
-3.081510242369867   -0.12469466669513996   0.014157089958823504
-1.6273504049409981   0.0912378270415759   -0.0017920162894978775
-1.6273504049409981   0.0912378270415759   -0.0017920162894978775
-1.6273504049409981   0.0912378270415759   -0.0017920162894978775
-1.6273504049409981   0.0912378270415759   -0.0017920162894978775
-2.286720348980899   0.01934415907294229   0.007354968087321279
-2.286720348980899   0.01934415907294229   0.007354968087321279
-2.286720348980899   0.01934415907294229   0.007354968087321279
-2.286720348980899   0.01934415907294229   0.007354968087321279
-1.5867510314724278   0.19159524425964114   0.10084743383528907
-1.5867510314724278   0.19159524425964114   0.10084743383528907
-1.5867510314724278   0.19159524425964114   0.10084743383528907
-1.5867510314724278   0.19159524425964114   0.10084743383528907
-3.12000829512607   -0.22295076320083762   -0.0800770773164931
-3.12000829512607   -0.22295076320083762   -0.0800770773164931
-3.12000829512607   -0.22295076320083762   -0.0800770773164931
-3.12000829512607   -0.22295076320083762   -0.0800770773164931
-3.1564738204372396   -0.17716943758882903   0.02948440286019456
-3.1564738204372396   -0.17716943758882903   0.02948440286019456
-3.1564738204372396   -0.17716943758882903   0.02948440286019456
-3.1564738204372396   -0.17716943758882903   0.02948440286019456
-1.701265851600177   0.033382770551863394   0.005753677520011866
-1.701265851600177   0.033382770551863394   0.005753677520011866
-1.701265851600177   0.033382770551863394   0.005753677520011866
-1.701265851600177   0.033382770551863394   0.005753677520011866
-2.378809438083388   -0.03379181471267384   -0.017907667208037922
-2.378809438083388   -0.03379181471267384   -0.017907667208037922
-2.378809438083388   -0.03379181471267384   -0.017907667208037922
-2.378809438083388   -0.03379181471267384   -0.017907667208037922
-2.846570410387579   0.25442709162724586   0.10580312917024362
-2.846570410387579   0.25442709162724586   0.10580312917024362
-2.846570410387579   0.25442709162724586   0.10580312917024362
-2.846570410387579   0.25442709162724586   0.10580312917024362
-4.305430222741662   -0.19835051827676342   -0.10255967824289774
-4.305430222741662   -0.19835051827676342   -0.10255967824289774
-4.305430222741662   -0.19835051827676342   -0.10255967824289774
-4.305430222741662   -0.19835051827676342   -0.10255967824289774
-4.354112773052558   -0.04058398072714453   0.09764664953174682
-4.354112773052558   -0.04058398072714453   0.09764664953174682
-4.354112773052558   -0.04058398072714453   0.09764664953174682
-4.354112773052558   -0.04058398072714453   0.09764664953174682
-2.9835390020927197   0.07067669490006345   -0.06033640200949028
-2.9835390020927197   0.07067669490006345   -0.06033640200949028
-2.9835390020927197   0.07067669490006345   -0.06033640200949028
-2.9835390020927197   0.07067669490006345   -0.06033640200949028
-3.462322180526641   0.05767679685346483   0.08445135976366097
-3.462322180526641   0.05767679685346483   0.08445135976366097
-3.462322180526641   0.05767679685346483   0.08445135976366097
-3.462322180526641   0.05767679685346483   0.08445135976366097
-2.9100891463706895   0.2535077741691848   0.124081797331524
-2.9100891463706895   0.2535077741691848   0.124081797331524
-2.9100891463706895   0.2535077741691848   0.124081797331524
-2.9100891463706895   0.2535077741691848   0.124081797331524
-4.426293753474928   -0.2221461846965993   -0.0816960486105964
-4.426293753474928   -0.2221461846965993   -0.0816960486105964
-4.426293753474928   -0.2221461846965993   -0.0816960486105964
-4.426293753474928   -0.2221461846965993   -0.0816960486105964
-4.4621513237934005   -0.06631502297693692   0.12218237209631827
-4.4621513237934005   -0.06631502297693692   0.12218237209631827
-4.4621513237934005   -0.06631502297693692   0.12218237209631827
-4.4621513237934005   -0.06631502297693692   0.12218237209631827
-3.0611724024323634   0.042896296271921486   -0.0517446733207195
-3.0611724024323634   0.042896296271921486   -0.0517446733207195
-3.0611724024323634   0.042896296271921486   -0.0517446733207195
-3.0611724024323634   0.042896296271921486   -0.0517446733207195
-3.612480426154339   0.028904229486073962   0.05094917270404439
-3.612480426154339   0.028904229486073962   0.05094917270404439
-3.612480426154339   0.028904229486073962   0.05094917270404439
-3.612480426154339   0.028904229486073962   0.05094917270404439
-2.9832553017395846   0.23431261024800576   0.1464245161670925
-2.9832553017395846   0.23431261024800576   0.1464245161670925
-2.9832553017395846   0.23431261024800576   0.1464245161670925
-2.9832553017395846   0.23431261024800576   0.1464245161670925
-4.538005295970826   -0.25566820843763904   -0.06773430333006045
-4.538005295970826   -0.25566820843763904   -0.06773430333006045
-4.538005295970826   -0.25566820843763904   -0.06773430333006045
-4.538005295970826   -0.25566820843763904   -0.06773430333006045
-4.604721933575142   -0.15731717611400553   0.12018913865626263
-4.604721933575142   -0.15731717611400553   0.12018913865626263
-4.604721933575142   -0.15731717611400553   0.12018913865626263
-4.604721933575142   -0.15731717611400553   0.12018913865626263
-3.1430786397816846   -0.03384011486951122   -0.04686901658135076
-3.1430786397816846   -0.03384011486951122   -0.04686901658135076
-3.1430786397816846   -0.03384011486951122   -0.04686901658135076
-3.1430786397816846   -0.03384011486951122   -0.04686901658135076
-3.6521975870550514   -0.006701554790441211   0.03959821499624186
-3.6521975870550514   -0.006701554790441211   0.03959821499624186
-3.6521975870550514   -0.006701554790441211   0.03959821499624186
-3.6521975870550514   -0.006701554790441211   0.03959821499624186
1.9988375529309317   0.11252821940122915   -0.1367762161356878
1.9988375529309317   0.11252821940122915   -0.1367762161356878
1.9988375529309317   0.11252821940122915   -0.1367762161356878
1.9988375529309317   0.11252821940122915   -0.1367762161356878
0.8538748139454646   0.05608224772023648   0.05900298774507075
0.8538748139454646   0.05608224772023648   0.05900298774507075
0.8538748139454646   0.05608224772023648   0.05900298774507075
0.8538748139454646   0.05608224772023648   0.05900298774507075
0.7126674876780622   -0.19879597410850441   -0.12740910681757844
0.7126674876780622   -0.19879597410850441   -0.12740910681757844
0.7126674876780622   -0.19879597410850441   -0.12740910681757844
0.7126674876780622   -0.19879597410850441   -0.12740910681757844
1.951082078390862   0.22813883779814598   0.07165168213373488
1.951082078390862   0.22813883779814598   0.07165168213373488
1.951082078390862   0.22813883779814598   0.07165168213373488
1.951082078390862   0.22813883779814598   0.07165168213373488
1.306043198325255   0.029046294779534854   -0.03571285977812329
1.306043198325255   0.029046294779534854   -0.03571285977812329
1.306043198325255   0.029046294779534854   -0.03571285977812329
1.306043198325255   0.029046294779534854   -0.03571285977812329
1.8722548637062486   0.03311184313534049   -0.12745739662654038
1.8722548637062486   0.03311184313534049   -0.12745739662654038
1.8722548637062486   0.03311184313534049   -0.12745739662654038
1.8722548637062486   0.03311184313534049   -0.12745739662654038
0.7900162623386991   -0.005247419469675441   0.06578621184679063
0.7900162623386991   -0.005247419469675441   0.06578621184679063
0.7900162623386991   -0.005247419469675441   0.06578621184679063
0.7900162623386991   -0.005247419469675441   0.06578621184679063
0.652435684870196   -0.2220414888115138   -0.10833886918032046
0.652435684870196   -0.2220414888115138   -0.10833886918032046
0.652435684870196   -0.2220414888115138   -0.10833886918032046
0.652435684870196   -0.2220414888115138   -0.10833886918032046
1.8520394617866711   0.19517312420333854   0.09216894280394894
1.8520394617866711   0.19517312420333854   0.09216894280394894
1.8520394617866711   0.19517312420333854   0.09216894280394894
1.8520394617866711   0.19517312420333854   0.09216894280394894
1.243388770642396   -0.009197113291621983   -0.0585536189720844
1.243388770642396   -0.009197113291621983   -0.0585536189720844
1.243388770642396   -0.009197113291621983   -0.0585536189720844
1.243388770642396   -0.009197113291621983   -0.0585536189720844
1.774548318508401   0.0033550682294796186   -0.10346871761355811
1.774548318508401   0.0033550682294796186   -0.10346871761355811
1.774548318508401   0.0033550682294796186   -0.10346871761355811
1.774548318508401   0.0033550682294796186   -0.10346871761355811
0.7277638413613674   -0.03238641962475519   0.07864684408878375
0.7277638413613674   -0.03238641962475519   0.07864684408878375
0.7277638413613674   -0.03238641962475519   0.07864684408878375
0.7277638413613674   -0.03238641962475519   0.07864684408878375
0.5985421107056158   -0.24352579496906498   -0.09026161648902434
0.5985421107056158   -0.24352579496906498   -0.09026161648902434
0.5985421107056158   -0.24352579496906498   -0.09026161648902434
0.5985421107056158   -0.24352579496906498   -0.09026161648902434
1.7365141766526624   0.15157915313923065   0.10505717803888284
1.7365141766526624   0.15157915313923065   0.10505717803888284
1.7365141766526624   0.15157915313923065   0.10505717803888284
1.7365141766526624   0.15157915313923065   0.10505717803888284
1.1385181653952707   -0.04071998330364185   -0.0897256902406944
1.1385181653952707   -0.04071998330364185   -0.0897256902406944
1.1385181653952707   -0.04071998330364185   -0.0897256902406944
1.1385181653952707   -0.04071998330364185   -0.0897256902406944
0.8590320123536355   0.16604019547242538   -0.0251689679662771
0.8590320123536355   0.16604019547242538   -0.0251689679662771
0.8590320123536355   0.16604019547242538   -0.0251689679662771
0.8590320123536355   0.16604019547242538   -0.0251689679662771
-0.2656638437135892   0.015305026025991125   0.008318671564757338
-0.2656638437135892   0.015305026025991125   0.008318671564757338
-0.2656638437135892   0.015305026025991125   0.008318671564757338
-0.2656638437135892   0.015305026025991125   0.008318671564757338
-0.36219311520799863   -0.13761935522151575   -0.07829780423804056
-0.36219311520799863   -0.13761935522151575   -0.07829780423804056
-0.36219311520799863   -0.13761935522151575   -0.07829780423804056
-0.36219311520799863   -0.13761935522151575   -0.07829780423804056
0.8346529628874818   0.19981677260966801   0.08390552251136049
0.8346529628874818   0.19981677260966801   0.08390552251136049
0.8346529628874818   0.19981677260966801   0.08390552251136049
0.8346529628874818   0.19981677260966801   0.08390552251136049
0.2605947731148986   0.057945083601247026   0.00994544698235855
0.2605947731148986   0.057945083601247026   0.00994544698235855
0.2605947731148986   0.057945083601247026   0.00994544698235855
0.2605947731148986   0.057945083601247026   0.00994544698235855
0.7965819821468672   0.10705725281719179   -0.013689861399245874
0.7965819821468672   0.10705725281719179   -0.013689861399245874
0.7965819821468672   0.10705725281719179   -0.013689861399245874
0.7965819821468672   0.10705725281719179   -0.013689861399245874
-0.3246694726979973   -0.045407173659674865   0.017108226750125237
-0.3246694726979973   -0.045407173659674865   0.017108226750125237
-0.3246694726979973   -0.045407173659674865   0.017108226750125237
-0.3246694726979973   -0.045407173659674865   0.017108226750125237
-0.4182332401626076   -0.18438373639361266   -0.06325887715608255
-0.4182332401626076   -0.18438373639361266   -0.06325887715608255
-0.4182332401626076   -0.18438373639361266   -0.06325887715608255
-0.4182332401626076   -0.18438373639361266   -0.06325887715608255
0.7659504302487646   0.14597569964856288   0.0912176692524514
0.7659504302487646   0.14597569964856288   0.0912176692524514
0.7659504302487646   0.14597569964856288   0.0912176692524514
0.7659504302487646   0.14597569964856288   0.0912176692524514
0.1916020896956168   0.005224633960632885   -0.015382388444715683
0.1916020896956168   0.005224633960632885   -0.015382388444715683
0.1916020896956168   0.005224633960632885   -0.015382388444715683
0.1916020896956168   0.005224633960632885   -0.015382388444715683
0.7290824536966803   0.05691822919798119   -0.004064743057401423
0.7290824536966803   0.05691822919798119   -0.004064743057401423
0.7290824536966803   0.05691822919798119   -0.004064743057401423
0.7290824536966803   0.05691822919798119   -0.004064743057401423
-0.3827682657986907   -0.09672926813120054   0.02641152640108969
-0.3827682657986907   -0.09672926813120054   0.02641152640108969
-0.3827682657986907   -0.09672926813120054   0.02641152640108969
-0.3827682657986907   -0.09672926813120054   0.02641152640108969
-0.4735443264910581   -0.2285138595536207   -0.04935937554070472
-0.4735443264910581   -0.2285138595536207   -0.04935937554070472
-0.4735443264910581   -0.2285138595536207   -0.04935937554070472
-0.4735443264910581   -0.2285138595536207   -0.04935937554070472
0.7039510216973361   0.0940796495163329   0.09917749398419509
0.7039510216973361   0.0940796495163329   0.09917749398419509
0.7039510216973361   0.0940796495163329   0.09917749398419509
0.7039510216973361   0.0940796495163329   0.09917749398419509
0.13603162962648385   -0.03872497151925764   -0.037811805493226956
0.13603162962648385   -0.03872497151925764   -0.037811805493226956
0.13603162962648385   -0.03872497151925764   -0.037811805493226956
0.13603162962648385   -0.03872497151925764   -0.037811805493226956
-0.22417895850338423   0.21184935457881676   0.01919876906294883
-0.22417895850338423   0.21184935457881676   0.01919876906294883
-0.22417895850338423   0.21184935457881676   0.01919876906294883
-0.22417895850338423   0.21184935457881676   0.01919876906294883
-1.3687705029552544   -0.03358350268728899   -0.041513541332982296
-1.3687705029552544   -0.03358350268728899   -0.041513541332982296
-1.3687705029552544   -0.03358350268728899   -0.041513541332982296
-1.3687705029552544   -0.03358350268728899   -0.041513541332982296
-1.423993175633426   -0.08104327039974946   -0.030504014089436038
-1.423993175633426   -0.08104327039974946   -0.030504014089436038
-1.423993175633426   -0.08104327039974946   -0.030504014089436038
-1.423993175633426   -0.08104327039974946   -0.030504014089436038
-0.28203654781918597   0.1524021266217162   0.032463550862783
-0.28203654781918597   0.1524021266217162   0.032463550862783
-0.28203654781918597   0.1524021266217162   0.032463550862783
-0.28203654781918597   0.1524021266217162   0.032463550862783
-0.8227501129547845   0.06147881308350789   0.01618590707234107
-0.8227501129547845   0.06147881308350789   0.01618590707234107
-0.8227501129547845   0.06147881308350789   0.01618590707234107
-0.8227501129547845   0.06147881308350789   0.01618590707234107
-0.28025501321232366   0.1604665291717683   0.03330682134705043
-0.28025501321232366   0.1604665291717683   0.03330682134705043
-0.28025501321232366   0.1604665291717683   0.03330682134705043
-0.28025501321232366   0.1604665291717683   0.03330682134705043
-1.4259142082818599   -0.08924717099137189   -0.03190527673998366
-1.4259142082818599   -0.08924717099137189   -0.03190527673998366
-1.4259142082818599   -0.08924717099137189   -0.03190527673998366
-1.4259142082818599   -0.08924717099137189   -0.03190527673998366
-1.4806004079553718   -0.1319941035508044   -0.01708840301084947
-1.4806004079553718   -0.1319941035508044   -0.01708840301084947
-1.4806004079553718   -0.1319941035508044   -0.01708840301084947
-1.4806004079553718   -0.1319941035508044   -0.01708840301084947
-0.34083591986549183   0.09698967990609546   0.042354308029780394
-0.34083591986549183   0.09698967990609546   0.042354308029780394
-0.34083591986549183   0.09698967990609546   0.042354308029780394
-0.34083591986549183   0.09698967990609546   0.042354308029780394
-0.8809554503709147   0.011927503484197716   -0.005616518805572117
-0.8809554503709147   0.011927503484197716   -0.005616518805572117
-0.8809554503709147   0.011927503484197716   -0.005616518805572117
-0.8809554503709147   0.011927503484197716   -0.005616518805572117
-0.33783970819444537   0.1090339385514783   0.04529110773963762
-0.33783970819444537   0.1090339385514783   0.04529110773963762
-0.33783970819444537   0.1090339385514783   0.04529110773963762
-0.33783970819444537   0.1090339385514783   0.04529110773963762
-1.4844750972312577   -0.14491683980102543   -0.02353911314005812
-1.4844750972312577   -0.14491683980102543   -0.02353911314005812
-1.4844750972312577   -0.14491683980102543   -0.02353911314005812
-1.4844750972312577   -0.14491683980102543   -0.02353911314005812
-1.5362764429356124   -0.18068425782576308   -0.004061846422600518
-1.5362764429356124   -0.18068425782576308   -0.004061846422600518
-1.5362764429356124   -0.18068425782576308   -0.004061846422600518
-1.5362764429356124   -0.18068425782576308   -0.004061846422600518
-0.39911896098876887   0.04313862618983866   0.0511149662272819
-0.39911896098876887   0.04313862618983866   0.0511149662272819
-0.39911896098876887   0.04313862618983866   0.0511149662272819
-0.39911896098876887   0.04313862618983866   0.0511149662272819
-0.9415387516747652   -0.037687096853623064   -0.029237358822615883
-0.9415387516747652   -0.037687096853623064   -0.029237358822615883
-0.9415387516747652   -0.037687096853623064   -0.029237358822615883
-0.9415387516747652   -0.037687096853623064   -0.029237358822615883
-1.2910555456589954   0.25098798039635395   0.0624897620646708
-1.2910555456589954   0.25098798039635395   0.0624897620646708
-1.2910555456589954   0.25098798039635395   0.0624897620646708
-1.2910555456589954   0.25098798039635395   0.0624897620646708
-2.451514859031005   -0.08210844788524474   -0.08477378755539797
-2.451514859031005   -0.08210844788524474   -0.08477378755539797
-2.451514859031005   -0.08210844788524474   -0.08477378755539797
-2.451514859031005   -0.08210844788524474   -0.08477378755539797
-2.472328458563089   -0.03488032958939624   0.020794301798544024
-2.472328458563089   -0.03488032958939624   0.020794301798544024
-2.472328458563089   -0.03488032958939624   0.020794301798544024
-2.472328458563089   -0.03488032958939624   0.020794301798544024
-1.3854997353871876   0.09921883668657161   -0.018298919944596828
-1.3854997353871876   0.09921883668657161   -0.018298919944596828
-1.3854997353871876   0.09921883668657161   -0.018298919944596828
-1.3854997353871876   0.09921883668657161   -0.018298919944596828
-1.888905852281611   0.05889779167455311   0.02356096147191672
-1.888905852281611   0.05889779167455311   0.02356096147191672
-1.888905852281611   0.05889779167455311   0.02356096147191672
-1.888905852281611   0.05889779167455311   0.02356096147191672
-1.3460771871912378   0.20151466322468015   0.07651799449707503
-1.3460771871912378   0.20151466322468015   0.07651799449707503
-1.3460771871912378   0.20151466322468015   0.07651799449707503
-1.3460771871912378   0.20151466322468015   0.07651799449707503
-2.5134451851658355   -0.13887033453431996   -0.08079932627028408
-2.5134451851658355   -0.13887033453431996   -0.08079932627028408
-2.5134451851658355   -0.13887033453431996   -0.08079932627028408
-2.5134451851658355   -0.13887033453431996   -0.08079932627028408
-2.5390263076292663   -0.08533113850111984   0.027039058685291717
-2.5390263076292663   -0.08533113850111984   0.027039058685291717
-2.5390263076292663   -0.08533113850111984   0.027039058685291717
-2.5390263076292663   -0.08533113850111984   0.027039058685291717
-1.4427055698594757   0.048171498979190264   -0.0077798150613951345
-1.4427055698594757   0.048171498979190264   -0.0077798150613951345
-1.4427055698594757   0.048171498979190264   -0.0077798150613951345
-1.4427055698594757   0.048171498979190264   -0.0077798150613951345
-1.9380495462817717   0.013885378374791701   0.0016802188797153117
-1.9380495462817717   0.013885378374791701   0.0016802188797153117
-1.9380495462817717   0.013885378374791701   0.0016802188797153117
-1.9380495462817717   0.013885378374791701   0.0016802188797153117
-1.4018719504318895   0.15466989784370477   0.08988988321203767
-1.4018719504318895   0.15466989784370477   0.08988988321203767
-1.4018719504318895   0.15466989784370477   0.08988988321203767
-1.4018719504318895   0.15466989784370477   0.08988988321203767
-2.5799927157830025   -0.19196232609178399   -0.07116179449273996
-2.5799927157830025   -0.19196232609178399   -0.07116179449273996
-2.5799927157830025   -0.19196232609178399   -0.07116179449273996
-2.5799927157830025   -0.19196232609178399   -0.07116179449273996
-2.5984687729669163   -0.13900453466081847   0.04102007282334151
-2.5984687729669163   -0.13900453466081847   0.04102007282334151
-2.5984687729669163   -0.13900453466081847   0.04102007282334151
-2.5984687729669163   -0.13900453466081847   0.04102007282334151
-1.500900624470632   -0.008355134413124132   0.00048812248964648364
-1.500900624470632   -0.008355134413124132   0.00048812248964648364
-1.500900624470632   -0.008355134413124132   0.00048812248964648364
-1.500900624470632   -0.008355134413124132   0.00048812248964648364
-2.011414919258858   -0.03818178265588423   -0.023645307628906223
-2.011414919258858   -0.03818178265588423   -0.023645307628906223
-2.011414919258858   -0.03818178265588423   -0.023645307628906223
-2.011414919258858   -0.03818178265588423   -0.023645307628906223
-2.3519639240061996   0.23252430421298786   0.09834813547039706
-2.3519639240061996   0.23252430421298786   0.09834813547039706
-2.3519639240061996   0.23252430421298786   0.09834813547039706
-2.3519639240061996   0.23252430421298786   0.09834813547039706
-3.4678555372891378   -0.15931036237479823   -0.11070781566915114
-3.4678555372891378   -0.15931036237479823   -0.11070781566915114
-3.4678555372891378   -0.15931036237479823   -0.11070781566915114
-3.4678555372891378   -0.15931036237479823   -0.11070781566915114
-3.5018729834702165   -0.001415048250196893   0.09753886361670452
-3.5018729834702165   -0.001415048250196893   0.09753886361670452
-3.5018729834702165   -0.001415048250196893   0.09753886361670452
-3.5018729834702165   -0.001415048250196893   0.09753886361670452
-2.4762237295322067   0.03310957453509611   -0.06667195717157087
-2.4762237295322067   0.03310957453509611   -0.06667195717157087
-2.4762237295322067   0.03310957453509611   -0.06667195717157087
-2.4762237295322067   0.03310957453509611   -0.06667195717157087
-2.8198405491272966   0.05439714601910406   0.0710914535393515
-2.8198405491272966   0.05439714601910406   0.0710914535393515
-2.8198405491272966   0.05439714601910406   0.0710914535393515
-2.8198405491272966   0.05439714601910406   0.0710914535393515
-2.4018563023299437   0.2222795549412424   0.11599519843362863
-2.4018563023299437   0.2222795549412424   0.11599519843362863
-2.4018563023299437   0.2222795549412424   0.11599519843362863
-2.4018563023299437   0.2222795549412424   0.11599519843362863
-3.5776777305564944   -0.19202234854034805   -0.09087757152450399
-3.5776777305564944   -0.19202234854034805   -0.09087757152450399
-3.5776777305564944   -0.19202234854034805   -0.09087757152450399
-3.5776777305564944   -0.19202234854034805   -0.09087757152450399
-3.596012856088178   -0.02913019399362793   0.12296332900734777
-3.596012856088178   -0.02913019399362793   0.12296332900734777
-3.596012856088178   -0.02913019399362793   0.12296332900734777
-3.596012856088178   -0.02913019399362793   0.12296332900734777
-2.5377172278802864   0.005110822362766609   -0.05685750343375687
-2.5377172278802864   0.005110822362766609   -0.05685750343375687
-2.5377172278802864   0.005110822362766609   -0.05685750343375687
-2.5377172278802864   0.005110822362766609   -0.05685750343375687
-2.9462670266697835   0.022489668522031825   0.036837486740234904
-2.9462670266697835   0.022489668522031825   0.036837486740234904
-2.9462670266697835   0.022489668522031825   0.036837486740234904
-2.9462670266697835   0.022489668522031825   0.036837486740234904
-2.459854755803604   0.2008515801035945   0.13671409920888647
-2.459854755803604   0.2008515801035945   0.13671409920888647
-2.459854755803604   0.2008515801035945   0.13671409920888647
-2.459854755803604   0.2008515801035945   0.13671409920888647
-3.674917699846514   -0.22591332341609904   -0.07477776036185771
-3.674917699846514   -0.22591332341609904   -0.07477776036185771
-3.674917699846514   -0.22591332341609904   -0.07477776036185771
-3.674917699846514   -0.22591332341609904   -0.07477776036185771
-3.721955570018872   -0.11554150092823645   0.12350098336220997
-3.721955570018872   -0.11554150092823645   0.12350098336220997
-3.721955570018872   -0.11554150092823645   0.12350098336220997
-3.721955570018872   -0.11554150092823645   0.12350098336220997
-2.60201502009701   -0.06545158945899365   -0.05026410802898423
-2.60201502009701   -0.06545158945899365   -0.05026410802898423
-2.60201502009701   -0.06545158945899365   -0.05026410802898423
-2.60201502009701   -0.06545158945899365   -0.05026410802898423
-2.982778650921546   -0.013779367189786118   0.020405085720566152
-2.982778650921546   -0.013779367189786118   0.020405085720566152
-2.982778650921546   -0.013779367189786118   0.020405085720566152
-2.982778650921546   -0.013779367189786118   0.020405085720566152
1.089398182476145   0.06471224057874053   -0.13337041649308956
1.089398182476145   0.06471224057874053   -0.13337041649308956
1.089398182476145   0.06471224057874053   -0.13337041649308956
1.089398182476145   0.06471224057874053   -0.13337041649308956
0.3136533859803546   0.080637229030649   0.06404979218572121
0.3136533859803546   0.080637229030649   0.06404979218572121
0.3136533859803546   0.080637229030649   0.06404979218572121
0.3136533859803546   0.080637229030649   0.06404979218572121
0.18935108140183596   -0.1620430621749446   -0.11752682074269197
0.18935108140183596   -0.1620430621749446   -0.11752682074269197
0.18935108140183596   -0.1620430621749446   -0.11752682074269197
0.18935108140183596   -0.1620430621749446   -0.11752682074269197
1.058662498082095   0.18761009250557162   0.07707595548607794
1.058662498082095   0.18761009250557162   0.07707595548607794
1.058662498082095   0.18761009250557162   0.07707595548607794
1.058662498082095   0.18761009250557162   0.07707595548607794
0.6239210581773076   0.0312217215476554   -0.014531823254698026
0.6239210581773076   0.0312217215476554   -0.014531823254698026
0.6239210581773076   0.0312217215476554   -0.014531823254698026
0.6239210581773076   0.0312217215476554   -0.014531823254698026
0.9803387958983935   -0.0047722064270772635   -0.12216025649979015
0.9803387958983935   -0.0047722064270772635   -0.12216025649979015
0.9803387958983935   -0.0047722064270772635   -0.12216025649979015
0.9803387958983935   -0.0047722064270772635   -0.12216025649979015
0.26522869449228764   0.02789314766443276   0.07192503487019083
0.26522869449228764   0.02789314766443276   0.07192503487019083
0.26522869449228764   0.02789314766443276   0.07192503487019083
0.26522869449228764   0.02789314766443276   0.07192503487019083
0.14238965324127217   -0.18513390758571155   -0.09971640759590275
0.14238965324127217   -0.18513390758571155   -0.09971640759590275
0.14238965324127217   -0.18513390758571155   -0.09971640759590275
0.14238965324127217   -0.18513390758571155   -0.09971640759590275
0.9742576478536049   0.15573288773496602   0.09887253017151908
0.9742576478536049   0.15573288773496602   0.09887253017151908
0.9742576478536049   0.15573288773496602   0.09887253017151908
0.9742576478536049   0.15573288773496602   0.09887253017151908
0.564687510193993   -0.004787356882633681   -0.03798330890525785
0.564687510193993   -0.004787356882633681   -0.03798330890525785
0.564687510193993   -0.004787356882633681   -0.03798330890525785
0.564687510193993   -0.004787356882633681   -0.03798330890525785
0.8964211701263758   -0.03441643069620265   -0.10016054003346186
0.8964211701263758   -0.03441643069620265   -0.10016054003346186
0.8964211701263758   -0.03441643069620265   -0.10016054003346186
0.8964211701263758   -0.03441643069620265   -0.10016054003346186
0.21696208724001342   0.0017513671169692158   0.0862604876951266
0.21696208724001342   0.0017513671169692158   0.0862604876951266
0.21696208724001342   0.0017513671169692158   0.0862604876951266
0.21696208724001342   0.0017513671169692158   0.0862604876951266
0.10037001449664823   -0.21326254413709908   -0.08300714618662888
0.10037001449664823   -0.21326254413709908   -0.08300714618662888
0.10037001449664823   -0.21326254413709908   -0.08300714618662888
0.10037001449664823   -0.21326254413709908   -0.08300714618662888
0.8698193973274705   0.10455091345518358   0.10965627088231136
0.8698193973274705   0.10455091345518358   0.10965627088231136
0.8698193973274705   0.10455091345518358   0.10965627088231136
0.8698193973274705   0.10455091345518358   0.10965627088231136
0.4835382801055314   -0.036973968837979404   -0.06652575602529678
0.4835382801055314   -0.036973968837979404   -0.06652575602529678
0.4835382801055314   -0.036973968837979404   -0.06652575602529678
0.4835382801055314   -0.036973968837979404   -0.06652575602529678
0.3007359896711146   0.11911772193667823   -0.03901768226651091
0.3007359896711146   0.11911772193667823   -0.03901768226651091
0.3007359896711146   0.11911772193667823   -0.03901768226651091
0.3007359896711146   0.11911772193667823   -0.03901768226651091
-0.45053713867999795   0.039175013162315475   0.01576046226519396
-0.45053713867999795   0.039175013162315475   0.01576046226519396
-0.45053713867999795   0.039175013162315475   0.01576046226519396
-0.45053713867999795   0.039175013162315475   0.01576046226519396
-0.5305751288586275   -0.10370298789137031   -0.06846518824772185
-0.5305751288586275   -0.10370298789137031   -0.06846518824772185
-0.5305751288586275   -0.10370298789137031   -0.06846518824772185
-0.5305751288586275   -0.10370298789137031   -0.06846518824772185
0.28938819904130786   0.14795533023995036   0.07266037503977445
0.28938819904130786   0.14795533023995036   0.07266037503977445
0.28938819904130786   0.14795533023995036   0.07266037503977445
0.28938819904130786   0.14795533023995036   0.07266037503977445
-0.10033065293172853   0.04851553225329064   0.012111449410344938
-0.10033065293172853   0.04851553225329064   0.012111449410344938
-0.10033065293172853   0.04851553225329064   0.012111449410344938
-0.10033065293172853   0.04851553225329064   0.012111449410344938
0.251666041873427   0.0606993898272075   -0.02869447038688721
0.251666041873427   0.0606993898272075   -0.02869447038688721
0.251666041873427   0.0606993898272075   -0.02869447038688721
0.251666041873427   0.0606993898272075   -0.02869447038688721
-0.4949264407671053   -0.01852051655498617   0.02459578087350495
-0.4949264407671053   -0.01852051655498617   0.02459578087350495
-0.4949264407671053   -0.01852051655498617   0.02459578087350495
-0.4949264407671053   -0.01852051655498617   0.02459578087350495
-0.5725962805087771   -0.15068366288484886   -0.05353243265706553
-0.5725962805087771   -0.15068366288484886   -0.05353243265706553
-0.5725962805087771   -0.15068366288484886   -0.05353243265706553
-0.5725962805087771   -0.15068366288484886   -0.05353243265706553
0.2342515047398529   0.09525664577039449   0.07920229654089853
0.2342515047398529   0.09525664577039449   0.07920229654089853
0.2342515047398529   0.09525664577039449   0.07920229654089853
0.2342515047398529   0.09525664577039449   0.07920229654089853
-0.15219250019821337   -0.002049368086179504   -0.012106144448291547
-0.15219250019821337   -0.002049368086179504   -0.012106144448291547
-0.15219250019821337   -0.002049368086179504   -0.012106144448291547
-0.15219250019821337   -0.002049368086179504   -0.012106144448291547
0.1976534179444892   0.0103053875034264   -0.018836879168955583
0.1976534179444892   0.0103053875034264   -0.018836879168955583
0.1976534179444892   0.0103053875034264   -0.018836879168955583
0.1976534179444892   0.0103053875034264   -0.018836879168955583
-0.5386802275665021   -0.06841443847096886   0.03377860764043687
-0.5386802275665021   -0.06841443847096886   0.03377860764043687
-0.5386802275665021   -0.06841443847096886   0.03377860764043687
-0.5386802275665021   -0.06841443847096886   0.03377860764043687
-0.6143035308434857   -0.19741322331767894   -0.04003231764516497
-0.6143035308434857   -0.19741322331767894   -0.04003231764516497
-0.6143035308434857   -0.19741322331767894   -0.04003231764516497
-0.6143035308434857   -0.19741322331767894   -0.04003231764516497
0.185978856184257   0.04338412504477836   0.08839039306953946
0.185978856184257   0.04338412504477836   0.08839039306953946
0.185978856184257   0.04338412504477836   0.08839039306953946
0.185978856184257   0.04338412504477836   0.08839039306953946
-0.19718467188753627   -0.047476636402822715   -0.03501769338504353
-0.19718467188753627   -0.047476636402822715   -0.03501769338504353
-0.19718467188753627   -0.047476636402822715   -0.03501769338504353
-0.19718467188753627   -0.047476636402822715   -0.03501769338504353
-0.42756477605260107   0.16409984056061405   0.005697448003879543
-0.42756477605260107   0.16409984056061405   0.005697448003879543
-0.42756477605260107   0.16409984056061405   0.005697448003879543
-0.42756477605260107   0.16409984056061405   0.005697448003879543
-1.2048748483230702   -0.013683150019406787   -0.032946576557665225
-1.2048748483230702   -0.013683150019406787   -0.032946576557665225
-1.2048748483230702   -0.013683150019406787   -0.032946576557665225
-1.2048748483230702   -0.013683150019406787   -0.032946576557665225
-1.2426777725785803   -0.05014009109034631   -0.01960631293825816
-1.2426777725785803   -0.05014009109034631   -0.01960631293825816
-1.2426777725785803   -0.05014009109034631   -0.01960631293825816
-1.2426777725785803   -0.05014009109034631   -0.01960631293825816
-0.4720553138670159   0.09734089518635933   0.023090003632599145
-0.4720553138670159   0.09734089518635933   0.023090003632599145
-0.4720553138670159   0.09734089518635933   0.023090003632599145
-0.4720553138670159   0.09734089518635933   0.023090003632599145
-0.8348275826709319   0.048401020406803275   0.012606221345987191
-0.8348275826709319   0.048401020406803275   0.012606221345987191
-0.8348275826709319   0.048401020406803275   0.012606221345987191
-0.8348275826709319   0.048401020406803275   0.012606221345987191
-0.4697571368023764   0.11229137956748222   0.019630404574680828
-0.4697571368023764   0.11229137956748222   0.019630404574680828
-0.4697571368023764   0.11229137956748222   0.019630404574680828
-0.4697571368023764   0.11229137956748222   0.019630404574680828
-1.2467873095749482   -0.06690193540319647   -0.023392153607247702
-1.2467873095749482   -0.06690193540319647   -0.023392153607247702
-1.2467873095749482   -0.06690193540319647   -0.023392153607247702
-1.2467873095749482   -0.06690193540319647   -0.023392153607247702
-1.2845070642930507   -0.10142738888972647   -0.006059891521892735
-1.2845070642930507   -0.10142738888972647   -0.006059891521892735
-1.2845070642930507   -0.10142738888972647   -0.006059891521892735
-1.2845070642930507   -0.10142738888972647   -0.006059891521892735
-0.5164178396902054   0.043895420125885376   0.03278068842505886
-0.5164178396902054   0.043895420125885376   0.03278068842505886
-0.5164178396902054   0.043895420125885376   0.03278068842505886
-0.5164178396902054   0.043895420125885376   0.03278068842505886
-0.878480148099537   -0.0002840801109028068   -0.00912175972038265
-0.878480148099537   -0.0002840801109028068   -0.00912175972038265
-0.878480148099537   -0.0002840801109028068   -0.00912175972038265
-0.878480148099537   -0.0002840801109028068   -0.00912175972038265
-0.5133375583725703   0.06036166135547813   0.03171585378364952
-0.5133375583725703   0.06036166135547813   0.03171585378364952
-0.5133375583725703   0.06036166135547813   0.03171585378364952
-0.5133375583725703   0.06036166135547813   0.03171585378364952
-1.290164191750203   -0.12047047625883742   -0.015302441438557406
-1.290164191750203   -0.12047047625883742   -0.015302441438557406
-1.290164191750203   -0.12047047625883742   -0.015302441438557406
-1.290164191750203   -0.12047047625883742   -0.015302441438557406
-1.3255499443046617   -0.1509632360809407   0.007036638189278022
-1.3255499443046617   -0.1509632360809407   0.007036638189278022
-1.3255499443046617   -0.1509632360809407   0.007036638189278022
-1.3255499443046617   -0.1509632360809407   0.007036638189278022
-0.5600006441421954   -0.007607099563237102   0.0416759921068442
-0.5600006441421954   -0.007607099563237102   0.0416759921068442
-0.5600006441421954   -0.007607099563237102   0.0416759921068442
-0.5600006441421954   -0.007607099563237102   0.0416759921068442
-0.924395845013152   -0.04909438850616468   -0.03270528383329111
-0.924395845013152   -0.04909438850616468   -0.03270528383329111
-0.924395845013152   -0.04909438850616468   -0.03270528383329111
-0.924395845013152   -0.04909438850616468   -0.03270528383329111
-1.143913630778628   0.20666818958778166   0.051508171557357124
-1.143913630778628   0.20666818958778166   0.051508171557357124
-1.143913630778628   0.20666818958778166   0.051508171557357124
-1.143913630778628   0.20666818958778166   0.051508171557357124
-1.9420731419032622   -0.05686696095517513   -0.07544614112454454
-1.9420731419032622   -0.05686696095517513   -0.07544614112454454
-1.9420731419032622   -0.05686696095517513   -0.07544614112454454
-1.9420731419032622   -0.05686696095517513   -0.07544614112454454
-1.9458376835964304   -0.0027419807756968173   0.03223494095342655
-1.9458376835964304   -0.0027419807756968173   0.03223494095342655
-1.9458376835964304   -0.0027419807756968173   0.03223494095342655
-1.9458376835964304   -0.0027419807756968173   0.03223494095342655
-1.223529935482694   0.049944787863766715   -0.023952006412955293
-1.223529935482694   0.049944787863766715   -0.023952006412955293
-1.223529935482694   0.049944787863766715   -0.023952006412955293
-1.223529935482694   0.049944787863766715   -0.023952006412955293
-1.5559539733907342   0.04918829153914517   0.016687475964632936
-1.5559539733907342   0.04918829153914517   0.016687475964632936
-1.5559539733907342   0.04918829153914517   0.016687475964632936
-1.5559539733907342   0.04918829153914517   0.016687475964632936
-1.1843912222844015   0.15619799398708817   0.06548835345520003
-1.1843912222844015   0.15619799398708817   0.06548835345520003
-1.1843912222844015   0.15619799398708817   0.06548835345520003
-1.1843912222844015   0.15619799398708817   0.06548835345520003
-1.9884625261559927   -0.11248131626026775   -0.07114993635982896
-1.9884625261559927   -0.11248131626026775   -0.07114993635982896
-1.9884625261559927   -0.11248131626026775   -0.07114993635982896
-1.9884625261559927   -0.11248131626026775   -0.07114993635982896
-1.997314962352004   -0.05328568694496544   0.03954364781035474
-1.997314962352004   -0.05328568694496544   0.03954364781035474
-1.997314962352004   -0.05328568694496544   0.03954364781035474
-1.997314962352004   -0.05328568694496544   0.03954364781035474
-1.2655791152261533   0.0007688271497527932   -0.013616362226898854
-1.2655791152261533   0.0007688271497527932   -0.013616362226898854
-1.2655791152261533   0.0007688271497527932   -0.013616362226898854
-1.2655791152261533   0.0007688271497527932   -0.013616362226898854
-1.5931292471804335   0.0037725661146563727   -0.006105756728503706
-1.5931292471804335   0.0037725661146563727   -0.006105756728503706
-1.5931292471804335   0.0037725661146563727   -0.006105756728503706
-1.5931292471804335   0.0037725661146563727   -0.006105756728503706
-1.225397384059207   0.10900110275253588   0.07906001800506429
-1.225397384059207   0.10900110275253588   0.07906001800506429
-1.225397384059207   0.10900110275253588   0.07906001800506429
-1.225397384059207   0.10900110275253588   0.07906001800506429
-2.0396675258780887   -0.1636887949068898   -0.06181606185817609
-2.0396675258780887   -0.1636887949068898   -0.06181606185817609
-2.0396675258780887   -0.1636887949068898   -0.06181606185817609
-2.0396675258780887   -0.1636887949068898   -0.06181606185817609
-2.041822966167683   -0.10590031575075759   0.053684557498529975
-2.041822966167683   -0.10590031575075759   0.053684557498529975
-2.041822966167683   -0.10590031575075759   0.053684557498529975
-2.041822966167683   -0.10590031575075759   0.053684557498529975
-1.30814456832357   -0.05174608040397666   -0.005153637582258674
-1.30814456832357   -0.05174608040397666   -0.005153637582258674
-1.30814456832357   -0.05174608040397666   -0.005153637582258674
-1.30814456832357   -0.05174608040397666   -0.005153637582258674
-1.6481924371245524   -0.0455820841556277   -0.03089682301783976
-1.6481924371245524   -0.0455820841556277   -0.03089682301783976
-1.6481924371245524   -0.0455820841556277   -0.03089682301783976
-1.6481924371245524   -0.0455820841556277   -0.03089682301783976
-1.856691362195722   0.20331932922443424   0.09127646723359531
-1.856691362195722   0.20331932922443424   0.09127646723359531
-1.856691362195722   0.20331932922443424   0.09127646723359531
-1.856691362195722   0.20331932922443424   0.09127646723359531
-2.6095283734689327   -0.11969529714201615   -0.1150866194590411
-2.6095283734689327   -0.11969529714201615   -0.1150866194590411
-2.6095283734689327   -0.11969529714201615   -0.1150866194590411
-2.6095283734689327   -0.11969529714201615   -0.1150866194590411
-2.6288605889034273   0.03511171186641271   0.09597558885623309
-2.6288605889034273   0.03511171186641271   0.09597558885623309
-2.6288605889034273   0.03511171186641271   0.09597558885623309
-2.6288605889034273   0.03511171186641271   0.09597558885623309
-1.9671375358008787   -0.006600560942925493   -0.07040573990161787
-1.9671375358008787   -0.006600560942925493   -0.07040573990161787
-1.9671375358008787   -0.006600560942925493   -0.07040573990161787
-1.9671375358008787   -0.006600560942925493   -0.07040573990161787
-2.16832732401526   0.049164373896338986   0.05220389084733146
-2.16832732401526   0.049164373896338986   0.05220389084733146
-2.16832732401526   0.049164373896338986   0.05220389084733146
-2.16832732401526   0.049164373896338986   0.05220389084733146
-1.8932201702728595   0.18463398598366143   0.1079465408119083
-1.8932201702728595   0.18463398598366143   0.1079465408119083
-1.8932201702728595   0.18463398598366143   0.1079465408119083
-1.8932201702728595   0.18463398598366143   0.1079465408119083
-2.706481417083283   -0.15982629771200269   -0.09719054246459892
-2.706481417083283   -0.15982629771200269   -0.09719054246459892
-2.706481417083283   -0.15982629771200269   -0.09719054246459892
-2.706481417083283   -0.15982629771200269   -0.09719054246459892
-2.7089548147958564   0.006759481180773297   0.12262337757184635
-2.7089548147958564   0.006759481180773297   0.12262337757184635
-2.7089548147958564   0.006759481180773297   0.12262337757184635
-2.7089548147958564   0.006759481180773297   0.12262337757184635
-2.0134676008380397   -0.03404211960052783   -0.06046311196429119
-2.0134676008380397   -0.03404211960052783   -0.06046311196429119
-2.0134676008380397   -0.03404211960052783   -0.06046311196429119
-2.0134676008380397   -0.03404211960052783   -0.06046311196429119
-2.270384047921493   0.015586392010029204   0.01841071691553564
-2.270384047921493   0.015586392010029204   0.01841071691553564
-2.270384047921493   0.015586392010029204   0.01841071691553564
-2.270384047921493   0.015586392010029204   0.01841071691553564
-1.9363920098868186   0.16243492607203924   0.12843779711926143
-1.9363920098868186   0.16243492607203924   0.12843779711926143
-1.9363920098868186   0.16243492607203924   0.12843779711926143
-1.9363920098868186   0.16243492607203924   0.12843779711926143
-2.7895484621745905   -0.1932356209193149   -0.0803497572216759
-2.7895484621745905   -0.1932356209193149   -0.0803497572216759
-2.7895484621745905   -0.1932356209193149   -0.0803497572216759
-2.7895484621745905   -0.1932356209193149   -0.0803497572216759
-2.81978214099664   -0.0736101966821412   0.12670997675490853
-2.81978214099664   -0.0736101966821412   0.12670997675490853
-2.81978214099664   -0.0736101966821412   0.12670997675490853
-2.81978214099664   -0.0736101966821412   0.12670997675490853
-2.0612530729984253   -0.09664240008760089   -0.052723892318385604
-2.0612530729984253   -0.09664240008760089   -0.052723892318385604
-2.0612530729984253   -0.09664240008760089   -0.052723892318385604
-2.0612530729984253   -0.09664240008760089   -0.052723892318385604
-2.3041262509201466   -0.02002629849308868   -0.0017927633543015076
-2.3041262509201466   -0.02002629849308868   -0.0017927633543015076
-2.3041262509201466   -0.02002629849308868   -0.0017927633543015076
-2.3041262509201466   -0.02002629849308868   -0.0017927633543015076
0.18244177702931275   0.015048861831435174   -0.13268043485930614
0.18244177702931275   0.015048861831435174   -0.13268043485930614
0.18244177702931275   0.015048861831435174   -0.13268043485930614
0.18244177702931275   0.015048861831435174   -0.13268043485930614
-0.22425211383650462   0.09981933811461363   0.06805593071229955
-0.22425211383650462   0.09981933811461363   0.06805593071229955
-0.22425211383650462   0.09981933811461363   0.06805593071229955
-0.22425211383650462   0.09981933811461363   0.06805593071229955
-0.33235878929994833   -0.12735976437849816   -0.1067520415521665
-0.33235878929994833   -0.12735976437849816   -0.1067520415521665
-0.33235878929994833   -0.12735976437849816   -0.1067520415521665
-0.33235878929994833   -0.12735976437849816   -0.1067520415521665
0.16605959658622702   0.13938296266831462   0.083673691341188
0.16605959658622702   0.13938296266831462   0.083673691341188
0.16605959658622702   0.13938296266831462   0.083673691341188
0.16605959658622702   0.13938296266831462   0.083673691341188
-0.05598675378508888   0.03056818265778869   0.011606672572627591
-0.05598675378508888   0.03056818265778869   0.011606672572627591
-0.05598675378508888   0.03056818265778869   0.011606672572627591
-0.05598675378508888   0.03056818265778869   0.011606672572627591
0.08864719110639882   -0.04550769555393591   -0.11849767783570232
0.08864719110639882   -0.04550769555393591   -0.11849767783570232
0.08864719110639882   -0.04550769555393591   -0.11849767783570232
0.08864719110639882   -0.04550769555393591   -0.11849767783570232
-0.2595486510006246   0.05292862666324796   0.07701025890270613
-0.2595486510006246   0.05292862666324796   0.07701025890270613
-0.2595486510006246   0.05292862666324796   0.07701025890270613
-0.2595486510006246   0.05292862666324796   0.07701025890270613
-0.3679172998633713   -0.15055538182239386   -0.09039386989830397
-0.3679172998633713   -0.15055538182239386   -0.09039386989830397
-0.3679172998633713   -0.15055538182239386   -0.09039386989830397
-0.3679172998633713   -0.15055538182239386   -0.09039386989830397
0.09270310306561416   0.10783503181847306   0.11464053578329406
0.09270310306561416   0.10783503181847306   0.11464053578329406
0.09270310306561416   0.10783503181847306   0.11464053578329406
0.09270310306561416   0.10783503181847306   0.11464053578329406
-0.11408110580776687   -0.0041681796057301684   -0.015243551209519727
-0.11408110580776687   -0.0041681796057301684   -0.015243551209519727
-0.11408110580776687   -0.0041681796057301684   -0.015243551209519727
-0.11408110580776687   -0.0041681796057301684   -0.015243551209519727
0.01353361639910126   -0.07571733144699834   -0.09765453428379903
0.01353361639910126   -0.07571733144699834   -0.09765453428379903
0.01353361639910126   -0.07571733144699834   -0.09765453428379903
0.01353361639910126   -0.07571733144699834   -0.09765453428379903
-0.2951221102631553   0.026622684376780052   0.09640401190359846
-0.2951221102631553   0.026622684376780052   0.09640401190359846
-0.2951221102631553   0.026622684376780052   0.09640401190359846
-0.2951221102631553   0.026622684376780052   0.09640401190359846
-0.40049328276879737   -0.1864156757151435   -0.07486399487305617
-0.40049328276879737   -0.1864156757151435   -0.07486399487305617
-0.40049328276879737   -0.1864156757151435   -0.07486399487305617
-0.40049328276879737   -0.1864156757151435   -0.07486399487305617
-0.009165316617560268   0.04156733726015536   0.13059008008788892
-0.009165316617560268   0.04156733726015536   0.13059008008788892
-0.009165316617560268   0.04156733726015536   0.13059008008788892
-0.009165316617560268   0.04156733726015536   0.13059008008788892
-0.1760145506104611   -0.03922995822193941   -0.046116330612636196
-0.1760145506104611   -0.03922995822193941   -0.046116330612636196
-0.1760145506104611   -0.03922995822193941   -0.046116330612636196
-0.1760145506104611   -0.03922995822193941   -0.046116330612636196
-0.2555518479940973   0.06441274871187239   -0.053036150672922173
-0.2555518479940973   0.06441274871187239   -0.053036150672922173
-0.2555518479940973   0.06441274871187239   -0.053036150672922173
-0.2555518479940973   0.06441274871187239   -0.053036150672922173
-0.6374166624861224   0.026769645089519845   0.017863684024407828
-0.6374166624861224   0.026769645089519845   0.017863684024407828
-0.6374166624861224   0.026769645089519845   0.017863684024407828
-0.6374166624861224   0.026769645089519845   0.017863684024407828
-0.6930714774961183   -0.07415100177248794   -0.05541160848499081
-0.6930714774961183   -0.07415100177248794   -0.05541160848499081
-0.6930714774961183   -0.07415100177248794   -0.05541160848499081
-0.6930714774961183   -0.07415100177248794   -0.05541160848499081
-0.26252497197234564   0.06218315770428334   0.05287412300306531
-0.26252497197234564   0.06218315770428334   0.05287412300306531
-0.26252497197234564   0.06218315770428334   0.05287412300306531
-0.26252497197234564   0.06218315770428334   0.05287412300306531
-0.4611534255567012   0.018534134029926236   0.00979635267477559
-0.4611534255567012   0.018534134029926236   0.00979635267477559
-0.4611534255567012   0.018534134029926236   0.00979635267477559
-0.4611534255567012   0.018534134029926236   0.00979635267477559
-0.2925831751646333   0.008318527783324703   -0.043552263037412664
-0.2925831751646333   0.008318527783324703   -0.043552263037412664
-0.2925831751646333   0.008318527783324703   -0.043552263037412664
-0.2925831751646333   0.008318527783324703   -0.043552263037412664
-0.6667735142999559   -0.024046611847655483   0.02597381757098138
-0.6667735142999559   -0.024046611847655483   0.02597381757098138
-0.6667735142999559   -0.024046611847655483   0.02597381757098138
-0.6667735142999559   -0.024046611847655483   0.02597381757098138
-0.7207273881775227   -0.11974130539664236   -0.040808566376910146
-0.7207273881775227   -0.11974130539664236   -0.040808566376910146
-0.7207273881775227   -0.11974130539664236   -0.040808566376910146
-0.7207273881775227   -0.11974130539664236   -0.040808566376910146
-0.3054420847441078   0.011817480878546754   0.059609342997069235
-0.3054420847441078   0.011817480878546754   0.059609342997069235
-0.3054420847441078   0.011817480878546754   0.059609342997069235
-0.3054420847441078   0.011817480878546754   0.059609342997069235
-0.49609665150772225   -0.027148796924197333   -0.013097310699281065
-0.49609665150772225   -0.027148796924197333   -0.013097310699281065
-0.49609665150772225   -0.027148796924197333   -0.013097310699281065
-0.49609665150772225   -0.027148796924197333   -0.013097310699281065
-0.334396143260823   -0.040818364066269895   -0.032525104641686196
-0.334396143260823   -0.040818364066269895   -0.032525104641686196
-0.334396143260823   -0.040818364066269895   -0.032525104641686196
-0.334396143260823   -0.040818364066269895   -0.032525104641686196
-0.6958058182850564   -0.07113794907608414   0.03519592676486332
-0.6958058182850564   -0.07113794907608414   0.03519592676486332
-0.6958058182850564   -0.07113794907608414   0.03519592676486332
-0.6958058182850564   -0.07113794907608414   0.03519592676486332
-0.7485657829058769   -0.16677708805604707   -0.027871033344453726
-0.7485657829058769   -0.16677708805604707   -0.027871033344453726
-0.7485657829058769   -0.16677708805604707   -0.027871033344453726
-0.7485657829058769   -0.16677708805604707   -0.027871033344453726
-0.341316568135087   -0.03936390072791979   0.07396780330827216
-0.341316568135087   -0.03936390072791979   0.07396780330827216
-0.341316568135087   -0.03936390072791979   0.07396780330827216
-0.341316568135087   -0.03936390072791979   0.07396780330827216
-0.5310827438613497   -0.07247932673591588   -0.036419114655990445
-0.5310827438613497   -0.07247932673591588   -0.036419114655990445
-0.5310827438613497   -0.07247932673591588   -0.036419114655990445
-0.5310827438613497   -0.07247932673591588   -0.036419114655990445
-0.6259609141417081   0.10755947191299631   -0.005647401077011907
-0.6259609141417081   0.10755947191299631   -0.005647401077011907
-0.6259609141417081   0.10755947191299631   -0.005647401077011907
-0.6259609141417081   0.10755947191299631   -0.005647401077011907
-1.0473389229219   -0.035608674780978705   -0.029431769531852746
-1.0473389229219   -0.035608674780978705   -0.029431769531852746
-1.0473389229219   -0.035608674780978705   -0.029431769531852746
-1.0473389229219   -0.035608674780978705   -0.029431769531852746
-1.0582439324867503   -0.025720397855636817   -0.006027842957647224
-1.0582439324867503   -0.025720397855636817   -0.006027842957647224
-1.0582439324867503   -0.025720397855636817   -0.006027842957647224
-1.0582439324867503   -0.025720397855636817   -0.006027842957647224
-0.6644901753324888   0.005207373436191931   0.008136527124468967
-0.6644901753324888   0.005207373436191931   0.008136527124468967
-0.6644901753324888   0.005207373436191931   0.008136527124468967
-0.6644901753324888   0.005207373436191931   0.008136527124468967
-0.8472521258167455   0.012060272966199603   0.0031922930438686437
-0.8472521258167455   0.012060272966199603   0.0031922930438686437
-0.8472521258167455   0.012060272966199603   0.0031922930438686437
-0.8472521258167455   0.012060272966199603   0.0031922930438686437
-0.6539490811686995   0.05796167939618682   0.008087691983420318
-0.6539490811686995   0.05796167939618682   0.008087691983420318
-0.6539490811686995   0.05796167939618682   0.008087691983420318
-0.6539490811686995   0.05796167939618682   0.008087691983420318
-1.0723957173933316   -0.08208539455842373   -0.020421770787766774
-1.0723957173933316   -0.08208539455842373   -0.020421770787766774
-1.0723957173933316   -0.08208539455842373   -0.020421770787766774
-1.0723957173933316   -0.08208539455842373   -0.020421770787766774
-1.0841593366599522   -0.07469401181437238   0.0075750256935170415
-1.0841593366599522   -0.07469401181437238   0.0075750256935170415
-1.0841593366599522   -0.07469401181437238   0.0075750256935170415
-1.0841593366599522   -0.07469401181437238   0.0075750256935170415
-0.6938445182526919   -0.04292038441613634   0.016784862266738
-0.6938445182526919   -0.04292038441613634   0.016784862266738
-0.6938445182526919   -0.04292038441613634   0.016784862266738
-0.6938445182526919   -0.04292038441613634   0.016784862266738
-0.8753686785145325   -0.03247818517703083   -0.017837952461360544
-0.8753686785145325   -0.03247818517703083   -0.017837952461360544
-0.8753686785145325   -0.03247818517703083   -0.017837952461360544
-0.8753686785145325   -0.03247818517703083   -0.017837952461360544
-0.6829581289067785   0.008075424594660457   0.02022099998550745
-0.6829581289067785   0.008075424594660457   0.02022099998550745
-0.6829581289067785   0.008075424594660457   0.02022099998550745
-0.6829581289067785   0.008075424594660457   0.02022099998550745
-1.0993962819153895   -0.1300403767346957   -0.013263335663361246
-1.0993962819153895   -0.1300403767346957   -0.013263335663361246
-1.0993962819153895   -0.1300403767346957   -0.013263335663361246
-1.0993962819153895   -0.1300403767346957   -0.013263335663361246
-1.1094065455291133   -0.12170296005260828   0.020602591046906323
-1.1094065455291133   -0.12170296005260828   0.020602591046906323
-1.1094065455291133   -0.12170296005260828   0.020602591046906323
-1.1094065455291133   -0.12170296005260828   0.020602591046906323
-0.7220067974066517   -0.08836376221677382   0.026510568312406297
-0.7220067974066517   -0.08836376221677382   0.026510568312406297
-0.7220067974066517   -0.08836376221677382   0.026510568312406297
-0.7220067974066517   -0.08836376221677382   0.026510568312406297
-0.9056249644923463   -0.07730921646158724   -0.04068641655098376
-0.9056249644923463   -0.07730921646158724   -0.04068641655098376
-0.9056249644923463   -0.07730921646158724   -0.04068641655098376
-0.9056249644923463   -0.07730921646158724   -0.04068641655098376
-0.9944226159655986   0.1563838254591629   0.04315726500954305
-0.9944226159655986   0.1563838254591629   0.04315726500954305
-0.9944226159655986   0.1563838254591629   0.04315726500954305
-0.9944226159655986   0.1563838254591629   0.04315726500954305
-1.4405706296893444   -0.05895890986994107   -0.06613616414837216
-1.4405706296893444   -0.05895890986994107   -0.06613616414837216
-1.4405706296893444   -0.05895890986994107   -0.06613616414837216
-1.4405706296893444   -0.05895890986994107   -0.06613616414837216
-1.4209842222388809   0.024243061244798247   0.04499364724832797
-1.4209842222388809   0.024243061244798247   0.04499364724832797
-1.4209842222388809   0.024243061244798247   0.04499364724832797
-1.4209842222388809   0.024243061244798247   0.04499364724832797
-1.0621032540342878   -0.021484956460698007   -0.029559892090274202
-1.0621032540342878   -0.021484956460698007   -0.029559892090274202
-1.0621032540342878   -0.021484956460698007   -0.029559892090274202
-1.0621032540342878   -0.021484956460698007   -0.029559892090274202
-1.2253462249423466   0.025250135487970893   0.005722836099391018
-1.2253462249423466   0.025250135487970893   0.005722836099391018
-1.2253462249423466   0.025250135487970893   0.005722836099391018
-1.2253462249423466   0.025250135487970893   0.005722836099391018
-1.019108407129193   0.10700447667663193   0.056924909297869766
-1.019108407129193   0.10700447667663193   0.056924909297869766
-1.019108407129193   0.10700447667663193   0.056924909297869766
-1.019108407129193   0.10700447667663193   0.056924909297869766
-1.4692493875089392   -0.10951669025751073   -0.06257242759968634
-1.4692493875089392   -0.10951669025751073   -0.06257242759968634
-1.4692493875089392   -0.10951669025751073   -0.06257242759968634
-1.4692493875089392   -0.10951669025751073   -0.06257242759968634
-1.4557482406431668   -0.02392071738468743   0.05310504051785224
-1.4557482406431668   -0.02392071738468743   0.05310504051785224
-1.4557482406431668   -0.02392071738468743   0.05310504051785224
-1.4557482406431668   -0.02392071738468743   0.05310504051785224
-1.0877974693681427   -0.06518717282563552   -0.02012247683617137
-1.0877974693681427   -0.06518717282563552   -0.02012247683617137
-1.0877974693681427   -0.06518717282563552   -0.02012247683617137
-1.0877974693681427   -0.06518717282563552   -0.02012247683617137
-1.2489806406057968   -0.017679788479026515   -0.017076604883638796
-1.2489806406057968   -0.017679788479026515   -0.017076604883638796
-1.2489806406057968   -0.017679788479026515   -0.017076604883638796
-1.2489806406057968   -0.017679788479026515   -0.017076604883638796
-1.044308261927635   0.061811289802492925   0.07032509773822225
-1.044308261927635   0.061811289802492925   0.07032509773822225
-1.044308261927635   0.061811289802492925   0.07032509773822225
-1.044308261927635   0.061811289802492925   0.07032509773822225
-1.5033991187244218   -0.15508085065358126   -0.05398921661955942
-1.5033991187244218   -0.15508085065358126   -0.05398921661955942
-1.5033991187244218   -0.15508085065358126   -0.05398921661955942
-1.5033991187244218   -0.15508085065358126   -0.05398921661955942
-1.4840177270526844   -0.07237463880801154   0.06757672912668128
-1.4840177270526844   -0.07237463880801154   0.06757672912668128
-1.4840177270526844   -0.07237463880801154   0.06757672912668128
-1.4840177270526844   -0.07237463880801154   0.06757672912668128
-1.1135750398926856   -0.10987652409306731   -0.01206631673049477
-1.1135750398926856   -0.10987652409306731   -0.01206631673049477
-1.1135750398926856   -0.10987652409306731   -0.01206631673049477
-1.1135750398926856   -0.10987652409306731   -0.01206631673049477
-1.2844830426973473   -0.06136961418829423   -0.04040605759715943
-1.2844830426973473   -0.06136961418829423   -0.04040605759715943
-1.2844830426973473   -0.06136961418829423   -0.04040605759715943
-1.2844830426973473   -0.06136961418829423   -0.04040605759715943
-1.3646213551811122   0.16936140842660458   0.0852898900962422
-1.3646213551811122   0.16936140842660458   0.0852898900962422
-1.3646213551811122   0.16936140842660458   0.0852898900962422
-1.3646213551811122   0.16936140842660458   0.0852898900962422
-1.7516289972971408   -0.0872454776849112   -0.11109160600678175
-1.7516289972971408   -0.0872454776849112   -0.11109160600678175
-1.7516289972971408   -0.0872454776849112   -0.11109160600678175
-1.7516289972971408   -0.0872454776849112   -0.11109160600678175
-1.7528579115250549   0.0691393941293647   0.09401441118400915
-1.7528579115250549   0.0691393941293647   0.09401441118400915
-1.7528579115250549   0.0691393941293647   0.09401441118400915
-1.7528579115250549   0.0691393941293647   0.09401441118400915
-1.4584928094856604   -0.050314508005950054   -0.0679917197348376
-1.4584928094856604   -0.050314508005950054   -0.0679917197348376
-1.4584928094856604   -0.050314508005950054   -0.0679917197348376
-1.4584928094856604   -0.050314508005950054   -0.0679917197348376
-1.5180543481283206   0.04055818365295816   0.029005014757228637
-1.5180543481283206   0.04055818365295816   0.029005014757228637
-1.5180543481283206   0.04055818365295816   0.029005014757228637
-1.5180543481283206   0.04055818365295816   0.029005014757228637
-1.3859387026191676   0.14384434582672717   0.10061996076493422
-1.3859387026191676   0.14384434582672717   0.10061996076493422
-1.3859387026191676   0.14384434582672717   0.10061996076493422
-1.3859387026191676   0.14384434582672717   0.10061996076493422
-1.8308724368281455   -0.13047987813991824   -0.09643894306213184
-1.8308724368281455   -0.13047987813991824   -0.09643894306213184
-1.8308724368281455   -0.13047987813991824   -0.09643894306213184
-1.8308724368281455   -0.13047987813991824   -0.09643894306213184
-1.8161043013526152   0.04176374034812713   0.1212028882935591
-1.8161043013526152   0.04176374034812713   0.1212028882935591
-1.8161043013526152   0.04176374034812713   0.1212028882935591
-1.8161043013526152   0.04176374034812713   0.1212028882935591
-1.4885948391151742   -0.0754254077978797   -0.05962326142900712
-1.4885948391151742   -0.0754254077978797   -0.05962326142900712
-1.4885948391151742   -0.0754254077978797   -0.05962326142900712
-1.4885948391151742   -0.0754254077978797   -0.05962326142900712
-1.5931834841888877   0.007227165477901087   -0.002515769275760721
-1.5931834841888877   0.007227165477901087   -0.002515769275760721
-1.5931834841888877   0.007227165477901087   -0.002515769275760721
-1.5931834841888877   0.007227165477901087   -0.002515769275760721
-1.412983665505675   0.12229060801910452   0.12071659080150562
-1.412983665505675   0.12229060801910452   0.12071659080150562
-1.412983665505675   0.12229060801910452   0.12071659080150562
-1.412983665505675   0.12229060801910452   0.12071659080150562
-1.897298423044457   -0.16153522355118388   -0.08146875626630679
-1.897298423044457   -0.16153522355118388   -0.08146875626630679
-1.897298423044457   -0.16153522355118388   -0.08146875626630679
-1.897298423044457   -0.16153522355118388   -0.08146875626630679
-1.9097519832341532   -0.030152157417723646   0.12822623126672833
-1.9097519832341532   -0.030152157417723646   0.12822623126672833
-1.9097519832341532   -0.030152157417723646   0.12822623126672833
-1.9097519832341532   -0.030152157417723646   0.12822623126672833
-1.5188086851535725   -0.12724811700927233   -0.05150458317652818
-1.5188086851535725   -0.12724811700927233   -0.05150458317652818
-1.5188086851535725   -0.12724811700927233   -0.05150458317652818
-1.5188086851535725   -0.12724811700927233   -0.05150458317652818
-1.6222701871172194   -0.0257159481684911   -0.024971039138915768
-1.6222701871172194   -0.0257159481684911   -0.024971039138915768
-1.6222701871172194   -0.0257159481684911   -0.024971039138915768
-1.6222701871172194   -0.0257159481684911   -0.024971039138915768
-0.7655557002056653   -0.05016433063734277   -0.14055882667832192
-0.7655557002056653   -0.05016433063734277   -0.14055882667832192
-0.7655557002056653   -0.05016433063734277   -0.14055882667832192
-0.7655557002056653   -0.05016433063734277   -0.14055882667832192
-0.7495818371238087   0.10818618873917552   0.06336491748751837
-0.7495818371238087   0.10818618873917552   0.06336491748751837
-0.7495818371238087   0.10818618873917552   0.06336491748751837
-0.7495818371238087   0.10818618873917552   0.06336491748751837
-0.8420827017048927   -0.09799483974479904   -0.09507302243326061
-0.8420827017048927   -0.09799483974479904   -0.09507302243326061
-0.8420827017048927   -0.09799483974479904   -0.09507302243326061
-0.8420827017048927   -0.09799483974479904   -0.09507302243326061
-0.7808082402000939   0.05511993266435444   0.09557273317943603
-0.7808082402000939   0.05511993266435444   0.09557273317943603
-0.7808082402000939   0.05511993266435444   0.09557273317943603
-0.7808082402000939   0.05511993266435444   0.09557273317943603
-0.7451669003827497   0.01789031220197687   0.06463705052576643
-0.7451669003827497   0.01789031220197687   0.06463705052576643
-0.7451669003827497   0.01789031220197687   0.06463705052576643
-0.7451669003827497   0.01789031220197687   0.06463705052576643
-0.8555049665516927   -0.10518573450861143   -0.11760523140558406
-0.8555049665516927   -0.10518573450861143   -0.11760523140558406
-0.8555049665516927   -0.10518573450861143   -0.11760523140558406
-0.8555049665516927   -0.10518573450861143   -0.11760523140558406
-0.7767527788494134   0.05294402393205905   0.08063772816727853
-0.7767527788494134   0.05294402393205905   0.08063772816727853
-0.7767527788494134   0.05294402393205905   0.08063772816727853
-0.7767527788494134   0.05294402393205905   0.08063772816727853
-0.8696949929913846   -0.12363920991167146   -0.08033257681042977
-0.8696949929913846   -0.12363920991167146   -0.08033257681042977
-0.8696949929913846   -0.12363920991167146   -0.08033257681042977
-0.8696949929913846   -0.12363920991167146   -0.08033257681042977
-0.8525799935943357   0.020119172891699816   0.177272467563932
-0.8525799935943357   0.020119172891699816   0.177272467563932
-0.8525799935943357   0.020119172891699816   0.177272467563932
-0.8525799935943357   0.020119172891699816   0.177272467563932
-0.811563201633221   -0.026203554472183116   0.025678770647822723
-0.811563201633221   -0.026203554472183116   0.025678770647822723
-0.811563201633221   -0.026203554472183116   0.025678770647822723
-0.811563201633221   -0.026203554472183116   0.025678770647822723
-0.9382659185371646   -0.1395787304253688   -0.09145925383313652
-0.9382659185371646   -0.1395787304253688   -0.09145925383313652
-0.9382659185371646   -0.1395787304253688   -0.09145925383313652
-0.9382659185371646   -0.1395787304253688   -0.09145925383313652
-0.806051707251397   0.014016054202557165   0.10022858777528007
-0.806051707251397   0.014016054202557165   0.10022858777528007
-0.806051707251397   0.014016054202557165   0.10022858777528007
-0.806051707251397   0.014016054202557165   0.10022858777528007
-0.8922541576472997   -0.1737894102636201   -0.06310481650131045
-0.8922541576472997   -0.1737894102636201   -0.06310481650131045
-0.8922541576472997   -0.1737894102636201   -0.06310481650131045
-0.8922541576472997   -0.1737894102636201   -0.06310481650131045
-0.9642491152270637   -0.09553898149789784   0.16596676879309905
-0.9642491152270637   -0.09553898149789784   0.16596676879309905
-0.9642491152270637   -0.09553898149789784   0.16596676879309905
-0.9642491152270637   -0.09553898149789784   0.16596676879309905
-0.8685933398692498   -0.07837789793752023   -0.03583887625756221
-0.8685933398692498   -0.07837789793752023   -0.03583887625756221
-0.8685933398692498   -0.07837789793752023   -0.03583887625756221
-0.8685933398692498   -0.07837789793752023   -0.03583887625756221
-0.8033181963439009   -0.02450794705139367   -0.07262274282238133
-0.8033181963439009   -0.02450794705139367   -0.07262274282238133
-0.8033181963439009   -0.02450794705139367   -0.07262274282238133
-0.8033181963439009   -0.02450794705139367   -0.07262274282238133
-0.8081329910107214   -0.09904422732020902   -0.004185854213562355
-0.8081329910107214   -0.09904422732020902   -0.004185854213562355
-0.8081329910107214   -0.09904422732020902   -0.004185854213562355
-0.8081329910107214   -0.09904422732020902   -0.004185854213562355
-0.8135539443666725   -0.06577187671782951   -0.03587207671317205
-0.8135539443666725   -0.06577187671782951   -0.03587207671317205
-0.8135539443666725   -0.06577187671782951   -0.03587207671317205
-0.8135539443666725   -0.06577187671782951   -0.03587207671317205
-0.8309774085021372   -0.13582496802358235   -0.0017164281406989133
-0.8309774085021372   -0.13582496802358235   -0.0017164281406989133
-0.8309774085021372   -0.13582496802358235   -0.0017164281406989133
-0.8309774085021372   -0.13582496802358235   -0.0017164281406989133
-0.8070534089311073   -0.08480456388673019   -0.0032712272133517822
-0.8070534089311073   -0.08480456388673019   -0.0032712272133517822
-0.8070534089311073   -0.08480456388673019   -0.0032712272133517822
-0.8070534089311073   -0.08480456388673019   -0.0032712272133517822
-0.8309524793913328   -0.07463376541848345   -0.0627829851917816
-0.8309524793913328   -0.07463376541848345   -0.0627829851917816
-0.8309524793913328   -0.07463376541848345   -0.0627829851917816
-0.8309524793913328   -0.07463376541848345   -0.0627829851917816
-0.8187655043991734   -0.13214971024462707   0.004447956651113614
-0.8187655043991734   -0.13214971024462707   0.004447956651113614
-0.8187655043991734   -0.13214971024462707   0.004447956651113614
-0.8187655043991734   -0.13214971024462707   0.004447956651113614
-0.8267951539070048   -0.10897837411419359   -0.023016862803735612
-0.8267951539070048   -0.10897837411419359   -0.023016862803735612
-0.8267951539070048   -0.10897837411419359   -0.023016862803735612
-0.8267951539070048   -0.10897837411419359   -0.023016862803735612
-0.860469868553333   -0.17595972497660473   0.018113560444761853
-0.860469868553333   -0.17595972497660473   0.018113560444761853
-0.860469868553333   -0.17595972497660473   0.018113560444761853
-0.860469868553333   -0.17595972497660473   0.018113560444761853
-0.8251010708779791   -0.1196377874318404   -0.023183339970807498
-0.8251010708779791   -0.1196377874318404   -0.023183339970807498
-0.8251010708779791   -0.1196377874318404   -0.023183339970807498
-0.8251010708779791   -0.1196377874318404   -0.023183339970807498
-0.8623651711886193   -0.12079461712618689   -0.046528060582087534
-0.8623651711886193   -0.12079461712618689   -0.046528060582087534
-0.8623651711886193   -0.12079461712618689   -0.046528060582087534
-0.8623651711886193   -0.12079461712618689   -0.046528060582087534
-0.8315389193546103   -0.17078255004750467   0.015068485891539486
-0.8315389193546103   -0.17078255004750467   0.015068485891539486
-0.8315389193546103   -0.17078255004750467   0.015068485891539486
-0.8315389193546103   -0.17078255004750467   0.015068485891539486
-0.8386247213596864   -0.15567410920985758   -0.010275085876817362
-0.8386247213596864   -0.15567410920985758   -0.010275085876817362
-0.8386247213596864   -0.15567410920985758   -0.010275085876817362
-0.8386247213596864   -0.15567410920985758   -0.010275085876817362
-0.8829793871765286   -0.22713351280068467   0.03661313838960538
-0.8829793871765286   -0.22713351280068467   0.03661313838960538
-0.8829793871765286   -0.22713351280068467   0.03661313838960538
-0.8829793871765286   -0.22713351280068467   0.03661313838960538
-0.8501446464367738   -0.16190937111271653   -0.048596694367949556
-0.8501446464367738   -0.16190937111271653   -0.048596694367949556
-0.8501446464367738   -0.16190937111271653   -0.048596694367949556
-0.8501446464367738   -0.16190937111271653   -0.048596694367949556
-0.7861692632228798   0.019857768788582003   -0.013269211383130447
-0.7861692632228798   0.019857768788582003   -0.013269211383130447
-0.7861692632228798   0.019857768788582003   -0.013269211383130447
-0.7861692632228798   0.019857768788582003   -0.013269211383130447
-0.8843495408367503   -0.1678283143217395   -0.04225078530619347
-0.8843495408367503   -0.1678283143217395   -0.04225078530619347
-0.8843495408367503   -0.1678283143217395   -0.04225078530619347
-0.8843495408367503   -0.1678283143217395   -0.04225078530619347
-0.8478194253184196   -0.030798967705083446   0.01143407140402275
-0.8478194253184196   -0.030798967705083446   0.01143407140402275
-0.8478194253184196   -0.030798967705083446   0.01143407140402275
-0.8478194253184196   -0.030798967705083446   0.01143407140402275
-0.8349883071736959   -0.18255641290334218   -0.02625935456278388
-0.8349883071736959   -0.18255641290334218   -0.02625935456278388
-0.8349883071736959   -0.18255641290334218   -0.02625935456278388
-0.8349883071736959   -0.18255641290334218   -0.02625935456278388
-0.8377493196043265   -0.09317625714139655   -0.01919806764090247
-0.8377493196043265   -0.09317625714139655   -0.01919806764090247
-0.8377493196043265   -0.09317625714139655   -0.01919806764090247
-0.8377493196043265   -0.09317625714139655   -0.01919806764090247
-0.7978568524565508   -0.023104138491328613   -5.4355389071836235e-05
-0.7978568524565508   -0.023104138491328613   -5.4355389071836235e-05
-0.7978568524565508   -0.023104138491328613   -5.4355389071836235e-05
-0.7978568524565508   -0.023104138491328613   -5.4355389071836235e-05
-0.8896510077484951   -0.19495136983003009   -0.033571438621424136
-0.8896510077484951   -0.19495136983003009   -0.033571438621424136
-0.8896510077484951   -0.19495136983003009   -0.033571438621424136
-0.8896510077484951   -0.19495136983003009   -0.033571438621424136
-0.857222362570715   -0.0741113853285419   0.024207702022733254
-0.857222362570715   -0.0741113853285419   0.024207702022733254
-0.857222362570715   -0.0741113853285419   0.024207702022733254
-0.857222362570715   -0.0741113853285419   0.024207702022733254
-0.8473781344201484   -0.2167212601495831   -0.01818887933407272
-0.8473781344201484   -0.2167212601495831   -0.01818887933407272
-0.8473781344201484   -0.2167212601495831   -0.01818887933407272
-0.8473781344201484   -0.2167212601495831   -0.01818887933407272
-0.8477777349160247   -0.12620415573318383   -0.03626956030488064
-0.8477777349160247   -0.12620415573318383   -0.03626956030488064
-0.8477777349160247   -0.12620415573318383   -0.03626956030488064
-0.8477777349160247   -0.12620415573318383   -0.03626956030488064
-0.8112522775209768   -0.06717923310057228   0.01289837811278196
-0.8112522775209768   -0.06717923310057228   0.01289837811278196
-0.8112522775209768   -0.06717923310057228   0.01289837811278196
-0.8112522775209768   -0.06717923310057228   0.01289837811278196
-0.898598068617507   -0.22890326152516433   -0.027878952014620248
-0.898598068617507   -0.22890326152516433   -0.027878952014620248
-0.898598068617507   -0.22890326152516433   -0.027878952014620248
-0.898598068617507   -0.22890326152516433   -0.027878952014620248
-0.8648095551221087   -0.11488959418114532   0.03668416620600572
-0.8648095551221087   -0.11488959418114532   0.03668416620600572
-0.8648095551221087   -0.11488959418114532   0.03668416620600572
-0.8648095551221087   -0.11488959418114532   0.03668416620600572
-0.8564893853525553   -0.2495895147937383   -0.0056830002572960114
-0.8564893853525553   -0.2495895147937383   -0.0056830002572960114
-0.8564893853525553   -0.2495895147937383   -0.0056830002572960114
-0.8564893853525553   -0.2495895147937383   -0.0056830002572960114
-0.8597815447267694   -0.16076426635519028   -0.05503207285715698
-0.8597815447267694   -0.16076426635519028   -0.05503207285715698
-0.8597815447267694   -0.16076426635519028   -0.05503207285715698
-0.8597815447267694   -0.16076426635519028   -0.05503207285715698
-0.8166096346495361   0.08732050685776888   0.04129992445036952
-0.8166096346495361   0.08732050685776888   0.04129992445036952
-0.8166096346495361   0.08732050685776888   0.04129992445036952
-0.8166096346495361   0.08732050685776888   0.04129992445036952
-0.9607422418739431   -0.12458589402720543   -0.05867940188617677
-0.9607422418739431   -0.12458589402720543   -0.05867940188617677
-0.9607422418739431   -0.12458589402720543   -0.05867940188617677
-0.9607422418739431   -0.12458589402720543   -0.05867940188617677
-0.9083113828450586   0.02667384336885134   0.05744223586824344
-0.9083113828450586   0.02667384336885134   0.05744223586824344
-0.9083113828450586   0.02667384336885134   0.05744223586824344
-0.9083113828450586   0.02667384336885134   0.05744223586824344
-0.8791299636838705   -0.14023031759753773   -0.035687270530777346
-0.8791299636838705   -0.14023031759753773   -0.035687270530777346
-0.8791299636838705   -0.14023031759753773   -0.035687270530777346
-0.8791299636838705   -0.14023031759753773   -0.035687270530777346
-0.8911957811725291   -0.03674735463621717   -0.011471403942675283
-0.8911957811725291   -0.03674735463621717   -0.011471403942675283
-0.8911957811725291   -0.03674735463621717   -0.011471403942675283
-0.8911957811725291   -0.03674735463621717   -0.011471403942675283
-0.8245732388516753   0.042755193500342875   0.05411084253231777
-0.8245732388516753   0.042755193500342875   0.05411084253231777
-0.8245732388516753   0.042755193500342875   0.05411084253231777
-0.8245732388516753   0.042755193500342875   0.05411084253231777
-0.9690977239787334   -0.16254128403050888   -0.05727434240077019
-0.9690977239787334   -0.16254128403050888   -0.05727434240077019
-0.9690977239787334   -0.16254128403050888   -0.05727434240077019
-0.9690977239787334   -0.16254128403050888   -0.05727434240077019
-0.9248763314058344   -0.01555973492859597   0.06509357468671802
-0.9248763314058344   -0.01555973492859597   0.06509357468671802
-0.9248763314058344   -0.01555973492859597   0.06509357468671802
-0.9248763314058344   -0.01555973492859597   0.06509357468671802
-0.8872669862202579   -0.1716853676698068   -0.02844143388373203
-0.8872669862202579   -0.1716853676698068   -0.02844143388373203
-0.8872669862202579   -0.1716853676698068   -0.02844143388373203
-0.8872669862202579   -0.1716853676698068   -0.02844143388373203
-0.8994092925514741   -0.07251300279269576   -0.03148054519242313
-0.8994092925514741   -0.07251300279269576   -0.03148054519242313
-0.8994092925514741   -0.07251300279269576   -0.03148054519242313
-0.8994092925514741   -0.07251300279269576   -0.03148054519242313
-0.833318247543425   0.0030471210605460264   0.06656977077008
-0.833318247543425   0.0030471210605460264   0.06656977077008
-0.833318247543425   0.0030471210605460264   0.06656977077008
-0.833318247543425   0.0030471210605460264   0.06656977077008
-0.9842257670156402   -0.19569292059193202   -0.051520417698975814
-0.9842257670156402   -0.19569292059193202   -0.051520417698975814
-0.9842257670156402   -0.19569292059193202   -0.051520417698975814
-0.9842257670156402   -0.19569292059193202   -0.051520417698975814
-0.9357403992149694   -0.05602561784251625   0.07935357384454442
-0.9357403992149694   -0.05602561784251625   0.07935357384454442
-0.9357403992149694   -0.05602561784251625   0.07935357384454442
-0.9357403992149694   -0.05602561784251625   0.07935357384454442
-0.8941953939951276   -0.20326404796261502   -0.021870574377634497
-0.8941953939951276   -0.20326404796261502   -0.021870574377634497
-0.8941953939951276   -0.20326404796261502   -0.021870574377634497
-0.8941953939951276   -0.20326404796261502   -0.021870574377634497
-0.9139648409707652   -0.10615354669797414   -0.050841018136681744
-0.9139648409707652   -0.10615354669797414   -0.050841018136681744
-0.9139648409707652   -0.10615354669797414   -0.050841018136681744
-0.9139648409707652   -0.10615354669797414   -0.050841018136681744
-0.8825800955626932   0.12524309249325405   0.08230234314959706
-0.8825800955626932   0.12524309249325405   0.08230234314959706
-0.8825800955626932   0.12524309249325405   0.08230234314959706
-0.8825800955626932   0.12524309249325405   0.08230234314959706
-0.9379906046525818   -0.07472699803816393   -0.08520625172812013
-0.9379906046525818   -0.07472699803816393   -0.08520625172812013
-0.9379906046525818   -0.07472699803816393   -0.08520625172812013
-0.9379906046525818   -0.07472699803816393   -0.08520625172812013
-0.916270298345584   0.09001477503450306   0.0914321843274132
-0.916270298345584   0.09001477503450306   0.0914321843274132
-0.916270298345584   0.09001477503450306   0.0914321843274132
-0.916270298345584   0.09001477503450306   0.0914321843274132
-0.9550048553988818   -0.09728044812192695   -0.05207083541010919
-0.9550048553988818   -0.09728044812192695   -0.05207083541010919
-0.9550048553988818   -0.09728044812192695   -0.05207083541010919
-0.9550048553988818   -0.09728044812192695   -0.05207083541010919
-0.8917482107785023   0.022688911860662436   0.0030442943309320764
-0.8917482107785023   0.022688911860662436   0.0030442943309320764
-0.8917482107785023   0.022688911860662436   0.0030442943309320764
-0.8917482107785023   0.022688911860662436   0.0030442943309320764
-0.8867708913828148   0.09665993905936954   0.09515859748891463
-0.8867708913828148   0.09665993905936954   0.09515859748891463
-0.8867708913828148   0.09665993905936954   0.09515859748891463
-0.8867708913828148   0.09665993905936954   0.09515859748891463
-0.9895532223740007   -0.10897457215912991   -0.07599308862100528
-0.9895532223740007   -0.10897457215912991   -0.07599308862100528
-0.9895532223740007   -0.10897457215912991   -0.07599308862100528
-0.9895532223740007   -0.10897457215912991   -0.07599308862100528
-0.9566420962981039   0.06644834706844541   0.11779277008554809
-0.9566420962981039   0.06644834706844541   0.11779277008554809
-0.9566420962981039   0.06644834706844541   0.11779277008554809
-0.9566420962981039   0.06644834706844541   0.11779277008554809
-0.9674513052145024   -0.11575352286950932   -0.04758750641572407
-0.9674513052145024   -0.11575352286950932   -0.04758750641572407
-0.9674513052145024   -0.11575352286950932   -0.04758750641572407
-0.9674513052145024   -0.11575352286950932   -0.04758750641572407
-0.9351719439387706   -0.005905573701802891   -0.02044747743584356
-0.9351719439387706   -0.005905573701802891   -0.02044747743584356
-0.9351719439387706   -0.005905573701802891   -0.02044747743584356
-0.9351719439387706   -0.005905573701802891   -0.02044747743584356
-0.8964465021841181   0.0777212575395588   0.11396172832712934
-0.8964465021841181   0.0777212575395588   0.11396172832712934
-0.8964465021841181   0.0777212575395588   0.11396172832712934
-0.8964465021841181   0.0777212575395588   0.11396172832712934
-1.0342577722616118   -0.13363730627374126   -0.07019995638977441
-1.0342577722616118   -0.13363730627374126   -0.07019995638977441
-1.0342577722616118   -0.13363730627374126   -0.07019995638977441
-1.0342577722616118   -0.13363730627374126   -0.07019995638977441
-1.0283012508974052   0.006335240679098686   0.1259047710091593
-1.0283012508974052   0.006335240679098686   0.1259047710091593
-1.0283012508974052   0.006335240679098686   0.1259047710091593
-1.0283012508974052   0.006335240679098686   0.1259047710091593
-0.9787687221391135   -0.15043602834450648   -0.041377630274185714
-0.9787687221391135   -0.15043602834450648   -0.041377630274185714
-0.9787687221391135   -0.15043602834450648   -0.041377630274185714
-0.9787687221391135   -0.15043602834450648   -0.041377630274185714
-0.9557934844566034   -0.032143150781517055   -0.041718872234963705
-0.9557934844566034   -0.032143150781517055   -0.041718872234963705
-0.9557934844566034   -0.032143150781517055   -0.041718872234963705
-0.9557934844566034   -0.032143150781517055   -0.041718872234963705
-1.9255647577600024   -0.17558738568609406   -0.17952003400263566
-1.9255647577600024   -0.17558738568609406   -0.17952003400263566
-1.9255647577600024   -0.17558738568609406   -0.17952003400263566
-1.9255647577600024   -0.17558738568609406   -0.17952003400263566
-1.2167767666548173   0.10567143982977484   0.04246943931095659
-1.2167767666548173   0.10567143982977484   0.04246943931095659
-1.2167767666548173   0.10567143982977484   0.04246943931095659
-1.2167767666548173   0.10567143982977484   0.04246943931095659
-1.2771809022710325   -0.07919538858715913   -0.07963121100719335
-1.2771809022710325   -0.07919538858715913   -0.07963121100719335
-1.2771809022710325   -0.07919538858715913   -0.07963121100719335
-1.2771809022710325   -0.07919538858715913   -0.07963121100719335
-2.0447102952338327   -0.22769502751135592   0.202273337529736
-2.0447102952338327   -0.22769502751135592   0.202273337529736
-2.0447102952338327   -0.22769502751135592   0.202273337529736
-2.0447102952338327   -0.22769502751135592   0.202273337529736
-1.4862464232059684   -0.05567450542410929   0.19560431512681842
-1.4862464232059684   -0.05567450542410929   0.19560431512681842
-1.4862464232059684   -0.05567450542410929   0.19560431512681842
-1.4862464232059684   -0.05567450542410929   0.19560431512681842
-2.1173811564380847   -0.2575536636830859   -0.13122233231977465
-2.1173811564380847   -0.2575536636830859   -0.13122233231977465
-2.1173811564380847   -0.2575536636830859   -0.13122233231977465
-2.1173811564380847   -0.2575536636830859   -0.13122233231977465
-1.2555484079107841   -0.10037511925942974   0.049710991466318556
-1.2555484079107841   -0.10037511925942974   0.049710991466318556
-1.2555484079107841   -0.10037511925942974   0.049710991466318556
-1.2555484079107841   -0.10037511925942974   0.049710991466318556
-1.2958449095115034   -0.1153564628696149   -0.05684079532547388
-1.2958449095115034   -0.1153564628696149   -0.05684079532547388
-1.2958449095115034   -0.1153564628696149   -0.05684079532547388
-1.2958449095115034   -0.1153564628696149   -0.05684079532547388
-2.1084579571535635   -0.3185110506834415   0.0057128693420335636
-2.1084579571535635   -0.3185110506834415   0.0057128693420335636
-2.1084579571535635   -0.3185110506834415   0.0057128693420335636
-2.1084579571535635   -0.3185110506834415   0.0057128693420335636
-1.6436651535062698   -0.19221753552821003   0.044942902726738385
-1.6436651535062698   -0.19221753552821003   0.044942902726738385
-1.6436651535062698   -0.19221753552821003   0.044942902726738385
-1.6436651535062698   -0.19221753552821003   0.044942902726738385
-2.125135615918131   -0.2909031167655757   -0.10528335839864983
-2.125135615918131   -0.2909031167655757   -0.10528335839864983
-2.125135615918131   -0.2909031167655757   -0.10528335839864983
-2.125135615918131   -0.2909031167655757   -0.10528335839864983
-1.2947209055515998   -0.15851805159214344   -0.008059186803439936
-1.2947209055515998   -0.15851805159214344   -0.008059186803439936
-1.2947209055515998   -0.15851805159214344   -0.008059186803439936
-1.2947209055515998   -0.15851805159214344   -0.008059186803439936
-1.2958528182336582   -0.203291713448097   -0.04119318795130249
-1.2958528182336582   -0.203291713448097   -0.04119318795130249
-1.2958528182336582   -0.203291713448097   -0.04119318795130249
-1.2958528182336582   -0.203291713448097   -0.04119318795130249
-2.157282049565855   -0.48702909945907885   0.03300707284696931
-2.157282049565855   -0.48702909945907885   0.03300707284696931
-2.157282049565855   -0.48702909945907885   0.03300707284696931
-2.157282049565855   -0.48702909945907885   0.03300707284696931
-1.6408363957052383   -0.26445042487852577   0.003065497768489217
-1.6408363957052383   -0.26445042487852577   0.003065497768489217
-1.6408363957052383   -0.26445042487852577   0.003065497768489217
-1.6408363957052383   -0.26445042487852577   0.003065497768489217
-1.3140433836229894   -0.22252298011664018   -0.11566922558348065
-1.3140433836229894   -0.22252298011664018   -0.11566922558348065
-1.3140433836229894   -0.22252298011664018   -0.11566922558348065
-1.3140433836229894   -0.22252298011664018   -0.11566922558348065
-0.8991301806116032   -0.5768999364470194   -0.10835992673627963
-0.8991301806116032   -0.5768999364470194   -0.10835992673627963
-0.8991301806116032   -0.5768999364470194   -0.10835992673627963
-0.8991301806116032   -0.5768999364470194   -0.10835992673627963
-0.7899962691829807   -0.12857852855042262   -0.0064653700940569235
-0.7899962691829807   -0.12857852855042262   -0.0064653700940569235
-0.7899962691829807   -0.12857852855042262   -0.0064653700940569235
-0.7899962691829807   -0.12857852855042262   -0.0064653700940569235
-1.3954256229875293   -0.6130463193794132   -0.1370038837974234
-1.3954256229875293   -0.6130463193794132   -0.1370038837974234
-1.3954256229875293   -0.6130463193794132   -0.1370038837974234
-1.3954256229875293   -0.6130463193794132   -0.1370038837974234
-1.0867981676649576   -0.4091398984547002   -0.0315688664051424
-1.0867981676649576   -0.4091398984547002   -0.0315688664051424
-1.0867981676649576   -0.4091398984547002   -0.0315688664051424
-1.0867981676649576   -0.4091398984547002   -0.0315688664051424
-1.3126525141535887   -0.24921136277263178   -0.08697329623449432
-1.3126525141535887   -0.24921136277263178   -0.08697329623449432
-1.3126525141535887   -0.24921136277263178   -0.08697329623449432
-1.3126525141535887   -0.24921136277263178   -0.08697329623449432
-0.8781112443912434   -0.49775535153152634   -0.07786342315427498
-0.8781112443912434   -0.49775535153152634   -0.07786342315427498
-0.8781112443912434   -0.49775535153152634   -0.07786342315427498
-0.8781112443912434   -0.49775535153152634   -0.07786342315427498
-0.7981071341632802   -0.16677914128969068   0.0016537444892794195
-0.7981071341632802   -0.16677914128969068   0.0016537444892794195
-0.7981071341632802   -0.16677914128969068   0.0016537444892794195
-0.7981071341632802   -0.16677914128969068   0.0016537444892794195
-1.3995878598026077   -0.6099084454920509   -0.08100356415857032
-1.3995878598026077   -0.6099084454920509   -0.08100356415857032
-1.3995878598026077   -0.6099084454920509   -0.08100356415857032
-1.3995878598026077   -0.6099084454920509   -0.08100356415857032
-1.0741348547316618   -0.3835307029166036   -0.03352972418464401
-1.0741348547316618   -0.3835307029166036   -0.03352972418464401
-1.0741348547316618   -0.3835307029166036   -0.03352972418464401
-1.0741348547316618   -0.3835307029166036   -0.03352972418464401
-1.3317984934610514   -0.28686766469638864   -0.06509751324643946
-1.3317984934610514   -0.28686766469638864   -0.06509751324643946
-1.3317984934610514   -0.28686766469638864   -0.06509751324643946
-1.3317984934610514   -0.28686766469638864   -0.06509751324643946
-0.8768815432725481   -0.5008049648530639   -0.0581924774936948
-0.8768815432725481   -0.5008049648530639   -0.0581924774936948
-0.8768815432725481   -0.5008049648530639   -0.0581924774936948
-0.8768815432725481   -0.5008049648530639   -0.0581924774936948
-0.7967923780454217   -0.21456653939563408   0.013260996283751558
-0.7967923780454217   -0.21456653939563408   0.013260996283751558
-0.7967923780454217   -0.21456653939563408   0.013260996283751558
-0.7967923780454217   -0.21456653939563408   0.013260996283751558
-1.3951805683950416   -0.6205634526271955   -0.12056019957913869
-1.3951805683950416   -0.6205634526271955   -0.12056019957913869
-1.3951805683950416   -0.6205634526271955   -0.12056019957913869
-1.3951805683950416   -0.6205634526271955   -0.12056019957913869
-1.0893610816038102   -0.412735886803101   -0.062189083318252854
-1.0893610816038102   -0.412735886803101   -0.062189083318252854
-1.0893610816038102   -0.412735886803101   -0.062189083318252854
-1.0893610816038102   -0.412735886803101   -0.062189083318252854
-0.7926587476500835   -0.1430171152485895   -0.009885583127110492
-0.7926587476500835   -0.1430171152485895   -0.009885583127110492
-0.7926587476500835   -0.1430171152485895   -0.009885583127110492
-0.7926587476500835   -0.1430171152485895   -0.009885583127110492
-0.6609815863593124   -0.440580940693648   -0.07606660511296574
-0.6609815863593124   -0.440580940693648   -0.07606660511296574
-0.6609815863593124   -0.440580940693648   -0.07606660511296574
-0.6609815863593124   -0.440580940693648   -0.07606660511296574
-0.5694391439594227   -0.11805762287625715   0.030685432358368132
-0.5694391439594227   -0.11805762287625715   0.030685432358368132
-0.5694391439594227   -0.11805762287625715   0.030685432358368132
-0.5694391439594227   -0.11805762287625715   0.030685432358368132
-0.8758412371644301   -0.4799554898285773   -0.08431324872315701
-0.8758412371644301   -0.4799554898285773   -0.08431324872315701
-0.8758412371644301   -0.4799554898285773   -0.08431324872315701
-0.8758412371644301   -0.4799554898285773   -0.08431324872315701
-0.7214837272684961   -0.2996690442760939   -0.03516722072916035
-0.7214837272684961   -0.2996690442760939   -0.03516722072916035
-0.7214837272684961   -0.2996690442760939   -0.03516722072916035
-0.7214837272684961   -0.2996690442760939   -0.03516722072916035
-0.796562732997918   -0.16932889224955402   0.0014526745303791774
-0.796562732997918   -0.16932889224955402   0.0014526745303791774
-0.796562732997918   -0.16932889224955402   0.0014526745303791774
-0.796562732997918   -0.16932889224955402   0.0014526745303791774
-0.6534219472577675   -0.4333885195871106   -0.07389768742248623
-0.6534219472577675   -0.4333885195871106   -0.07389768742248623
-0.6534219472577675   -0.4333885195871106   -0.07389768742248623
-0.6534219472577675   -0.4333885195871106   -0.07389768742248623
-0.5687926169915826   -0.14942528968527338   0.039705455558909905
-0.5687926169915826   -0.14942528968527338   0.039705455558909905
-0.5687926169915826   -0.14942528968527338   0.039705455558909905
-0.5687926169915826   -0.14942528968527338   0.039705455558909905
-0.8777484789329686   -0.4875769340771215   -0.07575518657173924
-0.8777484789329686   -0.4875769340771215   -0.07575518657173924
-0.8777484789329686   -0.4875769340771215   -0.07575518657173924
-0.8777484789329686   -0.4875769340771215   -0.07575518657173924
-0.7194690091609773   -0.3115815941468099   -0.045614525519092744
-0.7194690091609773   -0.3115815941468099   -0.045614525519092744
-0.7194690091609773   -0.3115815941468099   -0.045614525519092744
-0.7194690091609773   -0.3115815941468099   -0.045614525519092744
-0.8023342491221005   -0.20110575128505254   0.014844779690532094
-0.8023342491221005   -0.20110575128505254   0.014844779690532094
-0.8023342491221005   -0.20110575128505254   0.014844779690532094
-0.8023342491221005   -0.20110575128505254   0.014844779690532094
-0.6467812791217549   -0.4384709047966441   -0.06119223998056575
-0.6467812791217549   -0.4384709047966441   -0.06119223998056575
-0.6467812791217549   -0.4384709047966441   -0.06119223998056575
-0.6467812791217549   -0.4384709047966441   -0.06119223998056575
-0.5611334515743334   -0.179482086715443   0.04949820635595875
-0.5611334515743334   -0.179482086715443   0.04949820635595875
-0.5611334515743334   -0.179482086715443   0.04949820635595875
-0.5611334515743334   -0.179482086715443   0.04949820635595875
-0.8662775909544438   -0.49401742799794324   -0.05471417965905
-0.8662775909544438   -0.49401742799794324   -0.05471417965905
-0.8662775909544438   -0.49401742799794324   -0.05471417965905
-0.8662775909544438   -0.49401742799794324   -0.05471417965905
-0.716368345072521   -0.32713561146664727   -0.05273917434011075
-0.716368345072521   -0.32713561146664727   -0.05273917434011075
-0.716368345072521   -0.32713561146664727   -0.05273917434011075
-0.716368345072521   -0.32713561146664727   -0.05273917434011075
-0.5508680800948954   -0.02007598682589111   0.0539959723413472
-0.5508680800948954   -0.02007598682589111   0.0539959723413472
-0.5508680800948954   -0.02007598682589111   0.0539959723413472
-0.5508680800948954   -0.02007598682589111   0.0539959723413472
-0.5169227414850263   -0.232413992775012   -0.04517305008471479
-0.5169227414850263   -0.232413992775012   -0.04517305008471479
-0.5169227414850263   -0.232413992775012   -0.04517305008471479
-0.5169227414850263   -0.232413992775012   -0.04517305008471479
-0.44489287229170826   -0.03371241150604963   0.06266516853450098
-0.44489287229170826   -0.03371241150604963   0.06266516853450098
-0.44489287229170826   -0.03371241150604963   0.06266516853450098
-0.44489287229170826   -0.03371241150604963   0.06266516853450098
-0.612322830713809   -0.26964329870390324   -0.032147325585916695
-0.612322830713809   -0.26964329870390324   -0.032147325585916695
-0.612322830713809   -0.26964329870390324   -0.032147325585916695
-0.612322830713809   -0.26964329870390324   -0.032147325585916695
-0.5330566607693032   -0.13774267245997446   -0.01903080373800345
-0.5330566607693032   -0.13774267245997446   -0.01903080373800345
-0.5330566607693032   -0.13774267245997446   -0.01903080373800345
-0.5330566607693032   -0.13774267245997446   -0.01903080373800345
-0.5504935159121409   -0.054911986661110204   0.0622679363796307
-0.5504935159121409   -0.054911986661110204   0.0622679363796307
-0.5504935159121409   -0.054911986661110204   0.0622679363796307
-0.5504935159121409   -0.054911986661110204   0.0622679363796307
-0.5116842149524994   -0.25340575140796573   -0.05159820486753845
-0.5116842149524994   -0.25340575140796573   -0.05159820486753845
-0.5116842149524994   -0.25340575140796573   -0.05159820486753845
-0.5116842149524994   -0.25340575140796573   -0.05159820486753845
-0.4447289468304162   -0.06402910317510332   0.06730184919997437
-0.4447289468304162   -0.06402910317510332   0.06730184919997437
-0.4447289468304162   -0.06402910317510332   0.06730184919997437
-0.4447289468304162   -0.06402910317510332   0.06730184919997437
-0.6112512063072354   -0.28602245449139113   -0.035990326213236105
-0.6112512063072354   -0.28602245449139113   -0.035990326213236105
-0.6112512063072354   -0.28602245449139113   -0.035990326213236105
-0.6112512063072354   -0.28602245449139113   -0.035990326213236105
-0.5299744569976792   -0.16215995696250463   -0.03222947003060639
-0.5299744569976792   -0.16215995696250463   -0.03222947003060639
-0.5299744569976792   -0.16215995696250463   -0.03222947003060639
-0.5299744569976792   -0.16215995696250463   -0.03222947003060639
-0.5495324917500946   -0.08427835298568212   0.07085914506675871
-0.5495324917500946   -0.08427835298568212   0.07085914506675871
-0.5495324917500946   -0.08427835298568212   0.07085914506675871
-0.5495324917500946   -0.08427835298568212   0.07085914506675871
-0.5094487997683432   -0.2687743430616012   -0.051552175603162914
-0.5094487997683432   -0.2687743430616012   -0.051552175603162914
-0.5094487997683432   -0.2687743430616012   -0.051552175603162914
-0.5094487997683432   -0.2687743430616012   -0.051552175603162914
-0.44004545640018705   -0.09246781235374335   0.07796066607175257
-0.44004545640018705   -0.09246781235374335   0.07796066607175257
-0.44004545640018705   -0.09246781235374335   0.07796066607175257
-0.44004545640018705   -0.09246781235374335   0.07796066607175257
-0.6005801230781306   -0.30246617505496465   -0.024751062823505504
-0.6005801230781306   -0.30246617505496465   -0.024751062823505504
-0.6005801230781306   -0.30246617505496465   -0.024751062823505504
-0.6005801230781306   -0.30246617505496465   -0.024751062823505504
-0.5274502400590023   -0.1830200873967992   -0.04129870181514379
-0.5274502400590023   -0.1830200873967992   -0.04129870181514379
-0.5274502400590023   -0.1830200873967992   -0.04129870181514379
-0.5274502400590023   -0.1830200873967992   -0.04129870181514379
-0.43258964808897066   0.060175107036910425   0.08390331708364052
-0.43258964808897066   0.060175107036910425   0.08390331708364052
-0.43258964808897066   0.060175107036910425   0.08390331708364052
-0.43258964808897066   0.060175107036910425   0.08390331708364052
-0.28204932624082346   -0.07583512197479705   -0.027518682357236243
-0.28204932624082346   -0.07583512197479705   -0.027518682357236243
-0.28204932624082346   -0.07583512197479705   -0.027518682357236243
-0.28204932624082346   -0.07583512197479705   -0.027518682357236243
-0.2446884081461357   0.071746797757088   0.08274894673221946
-0.2446884081461357   0.071746797757088   0.08274894673221946
-0.2446884081461357   0.071746797757088   0.08274894673221946
-0.2446884081461357   0.071746797757088   0.08274894673221946
-0.4770118500602896   -0.11744504880807523   -0.014197083006380302
-0.4770118500602896   -0.11744504880807523   -0.014197083006380302
-0.4770118500602896   -0.11744504880807523   -0.014197083006380302
-0.4770118500602896   -0.11744504880807523   -0.014197083006380302
-0.3543766739078644   -0.007308133182530416   -0.015465134859490054
-0.3543766739078644   -0.007308133182530416   -0.015465134859490054
-0.3543766739078644   -0.007308133182530416   -0.015465134859490054
-0.3543766739078644   -0.007308133182530416   -0.015465134859490054
-0.4248737626524013   0.0374746654619902   0.09157363976299605
-0.4248737626524013   0.0374746654619902   0.09157363976299605
-0.4248737626524013   0.0374746654619902   0.09157363976299605
-0.4248737626524013   0.0374746654619902   0.09157363976299605
-0.29727496828301614   -0.08362138924197464   -0.024815666953150833
-0.29727496828301614   -0.08362138924197464   -0.024815666953150833
-0.29727496828301614   -0.08362138924197464   -0.024815666953150833
-0.29727496828301614   -0.08362138924197464   -0.024815666953150833
-0.2548928572636997   0.05710671642747106   0.10415524211837511
-0.2548928572636997   0.05710671642747106   0.10415524211837511
-0.2548928572636997   0.05710671642747106   0.10415524211837511
-0.2548928572636997   0.05710671642747106   0.10415524211837511
-0.4740378443460523   -0.12490330090721076   -0.01836844064609843
-0.4740378443460523   -0.12490330090721076   -0.01836844064609843
-0.4740378443460523   -0.12490330090721076   -0.01836844064609843
-0.4740378443460523   -0.12490330090721076   -0.01836844064609843
-0.36409136064807907   -0.023318108719877655   -0.02141731822720036
-0.36409136064807907   -0.023318108719877655   -0.02141731822720036
-0.36409136064807907   -0.023318108719877655   -0.02141731822720036
-0.36409136064807907   -0.023318108719877655   -0.02141731822720036
-0.41939345135069084   0.024471328225914468   0.10547889519758337
-0.41939345135069084   0.024471328225914468   0.10547889519758337
-0.41939345135069084   0.024471328225914468   0.10547889519758337
-0.41939345135069084   0.024471328225914468   0.10547889519758337
-0.3132774600671087   -0.09600812251369667   -0.03465293295747151
-0.3132774600671087   -0.09600812251369667   -0.03465293295747151
-0.3132774600671087   -0.09600812251369667   -0.03465293295747151
-0.3132774600671087   -0.09600812251369667   -0.03465293295747151
-0.29192637032017954   0.01688200533830156   0.10837018632092062
-0.29192637032017954   0.01688200533830156   0.10837018632092062
-0.29192637032017954   0.01688200533830156   0.10837018632092062
-0.29192637032017954   0.01688200533830156   0.10837018632092062
-0.46650904120955455   -0.1313464292081192   -0.015478641120709152
-0.46650904120955455   -0.1313464292081192   -0.015478641120709152
-0.46650904120955455   -0.1313464292081192   -0.015478641120709152
-0.46650904120955455   -0.1313464292081192   -0.015478641120709152
-0.36846812084295244   -0.034761493678104834   -0.031313724912294255
-0.36846812084295244   -0.034761493678104834   -0.031313724912294255
-0.36846812084295244   -0.034761493678104834   -0.031313724912294255
-0.36846812084295244   -0.034761493678104834   -0.031313724912294255
-4.51484022992904   -0.637164447363195   -0.37364653337967085
-4.51484022992904   -0.637164447363195   -0.37364653337967085
-4.51484022992904   -0.637164447363195   -0.37364653337967085
-4.51484022992904   -0.637164447363195   -0.37364653337967085
-1.563304377951761   -2.4325352871169907   -0.29299689698827414
-1.563304377951761   -2.4325352871169907   -0.29299689698827414
-1.563304377951761   -2.4325352871169907   -0.29299689698827414
-1.563304377951761   -2.4325352871169907   -0.29299689698827414
-1.211965448610775   -0.1011887944811766   0.002059656057574945
-1.211965448610775   -0.1011887944811766   0.002059656057574945
-1.211965448610775   -0.1011887944811766   0.002059656057574945
-1.211965448610775   -0.1011887944811766   0.002059656057574945
-4.8133845399612465   -2.8649684160500755   -1.5356705912022643
-4.8133845399612465   -2.8649684160500755   -1.5356705912022643
-4.8133845399612465   -2.8649684160500755   -1.5356705912022643
-4.8133845399612465   -2.8649684160500755   -1.5356705912022643
-2.9503799327936187   -1.4260734068055774   -0.20769744396487572
-2.9503799327936187   -1.4260734068055774   -0.20769744396487572
-2.9503799327936187   -1.4260734068055774   -0.20769744396487572
-2.9503799327936187   -1.4260734068055774   -0.20769744396487572
-4.194757755306718   -0.7997168365231896   -0.5077882474565463
-4.194757755306718   -0.7997168365231896   -0.5077882474565463
-4.194757755306718   -0.7997168365231896   -0.5077882474565463
-4.194757755306718   -0.7997168365231896   -0.5077882474565463
-1.6871016301272257   -2.0229497708699897   -0.45186027513585736
-1.6871016301272257   -2.0229497708699897   -0.45186027513585736
-1.6871016301272257   -2.0229497708699897   -0.45186027513585736
-1.6871016301272257   -2.0229497708699897   -0.45186027513585736
-1.2354232307077786   -0.13571298865721557   0.046668453027362895
-1.2354232307077786   -0.13571298865721557   0.046668453027362895
-1.2354232307077786   -0.13571298865721557   0.046668453027362895
-1.2354232307077786   -0.13571298865721557   0.046668453027362895
-4.503574033722158   -2.5525879929353428   -1.4112324053315002
-4.503574033722158   -2.5525879929353428   -1.4112324053315002
-4.503574033722158   -2.5525879929353428   -1.4112324053315002
-4.503574033722158   -2.5525879929353428   -1.4112324053315002
-2.778335442496858   -1.2849520014339235   0.11321882081733481
-2.778335442496858   -1.2849520014339235   0.11321882081733481
-2.778335442496858   -1.2849520014339235   0.11321882081733481
-2.778335442496858   -1.2849520014339235   0.11321882081733481
-3.938703485206752   -0.7613302177503765   -0.3781374379394684
-3.938703485206752   -0.7613302177503765   -0.3781374379394684
-3.938703485206752   -0.7613302177503765   -0.3781374379394684
-3.938703485206752   -0.7613302177503765   -0.3781374379394684
-1.6409530379051838   -1.7676300225241846   -0.3490635490926821
-1.6409530379051838   -1.7676300225241846   -0.3490635490926821
-1.6409530379051838   -1.7676300225241846   -0.3490635490926821
-1.6409530379051838   -1.7676300225241846   -0.3490635490926821
-1.417370442282155   -0.3602346763937054   -0.07293241910986313
-1.417370442282155   -0.3602346763937054   -0.07293241910986313
-1.417370442282155   -0.3602346763937054   -0.07293241910986313
-1.417370442282155   -0.3602346763937054   -0.07293241910986313
-4.104272033952647   -2.141400817117114   -1.2491345702139522
-4.104272033952647   -2.141400817117114   -1.2491345702139522
-4.104272033952647   -2.141400817117114   -1.2491345702139522
-4.104272033952647   -2.141400817117114   -1.2491345702139522
-2.5729568758584334   -1.1132715907037103   0.4754439506634558
-2.5729568758584334   -1.1132715907037103   0.4754439506634558
-2.5729568758584334   -1.1132715907037103   0.4754439506634558
-2.5729568758584334   -1.1132715907037103   0.4754439506634558
-1.162084215228973   -0.6264208601012535   -0.09301051039008006
-1.162084215228973   -0.6264208601012535   -0.09301051039008006
-1.162084215228973   -0.6264208601012535   -0.09301051039008006
-1.162084215228973   -0.6264208601012535   -0.09301051039008006
-0.5342095313263013   -0.7594600364816354   -0.13184708449704935
-0.5342095313263013   -0.7594600364816354   -0.13184708449704935
-0.5342095313263013   -0.7594600364816354   -0.13184708449704935
-0.5342095313263013   -0.7594600364816354   -0.13184708449704935
-0.47312905668424454   -0.39868976280370366   0.012482332777854932
-0.47312905668424454   -0.39868976280370366   0.012482332777854932
-0.47312905668424454   -0.39868976280370366   0.012482332777854932
-0.47312905668424454   -0.39868976280370366   0.012482332777854932
-1.416114053844659   -1.1190169915412989   -0.0008551730517156186
-1.416114053844659   -1.1190169915412989   -0.0008551730517156186
-1.416114053844659   -1.1190169915412989   -0.0008551730517156186
-1.416114053844659   -1.1190169915412989   -0.0008551730517156186
-0.762043870429738   -0.5435245808793445   0.243066605902285
-0.762043870429738   -0.5435245808793445   0.243066605902285
-0.762043870429738   -0.5435245808793445   0.243066605902285
-0.762043870429738   -0.5435245808793445   0.243066605902285
-1.3206175568961878   -0.5826348878098317   -0.05975479204084215
-1.3206175568961878   -0.5826348878098317   -0.05975479204084215
-1.3206175568961878   -0.5826348878098317   -0.05975479204084215
-1.3206175568961878   -0.5826348878098317   -0.05975479204084215
-0.6082532566561019   -0.9746995695585596   -0.08712886032657624
-0.6082532566561019   -0.9746995695585596   -0.08712886032657624
-0.6082532566561019   -0.9746995695585596   -0.08712886032657624
-0.6082532566561019   -0.9746995695585596   -0.08712886032657624
-0.5101021850512768   -0.41328406865215206   0.01263264528959318
-0.5101021850512768   -0.41328406865215206   0.01263264528959318
-0.5101021850512768   -0.41328406865215206   0.01263264528959318
-0.5101021850512768   -0.41328406865215206   0.01263264528959318
-1.4837759486733455   -1.1035024506554945   -0.22730567480218197
-1.4837759486733455   -1.1035024506554945   -0.22730567480218197
-1.4837759486733455   -1.1035024506554945   -0.22730567480218197
-1.4837759486733455   -1.1035024506554945   -0.22730567480218197
-0.9068805644723112   -0.6983057155720089   0.11181317471313662
-0.9068805644723112   -0.6983057155720089   0.11181317471313662
-0.9068805644723112   -0.6983057155720089   0.11181317471313662
-0.9068805644723112   -0.6983057155720089   0.11181317471313662
-1.361571902889372   -0.6083851004877112   -0.1114027960501077
-1.361571902889372   -0.6083851004877112   -0.1114027960501077
-1.361571902889372   -0.6083851004877112   -0.1114027960501077
-1.361571902889372   -0.6083851004877112   -0.1114027960501077
-0.6285619596985016   -0.9046571476831882   -0.08829314891549445
-0.6285619596985016   -0.9046571476831882   -0.08829314891549445
-0.6285619596985016   -0.9046571476831882   -0.08829314891549445
-0.6285619596985016   -0.9046571476831882   -0.08829314891549445
-0.5668243807012703   -0.4270668599733112   0.01856657599651168
-0.5668243807012703   -0.4270668599733112   0.01856657599651168
-0.5668243807012703   -0.4270668599733112   0.01856657599651168
-0.5668243807012703   -0.4270668599733112   0.01856657599651168
-1.5847243495034764   -1.0713706872522248   -0.1985659443579482
-1.5847243495034764   -1.0713706872522248   -0.1985659443579482
-1.5847243495034764   -1.0713706872522248   -0.1985659443579482
-1.5847243495034764   -1.0713706872522248   -0.1985659443579482
-0.94762103795726   -0.6579489801986984   0.11847611513695314
-0.94762103795726   -0.6579489801986984   0.11847611513695314
-0.94762103795726   -0.6579489801986984   0.11847611513695314
-0.94762103795726   -0.6579489801986984   0.11847611513695314
-0.42503267617944507   -0.37271867223663246   0.02729582699222942
-0.42503267617944507   -0.37271867223663246   0.02729582699222942
-0.42503267617944507   -0.37271867223663246   0.02729582699222942
-0.42503267617944507   -0.37271867223663246   0.02729582699222942
-0.25702919561576787   -0.23198636083626958   -0.06411929757003085
-0.25702919561576787   -0.23198636083626958   -0.06411929757003085
-0.25702919561576787   -0.23198636083626958   -0.06411929757003085
-0.25702919561576787   -0.23198636083626958   -0.06411929757003085
-0.2501673633037491   -0.3324120622754526   0.027730015181785417
-0.2501673633037491   -0.3324120622754526   0.027730015181785417
-0.2501673633037491   -0.3324120622754526   0.027730015181785417
-0.2501673633037491   -0.3324120622754526   0.027730015181785417
-0.46628235319813977   -0.3213368925168627   -0.030637020078462265
-0.46628235319813977   -0.3213368925168627   -0.030637020078462265
-0.46628235319813977   -0.3213368925168627   -0.030637020078462265
-0.46628235319813977   -0.3213368925168627   -0.030637020078462265
-0.29558513646524437   -0.2656688872863506   0.1216743122061274
-0.29558513646524437   -0.2656688872863506   0.1216743122061274
-0.29558513646524437   -0.2656688872863506   0.1216743122061274
-0.29558513646524437   -0.2656688872863506   0.1216743122061274
-0.46504582759363333   -0.37507667923695426   0.029285394664161454
-0.46504582759363333   -0.37507667923695426   0.029285394664161454
-0.46504582759363333   -0.37507667923695426   0.029285394664161454
-0.46504582759363333   -0.37507667923695426   0.029285394664161454
-0.2552565706855765   -0.282524957332682   -0.04760312667012226
-0.2552565706855765   -0.282524957332682   -0.04760312667012226
-0.2552565706855765   -0.282524957332682   -0.04760312667012226
-0.2552565706855765   -0.282524957332682   -0.04760312667012226
-0.25223122442135076   -0.3424154308833398   0.024535074885551372
-0.25223122442135076   -0.3424154308833398   0.024535074885551372
-0.25223122442135076   -0.3424154308833398   0.024535074885551372
-0.25223122442135076   -0.3424154308833398   0.024535074885551372
-0.49397971735693635   -0.37558737194652153   0.055548287055664905
-0.49397971735693635   -0.37558737194652153   0.055548287055664905
-0.49397971735693635   -0.37558737194652153   0.055548287055664905
-0.49397971735693635   -0.37558737194652153   0.055548287055664905
-0.3201720003043014   -0.29577254747864135   0.10380138020068017
-0.3201720003043014   -0.29577254747864135   0.10380138020068017
-0.3201720003043014   -0.29577254747864135   0.10380138020068017
-0.3201720003043014   -0.29577254747864135   0.10380138020068017
-0.4998386050999462   -0.3889255222644599   0.03959199865854639
-0.4998386050999462   -0.3889255222644599   0.03959199865854639
-0.4998386050999462   -0.3889255222644599   0.03959199865854639
-0.4998386050999462   -0.3889255222644599   0.03959199865854639
-0.2675571570568043   -0.35026210094386606   -0.04424791823118981
-0.2675571570568043   -0.35026210094386606   -0.04424791823118981
-0.2675571570568043   -0.35026210094386606   -0.04424791823118981
-0.2675571570568043   -0.35026210094386606   -0.04424791823118981
-0.25377565989370804   -0.35370165925949126   0.03436273297247407
-0.25377565989370804   -0.35370165925949126   0.03436273297247407
-0.25377565989370804   -0.35370165925949126   0.03436273297247407
-0.25377565989370804   -0.35370165925949126   0.03436273297247407
-0.5757937746824491   -0.4637826429225329   0.010435389039847559
-0.5757937746824491   -0.4637826429225329   0.010435389039847559
-0.5757937746824491   -0.4637826429225329   0.010435389039847559
-0.5757937746824491   -0.4637826429225329   0.010435389039847559
-0.356188476650953   -0.33778810240039686   0.05006229726576218
-0.356188476650953   -0.33778810240039686   0.05006229726576218
-0.356188476650953   -0.33778810240039686   0.05006229726576218
-0.356188476650953   -0.33778810240039686   0.05006229726576218
-0.21305033052818584   -0.1482059726336492   0.07199463966525893
-0.21305033052818584   -0.1482059726336492   0.07199463966525893
-0.21305033052818584   -0.1482059726336492   0.07199463966525893
-0.21305033052818584   -0.1482059726336492   0.07199463966525893
-0.14706806458389227   0.004831734886576164   -0.014247175503461329
-0.14706806458389227   0.004831734886576164   -0.014247175503461329
-0.14706806458389227   0.004831734886576164   -0.014247175503461329
-0.14706806458389227   0.004831734886576164   -0.014247175503461329
-0.13973540738734602   -0.15973636027444021   0.04479994323493562
-0.13973540738734602   -0.15973636027444021   0.04479994323493562
-0.13973540738734602   -0.15973636027444021   0.04479994323493562
-0.13973540738734602   -0.15973636027444021   0.04479994323493562
-0.19581467670390698   -0.022866243728376607   -0.01005237036607997
-0.19581467670390698   -0.022866243728376607   -0.01005237036607997
-0.19581467670390698   -0.022866243728376607   -0.01005237036607997
-0.19581467670390698   -0.022866243728376607   -0.01005237036607997
-0.1609367689865007   -0.07893251006561655   0.03572386564422673
-0.1609367689865007   -0.07893251006561655   0.03572386564422673
-0.1609367689865007   -0.07893251006561655   0.03572386564422673
-0.1609367689865007   -0.07893251006561655   0.03572386564422673
-0.20950241028820316   -0.16910100492065522   0.06774372290471771
-0.20950241028820316   -0.16910100492065522   0.06774372290471771
-0.20950241028820316   -0.16910100492065522   0.06774372290471771
-0.20950241028820316   -0.16910100492065522   0.06774372290471771
-0.12223396186715478   -0.009687887146266578   -0.017741302292281984
-0.12223396186715478   -0.009687887146266578   -0.017741302292281984
-0.12223396186715478   -0.009687887146266578   -0.017741302292281984
-0.12223396186715478   -0.009687887146266578   -0.017741302292281984
-0.12735733634030894   -0.17380828232089918   0.041186664672312745
-0.12735733634030894   -0.17380828232089918   0.041186664672312745
-0.12735733634030894   -0.17380828232089918   0.041186664672312745
-0.12735733634030894   -0.17380828232089918   0.041186664672312745
-0.19635286909397617   -0.04930932039637485   0.010820741035459325
-0.19635286909397617   -0.04930932039637485   0.010820741035459325
-0.19635286909397617   -0.04930932039637485   0.010820741035459325
-0.19635286909397617   -0.04930932039637485   0.010820741035459325
-0.14679099007614932   -0.0902888043581212   0.043146444052407154
-0.14679099007614932   -0.0902888043581212   0.043146444052407154
-0.14679099007614932   -0.0902888043581212   0.043146444052407154
-0.14679099007614932   -0.0902888043581212   0.043146444052407154
-0.20981571224204743   -0.18308154121330056   0.07727874611204423
-0.20981571224204743   -0.18308154121330056   0.07727874611204423
-0.20981571224204743   -0.18308154121330056   0.07727874611204423
-0.20981571224204743   -0.18308154121330056   0.07727874611204423
-0.11482989954781586   -0.04097146785954906   -0.02901296582657202
-0.11482989954781586   -0.04097146785954906   -0.02901296582657202
-0.11482989954781586   -0.04097146785954906   -0.02901296582657202
-0.11482989954781586   -0.04097146785954906   -0.02901296582657202
-0.10522570150132395   -0.18941209962749286   0.045164892737062236
-0.10522570150132395   -0.18941209962749286   0.045164892737062236
-0.10522570150132395   -0.18941209962749286   0.045164892737062236
-0.10522570150132395   -0.18941209962749286   0.045164892737062236
-0.21002565885394153   -0.11491643557195051   0.014327514483765888
-0.21002565885394153   -0.11491643557195051   0.014327514483765888
-0.21002565885394153   -0.11491643557195051   0.014327514483765888
-0.21002565885394153   -0.11491643557195051   0.014327514483765888
-0.1401022236019019   -0.11429902432273159   0.03799842191430021
-0.1401022236019019   -0.11429902432273159   0.03799842191430021
-0.1401022236019019   -0.11429902432273159   0.03799842191430021
-0.1401022236019019   -0.11429902432273159   0.03799842191430021
-0.13610198036943058   -0.02671576686498625   0.0721307473204095
-0.13610198036943058   -0.02671576686498625   0.0721307473204095
-0.13610198036943058   -0.02671576686498625   0.0721307473204095
-0.13610198036943058   -0.02671576686498625   0.0721307473204095
-0.022133207113034237   0.01679667181984689   -0.0014549426581006242
-0.022133207113034237   0.01679667181984689   -0.0014549426581006242
-0.022133207113034237   0.01679667181984689   -0.0014549426581006242
-0.022133207113034237   0.01679667181984689   -0.0014549426581006242
0.010003270222107178   -0.008323787379435356   0.04439410385442223
0.010003270222107178   -0.008323787379435356   0.04439410385442223
0.010003270222107178   -0.008323787379435356   0.04439410385442223
0.010003270222107178   -0.008323787379435356   0.04439410385442223
-0.11535700404205881   0.013189091716117728   -0.006233492029186324
-0.11535700404205881   0.013189091716117728   -0.006233492029186324
-0.11535700404205881   0.013189091716117728   -0.006233492029186324
-0.11535700404205881   0.013189091716117728   -0.006233492029186324
-0.06711548315920596   -0.004849600875345457   -0.0057832622694381705
-0.06711548315920596   -0.004849600875345457   -0.0057832622694381705
-0.06711548315920596   -0.004849600875345457   -0.0057832622694381705
-0.06711548315920596   -0.004849600875345457   -0.0057832622694381705
-0.1068822138077686   -0.025594828987182076   0.07492437984556444
-0.1068822138077686   -0.025594828987182076   0.07492437984556444
-0.1068822138077686   -0.025594828987182076   0.07492437984556444
-0.1068822138077686   -0.025594828987182076   0.07492437984556444
0.0056369067331553235   0.03456856006920278   -0.02033006103897518
0.0056369067331553235   0.03456856006920278   -0.02033006103897518
0.0056369067331553235   0.03456856006920278   -0.02033006103897518
0.0056369067331553235   0.03456856006920278   -0.02033006103897518
0.026680053037233267   -0.010152198197370049   0.05466917551981958
0.026680053037233267   -0.010152198197370049   0.05466917551981958
0.026680053037233267   -0.010152198197370049   0.05466917551981958
0.026680053037233267   -0.010152198197370049   0.05466917551981958
-0.10049905169693554   0.010938790331054507   -0.009268984762773914
-0.10049905169693554   0.010938790331054507   -0.009268984762773914
-0.10049905169693554   0.010938790331054507   -0.009268984762773914
-0.10049905169693554   0.010938790331054507   -0.009268984762773914
-0.04282078924961312   -0.0006852512213513864   0.007303714584888114
-0.04282078924961312   -0.0006852512213513864   0.007303714584888114
-0.04282078924961312   -0.0006852512213513864   0.007303714584888114
-0.04282078924961312   -0.0006852512213513864   0.007303714584888114
-0.09046156727453374   -0.02845242652302454   0.08030965420331414
-0.09046156727453374   -0.02845242652302454   0.08030965420331414
-0.09046156727453374   -0.02845242652302454   0.08030965420331414
-0.09046156727453374   -0.02845242652302454   0.08030965420331414
0.020419854439295986   0.033016304481173514   -0.019800320148410388
0.020419854439295986   0.033016304481173514   -0.019800320148410388
0.020419854439295986   0.033016304481173514   -0.019800320148410388
0.020419854439295986   0.033016304481173514   -0.019800320148410388
0.0441165997614095   -0.015541741757906527   0.05291915515939016
0.0441165997614095   -0.015541741757906527   0.05291915515939016
0.0441165997614095   -0.015541741757906527   0.05291915515939016
0.0441165997614095   -0.015541741757906527   0.05291915515939016
-0.07601734389751988   0.012375618544327248   -0.01058103741573756
-0.07601734389751988   0.012375618544327248   -0.01058103741573756
-0.07601734389751988   0.012375618544327248   -0.01058103741573756
-0.07601734389751988   0.012375618544327248   -0.01058103741573756
-0.020959370213464716   0.0021774337238900953   0.019047649865201938
-0.020959370213464716   0.0021774337238900953   0.019047649865201938
-0.020959370213464716   0.0021774337238900953   0.019047649865201938
-0.020959370213464716   0.0021774337238900953   0.019047649865201938
              </DataArray>   
             <DataArray type="Float64" NumberOfComponents="3" Name="Displacements" format="ascii">   
0.0   0.0   0.0
-0.01254190877609424   -0.00820962144938382   -0.004200227132589074
0.0   0.0   0.0
0.0   0.0   0.0
-0.01254190877609424   -0.00820962144938382   -0.004200227132589074
-0.007982801700152161   -0.007374255582766723   -0.0030857086296784205
0.0   0.0   0.0
-0.007826432608401095   -0.0077454109553227995   -0.0025847095449207528
0.0   0.0   0.0
0.0   0.0   0.0
-0.007826432608401095   -0.0077454109553227995   -0.0025847095449207528
0.0   0.0   0.0
0.0   0.0   0.0
-0.007826432608401095   -0.0077454109553227995   -0.0025847095449207528
-0.013127562054236505   -0.008747069958750414   -0.003371512285422383
-0.01254190877609424   -0.00820962144938382   -0.004200227132589074
0.0   0.0   0.0
-0.007826432608401095   -0.0077454109553227995   -0.0025847095449207528
-0.01254190877609424   -0.00820962144938382   -0.004200227132589074
0.0   0.0   0.0
0.0   0.0   0.0
-0.013127562054236505   -0.008747069958750414   -0.003371512285422383
0.0   0.0   0.0
0.0   0.0   0.0
-0.013127562054236505   -0.008747069958750414   -0.003371512285422383
-0.007826432608401095   -0.0077454109553227995   -0.0025847095449207528
0.0   0.0   0.0
-0.007850131815742446   -0.007935429402695312   -0.0020842466153083903
0.0   0.0   0.0
0.0   0.0   0.0
-0.007850131815742446   -0.007935429402695312   -0.0020842466153083903
0.0   0.0   0.0
0.0   0.0   0.0
-0.007850131815742446   -0.007935429402695312   -0.0020842466153083903
-0.013539607666126805   -0.00900833195956999   -0.0025771224942091587
-0.013127562054236505   -0.008747069958750414   -0.003371512285422383
0.0   0.0   0.0
-0.007850131815742446   -0.007935429402695312   -0.0020842466153083903
-0.013127562054236505   -0.008747069958750414   -0.003371512285422383
0.0   0.0   0.0
0.0   0.0   0.0
-0.013539607666126805   -0.00900833195956999   -0.0025771224942091587
0.0   0.0   0.0
0.0   0.0   0.0
-0.013539607666126805   -0.00900833195956999   -0.0025771224942091587
-0.007850131815742446   -0.007935429402695312   -0.0020842466153083903
0.0   0.0   0.0
-0.007847840014902654   -0.007983999959842931   -0.0015665299840370746
0.0   0.0   0.0
0.0   0.0   0.0
-0.007847840014902654   -0.007983999959842931   -0.0015665299840370746
0.0   0.0   0.0
0.0   0.0   0.0
-0.007847840014902654   -0.007983999959842931   -0.0015665299840370746
-0.01442565252963072   -0.009205556076747373   -0.0016552882296246403
-0.013539607666126805   -0.00900833195956999   -0.0025771224942091587
0.0   0.0   0.0
-0.007847840014902654   -0.007983999959842931   -0.0015665299840370746
-0.013539607666126805   -0.00900833195956999   -0.0025771224942091587
0.0   0.0   0.0
0.0   0.0   0.0
-0.007982801700152161   -0.007374255582766723   -0.0030857086296784205
0.0   0.0   0.0
0.0   0.0   0.0
-0.007982801700152161   -0.007374255582766723   -0.0030857086296784205
-0.0036335292283945614   -0.007067543581896134   -0.002346355594132042
0.0   0.0   0.0
-0.0034962630193021683   -0.00730931603152914   -0.0021100347981286446
0.0   0.0   0.0
0.0   0.0   0.0
-0.0034962630193021683   -0.00730931603152914   -0.0021100347981286446
0.0   0.0   0.0
0.0   0.0   0.0
-0.0034962630193021683   -0.00730931603152914   -0.0021100347981286446
-0.007826432608401095   -0.0077454109553227995   -0.0025847095449207528
-0.007982801700152161   -0.007374255582766723   -0.0030857086296784205
0.0   0.0   0.0
-0.0034962630193021683   -0.00730931603152914   -0.0021100347981286446
-0.007982801700152161   -0.007374255582766723   -0.0030857086296784205
0.0   0.0   0.0
0.0   0.0   0.0
-0.007826432608401095   -0.0077454109553227995   -0.0025847095449207528
0.0   0.0   0.0
0.0   0.0   0.0
-0.007826432608401095   -0.0077454109553227995   -0.0025847095449207528
-0.0034962630193021683   -0.00730931603152914   -0.0021100347981286446
0.0   0.0   0.0
-0.003419835282040607   -0.00740140419173049   -0.0018797026360580775
0.0   0.0   0.0
0.0   0.0   0.0
-0.003419835282040607   -0.00740140419173049   -0.0018797026360580775
0.0   0.0   0.0
0.0   0.0   0.0
-0.003419835282040607   -0.00740140419173049   -0.0018797026360580775
-0.007850131815742446   -0.007935429402695312   -0.0020842466153083903
-0.007826432608401095   -0.0077454109553227995   -0.0025847095449207528
0.0   0.0   0.0
-0.003419835282040607   -0.00740140419173049   -0.0018797026360580775
-0.007826432608401095   -0.0077454109553227995   -0.0025847095449207528
0.0   0.0   0.0
0.0   0.0   0.0
-0.007850131815742446   -0.007935429402695312   -0.0020842466153083903
0.0   0.0   0.0
0.0   0.0   0.0
-0.007850131815742446   -0.007935429402695312   -0.0020842466153083903
-0.003419835282040607   -0.00740140419173049   -0.0018797026360580775
0.0   0.0   0.0
-0.003350510658727883   -0.0073628308942319965   -0.0016413903636669747
0.0   0.0   0.0
0.0   0.0   0.0
-0.003350510658727883   -0.0073628308942319965   -0.0016413903636669747
0.0   0.0   0.0
0.0   0.0   0.0
-0.003350510658727883   -0.0073628308942319965   -0.0016413903636669747
-0.007847840014902654   -0.007983999959842931   -0.0015665299840370746
-0.007850131815742446   -0.007935429402695312   -0.0020842466153083903
0.0   0.0   0.0
-0.003350510658727883   -0.0073628308942319965   -0.0016413903636669747
-0.007850131815742446   -0.007935429402695312   -0.0020842466153083903
0.0   0.0   0.0
0.0   0.0   0.0
-0.0036335292283945614   -0.007067543581896134   -0.002346355594132042
0.0   0.0   0.0
0.0   0.0   0.0
-0.0036335292283945614   -0.007067543581896134   -0.002346355594132042
0.00047710695157943177   -0.007106587527768239   -0.0018747764431201546
0.0   0.0   0.0
0.000563969410051845   -0.007232112517678485   -0.001907945391192589
0.0   0.0   0.0
0.0   0.0   0.0
0.000563969410051845   -0.007232112517678485   -0.001907945391192589
0.0   0.0   0.0
0.0   0.0   0.0
0.000563969410051845   -0.007232112517678485   -0.001907945391192589
-0.0034962630193021683   -0.00730931603152914   -0.0021100347981286446
-0.0036335292283945614   -0.007067543581896134   -0.002346355594132042
0.0   0.0   0.0
0.000563969410051845   -0.007232112517678485   -0.001907945391192589
-0.0036335292283945614   -0.007067543581896134   -0.002346355594132042
0.0   0.0   0.0
0.0   0.0   0.0
-0.0034962630193021683   -0.00730931603152914   -0.0021100347981286446
0.0   0.0   0.0
0.0   0.0   0.0
-0.0034962630193021683   -0.00730931603152914   -0.0021100347981286446
0.000563969410051845   -0.007232112517678485   -0.001907945391192589
0.0   0.0   0.0
0.0006323116833019162   -0.007221890854302283   -0.0019377490808992063
0.0   0.0   0.0
0.0   0.0   0.0
0.0006323116833019162   -0.007221890854302283   -0.0019377490808992063
0.0   0.0   0.0
0.0   0.0   0.0
0.0006323116833019162   -0.007221890854302283   -0.0019377490808992063
-0.003419835282040607   -0.00740140419173049   -0.0018797026360580775
-0.0034962630193021683   -0.00730931603152914   -0.0021100347981286446
0.0   0.0   0.0
0.0006323116833019162   -0.007221890854302283   -0.0019377490808992063
-0.0034962630193021683   -0.00730931603152914   -0.0021100347981286446
0.0   0.0   0.0
0.0   0.0   0.0
-0.003419835282040607   -0.00740140419173049   -0.0018797026360580775
0.0   0.0   0.0
0.0   0.0   0.0
-0.003419835282040607   -0.00740140419173049   -0.0018797026360580775
0.0006323116833019162   -0.007221890854302283   -0.0019377490808992063
0.0   0.0   0.0
0.0007248067248298028   -0.007064758654898858   -0.001968190021213326
0.0   0.0   0.0
0.0   0.0   0.0
0.0007248067248298028   -0.007064758654898858   -0.001968190021213326
0.0   0.0   0.0
0.0   0.0   0.0
0.0007248067248298028   -0.007064758654898858   -0.001968190021213326
-0.003350510658727883   -0.0073628308942319965   -0.0016413903636669747
-0.003419835282040607   -0.00740140419173049   -0.0018797026360580775
0.0   0.0   0.0
0.0007248067248298028   -0.007064758654898858   -0.001968190021213326
-0.003419835282040607   -0.00740140419173049   -0.0018797026360580775
0.0   0.0   0.0
0.0   0.0   0.0
0.00047710695157943177   -0.007106587527768239   -0.0018747764431201546
0.0   0.0   0.0
0.0   0.0   0.0
0.00047710695157943177   -0.007106587527768239   -0.0018747764431201546
0.004937755876191638   -0.007454071381065069   -0.0016409902150895078
0.0   0.0   0.0
0.0049444163984518836   -0.0074943445699732604   -0.0019577079085763196
0.0   0.0   0.0
0.0   0.0   0.0
0.0049444163984518836   -0.0074943445699732604   -0.0019577079085763196
0.0   0.0   0.0
0.0   0.0   0.0
0.0049444163984518836   -0.0074943445699732604   -0.0019577079085763196
0.000563969410051845   -0.007232112517678485   -0.001907945391192589
0.00047710695157943177   -0.007106587527768239   -0.0018747764431201546
0.0   0.0   0.0
0.0049444163984518836   -0.0074943445699732604   -0.0019577079085763196
0.00047710695157943177   -0.007106587527768239   -0.0018747764431201546
0.0   0.0   0.0
0.0   0.0   0.0
0.000563969410051845   -0.007232112517678485   -0.001907945391192589
0.0   0.0   0.0
0.0   0.0   0.0
0.000563969410051845   -0.007232112517678485   -0.001907945391192589
0.0049444163984518836   -0.0074943445699732604   -0.0019577079085763196
0.0   0.0   0.0
0.004921413515958619   -0.0073873129737471255   -0.0022613278737214394
0.0   0.0   0.0
0.0   0.0   0.0
0.004921413515958619   -0.0073873129737471255   -0.0022613278737214394
0.0   0.0   0.0
0.0   0.0   0.0
0.004921413515958619   -0.0073873129737471255   -0.0022613278737214394
0.0006323116833019162   -0.007221890854302283   -0.0019377490808992063
0.000563969410051845   -0.007232112517678485   -0.001907945391192589
0.0   0.0   0.0
0.004921413515958619   -0.0073873129737471255   -0.0022613278737214394
0.000563969410051845   -0.007232112517678485   -0.001907945391192589
0.0   0.0   0.0
0.0   0.0   0.0
0.0006323116833019162   -0.007221890854302283   -0.0019377490808992063
0.0   0.0   0.0
0.0   0.0   0.0
0.0006323116833019162   -0.007221890854302283   -0.0019377490808992063
0.004921413515958619   -0.0073873129737471255   -0.0022613278737214394
0.0   0.0   0.0
0.005014971305356099   -0.007100023052020305   -0.0025589972735942275
0.0   0.0   0.0
0.0   0.0   0.0
0.005014971305356099   -0.007100023052020305   -0.0025589972735942275
0.0   0.0   0.0
0.0   0.0   0.0
0.005014971305356099   -0.007100023052020305   -0.0025589972735942275
0.0007248067248298028   -0.007064758654898858   -0.001968190021213326
0.0006323116833019162   -0.007221890854302283   -0.0019377490808992063
0.0   0.0   0.0
0.005014971305356099   -0.007100023052020305   -0.0025589972735942275
0.0006323116833019162   -0.007221890854302283   -0.0019377490808992063
0.0   0.0   0.0
0.0   0.0   0.0
0.004937755876191638   -0.007454071381065069   -0.0016409902150895078
0.0   0.0   0.0
0.0   0.0   0.0
0.004937755876191638   -0.007454071381065069   -0.0016409902150895078
0.011136481639015145   -0.00833408576795449   -0.0015469457503536877
0.0   0.0   0.0
0.010456200191985942   -0.008243768501964498   -0.0022643964979262425
0.0   0.0   0.0
0.0   0.0   0.0
0.010456200191985942   -0.008243768501964498   -0.0022643964979262425
0.0   0.0   0.0
0.0   0.0   0.0
0.010456200191985942   -0.008243768501964498   -0.0022643964979262425
0.0049444163984518836   -0.0074943445699732604   -0.0019577079085763196
0.004937755876191638   -0.007454071381065069   -0.0016409902150895078
0.0   0.0   0.0
0.010456200191985942   -0.008243768501964498   -0.0022643964979262425
0.004937755876191638   -0.007454071381065069   -0.0016409902150895078
0.0   0.0   0.0
0.0   0.0   0.0
0.0049444163984518836   -0.0074943445699732604   -0.0019577079085763196
0.0   0.0   0.0
0.0   0.0   0.0
0.0049444163984518836   -0.0074943445699732604   -0.0019577079085763196
0.010456200191985942   -0.008243768501964498   -0.0022643964979262425
0.0   0.0   0.0
0.010141670130297126   -0.008072356019421245   -0.002870924459538466
0.0   0.0   0.0
0.0   0.0   0.0
0.010141670130297126   -0.008072356019421245   -0.002870924459538466
0.0   0.0   0.0
0.0   0.0   0.0
0.010141670130297126   -0.008072356019421245   -0.002870924459538466
0.004921413515958619   -0.0073873129737471255   -0.0022613278737214394
0.0049444163984518836   -0.0074943445699732604   -0.0019577079085763196
0.0   0.0   0.0
0.010141670130297126   -0.008072356019421245   -0.002870924459538466
0.0049444163984518836   -0.0074943445699732604   -0.0019577079085763196
0.0   0.0   0.0
0.0   0.0   0.0
0.004921413515958619   -0.0073873129737471255   -0.0022613278737214394
0.0   0.0   0.0
0.0   0.0   0.0
0.004921413515958619   -0.0073873129737471255   -0.0022613278737214394
0.010141670130297126   -0.008072356019421245   -0.002870924459538466
0.0   0.0   0.0
0.009674700074628928   -0.007633244558488211   -0.0035123906780908207
0.0   0.0   0.0
0.0   0.0   0.0
0.009674700074628928   -0.007633244558488211   -0.0035123906780908207
0.0   0.0   0.0
0.0   0.0   0.0
0.009674700074628928   -0.007633244558488211   -0.0035123906780908207
0.005014971305356099   -0.007100023052020305   -0.0025589972735942275
0.004921413515958619   -0.0073873129737471255   -0.0022613278737214394
0.0   0.0   0.0
0.009674700074628928   -0.007633244558488211   -0.0035123906780908207
0.004921413515958619   -0.0073873129737471255   -0.0022613278737214394
0.0   0.0   0.0
-0.01254190877609424   -0.00820962144938382   -0.004200227132589074
-0.023439828784019352   -0.022944174742844565   -0.005658117828890978
-0.007982801700152161   -0.007374255582766723   -0.0030857086296784205
-0.013127562054236505   -0.008747069958750414   -0.003371512285422383
-0.023439828784019352   -0.022944174742844565   -0.005658117828890978
-0.014961388985135667   -0.0221923621704044   -0.004655835487557904
-0.007982801700152161   -0.007374255582766723   -0.0030857086296784205
-0.014981508968310157   -0.022572388535423347   -0.004192086075321425
-0.013127562054236505   -0.008747069958750414   -0.003371512285422383
-0.007826432608401095   -0.0077454109553227995   -0.0025847095449207528
-0.014981508968310157   -0.022572388535423347   -0.004192086075321425
-0.007982801700152161   -0.007374255582766723   -0.0030857086296784205
-0.013127562054236505   -0.008747069958750414   -0.003371512285422383
-0.014981508968310157   -0.022572388535423347   -0.004192086075321425
-0.02414534824400849   -0.02347420459506847   -0.004904695786799916
-0.023439828784019352   -0.022944174742844565   -0.005658117828890978
-0.013127562054236505   -0.008747069958750414   -0.003371512285422383
-0.014981508968310157   -0.022572388535423347   -0.004192086075321425
-0.023439828784019352   -0.022944174742844565   -0.005658117828890978
-0.007982801700152161   -0.007374255582766723   -0.0030857086296784205
-0.013127562054236505   -0.008747069958750414   -0.003371512285422383
-0.02414534824400849   -0.02347420459506847   -0.004904695786799916
-0.007826432608401095   -0.0077454109553227995   -0.0025847095449207528
-0.013539607666126805   -0.00900833195956999   -0.0025771224942091587
-0.02414534824400849   -0.02347420459506847   -0.004904695786799916
-0.014981508968310157   -0.022572388535423347   -0.004192086075321425
-0.007826432608401095   -0.0077454109553227995   -0.0025847095449207528
-0.015043138929010427   -0.02280383252941096   -0.0037462831055973594
-0.013539607666126805   -0.00900833195956999   -0.0025771224942091587
-0.007850131815742446   -0.007935429402695312   -0.0020842466153083903
-0.015043138929010427   -0.02280383252941096   -0.0037462831055973594
-0.007826432608401095   -0.0077454109553227995   -0.0025847095449207528
-0.013539607666126805   -0.00900833195956999   -0.0025771224942091587
-0.015043138929010427   -0.02280383252941096   -0.0037462831055973594
-0.02463656906414488   -0.02377332877879347   -0.004166747606920634
-0.02414534824400849   -0.02347420459506847   -0.004904695786799916
-0.013539607666126805   -0.00900833195956999   -0.0025771224942091587
-0.015043138929010427   -0.02280383252941096   -0.0037462831055973594
-0.02414534824400849   -0.02347420459506847   -0.004904695786799916
-0.007826432608401095   -0.0077454109553227995   -0.0025847095449207528
-0.013539607666126805   -0.00900833195956999   -0.0025771224942091587
-0.02463656906414488   -0.02377332877879347   -0.004166747606920634
-0.007850131815742446   -0.007935429402695312   -0.0020842466153083903
-0.01442565252963072   -0.009205556076747373   -0.0016552882296246403
-0.02463656906414488   -0.02377332877879347   -0.004166747606920634
-0.015043138929010427   -0.02280383252941096   -0.0037462831055973594
-0.007850131815742446   -0.007935429402695312   -0.0020842466153083903
-0.015001046121502003   -0.02292356589770293   -0.003328837767732248
-0.01442565252963072   -0.009205556076747373   -0.0016552882296246403
-0.007847840014902654   -0.007983999959842931   -0.0015665299840370746
-0.015001046121502003   -0.02292356589770293   -0.003328837767732248
-0.007850131815742446   -0.007935429402695312   -0.0020842466153083903
-0.01442565252963072   -0.009205556076747373   -0.0016552882296246403
-0.015001046121502003   -0.02292356589770293   -0.003328837767732248
-0.025217284507378642   -0.02394659509188403   -0.003494999897759863
-0.02463656906414488   -0.02377332877879347   -0.004166747606920634
-0.01442565252963072   -0.009205556076747373   -0.0016552882296246403
-0.015001046121502003   -0.02292356589770293   -0.003328837767732248
-0.02463656906414488   -0.02377332877879347   -0.004166747606920634
-0.007850131815742446   -0.007935429402695312   -0.0020842466153083903
-0.007982801700152161   -0.007374255582766723   -0.0030857086296784205
-0.014961388985135667   -0.0221923621704044   -0.004655835487557904
-0.0036335292283945614   -0.007067543581896134   -0.002346355594132042
-0.007826432608401095   -0.0077454109553227995   -0.0025847095449207528
-0.014961388985135667   -0.0221923621704044   -0.004655835487557904
-0.0069378069730825056   -0.021842550476910298   -0.00397141818657391
-0.0036335292283945614   -0.007067543581896134   -0.002346355594132042
-0.006880450140345122   -0.022084626427369903   -0.0037340005783403412
-0.007826432608401095   -0.0077454109553227995   -0.0025847095449207528
-0.0034962630193021683   -0.00730931603152914   -0.0021100347981286446
-0.006880450140345122   -0.022084626427369903   -0.0037340005783403412
-0.0036335292283945614   -0.007067543581896134   -0.002346355594132042
-0.007826432608401095   -0.0077454109553227995   -0.0025847095449207528
-0.006880450140345122   -0.022084626427369903   -0.0037340005783403412
-0.014981508968310157   -0.022572388535423347   -0.004192086075321425
-0.014961388985135667   -0.0221923621704044   -0.004655835487557904
-0.007826432608401095   -0.0077454109553227995   -0.0025847095449207528
-0.006880450140345122   -0.022084626427369903   -0.0037340005783403412
-0.014961388985135667   -0.0221923621704044   -0.004655835487557904
-0.0036335292283945614   -0.007067543581896134   -0.002346355594132042
-0.007826432608401095   -0.0077454109553227995   -0.0025847095449207528
-0.014981508968310157   -0.022572388535423347   -0.004192086075321425
-0.0034962630193021683   -0.00730931603152914   -0.0021100347981286446
-0.007850131815742446   -0.007935429402695312   -0.0020842466153083903
-0.014981508968310157   -0.022572388535423347   -0.004192086075321425
-0.006880450140345122   -0.022084626427369903   -0.0037340005783403412
-0.0034962630193021683   -0.00730931603152914   -0.0021100347981286446
-0.006829904095593703   -0.02220194992647401   -0.003518671049943534
-0.007850131815742446   -0.007935429402695312   -0.0020842466153083903
-0.003419835282040607   -0.00740140419173049   -0.0018797026360580775
-0.006829904095593703   -0.02220194992647401   -0.003518671049943534
-0.0034962630193021683   -0.00730931603152914   -0.0021100347981286446
-0.007850131815742446   -0.007935429402695312   -0.0020842466153083903
-0.006829904095593703   -0.02220194992647401   -0.003518671049943534
-0.015043138929010427   -0.02280383252941096   -0.0037462831055973594
-0.014981508968310157   -0.022572388535423347   -0.004192086075321425
-0.007850131815742446   -0.007935429402695312   -0.0020842466153083903
-0.006829904095593703   -0.02220194992647401   -0.003518671049943534
-0.014981508968310157   -0.022572388535423347   -0.004192086075321425
-0.0034962630193021683   -0.00730931603152914   -0.0021100347981286446
-0.007850131815742446   -0.007935429402695312   -0.0020842466153083903
-0.015043138929010427   -0.02280383252941096   -0.0037462831055973594
-0.003419835282040607   -0.00740140419173049   -0.0018797026360580775
-0.007847840014902654   -0.007983999959842931   -0.0015665299840370746
-0.015043138929010427   -0.02280383252941096   -0.0037462831055973594
-0.006829904095593703   -0.02220194992647401   -0.003518671049943534
-0.003419835282040607   -0.00740140419173049   -0.0018797026360580775
-0.006753308945231675   -0.022198949748600035   -0.0033310759273624045
-0.007847840014902654   -0.007983999959842931   -0.0015665299840370746
-0.003350510658727883   -0.0073628308942319965   -0.0016413903636669747
-0.006753308945231675   -0.022198949748600035   -0.0033310759273624045
-0.003419835282040607   -0.00740140419173049   -0.0018797026360580775
-0.007847840014902654   -0.007983999959842931   -0.0015665299840370746
-0.006753308945231675   -0.022198949748600035   -0.0033310759273624045
-0.015001046121502003   -0.02292356589770293   -0.003328837767732248
-0.015043138929010427   -0.02280383252941096   -0.0037462831055973594
-0.007847840014902654   -0.007983999959842931   -0.0015665299840370746
-0.006753308945231675   -0.022198949748600035   -0.0033310759273624045
-0.015043138929010427   -0.02280383252941096   -0.0037462831055973594
-0.003419835282040607   -0.00740140419173049   -0.0018797026360580775
-0.0036335292283945614   -0.007067543581896134   -0.002346355594132042
-0.0069378069730825056   -0.021842550476910298   -0.00397141818657391
0.00047710695157943177   -0.007106587527768239   -0.0018747764431201546
-0.0034962630193021683   -0.00730931603152914   -0.0021100347981286446
-0.0069378069730825056   -0.021842550476910298   -0.00397141818657391
0.0008009550468757467   -0.021852815854273327   -0.003538202648901114
0.00047710695157943177   -0.007106587527768239   -0.0018747764431201546
0.0008718890710957182   -0.021967820232528128   -0.0035229441922470985
-0.0034962630193021683   -0.00730931603152914   -0.0021100347981286446
0.000563969410051845   -0.007232112517678485   -0.001907945391192589
0.0008718890710957182   -0.021967820232528128   -0.0035229441922470985
0.00047710695157943177   -0.007106587527768239   -0.0018747764431201546
-0.0034962630193021683   -0.00730931603152914   -0.0021100347981286446
0.0008718890710957182   -0.021967820232528128   -0.0035229441922470985
-0.006880450140345122   -0.022084626427369903   -0.0037340005783403412
-0.0069378069730825056   -0.021842550476910298   -0.00397141818657391
-0.0034962630193021683   -0.00730931603152914   -0.0021100347981286446
0.0008718890710957182   -0.021967820232528128   -0.0035229441922470985
-0.0069378069730825056   -0.021842550476910298   -0.00397141818657391
0.00047710695157943177   -0.007106587527768239   -0.0018747764431201546
-0.0034962630193021683   -0.00730931603152914   -0.0021100347981286446
-0.006880450140345122   -0.022084626427369903   -0.0037340005783403412
0.000563969410051845   -0.007232112517678485   -0.001907945391192589
-0.003419835282040607   -0.00740140419173049   -0.0018797026360580775
-0.006880450140345122   -0.022084626427369903   -0.0037340005783403412
0.0008718890710957182   -0.021967820232528128   -0.0035229441922470985
0.000563969410051845   -0.007232112517678485   -0.001907945391192589
0.000918824121125657   -0.021961005245588937   -0.0035327648644134214
-0.003419835282040607   -0.00740140419173049   -0.0018797026360580775
0.0006323116833019162   -0.007221890854302283   -0.0019377490808992063
0.000918824121125657   -0.021961005245588937   -0.0035327648644134214
0.000563969410051845   -0.007232112517678485   -0.001907945391192589
-0.003419835282040607   -0.00740140419173049   -0.0018797026360580775
0.000918824121125657   -0.021961005245588937   -0.0035327648644134214
-0.006829904095593703   -0.02220194992647401   -0.003518671049943534
-0.006880450140345122   -0.022084626427369903   -0.0037340005783403412
-0.003419835282040607   -0.00740140419173049   -0.0018797026360580775
0.000918824121125657   -0.021961005245588937   -0.0035327648644134214
-0.006880450140345122   -0.022084626427369903   -0.0037340005783403412
0.000563969410051845   -0.007232112517678485   -0.001907945391192589
-0.003419835282040607   -0.00740140419173049   -0.0018797026360580775
-0.006829904095593703   -0.02220194992647401   -0.003518671049943534
0.0006323116833019162   -0.007221890854302283   -0.0019377490808992063
-0.003350510658727883   -0.0073628308942319965   -0.0016413903636669747
-0.006829904095593703   -0.02220194992647401   -0.003518671049943534
0.000918824121125657   -0.021961005245588937   -0.0035327648644134214
0.0006323116833019162   -0.007221890854302283   -0.0019377490808992063
0.0009693645887218028   -0.021828641348871143   -0.0035680643694388273
-0.003350510658727883   -0.0073628308942319965   -0.0016413903636669747
0.0007248067248298028   -0.007064758654898858   -0.001968190021213326
0.0009693645887218028   -0.021828641348871143   -0.0035680643694388273
0.0006323116833019162   -0.007221890854302283   -0.0019377490808992063
-0.003350510658727883   -0.0073628308942319965   -0.0016413903636669747
0.0009693645887218028   -0.021828641348871143   -0.0035680643694388273
-0.006753308945231675   -0.022198949748600035   -0.0033310759273624045
-0.006829904095593703   -0.02220194992647401   -0.003518671049943534
-0.003350510658727883   -0.0073628308942319965   -0.0016413903636669747
0.0009693645887218028   -0.021828641348871143   -0.0035680643694388273
-0.006829904095593703   -0.02220194992647401   -0.003518671049943534
0.0006323116833019162   -0.007221890854302283   -0.0019377490808992063
0.00047710695157943177   -0.007106587527768239   -0.0018747764431201546
0.0008009550468757467   -0.021852815854273327   -0.003538202648901114
0.004937755876191638   -0.007454071381065069   -0.0016409902150895078
0.000563969410051845   -0.007232112517678485   -0.001907945391192589
0.0008009550468757467   -0.021852815854273327   -0.003538202648901114
0.009000489304659551   -0.02221011225638365   -0.003335322115787159
0.004937755876191638   -0.007454071381065069   -0.0016409902150895078
0.009039242728767006   -0.022209764434469162   -0.003549444439485782
0.000563969410051845   -0.007232112517678485   -0.001907945391192589
0.0049444163984518836   -0.0074943445699732604   -0.0019577079085763196
0.009039242728767006   -0.022209764434469162   -0.003549444439485782
0.004937755876191638   -0.007454071381065069   -0.0016409902150895078
0.000563969410051845   -0.007232112517678485   -0.001907945391192589
0.009039242728767006   -0.022209764434469162   -0.003549444439485782
0.0008718890710957182   -0.021967820232528128   -0.0035229441922470985
0.0008009550468757467   -0.021852815854273327   -0.003538202648901114
0.000563969410051845   -0.007232112517678485   -0.001907945391192589
0.009039242728767006   -0.022209764434469162   -0.003549444439485782
0.0008009550468757467   -0.021852815854273327   -0.003538202648901114
0.004937755876191638   -0.007454071381065069   -0.0016409902150895078
0.000563969410051845   -0.007232112517678485   -0.001907945391192589
0.0008718890710957182   -0.021967820232528128   -0.0035229441922470985
0.0049444163984518836   -0.0074943445699732604   -0.0019577079085763196
0.0006323116833019162   -0.007221890854302283   -0.0019377490808992063
0.0008718890710957182   -0.021967820232528128   -0.0035229441922470985
0.009039242728767006   -0.022209764434469162   -0.003549444439485782
0.0049444163984518836   -0.0074943445699732604   -0.0019577079085763196
0.00899472802449998   -0.02208989069331063   -0.003791943130698207
0.0006323116833019162   -0.007221890854302283   -0.0019377490808992063
0.004921413515958619   -0.0073873129737471255   -0.0022613278737214394
0.00899472802449998   -0.02208989069331063   -0.003791943130698207
0.0049444163984518836   -0.0074943445699732604   -0.0019577079085763196
0.0006323116833019162   -0.007221890854302283   -0.0019377490808992063
0.00899472802449998   -0.02208989069331063   -0.003791943130698207
0.000918824121125657   -0.021961005245588937   -0.0035327648644134214
0.0008718890710957182   -0.021967820232528128   -0.0035229441922470985
0.0006323116833019162   -0.007221890854302283   -0.0019377490808992063
0.00899472802449998   -0.02208989069331063   -0.003791943130698207
0.0008718890710957182   -0.021967820232528128   -0.0035229441922470985
0.0049444163984518836   -0.0074943445699732604   -0.0019577079085763196
0.0006323116833019162   -0.007221890854302283   -0.0019377490808992063
0.000918824121125657   -0.021961005245588937   -0.0035327648644134214
0.004921413515958619   -0.0073873129737471255   -0.0022613278737214394
0.0007248067248298028   -0.007064758654898858   -0.001968190021213326
0.000918824121125657   -0.021961005245588937   -0.0035327648644134214
0.00899472802449998   -0.02208989069331063   -0.003791943130698207
0.004921413515958619   -0.0073873129737471255   -0.0022613278737214394
0.008968222860276178   -0.021817605154206724   -0.004053855524953919
0.0007248067248298028   -0.007064758654898858   -0.001968190021213326
0.005014971305356099   -0.007100023052020305   -0.0025589972735942275
0.008968222860276178   -0.021817605154206724   -0.004053855524953919
0.004921413515958619   -0.0073873129737471255   -0.0022613278737214394
0.0007248067248298028   -0.007064758654898858   -0.001968190021213326
0.008968222860276178   -0.021817605154206724   -0.004053855524953919
0.0009693645887218028   -0.021828641348871143   -0.0035680643694388273
0.000918824121125657   -0.021961005245588937   -0.0035327648644134214
0.0007248067248298028   -0.007064758654898858   -0.001968190021213326
0.008968222860276178   -0.021817605154206724   -0.004053855524953919
0.000918824121125657   -0.021961005245588937   -0.0035327648644134214
0.004921413515958619   -0.0073873129737471255   -0.0022613278737214394
0.004937755876191638   -0.007454071381065069   -0.0016409902150895078
0.009000489304659551   -0.02221011225638365   -0.003335322115787159
0.011136481639015145   -0.00833408576795449   -0.0015469457503536877
0.0049444163984518836   -0.0074943445699732604   -0.0019577079085763196
0.009000489304659551   -0.02221011225638365   -0.003335322115787159
0.01889143031079725   -0.02287472263979163   -0.0032792080120505516
0.011136481639015145   -0.00833408576795449   -0.0015469457503536877
0.018503078772775607   -0.022813213348102983   -0.003760561483056297
0.0049444163984518836   -0.0074943445699732604   -0.0019577079085763196
0.010456200191985942   -0.008243768501964498   -0.0022643964979262425
0.018503078772775607   -0.022813213348102983   -0.003760561483056297
0.011136481639015145   -0.00833408576795449   -0.0015469457503536877
0.0049444163984518836   -0.0074943445699732604   -0.0019577079085763196
0.018503078772775607   -0.022813213348102983   -0.003760561483056297
0.009039242728767006   -0.022209764434469162   -0.003549444439485782
0.009000489304659551   -0.02221011225638365   -0.003335322115787159
0.0049444163984518836   -0.0074943445699732604   -0.0019577079085763196
0.018503078772775607   -0.022813213348102983   -0.003760561483056297
0.009000489304659551   -0.02221011225638365   -0.003335322115787159
0.011136481639015145   -0.00833408576795449   -0.0015469457503536877
0.0049444163984518836   -0.0074943445699732604   -0.0019577079085763196
0.009039242728767006   -0.022209764434469162   -0.003549444439485782
0.010456200191985942   -0.008243768501964498   -0.0022643964979262425
0.004921413515958619   -0.0073873129737471255   -0.0022613278737214394
0.009039242728767006   -0.022209764434469162   -0.003549444439485782
0.018503078772775607   -0.022813213348102983   -0.003760561483056297
0.010456200191985942   -0.008243768501964498   -0.0022643964979262425
0.01815635816759292   -0.02262826305380988   -0.004301652930098314
0.004921413515958619   -0.0073873129737471255   -0.0022613278737214394
0.010141670130297126   -0.008072356019421245   -0.002870924459538466
0.01815635816759292   -0.02262826305380988   -0.004301652930098314
0.010456200191985942   -0.008243768501964498   -0.0022643964979262425
0.004921413515958619   -0.0073873129737471255   -0.0022613278737214394
0.01815635816759292   -0.02262826305380988   -0.004301652930098314
0.00899472802449998   -0.02208989069331063   -0.003791943130698207
0.009039242728767006   -0.022209764434469162   -0.003549444439485782
0.004921413515958619   -0.0073873129737471255   -0.0022613278737214394
0.01815635816759292   -0.02262826305380988   -0.004301652930098314
0.009039242728767006   -0.022209764434469162   -0.003549444439485782
0.010456200191985942   -0.008243768501964498   -0.0022643964979262425
0.004921413515958619   -0.0073873129737471255   -0.0022613278737214394
0.00899472802449998   -0.02208989069331063   -0.003791943130698207
0.010141670130297126   -0.008072356019421245   -0.002870924459538466
0.005014971305356099   -0.007100023052020305   -0.0025589972735942275
0.00899472802449998   -0.02208989069331063   -0.003791943130698207
0.01815635816759292   -0.02262826305380988   -0.004301652930098314
0.010141670130297126   -0.008072356019421245   -0.002870924459538466
0.017638516535025545   -0.022215888344874656   -0.004864653114915602
0.005014971305356099   -0.007100023052020305   -0.0025589972735942275
0.009674700074628928   -0.007633244558488211   -0.0035123906780908207
0.017638516535025545   -0.022215888344874656   -0.004864653114915602
0.010141670130297126   -0.008072356019421245   -0.002870924459538466
0.005014971305356099   -0.007100023052020305   -0.0025589972735942275
0.017638516535025545   -0.022215888344874656   -0.004864653114915602
0.008968222860276178   -0.021817605154206724   -0.004053855524953919
0.00899472802449998   -0.02208989069331063   -0.003791943130698207
0.005014971305356099   -0.007100023052020305   -0.0025589972735942275
0.017638516535025545   -0.022215888344874656   -0.004864653114915602
0.00899472802449998   -0.02208989069331063   -0.003791943130698207
0.010141670130297126   -0.008072356019421245   -0.002870924459538466
-0.023439828784019352   -0.022944174742844565   -0.005658117828890978
-0.03213419663229145   -0.0430662031182647   -0.006442526938477957
-0.014961388985135667   -0.0221923621704044   -0.004655835487557904
-0.02414534824400849   -0.02347420459506847   -0.004904695786799916
-0.03213419663229145   -0.0430662031182647   -0.006442526938477957
-0.020658156788616353   -0.042491057080552036   -0.005628542001514373
-0.014961388985135667   -0.0221923621704044   -0.004655835487557904
-0.020706386055691837   -0.042819450774656265   -0.005268380878085361
-0.02414534824400849   -0.02347420459506847   -0.004904695786799916
-0.014981508968310157   -0.022572388535423347   -0.004192086075321425
-0.020706386055691837   -0.042819450774656265   -0.005268380878085361
-0.014961388985135667   -0.0221923621704044   -0.004655835487557904
-0.02414534824400849   -0.02347420459506847   -0.004904695786799916
-0.020706386055691837   -0.042819450774656265   -0.005268380878085361
-0.03270963869474412   -0.04351484147233364   -0.005879821665191109
-0.03213419663229145   -0.0430662031182647   -0.006442526938477957
-0.02414534824400849   -0.02347420459506847   -0.004904695786799916
-0.020706386055691837   -0.042819450774656265   -0.005268380878085361
-0.03213419663229145   -0.0430662031182647   -0.006442526938477957
-0.014961388985135667   -0.0221923621704044   -0.004655835487557904
-0.02414534824400849   -0.02347420459506847   -0.004904695786799916
-0.03270963869474412   -0.04351484147233364   -0.005879821665191109
-0.014981508968310157   -0.022572388535423347   -0.004192086075321425
-0.02463656906414488   -0.02377332877879347   -0.004166747606920634
-0.03270963869474412   -0.04351484147233364   -0.005879821665191109
-0.020706386055691837   -0.042819450774656265   -0.005268380878085361
-0.014981508968310157   -0.022572388535423347   -0.004192086075321425
-0.02076282187866785   -0.04304776209215125   -0.004934178968514891
-0.02463656906414488   -0.02377332877879347   -0.004166747606920634
-0.015043138929010427   -0.02280383252941096   -0.0037462831055973594
-0.02076282187866785   -0.04304776209215125   -0.004934178968514891
-0.014981508968310157   -0.022572388535423347   -0.004192086075321425
-0.02463656906414488   -0.02377332877879347   -0.004166747606920634
-0.02076282187866785   -0.04304776209215125   -0.004934178968514891
-0.03307375094442641   -0.04379591893847201   -0.0053551791904825966
-0.03270963869474412   -0.04351484147233364   -0.005879821665191109
-0.02463656906414488   -0.02377332877879347   -0.004166747606920634
-0.02076282187866785   -0.04304776209215125   -0.004934178968514891
-0.03270963869474412   -0.04351484147233364   -0.005879821665191109
-0.014981508968310157   -0.022572388535423347   -0.004192086075321425
-0.02463656906414488   -0.02377332877879347   -0.004166747606920634
-0.03307375094442641   -0.04379591893847201   -0.0053551791904825966
-0.015043138929010427   -0.02280383252941096   -0.0037462831055973594
-0.025217284507378642   -0.02394659509188403   -0.003494999897759863
-0.03307375094442641   -0.04379591893847201   -0.0053551791904825966
-0.02076282187866785   -0.04304776209215125   -0.004934178968514891
-0.015043138929010427   -0.02280383252941096   -0.0037462831055973594
-0.020727005189886644   -0.04319762995553397   -0.004620412942472788
-0.025217284507378642   -0.02394659509188403   -0.003494999897759863
-0.015001046121502003   -0.02292356589770293   -0.003328837767732248
-0.020727005189886644   -0.04319762995553397   -0.004620412942472788
-0.015043138929010427   -0.02280383252941096   -0.0037462831055973594
-0.025217284507378642   -0.02394659509188403   -0.003494999897759863
-0.020727005189886644   -0.04319762995553397   -0.004620412942472788
-0.033488039215981154   -0.043997513483783286   -0.004872156441567171
-0.03307375094442641   -0.04379591893847201   -0.0053551791904825966
-0.025217284507378642   -0.02394659509188403   -0.003494999897759863
-0.020727005189886644   -0.04319762995553397   -0.004620412942472788
-0.03307375094442641   -0.04379591893847201   -0.0053551791904825966
-0.015043138929010427   -0.02280383252941096   -0.0037462831055973594
-0.014961388985135667   -0.0221923621704044   -0.004655835487557904
-0.020658156788616353   -0.042491057080552036   -0.005628542001514373
-0.0069378069730825056   -0.021842550476910298   -0.00397141818657391
-0.014981508968310157   -0.022572388535423347   -0.004192086075321425
-0.020658156788616353   -0.042491057080552036   -0.005628542001514373
-0.009833796037997342   -0.04220453043753902   -0.005062899647778451
-0.0069378069730825056   -0.021842550476910298   -0.00397141818657391
-0.00981208996984033   -0.042414719613389905   -0.004859629422953973
-0.014981508968310157   -0.022572388535423347   -0.004192086075321425
-0.006880450140345122   -0.022084626427369903   -0.0037340005783403412
-0.00981208996984033   -0.042414719613389905   -0.004859629422953973
-0.0069378069730825056   -0.021842550476910298   -0.00397141818657391
-0.014981508968310157   -0.022572388535423347   -0.004192086075321425
-0.00981208996984033   -0.042414719613389905   -0.004859629422953973
-0.020706386055691837   -0.042819450774656265   -0.005268380878085361
-0.020658156788616353   -0.042491057080552036   -0.005628542001514373
-0.014981508968310157   -0.022572388535423347   -0.004192086075321425
-0.00981208996984033   -0.042414719613389905   -0.004859629422953973
-0.020658156788616353   -0.042491057080552036   -0.005628542001514373
-0.0069378069730825056   -0.021842550476910298   -0.00397141818657391
-0.014981508968310157   -0.022572388535423347   -0.004192086075321425
-0.020706386055691837   -0.042819450774656265   -0.005268380878085361
-0.006880450140345122   -0.022084626427369903   -0.0037340005783403412
-0.015043138929010427   -0.02280383252941096   -0.0037462831055973594
-0.020706386055691837   -0.042819450774656265   -0.005268380878085361
-0.00981208996984033   -0.042414719613389905   -0.004859629422953973
-0.006880450140345122   -0.022084626427369903   -0.0037340005783403412
-0.009784827182295614   -0.04253809729202902   -0.004681096144266671
-0.015043138929010427   -0.02280383252941096   -0.0037462831055973594
-0.006829904095593703   -0.02220194992647401   -0.003518671049943534
-0.009784827182295614   -0.04253809729202902   -0.004681096144266671
-0.006880450140345122   -0.022084626427369903   -0.0037340005783403412
-0.015043138929010427   -0.02280383252941096   -0.0037462831055973594
-0.009784827182295614   -0.04253809729202902   -0.004681096144266671
-0.02076282187866785   -0.04304776209215125   -0.004934178968514891
-0.020706386055691837   -0.042819450774656265   -0.005268380878085361
-0.015043138929010427   -0.02280383252941096   -0.0037462831055973594
-0.009784827182295614   -0.04253809729202902   -0.004681096144266671
-0.020706386055691837   -0.042819450774656265   -0.005268380878085361
-0.006880450140345122   -0.022084626427369903   -0.0037340005783403412
-0.015043138929010427   -0.02280383252941096   -0.0037462831055973594
-0.02076282187866785   -0.04304776209215125   -0.004934178968514891
-0.006829904095593703   -0.02220194992647401   -0.003518671049943534
-0.015001046121502003   -0.02292356589770293   -0.003328837767732248
-0.02076282187866785   -0.04304776209215125   -0.004934178968514891
-0.009784827182295614   -0.04253809729202902   -0.004681096144266671
-0.006829904095593703   -0.02220194992647401   -0.003518671049943534
-0.009738183396605033   -0.04257642788953432   -0.004527217845447792
-0.015001046121502003   -0.02292356589770293   -0.003328837767732248
-0.006753308945231675   -0.022198949748600035   -0.0033310759273624045
-0.009738183396605033   -0.04257642788953432   -0.004527217845447792
-0.006829904095593703   -0.02220194992647401   -0.003518671049943534
-0.015001046121502003   -0.02292356589770293   -0.003328837767732248
-0.009738183396605033   -0.04257642788953432   -0.004527217845447792
-0.020727005189886644   -0.04319762995553397   -0.004620412942472788
-0.02076282187866785   -0.04304776209215125   -0.004934178968514891
-0.015001046121502003   -0.02292356589770293   -0.003328837767732248
-0.009738183396605033   -0.04257642788953432   -0.004527217845447792
-0.02076282187866785   -0.04304776209215125   -0.004934178968514891
-0.006829904095593703   -0.02220194992647401   -0.003518671049943534
-0.0069378069730825056   -0.021842550476910298   -0.00397141818657391
-0.009833796037997342   -0.04220453043753902   -0.005062899647778451
0.0008009550468757467   -0.021852815854273327   -0.003538202648901114
-0.006880450140345122   -0.022084626427369903   -0.0037340005783403412
-0.009833796037997342   -0.04220453043753902   -0.005062899647778451
0.000673901947106126   -0.042189326504641335   -0.004711664103199324
0.0008009550468757467   -0.021852815854273327   -0.003538202648901114
0.0007161707185202803   -0.04228323480207192   -0.004664425745745484
-0.006880450140345122   -0.022084626427369903   -0.0037340005783403412
0.0008718890710957182   -0.021967820232528128   -0.0035229441922470985
0.0007161707185202803   -0.04228323480207192   -0.004664425745745484
0.0008009550468757467   -0.021852815854273327   -0.003538202648901114
-0.006880450140345122   -0.022084626427369903   -0.0037340005783403412
0.0007161707185202803   -0.04228323480207192   -0.004664425745745484
-0.00981208996984033   -0.042414719613389905   -0.004859629422953973
-0.009833796037997342   -0.04220453043753902   -0.005062899647778451
-0.006880450140345122   -0.022084626427369903   -0.0037340005783403412
0.0007161707185202803   -0.04228323480207192   -0.004664425745745484
-0.009833796037997342   -0.04220453043753902   -0.005062899647778451
0.0008009550468757467   -0.021852815854273327   -0.003538202648901114
-0.006880450140345122   -0.022084626427369903   -0.0037340005783403412
-0.00981208996984033   -0.042414719613389905   -0.004859629422953973
0.0008718890710957182   -0.021967820232528128   -0.0035229441922470985
-0.006829904095593703   -0.02220194992647401   -0.003518671049943534
-0.00981208996984033   -0.042414719613389905   -0.004859629422953973
0.0007161707185202803   -0.04228323480207192   -0.004664425745745484
0.0008718890710957182   -0.021967820232528128   -0.0035229441922470985
0.0007422267603033072   -0.04229068575765958   -0.004641268428440106
-0.006829904095593703   -0.02220194992647401   -0.003518671049943534
0.000918824121125657   -0.021961005245588937   -0.0035327648644134214
0.0007422267603033072   -0.04229068575765958   -0.004641268428440106
0.0008718890710957182   -0.021967820232528128   -0.0035229441922470985
-0.006829904095593703   -0.02220194992647401   -0.003518671049943534
0.0007422267603033072   -0.04229068575765958   -0.004641268428440106
-0.009784827182295614   -0.04253809729202902   -0.004681096144266671
-0.00981208996984033   -0.042414719613389905   -0.004859629422953973
-0.006829904095593703   -0.02220194992647401   -0.003518671049943534
0.0007422267603033072   -0.04229068575765958   -0.004641268428440106
-0.00981208996984033   -0.042414719613389905   -0.004859629422953973
0.0008718890710957182   -0.021967820232528128   -0.0035229441922470985
-0.006829904095593703   -0.02220194992647401   -0.003518671049943534
-0.009784827182295614   -0.04253809729202902   -0.004681096144266671
0.000918824121125657   -0.021961005245588937   -0.0035327648644134214
-0.006753308945231675   -0.022198949748600035   -0.0033310759273624045
-0.009784827182295614   -0.04253809729202902   -0.004681096144266671
0.0007422267603033072   -0.04229068575765958   -0.004641268428440106
0.000918824121125657   -0.021961005245588937   -0.0035327648644134214
0.0007602338656298646   -0.04221038649691166   -0.004643666496564324
-0.006753308945231675   -0.022198949748600035   -0.0033310759273624045
0.0009693645887218028   -0.021828641348871143   -0.0035680643694388273
0.0007602338656298646   -0.04221038649691166   -0.004643666496564324
0.000918824121125657   -0.021961005245588937   -0.0035327648644134214
-0.006753308945231675   -0.022198949748600035   -0.0033310759273624045
0.0007602338656298646   -0.04221038649691166   -0.004643666496564324
-0.009738183396605033   -0.04257642788953432   -0.004527217845447792
-0.009784827182295614   -0.04253809729202902   -0.004681096144266671
-0.006753308945231675   -0.022198949748600035   -0.0033310759273624045
0.0007602338656298646   -0.04221038649691166   -0.004643666496564324
-0.009784827182295614   -0.04253809729202902   -0.004681096144266671
0.000918824121125657   -0.021961005245588937   -0.0035327648644134214
0.0008009550468757467   -0.021852815854273327   -0.003538202648901114
0.000673901947106126   -0.042189326504641335   -0.004711664103199324
0.009000489304659551   -0.02221011225638365   -0.003335322115787159
0.0008718890710957182   -0.021967820232528128   -0.0035229441922470985
0.000673901947106126   -0.042189326504641335   -0.004711664103199324
0.011629256979077508   -0.04242934319025222   -0.004568750604641048
0.009000489304659551   -0.02221011225638365   -0.003335322115787159
0.01166551910650639   -0.04241676978320017   -0.004680807663743881
0.0008718890710957182   -0.021967820232528128   -0.0035229441922470985
0.009039242728767006   -0.022209764434469162   -0.003549444439485782
0.01166551910650639   -0.04241676978320017   -0.004680807663743881
0.009000489304659551   -0.02221011225638365   -0.003335322115787159
0.0008718890710957182   -0.021967820232528128   -0.0035229441922470985
0.01166551910650639   -0.04241676978320017   -0.004680807663743881
0.0007161707185202803   -0.04228323480207192   -0.004664425745745484
0.000673901947106126   -0.042189326504641335   -0.004711664103199324
0.0008718890710957182   -0.021967820232528128   -0.0035229441922470985
0.01166551910650639   -0.04241676978320017   -0.004680807663743881
0.000673901947106126   -0.042189326504641335   -0.004711664103199324
0.009000489304659551   -0.02221011225638365   -0.003335322115787159
0.0008718890710957182   -0.021967820232528128   -0.0035229441922470985
0.0007161707185202803   -0.04228323480207192   -0.004664425745745484
0.009039242728767006   -0.022209764434469162   -0.003549444439485782
0.000918824121125657   -0.021961005245588937   -0.0035327648644134214
0.0007161707185202803   -0.04228323480207192   -0.004664425745745484
0.01166551910650639   -0.04241676978320017   -0.004680807663743881
0.009039242728767006   -0.022209764434469162   -0.003549444439485782
0.01163272466903281   -0.04231949968772118   -0.004815176259075605
0.000918824121125657   -0.021961005245588937   -0.0035327648644134214
0.00899472802449998   -0.02208989069331063   -0.003791943130698207
0.01163272466903281   -0.04231949968772118   -0.004815176259075605
0.009039242728767006   -0.022209764434469162   -0.003549444439485782
0.000918824121125657   -0.021961005245588937   -0.0035327648644134214
0.01163272466903281   -0.04231949968772118   -0.004815176259075605
0.0007422267603033072   -0.04229068575765958   -0.004641268428440106
0.0007161707185202803   -0.04228323480207192   -0.004664425745745484
0.000918824121125657   -0.021961005245588937   -0.0035327648644134214
0.01163272466903281   -0.04231949968772118   -0.004815176259075605
0.0007161707185202803   -0.04228323480207192   -0.004664425745745484
0.009039242728767006   -0.022209764434469162   -0.003549444439485782
0.000918824121125657   -0.021961005245588937   -0.0035327648644134214
0.0007422267603033072   -0.04229068575765958   -0.004641268428440106
0.00899472802449998   -0.02208989069331063   -0.003791943130698207
0.0009693645887218028   -0.021828641348871143   -0.0035680643694388273
0.0007422267603033072   -0.04229068575765958   -0.004641268428440106
0.01163272466903281   -0.04231949968772118   -0.004815176259075605
0.00899472802449998   -0.02208989069331063   -0.003791943130698207
0.011585424629195559   -0.04211666437709904   -0.00497449106727052
0.0009693645887218028   -0.021828641348871143   -0.0035680643694388273
0.008968222860276178   -0.021817605154206724   -0.004053855524953919
0.011585424629195559   -0.04211666437709904   -0.00497449106727052
0.00899472802449998   -0.02208989069331063   -0.003791943130698207
0.0009693645887218028   -0.021828641348871143   -0.0035680643694388273
0.011585424629195559   -0.04211666437709904   -0.00497449106727052
0.0007602338656298646   -0.04221038649691166   -0.004643666496564324
0.0007422267603033072   -0.04229068575765958   -0.004641268428440106
0.0009693645887218028   -0.021828641348871143   -0.0035680643694388273
0.011585424629195559   -0.04211666437709904   -0.00497449106727052
0.0007422267603033072   -0.04229068575765958   -0.004641268428440106
0.00899472802449998   -0.02208989069331063   -0.003791943130698207
0.009000489304659551   -0.02221011225638365   -0.003335322115787159
0.011629256979077508   -0.04242934319025222   -0.004568750604641048
0.01889143031079725   -0.02287472263979163   -0.0032792080120505516
0.009039242728767006   -0.022209764434469162   -0.003549444439485782
0.011629256979077508   -0.04242934319025222   -0.004568750604641048
0.024104081092078358   -0.04286531595361399   -0.004569428511792879
0.01889143031079725   -0.02287472263979163   -0.0032792080120505516
0.0238897354633372   -0.042791545024854105   -0.004861588126596192
0.009039242728767006   -0.022209764434469162   -0.003549444439485782
0.018503078772775607   -0.022813213348102983   -0.003760561483056297
0.0238897354633372   -0.042791545024854105   -0.004861588126596192
0.01889143031079725   -0.02287472263979163   -0.0032792080120505516
0.009039242728767006   -0.022209764434469162   -0.003549444439485782
0.0238897354633372   -0.042791545024854105   -0.004861588126596192
0.01166551910650639   -0.04241676978320017   -0.004680807663743881
0.011629256979077508   -0.04242934319025222   -0.004568750604641048
0.009039242728767006   -0.022209764434469162   -0.003549444439485782
0.0238897354633372   -0.042791545024854105   -0.004861588126596192
0.011629256979077508   -0.04242934319025222   -0.004568750604641048
0.01889143031079725   -0.02287472263979163   -0.0032792080120505516
0.009039242728767006   -0.022209764434469162   -0.003549444439485782
0.01166551910650639   -0.04241676978320017   -0.004680807663743881
0.018503078772775607   -0.022813213348102983   -0.003760561483056297
0.00899472802449998   -0.02208989069331063   -0.003791943130698207
0.01166551910650639   -0.04241676978320017   -0.004680807663743881
0.0238897354633372   -0.042791545024854105   -0.004861588126596192
0.018503078772775607   -0.022813213348102983   -0.003760561483056297
0.02367642848088934   -0.04264160262046585   -0.0051939786079499865
0.00899472802449998   -0.02208989069331063   -0.003791943130698207
0.01815635816759292   -0.02262826305380988   -0.004301652930098314
0.02367642848088934   -0.04264160262046585   -0.0051939786079499865
0.018503078772775607   -0.022813213348102983   -0.003760561483056297
0.00899472802449998   -0.02208989069331063   -0.003791943130698207
0.02367642848088934   -0.04264160262046585   -0.0051939786079499865
0.01163272466903281   -0.04231949968772118   -0.004815176259075605
0.01166551910650639   -0.04241676978320017   -0.004680807663743881
0.00899472802449998   -0.02208989069331063   -0.003791943130698207
0.02367642848088934   -0.04264160262046585   -0.0051939786079499865
0.01166551910650639   -0.04241676978320017   -0.004680807663743881
0.018503078772775607   -0.022813213348102983   -0.003760561483056297
0.00899472802449998   -0.02208989069331063   -0.003791943130698207
0.01163272466903281   -0.04231949968772118   -0.004815176259075605
0.01815635816759292   -0.02262826305380988   -0.004301652930098314
0.008968222860276178   -0.021817605154206724   -0.004053855524953919
0.01163272466903281   -0.04231949968772118   -0.004815176259075605
0.02367642848088934   -0.04264160262046585   -0.0051939786079499865
0.01815635816759292   -0.02262826305380988   -0.004301652930098314
0.023300476572793313   -0.04232610093728329   -0.005566641633915285
0.008968222860276178   -0.021817605154206724   -0.004053855524953919
0.017638516535025545   -0.022215888344874656   -0.004864653114915602
0.023300476572793313   -0.04232610093728329   -0.005566641633915285
0.01815635816759292   -0.02262826305380988   -0.004301652930098314
0.008968222860276178   -0.021817605154206724   -0.004053855524953919
0.023300476572793313   -0.04232610093728329   -0.005566641633915285
0.011585424629195559   -0.04211666437709904   -0.00497449106727052
0.01163272466903281   -0.04231949968772118   -0.004815176259075605
0.008968222860276178   -0.021817605154206724   -0.004053855524953919
0.023300476572793313   -0.04232610093728329   -0.005566641633915285
0.01163272466903281   -0.04231949968772118   -0.004815176259075605
0.01815635816759292   -0.02262826305380988   -0.004301652930098314
-0.03213419663229145   -0.0430662031182647   -0.006442526938477957
-0.03839313232579337   -0.06694754845404222   -0.006867995254765812
-0.020658156788616353   -0.042491057080552036   -0.005628542001514373
-0.03270963869474412   -0.04351484147233364   -0.005879821665191109
-0.03839313232579337   -0.06694754845404222   -0.006867995254765812
-0.024915594084905523   -0.06658104468657139   -0.006203381178142733
-0.020658156788616353   -0.042491057080552036   -0.005628542001514373
-0.024948409797941492   -0.06686390505514295   -0.005945304260493656
-0.03270963869474412   -0.04351484147233364   -0.005879821665191109
-0.020706386055691837   -0.042819450774656265   -0.005268380878085361
-0.024948409797941492   -0.06686390505514295   -0.005945304260493656
-0.020658156788616353   -0.042491057080552036   -0.005628542001514373
-0.03270963869474412   -0.04351484147233364   -0.005879821665191109
-0.024948409797941492   -0.06686390505514295   -0.005945304260493656
-0.03878238617181116   -0.0673300827430642   -0.006493661733741677
-0.03839313232579337   -0.06694754845404222   -0.006867995254765812
-0.03270963869474412   -0.04351484147233364   -0.005879821665191109
-0.024948409797941492   -0.06686390505514295   -0.005945304260493656
-0.03839313232579337   -0.06694754845404222   -0.006867995254765812
-0.020658156788616353   -0.042491057080552036   -0.005628542001514373
-0.03270963869474412   -0.04351484147233364   -0.005879821665191109
-0.03878238617181116   -0.0673300827430642   -0.006493661733741677
-0.020706386055691837   -0.042819450774656265   -0.005268380878085361
-0.03307375094442641   -0.04379591893847201   -0.0053551791904825966
-0.03878238617181116   -0.0673300827430642   -0.006493661733741677
-0.024948409797941492   -0.06686390505514295   -0.005945304260493656
-0.020706386055691837   -0.042819450774656265   -0.005268380878085361
-0.024972731662247213   -0.06708792262875299   -0.005712895121039298
-0.03307375094442641   -0.04379591893847201   -0.0053551791904825966
-0.02076282187866785   -0.04304776209215125   -0.004934178968514891
-0.024972731662247213   -0.06708792262875299   -0.005712895121039298
-0.020706386055691837   -0.042819450774656265   -0.005268380878085361
-0.03307375094442641   -0.04379591893847201   -0.0053551791904825966
-0.024972731662247213   -0.06708792262875299   -0.005712895121039298
-0.039007140050941476   -0.06760045541300269   -0.006155127680131484
-0.03878238617181116   -0.0673300827430642   -0.006493661733741677
-0.03307375094442641   -0.04379591893847201   -0.0053551791904825966
-0.024972731662247213   -0.06708792262875299   -0.005712895121039298
-0.03878238617181116   -0.0673300827430642   -0.006493661733741677
-0.020706386055691837   -0.042819450774656265   -0.005268380878085361
-0.03307375094442641   -0.04379591893847201   -0.0053551791904825966
-0.039007140050941476   -0.06760045541300269   -0.006155127680131484
-0.02076282187866785   -0.04304776209215125   -0.004934178968514891
-0.033488039215981154   -0.043997513483783286   -0.004872156441567171
-0.039007140050941476   -0.06760045541300269   -0.006155127680131484
-0.024972731662247213   -0.06708792262875299   -0.005712895121039298
-0.02076282187866785   -0.04304776209215125   -0.004934178968514891
-0.02492394363040508   -0.06727164979852455   -0.005502759532737468
-0.033488039215981154   -0.043997513483783286   -0.004872156441567171
-0.020727005189886644   -0.04319762995553397   -0.004620412942472788
-0.02492394363040508   -0.06727164979852455   -0.005502759532737468
-0.02076282187866785   -0.04304776209215125   -0.004934178968514891
-0.033488039215981154   -0.043997513483783286   -0.004872156441567171
-0.02492394363040508   -0.06727164979852455   -0.005502759532737468
-0.039238882944036046   -0.06784234184519004   -0.005856632077126534
-0.039007140050941476   -0.06760045541300269   -0.006155127680131484
-0.033488039215981154   -0.043997513483783286   -0.004872156441567171
-0.02492394363040508   -0.06727164979852455   -0.005502759532737468
-0.039007140050941476   -0.06760045541300269   -0.006155127680131484
-0.02076282187866785   -0.04304776209215125   -0.004934178968514891
-0.020658156788616353   -0.042491057080552036   -0.005628542001514373
-0.024915594084905523   -0.06658104468657139   -0.006203381178142733
-0.009833796037997342   -0.04220453043753902   -0.005062899647778451
-0.020706386055691837   -0.042819450774656265   -0.005268380878085361
-0.024915594084905523   -0.06658104468657139   -0.006203381178142733
-0.0122783824027374   -0.0663919778052884   -0.005743087341230607
-0.009833796037997342   -0.04220453043753902   -0.005062899647778451
-0.01225782278608727   -0.06656966834263627   -0.00557301762904947
-0.020706386055691837   -0.042819450774656265   -0.005268380878085361
-0.00981208996984033   -0.042414719613389905   -0.004859629422953973
-0.01225782278608727   -0.06656966834263627   -0.00557301762904947
-0.009833796037997342   -0.04220453043753902   -0.005062899647778451
-0.020706386055691837   -0.042819450774656265   -0.005268380878085361
-0.01225782278608727   -0.06656966834263627   -0.00557301762904947
-0.024948409797941492   -0.06686390505514295   -0.005945304260493656
-0.024915594084905523   -0.06658104468657139   -0.006203381178142733
-0.020706386055691837   -0.042819450774656265   -0.005268380878085361
-0.01225782278608727   -0.06656966834263627   -0.00557301762904947
-0.024915594084905523   -0.06658104468657139   -0.006203381178142733
-0.009833796037997342   -0.04220453043753902   -0.005062899647778451
-0.020706386055691837   -0.042819450774656265   -0.005268380878085361
-0.024948409797941492   -0.06686390505514295   -0.005945304260493656
-0.00981208996984033   -0.042414719613389905   -0.004859629422953973
-0.02076282187866785   -0.04304776209215125   -0.004934178968514891
-0.024948409797941492   -0.06686390505514295   -0.005945304260493656
-0.01225782278608727   -0.06656966834263627   -0.00557301762904947
-0.00981208996984033   -0.042414719613389905   -0.004859629422953973
-0.012228688296057534   -0.06669807392214216   -0.005428244034968365
-0.02076282187866785   -0.04304776209215125   -0.004934178968514891
-0.009784827182295614   -0.04253809729202902   -0.004681096144266671
-0.012228688296057534   -0.06669807392214216   -0.005428244034968365
-0.00981208996984033   -0.042414719613389905   -0.004859629422953973
-0.02076282187866785   -0.04304776209215125   -0.004934178968514891
-0.012228688296057534   -0.06669807392214216   -0.005428244034968365
-0.024972731662247213   -0.06708792262875299   -0.005712895121039298
-0.024948409797941492   -0.06686390505514295   -0.005945304260493656
-0.02076282187866785   -0.04304776209215125   -0.004934178968514891
-0.012228688296057534   -0.06669807392214216   -0.005428244034968365
-0.024948409797941492   -0.06686390505514295   -0.005945304260493656
-0.00981208996984033   -0.042414719613389905   -0.004859629422953973
-0.02076282187866785   -0.04304776209215125   -0.004934178968514891
-0.024972731662247213   -0.06708792262875299   -0.005712895121039298
-0.009784827182295614   -0.04253809729202902   -0.004681096144266671
-0.020727005189886644   -0.04319762995553397   -0.004620412942472788
-0.024972731662247213   -0.06708792262875299   -0.005712895121039298
-0.012228688296057534   -0.06669807392214216   -0.005428244034968365
-0.009784827182295614   -0.04253809729202902   -0.004681096144266671
-0.012183905717910067   -0.06677803328450707   -0.005309175491624742
-0.020727005189886644   -0.04319762995553397   -0.004620412942472788
-0.009738183396605033   -0.04257642788953432   -0.004527217845447792
-0.012183905717910067   -0.06677803328450707   -0.005309175491624742
-0.009784827182295614   -0.04253809729202902   -0.004681096144266671
-0.020727005189886644   -0.04319762995553397   -0.004620412942472788
-0.012183905717910067   -0.06677803328450707   -0.005309175491624742
-0.02492394363040508   -0.06727164979852455   -0.005502759532737468
-0.024972731662247213   -0.06708792262875299   -0.005712895121039298
-0.020727005189886644   -0.04319762995553397   -0.004620412942472788
-0.012183905717910067   -0.06677803328450707   -0.005309175491624742
-0.024972731662247213   -0.06708792262875299   -0.005712895121039298
-0.009784827182295614   -0.04253809729202902   -0.004681096144266671
-0.009833796037997342   -0.04220453043753902   -0.005062899647778451
-0.0122783824027374   -0.0663919778052884   -0.005743087341230607
0.000673901947106126   -0.042189326504641335   -0.004711664103199324
-0.00981208996984033   -0.042414719613389905   -0.004859629422953973
-0.0122783824027374   -0.0663919778052884   -0.005743087341230607
1.6338233508418874e-05   -0.06635968680862543   -0.005474452670552278
0.000673901947106126   -0.042189326504641335   -0.004711664103199324
5.742785108520729e-05   -0.06643172625270084   -0.005393040671417485
-0.00981208996984033   -0.042414719613389905   -0.004859629422953973
0.0007161707185202803   -0.04228323480207192   -0.004664425745745484
5.742785108520729e-05   -0.06643172625270084   -0.005393040671417485
0.000673901947106126   -0.042189326504641335   -0.004711664103199324
-0.00981208996984033   -0.042414719613389905   -0.004859629422953973
5.742785108520729e-05   -0.06643172625270084   -0.005393040671417485
-0.01225782278608727   -0.06656966834263627   -0.00557301762904947
-0.0122783824027374   -0.0663919778052884   -0.005743087341230607
-0.00981208996984033   -0.042414719613389905   -0.004859629422953973
5.742785108520729e-05   -0.06643172625270084   -0.005393040671417485
-0.0122783824027374   -0.0663919778052884   -0.005743087341230607
0.000673901947106126   -0.042189326504641335   -0.004711664103199324
-0.00981208996984033   -0.042414719613389905   -0.004859629422953973
-0.01225782278608727   -0.06656966834263627   -0.00557301762904947
0.0007161707185202803   -0.04228323480207192   -0.004664425745745484
-0.009784827182295614   -0.04253809729202902   -0.004681096144266671
-0.01225782278608727   -0.06656966834263627   -0.00557301762904947
5.742785108520729e-05   -0.06643172625270084   -0.005393040671417485
0.0007161707185202803   -0.04228323480207192   -0.004664425745745484
8.588296879047021e-05   -0.06645414439450217   -0.005336594320496015
-0.009784827182295614   -0.04253809729202902   -0.004681096144266671
0.0007422267603033072   -0.04229068575765958   -0.004641268428440106
8.588296879047021e-05   -0.06645414439450217   -0.005336594320496015
0.0007161707185202803   -0.04228323480207192   -0.004664425745745484
-0.009784827182295614   -0.04253809729202902   -0.004681096144266671
8.588296879047021e-05   -0.06645414439450217   -0.005336594320496015
-0.012228688296057534   -0.06669807392214216   -0.005428244034968365
-0.01225782278608727   -0.06656966834263627   -0.00557301762904947
-0.009784827182295614   -0.04253809729202902   -0.004681096144266671
8.588296879047021e-05   -0.06645414439450217   -0.005336594320496015
-0.01225782278608727   -0.06656966834263627   -0.00557301762904947
0.0007161707185202803   -0.04228323480207192   -0.004664425745745484
-0.009784827182295614   -0.04253809729202902   -0.004681096144266671
-0.012228688296057534   -0.06669807392214216   -0.005428244034968365
0.0007422267603033072   -0.04229068575765958   -0.004641268428440106
-0.009738183396605033   -0.04257642788953432   -0.004527217845447792
-0.012228688296057534   -0.06669807392214216   -0.005428244034968365
8.588296879047021e-05   -0.06645414439450217   -0.005336594320496015
0.0007422267603033072   -0.04229068575765958   -0.004641268428440106
0.00010288455101764083   -0.0664262631833529   -0.005306226732992288
-0.009738183396605033   -0.04257642788953432   -0.004527217845447792
0.0007602338656298646   -0.04221038649691166   -0.004643666496564324
0.00010288455101764083   -0.0664262631833529   -0.005306226732992288
0.0007422267603033072   -0.04229068575765958   -0.004641268428440106
-0.009738183396605033   -0.04257642788953432   -0.004527217845447792
0.00010288455101764083   -0.0664262631833529   -0.005306226732992288
-0.012183905717910067   -0.06677803328450707   -0.005309175491624742
-0.012228688296057534   -0.06669807392214216   -0.005428244034968365
-0.009738183396605033   -0.04257642788953432   -0.004527217845447792
0.00010288455101764083   -0.0664262631833529   -0.005306226732992288
-0.012228688296057534   -0.06669807392214216   -0.005428244034968365
0.0007422267603033072   -0.04229068575765958   -0.004641268428440106
0.000673901947106126   -0.042189326504641335   -0.004711664103199324
1.6338233508418874e-05   -0.06635968680862543   -0.005474452670552278
0.011629256979077508   -0.04242934319025222   -0.004568750604641048
0.0007161707185202803   -0.04228323480207192   -0.004664425745745484
1.6338233508418874e-05   -0.06635968680862543   -0.005474452670552278
0.012733688899811288   -0.06647084726412816   -0.0053962903820039985
0.011629256979077508   -0.04242934319025222   -0.004568750604641048
0.012784372798699404   -0.06644346446772201   -0.005405426646083212
0.0007161707185202803   -0.04228323480207192   -0.004664425745745484
0.01166551910650639   -0.04241676978320017   -0.004680807663743881
0.012784372798699404   -0.06644346446772201   -0.005405426646083212
0.011629256979077508   -0.04242934319025222   -0.004568750604641048
0.0007161707185202803   -0.04228323480207192   -0.004664425745745484
0.012784372798699404   -0.06644346446772201   -0.005405426646083212
5.742785108520729e-05   -0.06643172625270084   -0.005393040671417485
1.6338233508418874e-05   -0.06635968680862543   -0.005474452670552278
0.0007161707185202803   -0.04228323480207192   -0.004664425745745484
0.012784372798699404   -0.06644346446772201   -0.005405426646083212
1.6338233508418874e-05   -0.06635968680862543   -0.005474452670552278
0.011629256979077508   -0.04242934319025222   -0.004568750604641048
0.0007161707185202803   -0.04228323480207192   -0.004664425745745484
5.742785108520729e-05   -0.06643172625270084   -0.005393040671417485
0.01166551910650639   -0.04241676978320017   -0.004680807663743881
0.0007422267603033072   -0.04229068575765958   -0.004641268428440106
5.742785108520729e-05   -0.06643172625270084   -0.005393040671417485
0.012784372798699404   -0.06644346446772201   -0.005405426646083212
0.01166551910650639   -0.04241676978320017   -0.004680807663743881
0.012785322895071626   -0.0663701511314698   -0.005438191972663189
0.0007422267603033072   -0.04229068575765958   -0.004641268428440106
0.01163272466903281   -0.04231949968772118   -0.004815176259075605
0.012785322895071626   -0.0663701511314698   -0.005438191972663189
0.01166551910650639   -0.04241676978320017   -0.004680807663743881
0.0007422267603033072   -0.04229068575765958   -0.004641268428440106
0.012785322895071626   -0.0663701511314698   -0.005438191972663189
8.588296879047021e-05   -0.06645414439450217   -0.005336594320496015
5.742785108520729e-05   -0.06643172625270084   -0.005393040671417485
0.0007422267603033072   -0.04229068575765958   -0.004641268428440106
0.012785322895071626   -0.0663701511314698   -0.005438191972663189
5.742785108520729e-05   -0.06643172625270084   -0.005393040671417485
0.01166551910650639   -0.04241676978320017   -0.004680807663743881
0.0007422267603033072   -0.04229068575765958   -0.004641268428440106
8.588296879047021e-05   -0.06645414439450217   -0.005336594320496015
0.01163272466903281   -0.04231949968772118   -0.004815176259075605
0.0007602338656298646   -0.04221038649691166   -0.004643666496564324
8.588296879047021e-05   -0.06645414439450217   -0.005336594320496015
0.012785322895071626   -0.0663701511314698   -0.005438191972663189
0.01163272466903281   -0.04231949968772118   -0.004815176259075605
0.012754475651090707   -0.06623245448348451   -0.005495476480574943
0.0007602338656298646   -0.04221038649691166   -0.004643666496564324
0.011585424629195559   -0.04211666437709904   -0.00497449106727052
0.012754475651090707   -0.06623245448348451   -0.005495476480574943
0.01163272466903281   -0.04231949968772118   -0.004815176259075605
0.0007602338656298646   -0.04221038649691166   -0.004643666496564324
0.012754475651090707   -0.06623245448348451   -0.005495476480574943
0.00010288455101764083   -0.0664262631833529   -0.005306226732992288
8.588296879047021e-05   -0.06645414439450217   -0.005336594320496015
0.0007602338656298646   -0.04221038649691166   -0.004643666496564324
0.012754475651090707   -0.06623245448348451   -0.005495476480574943
8.588296879047021e-05   -0.06645414439450217   -0.005336594320496015
0.01163272466903281   -0.04231949968772118   -0.004815176259075605
0.011629256979077508   -0.04242934319025222   -0.004568750604641048
0.012733688899811288   -0.06647084726412816   -0.0053962903820039985
0.024104081092078358   -0.04286531595361399   -0.004569428511792879
0.01166551910650639   -0.04241676978320017   -0.004680807663743881
0.012733688899811288   -0.06647084726412816   -0.0053962903820039985
0.026777066557233907   -0.06667563011549453   -0.005466502556825169
0.024104081092078358   -0.04286531595361399   -0.004569428511792879
0.026747725999105066   -0.06658102365144858   -0.0055736639280115526
0.01166551910650639   -0.04241676978320017   -0.004680807663743881
0.0238897354633372   -0.042791545024854105   -0.004861588126596192
0.026747725999105066   -0.06658102365144858   -0.0055736639280115526
0.024104081092078358   -0.04286531595361399   -0.004569428511792879
0.01166551910650639   -0.04241676978320017   -0.004680807663743881
0.026747725999105066   -0.06658102365144858   -0.0055736639280115526
0.012784372798699404   -0.06644346446772201   -0.005405426646083212
0.012733688899811288   -0.06647084726412816   -0.0053962903820039985
0.01166551910650639   -0.04241676978320017   -0.004680807663743881
0.026747725999105066   -0.06658102365144858   -0.0055736639280115526
0.012733688899811288   -0.06647084726412816   -0.0053962903820039985
0.024104081092078358   -0.04286531595361399   -0.004569428511792879
0.01166551910650639   -0.04241676978320017   -0.004680807663743881
0.012784372798699404   -0.06644346446772201   -0.005405426646083212
0.0238897354633372   -0.042791545024854105   -0.004861588126596192
0.01163272466903281   -0.04231949968772118   -0.004815176259075605
0.012784372798699404   -0.06644346446772201   -0.005405426646083212
0.026747725999105066   -0.06658102365144858   -0.0055736639280115526
0.0238897354633372   -0.042791545024854105   -0.004861588126596192
0.026676665472448718   -0.06646119681484998   -0.005719141854088804
0.01163272466903281   -0.04231949968772118   -0.004815176259075605
0.02367642848088934   -0.04264160262046585   -0.0051939786079499865
0.026676665472448718   -0.06646119681484998   -0.005719141854088804
0.0238897354633372   -0.042791545024854105   -0.004861588126596192
0.01163272466903281   -0.04231949968772118   -0.004815176259075605
0.026676665472448718   -0.06646119681484998   -0.005719141854088804
0.012785322895071626   -0.0663701511314698   -0.005438191972663189
0.012784372798699404   -0.06644346446772201   -0.005405426646083212
0.01163272466903281   -0.04231949968772118   -0.004815176259075605
0.026676665472448718   -0.06646119681484998   -0.005719141854088804
0.012784372798699404   -0.06644346446772201   -0.005405426646083212
0.0238897354633372   -0.042791545024854105   -0.004861588126596192
0.01163272466903281   -0.04231949968772118   -0.004815176259075605
0.012785322895071626   -0.0663701511314698   -0.005438191972663189
0.02367642848088934   -0.04264160262046585   -0.0051939786079499865
0.011585424629195559   -0.04211666437709904   -0.00497449106727052
0.012785322895071626   -0.0663701511314698   -0.005438191972663189
0.026676665472448718   -0.06646119681484998   -0.005719141854088804
0.02367642848088934   -0.04264160262046585   -0.0051939786079499865
0.02648953202743659   -0.06623186368956274   -0.00590265892350183
0.011585424629195559   -0.04211666437709904   -0.00497449106727052
0.023300476572793313   -0.04232610093728329   -0.005566641633915285
0.02648953202743659   -0.06623186368956274   -0.00590265892350183
0.02367642848088934   -0.04264160262046585   -0.0051939786079499865
0.011585424629195559   -0.04211666437709904   -0.00497449106727052
0.02648953202743659   -0.06623186368956274   -0.00590265892350183
0.012754475651090707   -0.06623245448348451   -0.005495476480574943
0.012785322895071626   -0.0663701511314698   -0.005438191972663189
0.011585424629195559   -0.04211666437709904   -0.00497449106727052
0.02648953202743659   -0.06623186368956274   -0.00590265892350183
0.012785322895071626   -0.0663701511314698   -0.005438191972663189
0.02367642848088934   -0.04264160262046585   -0.0051939786079499865
-0.03839313232579337   -0.06694754845404222   -0.006867995254765812
-0.042191354272293584   -0.0929633384529705   -0.006990701994836062
-0.024915594084905523   -0.06658104468657139   -0.006203381178142733
-0.03878238617181116   -0.0673300827430642   -0.006493661733741677
-0.042191354272293584   -0.0929633384529705   -0.006990701994836062
-0.027714738570013248   -0.09281347305550978   -0.0064604780442556135
-0.024915594084905523   -0.06658104468657139   -0.006203381178142733
-0.027706085980060562   -0.09305508539320084   -0.006301991843702716
-0.03878238617181116   -0.0673300827430642   -0.006493661733741677
-0.024948409797941492   -0.06686390505514295   -0.005945304260493656
-0.027706085980060562   -0.09305508539320084   -0.006301991843702716
-0.024915594084905523   -0.06658104468657139   -0.006203381178142733
-0.03878238617181116   -0.0673300827430642   -0.006493661733741677
-0.027706085980060562   -0.09305508539320084   -0.006301991843702716
-0.04237488776339246   -0.0932880053380309   -0.006797054419799898
-0.042191354272293584   -0.0929633384529705   -0.006990701994836062
-0.03878238617181116   -0.0673300827430642   -0.006493661733741677
-0.027706085980060562   -0.09305508539320084   -0.006301991843702716
-0.042191354272293584   -0.0929633384529705   -0.006990701994836062
-0.024915594084905523   -0.06658104468657139   -0.006203381178142733
-0.03878238617181116   -0.0673300827430642   -0.006493661733741677
-0.04237488776339246   -0.0932880053380309   -0.006797054419799898
-0.024948409797941492   -0.06686390505514295   -0.005945304260493656
-0.039007140050941476   -0.06760045541300269   -0.006155127680131484
-0.04237488776339246   -0.0932880053380309   -0.006797054419799898
-0.027706085980060562   -0.09305508539320084   -0.006301991843702716
-0.024948409797941492   -0.06686390505514295   -0.005945304260493656
-0.027671314562133384   -0.09327771513704432   -0.006169813462437649
-0.039007140050941476   -0.06760045541300269   -0.006155127680131484
-0.024972731662247213   -0.06708792262875299   -0.005712895121039298
-0.027671314562133384   -0.09327771513704432   -0.006169813462437649
-0.024948409797941492   -0.06686390505514295   -0.005945304260493656
-0.039007140050941476   -0.06760045541300269   -0.006155127680131484
-0.027671314562133384   -0.09327771513704432   -0.006169813462437649
-0.0424352785504944   -0.09355249851570188   -0.006641280259397806
-0.04237488776339246   -0.0932880053380309   -0.006797054419799898
-0.039007140050941476   -0.06760045541300269   -0.006155127680131484
-0.027671314562133384   -0.09327771513704432   -0.006169813462437649
-0.04237488776339246   -0.0932880053380309   -0.006797054419799898
-0.024948409797941492   -0.06686390505514295   -0.005945304260493656
-0.039007140050941476   -0.06760045541300269   -0.006155127680131484
-0.0424352785504944   -0.09355249851570188   -0.006641280259397806
-0.024972731662247213   -0.06708792262875299   -0.005712895121039298
-0.039238882944036046   -0.06784234184519004   -0.005856632077126534
-0.0424352785504944   -0.09355249851570188   -0.006641280259397806
-0.027671314562133384   -0.09327771513704432   -0.006169813462437649
-0.024972731662247213   -0.06708792262875299   -0.005712895121039298
-0.02758202690063054   -0.09349830822144081   -0.0060621214780959744
-0.039238882944036046   -0.06784234184519004   -0.005856632077126534
-0.02492394363040508   -0.06727164979852455   -0.005502759532737468
-0.02758202690063054   -0.09349830822144081   -0.0060621214780959744
-0.024972731662247213   -0.06708792262875299   -0.005712895121039298
-0.039238882944036046   -0.06784234184519004   -0.005856632077126534
-0.02758202690063054   -0.09349830822144081   -0.0060621214780959744
-0.04245766339897999   -0.09383935605283912   -0.006526607750180713
-0.0424352785504944   -0.09355249851570188   -0.006641280259397806
-0.039238882944036046   -0.06784234184519004   -0.005856632077126534
-0.02758202690063054   -0.09349830822144081   -0.0060621214780959744
-0.0424352785504944   -0.09355249851570188   -0.006641280259397806
-0.024972731662247213   -0.06708792262875299   -0.005712895121039298
-0.024915594084905523   -0.06658104468657139   -0.006203381178142733
-0.027714738570013248   -0.09281347305550978   -0.0064604780442556135
-0.0122783824027374   -0.0663919778052884   -0.005743087341230607
-0.024948409797941492   -0.06686390505514295   -0.005945304260493656
-0.027714738570013248   -0.09281347305550978   -0.0064604780442556135
-0.014266419258524583   -0.09272797177518521   -0.006099425682158912
-0.0122783824027374   -0.0663919778052884   -0.005743087341230607
-0.01421850272242522   -0.09287440373980509   -0.005961620177010309
-0.024948409797941492   -0.06686390505514295   -0.005945304260493656
-0.01225782278608727   -0.06656966834263627   -0.00557301762904947
-0.01421850272242522   -0.09287440373980509   -0.005961620177010309
-0.0122783824027374   -0.0663919778052884   -0.005743087341230607
-0.024948409797941492   -0.06686390505514295   -0.005945304260493656
-0.01421850272242522   -0.09287440373980509   -0.005961620177010309
-0.027706085980060562   -0.09305508539320084   -0.006301991843702716
-0.027714738570013248   -0.09281347305550978   -0.0064604780442556135
-0.024948409797941492   -0.06686390505514295   -0.005945304260493656
-0.01421850272242522   -0.09287440373980509   -0.005961620177010309
-0.027714738570013248   -0.09281347305550978   -0.0064604780442556135
-0.0122783824027374   -0.0663919778052884   -0.005743087341230607
-0.024948409797941492   -0.06686390505514295   -0.005945304260493656
-0.027706085980060562   -0.09305508539320084   -0.006301991843702716
-0.01225782278608727   -0.06656966834263627   -0.00557301762904947
-0.024972731662247213   -0.06708792262875299   -0.005712895121039298
-0.027706085980060562   -0.09305508539320084   -0.006301991843702716
-0.01421850272242522   -0.09287440373980509   -0.005961620177010309
-0.01225782278608727   -0.06656966834263627   -0.00557301762904947
-0.014159183036501898   -0.09300861459632169   -0.0058501561158832245
-0.024972731662247213   -0.06708792262875299   -0.005712895121039298
-0.012228688296057534   -0.06669807392214216   -0.005428244034968365
-0.014159183036501898   -0.09300861459632169   -0.0058501561158832245
-0.01225782278608727   -0.06656966834263627   -0.00557301762904947
-0.024972731662247213   -0.06708792262875299   -0.005712895121039298
-0.014159183036501898   -0.09300861459632169   -0.0058501561158832245
-0.027671314562133384   -0.09327771513704432   -0.006169813462437649
-0.027706085980060562   -0.09305508539320084   -0.006301991843702716
-0.024972731662247213   -0.06708792262875299   -0.005712895121039298
-0.014159183036501898   -0.09300861459632169   -0.0058501561158832245
-0.027706085980060562   -0.09305508539320084   -0.006301991843702716
-0.01225782278608727   -0.06656966834263627   -0.00557301762904947
-0.024972731662247213   -0.06708792262875299   -0.005712895121039298
-0.027671314562133384   -0.09327771513704432   -0.006169813462437649
-0.012228688296057534   -0.06669807392214216   -0.005428244034968365
-0.02492394363040508   -0.06727164979852455   -0.005502759532737468
-0.027671314562133384   -0.09327771513704432   -0.006169813462437649
-0.014159183036501898   -0.09300861459632169   -0.0058501561158832245
-0.012228688296057534   -0.06669807392214216   -0.005428244034968365
-0.014087476382688343   -0.09313104123166845   -0.005765655291451489
-0.02492394363040508   -0.06727164979852455   -0.005502759532737468
-0.012183905717910067   -0.06677803328450707   -0.005309175491624742
-0.014087476382688343   -0.09313104123166845   -0.005765655291451489
-0.012228688296057534   -0.06669807392214216   -0.005428244034968365
-0.02492394363040508   -0.06727164979852455   -0.005502759532737468
-0.014087476382688343   -0.09313104123166845   -0.005765655291451489
-0.02758202690063054   -0.09349830822144081   -0.0060621214780959744
-0.027671314562133384   -0.09327771513704432   -0.006169813462437649
-0.02492394363040508   -0.06727164979852455   -0.005502759532737468
-0.014087476382688343   -0.09313104123166845   -0.005765655291451489
-0.027671314562133384   -0.09327771513704432   -0.006169813462437649
-0.012228688296057534   -0.06669807392214216   -0.005428244034968365
-0.0122783824027374   -0.0663919778052884   -0.005743087341230607
-0.014266419258524583   -0.09272797177518521   -0.006099425682158912
1.6338233508418874e-05   -0.06635968680862543   -0.005474452670552278
-0.01225782278608727   -0.06656966834263627   -0.00557301762904947
-0.014266419258524583   -0.09272797177518521   -0.006099425682158912
-0.0011818703098507792   -0.09267932658211221   -0.005912071345809126
1.6338233508418874e-05   -0.06635968680862543   -0.005474452670552278
-0.0011140704438507734   -0.09272890978482398   -0.005796296660349535
-0.01225782278608727   -0.06656966834263627   -0.00557301762904947
5.742785108520729e-05   -0.06643172625270084   -0.005393040671417485
-0.0011140704438507734   -0.09272890978482398   -0.005796296660349535
1.6338233508418874e-05   -0.06635968680862543   -0.005474452670552278
-0.01225782278608727   -0.06656966834263627   -0.00557301762904947
-0.0011140704438507734   -0.09272890978482398   -0.005796296660349535
-0.01421850272242522   -0.09287440373980509   -0.005961620177010309
-0.014266419258524583   -0.09272797177518521   -0.006099425682158912
-0.01225782278608727   -0.06656966834263627   -0.00557301762904947
-0.0011140704438507734   -0.09272890978482398   -0.005796296660349535
-0.014266419258524583   -0.09272797177518521   -0.006099425682158912
1.6338233508418874e-05   -0.06635968680862543   -0.005474452670552278
-0.01225782278608727   -0.06656966834263627   -0.00557301762904947
-0.01421850272242522   -0.09287440373980509   -0.005961620177010309
5.742785108520729e-05   -0.06643172625270084   -0.005393040671417485
-0.012228688296057534   -0.06669807392214216   -0.005428244034968365
-0.01421850272242522   -0.09287440373980509   -0.005961620177010309
-0.0011140704438507734   -0.09272890978482398   -0.005796296660349535
5.742785108520729e-05   -0.06643172625270084   -0.005393040671417485
-0.0010556522565176385   -0.09276541912831288   -0.0057066263701805505
-0.012228688296057534   -0.06669807392214216   -0.005428244034968365
8.588296879047021e-05   -0.06645414439450217   -0.005336594320496015
-0.0010556522565176385   -0.09276541912831288   -0.0057066263701805505
5.742785108520729e-05   -0.06643172625270084   -0.005393040671417485
-0.012228688296057534   -0.06669807392214216   -0.005428244034968365
-0.0010556522565176385   -0.09276541912831288   -0.0057066263701805505
-0.014159183036501898   -0.09300861459632169   -0.0058501561158832245
-0.01421850272242522   -0.09287440373980509   -0.005961620177010309
-0.012228688296057534   -0.06669807392214216   -0.005428244034968365
-0.0010556522565176385   -0.09276541912831288   -0.0057066263701805505
-0.01421850272242522   -0.09287440373980509   -0.005961620177010309
5.742785108520729e-05   -0.06643172625270084   -0.005393040671417485
-0.012228688296057534   -0.06669807392214216   -0.005428244034968365
-0.014159183036501898   -0.09300861459632169   -0.0058501561158832245
8.588296879047021e-05   -0.06645414439450217   -0.005336594320496015
-0.012183905717910067   -0.06677803328450707   -0.005309175491624742
-0.014159183036501898   -0.09300861459632169   -0.0058501561158832245
-0.0010556522565176385   -0.09276541912831288   -0.0057066263701805505
8.588296879047021e-05   -0.06645414439450217   -0.005336594320496015
-0.0010117057867241415   -0.09278867477933245   -0.00564401844685359
-0.012183905717910067   -0.06677803328450707   -0.005309175491624742
0.00010288455101764083   -0.0664262631833529   -0.005306226732992288
-0.0010117057867241415   -0.09278867477933245   -0.00564401844685359
8.588296879047021e-05   -0.06645414439450217   -0.005336594320496015
-0.012183905717910067   -0.06677803328450707   -0.005309175491624742
-0.0010117057867241415   -0.09278867477933245   -0.00564401844685359
-0.014087476382688343   -0.09313104123166845   -0.005765655291451489
-0.014159183036501898   -0.09300861459632169   -0.0058501561158832245
-0.012183905717910067   -0.06677803328450707   -0.005309175491624742
-0.0010117057867241415   -0.09278867477933245   -0.00564401844685359
-0.014159183036501898   -0.09300861459632169   -0.0058501561158832245
8.588296879047021e-05   -0.06645414439450217   -0.005336594320496015
1.6338233508418874e-05   -0.06635968680862543   -0.005474452670552278
-0.0011818703098507792   -0.09267932658211221   -0.005912071345809126
0.012733688899811288   -0.06647084726412816   -0.0053962903820039985
5.742785108520729e-05   -0.06643172625270084   -0.005393040671417485
-0.0011818703098507792   -0.09267932658211221   -0.005912071345809126
0.012302540223677005   -0.09265917527520882   -0.005899960767423586
0.012733688899811288   -0.06647084726412816   -0.0053962903820039985
0.012392922228930623   -0.09261501745434435   -0.00580733347625281
5.742785108520729e-05   -0.06643172625270084   -0.005393040671417485
0.012784372798699404   -0.06644346446772201   -0.005405426646083212
0.012392922228930623   -0.09261501745434435   -0.00580733347625281
0.012733688899811288   -0.06647084726412816   -0.0053962903820039985
5.742785108520729e-05   -0.06643172625270084   -0.005393040671417485
0.012392922228930623   -0.09261501745434435   -0.00580733347625281
-0.0011140704438507734   -0.09272890978482398   -0.005796296660349535
-0.0011818703098507792   -0.09267932658211221   -0.005912071345809126
5.742785108520729e-05   -0.06643172625270084   -0.005393040671417485
0.012392922228930623   -0.09261501745434435   -0.00580733347625281
-0.0011818703098507792   -0.09267932658211221   -0.005912071345809126
0.012733688899811288   -0.06647084726412816   -0.0053962903820039985
5.742785108520729e-05   -0.06643172625270084   -0.005393040671417485
-0.0011140704438507734   -0.09272890978482398   -0.005796296660349535
0.012784372798699404   -0.06644346446772201   -0.005405426646083212
8.588296879047021e-05   -0.06645414439450217   -0.005336594320496015
-0.0011140704438507734   -0.09272890978482398   -0.005796296660349535
0.012392922228930623   -0.09261501745434435   -0.00580733347625281
0.012784372798699404   -0.06644346446772201   -0.005405426646083212
0.012452470669121347   -0.09256311763784637   -0.005740070155687848
8.588296879047021e-05   -0.06645414439450217   -0.005336594320496015
0.012785322895071626   -0.0663701511314698   -0.005438191972663189
0.012452470669121347   -0.09256311763784637   -0.005740070155687848
0.012784372798699404   -0.06644346446772201   -0.005405426646083212
8.588296879047021e-05   -0.06645414439450217   -0.005336594320496015
0.012452470669121347   -0.09256311763784637   -0.005740070155687848
-0.0010556522565176385   -0.09276541912831288   -0.0057066263701805505
-0.0011140704438507734   -0.09272890978482398   -0.005796296660349535
8.588296879047021e-05   -0.06645414439450217   -0.005336594320496015
0.012452470669121347   -0.09256311763784637   -0.005740070155687848
-0.0011140704438507734   -0.09272890978482398   -0.005796296660349535
0.012784372798699404   -0.06644346446772201   -0.005405426646083212
8.588296879047021e-05   -0.06645414439450217   -0.005336594320496015
-0.0010556522565176385   -0.09276541912831288   -0.0057066263701805505
0.012785322895071626   -0.0663701511314698   -0.005438191972663189
0.00010288455101764083   -0.0664262631833529   -0.005306226732992288
-0.0010556522565176385   -0.09276541912831288   -0.0057066263701805505
0.012452470669121347   -0.09256311763784637   -0.005740070155687848
0.012785322895071626   -0.0663701511314698   -0.005438191972663189
0.01246259475108864   -0.09248631389148652   -0.0056976448975006025
0.00010288455101764083   -0.0664262631833529   -0.005306226732992288
0.012754475651090707   -0.06623245448348451   -0.005495476480574943
0.01246259475108864   -0.09248631389148652   -0.0056976448975006025
0.012785322895071626   -0.0663701511314698   -0.005438191972663189
0.00010288455101764083   -0.0664262631833529   -0.005306226732992288
0.01246259475108864   -0.09248631389148652   -0.0056976448975006025
-0.0010117057867241415   -0.09278867477933245   -0.00564401844685359
-0.0010556522565176385   -0.09276541912831288   -0.0057066263701805505
0.00010288455101764083   -0.0664262631833529   -0.005306226732992288
0.01246259475108864   -0.09248631389148652   -0.0056976448975006025
-0.0010556522565176385   -0.09276541912831288   -0.0057066263701805505
0.012785322895071626   -0.0663701511314698   -0.005438191972663189
0.012733688899811288   -0.06647084726412816   -0.0053962903820039985
0.012302540223677005   -0.09265917527520882   -0.005899960767423586
0.026777066557233907   -0.06667563011549453   -0.005466502556825169
0.012784372798699404   -0.06644346446772201   -0.005405426646083212
0.012302540223677005   -0.09265917527520882   -0.005899960767423586
0.02691766899451713   -0.09263194882314141   -0.006045125291544312
0.026777066557233907   -0.06667563011549453   -0.005466502556825169
0.02709557759717807   -0.09251379023533807   -0.005970118787765468
0.012784372798699404   -0.06644346446772201   -0.005405426646083212
0.026747725999105066   -0.06658102365144858   -0.0055736639280115526
0.02709557759717807   -0.09251379023533807   -0.005970118787765468
0.026777066557233907   -0.06667563011549453   -0.005466502556825169
0.012784372798699404   -0.06644346446772201   -0.005405426646083212
0.02709557759717807   -0.09251379023533807   -0.005970118787765468
0.012392922228930623   -0.09261501745434435   -0.00580733347625281
0.012302540223677005   -0.09265917527520882   -0.005899960767423586
0.012784372798699404   -0.06644346446772201   -0.005405426646083212
0.02709557759717807   -0.09251379023533807   -0.005970118787765468
0.012302540223677005   -0.09265917527520882   -0.005899960767423586
0.026777066557233907   -0.06667563011549453   -0.005466502556825169
0.012784372798699404   -0.06644346446772201   -0.005405426646083212
0.012392922228930623   -0.09261501745434435   -0.00580733347625281
0.026747725999105066   -0.06658102365144858   -0.0055736639280115526
0.012785322895071626   -0.0663701511314698   -0.005438191972663189
0.012392922228930623   -0.09261501745434435   -0.00580733347625281
0.02709557759717807   -0.09251379023533807   -0.005970118787765468
0.026747725999105066   -0.06658102365144858   -0.0055736639280115526
0.02718810898476103   -0.09242022487418303   -0.005933623579437306
0.012785322895071626   -0.0663701511314698   -0.005438191972663189
0.026676665472448718   -0.06646119681484998   -0.005719141854088804
0.02718810898476103   -0.09242022487418303   -0.005933623579437306
0.026747725999105066   -0.06658102365144858   -0.0055736639280115526
0.012785322895071626   -0.0663701511314698   -0.005438191972663189
0.02718810898476103   -0.09242022487418303   -0.005933623579437306
0.012452470669121347   -0.09256311763784637   -0.005740070155687848
0.012392922228930623   -0.09261501745434435   -0.00580733347625281
0.012785322895071626   -0.0663701511314698   -0.005438191972663189
0.02718810898476103   -0.09242022487418303   -0.005933623579437306
0.012392922228930623   -0.09261501745434435   -0.00580733347625281
0.026747725999105066   -0.06658102365144858   -0.0055736639280115526
0.012785322895071626   -0.0663701511314698   -0.005438191972663189
0.012452470669121347   -0.09256311763784637   -0.005740070155687848
0.026676665472448718   -0.06646119681484998   -0.005719141854088804
0.012754475651090707   -0.06623245448348451   -0.005495476480574943
0.012452470669121347   -0.09256311763784637   -0.005740070155687848
0.02718810898476103   -0.09242022487418303   -0.005933623579437306
0.026676665472448718   -0.06646119681484998   -0.005719141854088804
0.027207081422314934   -0.09226931004866538   -0.005936294658025175
0.012754475651090707   -0.06623245448348451   -0.005495476480574943
0.02648953202743659   -0.06623186368956274   -0.00590265892350183
0.027207081422314934   -0.09226931004866538   -0.005936294658025175
0.026676665472448718   -0.06646119681484998   -0.005719141854088804
0.012754475651090707   -0.06623245448348451   -0.005495476480574943
0.027207081422314934   -0.09226931004866538   -0.005936294658025175
0.01246259475108864   -0.09248631389148652   -0.0056976448975006025
0.012452470669121347   -0.09256311763784637   -0.005740070155687848
0.012754475651090707   -0.06623245448348451   -0.005495476480574943
0.027207081422314934   -0.09226931004866538   -0.005936294658025175
0.012452470669121347   -0.09256311763784637   -0.005740070155687848
0.026676665472448718   -0.06646119681484998   -0.005719141854088804
-0.042191354272293584   -0.0929633384529705   -0.006990701994836062
-0.04352446126538757   -0.11946701516183068   -0.00686971819657597
-0.027714738570013248   -0.09281347305550978   -0.0064604780442556135
-0.04237488776339246   -0.0932880053380309   -0.006797054419799898
-0.04352446126538757   -0.11946701516183068   -0.00686971819657597
-0.029056245341168373   -0.11953584738487041   -0.006476954622511595
-0.027714738570013248   -0.09281347305550978   -0.0064604780442556135
-0.02897984479875503   -0.11973526428044111   -0.0064167251335820515
-0.04237488776339246   -0.0932880053380309   -0.006797054419799898
-0.027706085980060562   -0.09305508539320084   -0.006301991843702716
-0.02897984479875503   -0.11973526428044111   -0.0064167251335820515
-0.027714738570013248   -0.09281347305550978   -0.0064604780442556135
-0.04237488776339246   -0.0932880053380309   -0.006797054419799898
-0.02897984479875503   -0.11973526428044111   -0.0064167251335820515
-0.04347678112811288   -0.11973373222507516   -0.006856353481231851
-0.04352446126538757   -0.11946701516183068   -0.00686971819657597
-0.04237488776339246   -0.0932880053380309   -0.006797054419799898
-0.02897984479875503   -0.11973526428044111   -0.0064167251335820515
-0.04352446126538757   -0.11946701516183068   -0.00686971819657597
-0.027714738570013248   -0.09281347305550978   -0.0064604780442556135
-0.04237488776339246   -0.0932880053380309   -0.006797054419799898
-0.04347678112811288   -0.11973373222507516   -0.006856353481231851
-0.027706085980060562   -0.09305508539320084   -0.006301991843702716
-0.0424352785504944   -0.09355249851570188   -0.006641280259397806
-0.04347678112811288   -0.11973373222507516   -0.006856353481231851
-0.02897984479875503   -0.11973526428044111   -0.0064167251335820515
-0.027706085980060562   -0.09305508539320084   -0.006301991843702716
-0.028859728180408363   -0.119955884649826   -0.00638368015135957
-0.0424352785504944   -0.09355249851570188   -0.006641280259397806
-0.027671314562133384   -0.09327771513704432   -0.006169813462437649
-0.028859728180408363   -0.119955884649826   -0.00638368015135957
-0.027706085980060562   -0.09305508539320084   -0.006301991843702716
-0.0424352785504944   -0.09355249851570188   -0.006641280259397806
-0.028859728180408363   -0.119955884649826   -0.00638368015135957
-0.043345648283148644   -0.11999230821998966   -0.006883620873218256
-0.04347678112811288   -0.11973373222507516   -0.006856353481231851
-0.0424352785504944   -0.09355249851570188   -0.006641280259397806
-0.028859728180408363   -0.119955884649826   -0.00638368015135957
-0.04347678112811288   -0.11973373222507516   -0.006856353481231851
-0.027706085980060562   -0.09305508539320084   -0.006301991843702716
-0.0424352785504944   -0.09355249851570188   -0.006641280259397806
-0.043345648283148644   -0.11999230821998966   -0.006883620873218256
-0.027671314562133384   -0.09327771513704432   -0.006169813462437649
-0.04245766339897999   -0.09383935605283912   -0.006526607750180713
-0.043345648283148644   -0.11999230821998966   -0.006883620873218256
-0.028859728180408363   -0.119955884649826   -0.00638368015135957
-0.027671314562133384   -0.09327771513704432   -0.006169813462437649
-0.02870360761982228   -0.12021287647583229   -0.006377402470207987
-0.04245766339897999   -0.09383935605283912   -0.006526607750180713
-0.02758202690063054   -0.09349830822144081   -0.0060621214780959744
-0.02870360761982228   -0.12021287647583229   -0.006377402470207987
-0.027671314562133384   -0.09327771513704432   -0.006169813462437649
-0.04245766339897999   -0.09383935605283912   -0.006526607750180713
-0.02870360761982228   -0.12021287647583229   -0.006377402470207987
-0.043131563391313646   -0.1203250399937101   -0.006953544666254504
-0.043345648283148644   -0.11999230821998966   -0.006883620873218256
-0.04245766339897999   -0.09383935605283912   -0.006526607750180713
-0.02870360761982228   -0.12021287647583229   -0.006377402470207987
-0.043345648283148644   -0.11999230821998966   -0.006883620873218256
-0.027671314562133384   -0.09327771513704432   -0.006169813462437649
-0.027714738570013248   -0.09281347305550978   -0.0064604780442556135
-0.029056245341168373   -0.11953584738487041   -0.006476954622511595
-0.014266419258524583   -0.09272797177518521   -0.006099425682158912
-0.027706085980060562   -0.09305508539320084   -0.006301991843702716
-0.029056245341168373   -0.11953584738487041   -0.006476954622511595
-0.015804735675427953   -0.11955113432208635   -0.006215807166649963
-0.014266419258524583   -0.09272797177518521   -0.006099425682158912
-0.015701869494102835   -0.11966571046933411   -0.00610937786716539
-0.027706085980060562   -0.09305508539320084   -0.006301991843702716
-0.01421850272242522   -0.09287440373980509   -0.005961620177010309
-0.015701869494102835   -0.11966571046933411   -0.00610937786716539
-0.014266419258524583   -0.09272797177518521   -0.006099425682158912
-0.027706085980060562   -0.09305508539320084   -0.006301991843702716
-0.015701869494102835   -0.11966571046933411   -0.00610937786716539
-0.02897984479875503   -0.11973526428044111   -0.0064167251335820515
-0.029056245341168373   -0.11953584738487041   -0.006476954622511595
-0.027706085980060562   -0.09305508539320084   -0.006301991843702716
-0.015701869494102835   -0.11966571046933411   -0.00610937786716539
-0.029056245341168373   -0.11953584738487041   -0.006476954622511595
-0.014266419258524583   -0.09272797177518521   -0.006099425682158912
-0.027706085980060562   -0.09305508539320084   -0.006301991843702716
-0.02897984479875503   -0.11973526428044111   -0.0064167251335820515
-0.01421850272242522   -0.09287440373980509   -0.005961620177010309
-0.027671314562133384   -0.09327771513704432   -0.006169813462437649
-0.02897984479875503   -0.11973526428044111   -0.0064167251335820515
-0.015701869494102835   -0.11966571046933411   -0.00610937786716539
-0.01421850272242522   -0.09287440373980509   -0.005961620177010309
-0.015585418278948009   -0.11980472411207303   -0.006030244892280024
-0.027671314562133384   -0.09327771513704432   -0.006169813462437649
-0.014159183036501898   -0.09300861459632169   -0.0058501561158832245
-0.015585418278948009   -0.11980472411207303   -0.006030244892280024
-0.01421850272242522   -0.09287440373980509   -0.005961620177010309
-0.027671314562133384   -0.09327771513704432   -0.006169813462437649
-0.015585418278948009   -0.11980472411207303   -0.006030244892280024
-0.028859728180408363   -0.119955884649826   -0.00638368015135957
-0.02897984479875503   -0.11973526428044111   -0.0064167251335820515
-0.027671314562133384   -0.09327771513704432   -0.006169813462437649
-0.015585418278948009   -0.11980472411207303   -0.006030244892280024
-0.02897984479875503   -0.11973526428044111   -0.0064167251335820515
-0.01421850272242522   -0.09287440373980509   -0.005961620177010309
-0.027671314562133384   -0.09327771513704432   -0.006169813462437649
-0.028859728180408363   -0.119955884649826   -0.00638368015135957
-0.014159183036501898   -0.09300861459632169   -0.0058501561158832245
-0.02758202690063054   -0.09349830822144081   -0.0060621214780959744
-0.028859728180408363   -0.119955884649826   -0.00638368015135957
-0.015585418278948009   -0.11980472411207303   -0.006030244892280024
-0.014159183036501898   -0.09300861459632169   -0.0058501561158832245
-0.015459830450013217   -0.11996860794515227   -0.005979281137779005
-0.02758202690063054   -0.09349830822144081   -0.0060621214780959744
-0.014087476382688343   -0.09313104123166845   -0.005765655291451489
-0.015459830450013217   -0.11996860794515227   -0.005979281137779005
-0.014159183036501898   -0.09300861459632169   -0.0058501561158832245
-0.02758202690063054   -0.09349830822144081   -0.0060621214780959744
-0.015459830450013217   -0.11996860794515227   -0.005979281137779005
-0.02870360761982228   -0.12021287647583229   -0.006377402470207987
-0.028859728180408363   -0.119955884649826   -0.00638368015135957
-0.02758202690063054   -0.09349830822144081   -0.0060621214780959744
-0.015459830450013217   -0.11996860794515227   -0.005979281137779005
-0.028859728180408363   -0.119955884649826   -0.00638368015135957
-0.014159183036501898   -0.09300861459632169   -0.0058501561158832245
-0.014266419258524583   -0.09272797177518521   -0.006099425682158912
-0.015804735675427953   -0.11955113432208635   -0.006215807166649963
-0.0011818703098507792   -0.09267932658211221   -0.005912071345809126
-0.01421850272242522   -0.09287440373980509   -0.005961620177010309
-0.015804735675427953   -0.11955113432208635   -0.006215807166649963
-0.002928432789516401   -0.11948129989915446   -0.00610835487701062
-0.0011818703098507792   -0.09267932658211221   -0.005912071345809126
-0.002806580825277491   -0.11950828417049209   -0.005958020883150468
-0.01421850272242522   -0.09287440373980509   -0.005961620177010309
-0.0011140704438507734   -0.09272890978482398   -0.005796296660349535
-0.002806580825277491   -0.11950828417049209   -0.005958020883150468
-0.0011818703098507792   -0.09267932658211221   -0.005912071345809126
-0.01421850272242522   -0.09287440373980509   -0.005961620177010309
-0.002806580825277491   -0.11950828417049209   -0.005958020883150468
-0.015701869494102835   -0.11966571046933411   -0.00610937786716539
-0.015804735675427953   -0.11955113432208635   -0.006215807166649963
-0.01421850272242522   -0.09287440373980509   -0.005961620177010309
-0.002806580825277491   -0.11950828417049209   -0.005958020883150468
-0.015804735675427953   -0.11955113432208635   -0.006215807166649963
-0.0011818703098507792   -0.09267932658211221   -0.005912071345809126
-0.01421850272242522   -0.09287440373980509   -0.005961620177010309
-0.015701869494102835   -0.11966571046933411   -0.00610937786716539
-0.0011140704438507734   -0.09272890978482398   -0.005796296660349535
-0.014159183036501898   -0.09300861459632169   -0.0058501561158832245
-0.015701869494102835   -0.11966571046933411   -0.00610937786716539
-0.002806580825277491   -0.11950828417049209   -0.005958020883150468
-0.0011140704438507734   -0.09272890978482398   -0.005796296660349535
-0.0026913867798775   -0.11955776484392582   -0.005834780140621664
-0.014159183036501898   -0.09300861459632169   -0.0058501561158832245
-0.0010556522565176385   -0.09276541912831288   -0.0057066263701805505
-0.0026913867798775   -0.11955776484392582   -0.005834780140621664
-0.0011140704438507734   -0.09272890978482398   -0.005796296660349535
-0.014159183036501898   -0.09300861459632169   -0.0058501561158832245
-0.0026913867798775   -0.11955776484392582   -0.005834780140621664
-0.015585418278948009   -0.11980472411207303   -0.006030244892280024
-0.015701869494102835   -0.11966571046933411   -0.00610937786716539
-0.014159183036501898   -0.09300861459632169   -0.0058501561158832245
-0.0026913867798775   -0.11955776484392582   -0.005834780140621664
-0.015701869494102835   -0.11966571046933411   -0.00610937786716539
-0.0011140704438507734   -0.09272890978482398   -0.005796296660349535
-0.014159183036501898   -0.09300861459632169   -0.0058501561158832245
-0.015585418278948009   -0.11980472411207303   -0.006030244892280024
-0.0010556522565176385   -0.09276541912831288   -0.0057066263701805505
-0.014087476382688343   -0.09313104123166845   -0.005765655291451489
-0.015585418278948009   -0.11980472411207303   -0.006030244892280024
-0.0026913867798775   -0.11955776484392582   -0.005834780140621664
-0.0010556522565176385   -0.09276541912831288   -0.0057066263701805505
-0.0025938734671262062   -0.11963088415561156   -0.005739584342896696
-0.014087476382688343   -0.09313104123166845   -0.005765655291451489
-0.0010117057867241415   -0.09278867477933245   -0.00564401844685359
-0.0025938734671262062   -0.11963088415561156   -0.005739584342896696
-0.0010556522565176385   -0.09276541912831288   -0.0057066263701805505
-0.014087476382688343   -0.09313104123166845   -0.005765655291451489
-0.0025938734671262062   -0.11963088415561156   -0.005739584342896696
-0.015459830450013217   -0.11996860794515227   -0.005979281137779005
-0.015585418278948009   -0.11980472411207303   -0.006030244892280024
-0.014087476382688343   -0.09313104123166845   -0.005765655291451489
-0.0025938734671262062   -0.11963088415561156   -0.005739584342896696
-0.015585418278948009   -0.11980472411207303   -0.006030244892280024
-0.0010556522565176385   -0.09276541912831288   -0.0057066263701805505
-0.0011818703098507792   -0.09267932658211221   -0.005912071345809126
-0.002928432789516401   -0.11948129989915446   -0.00610835487701062
0.012302540223677005   -0.09265917527520882   -0.005899960767423586
-0.0011140704438507734   -0.09272890978482398   -0.005796296660349535
-0.002928432789516401   -0.11948129989915446   -0.00610835487701062
0.0103367879226866   -0.11932587474348307   -0.00615962246399144
0.012302540223677005   -0.09265917527520882   -0.005899960767423586
0.010492425729420387   -0.11926502329597288   -0.005966202058514251
-0.0011140704438507734   -0.09272890978482398   -0.005796296660349535
0.012392922228930623   -0.09261501745434435   -0.00580733347625281
0.010492425729420387   -0.11926502329597288   -0.005966202058514251
0.012302540223677005   -0.09265917527520882   -0.005899960767423586
-0.0011140704438507734   -0.09272890978482398   -0.005796296660349535
0.010492425729420387   -0.11926502329597288   -0.005966202058514251
-0.002806580825277491   -0.11950828417049209   -0.005958020883150468
-0.002928432789516401   -0.11948129989915446   -0.00610835487701062
-0.0011140704438507734   -0.09272890978482398   -0.005796296660349535
0.010492425729420387   -0.11926502329597288   -0.005966202058514251
-0.002928432789516401   -0.11948129989915446   -0.00610835487701062
0.012302540223677005   -0.09265917527520882   -0.005899960767423586
-0.0011140704438507734   -0.09272890978482398   -0.005796296660349535
-0.002806580825277491   -0.11950828417049209   -0.005958020883150468
0.012392922228930623   -0.09261501745434435   -0.00580733347625281
-0.0010556522565176385   -0.09276541912831288   -0.0057066263701805505
-0.002806580825277491   -0.11950828417049209   -0.005958020883150468
0.010492425729420387   -0.11926502329597288   -0.005966202058514251
0.012392922228930623   -0.09261501745434435   -0.00580733347625281
0.010635969605901817   -0.11923341116357844   -0.005799800167311884
-0.0010556522565176385   -0.09276541912831288   -0.0057066263701805505
0.012452470669121347   -0.09256311763784637   -0.005740070155687848
0.010635969605901817   -0.11923341116357844   -0.005799800167311884
0.012392922228930623   -0.09261501745434435   -0.00580733347625281
-0.0010556522565176385   -0.09276541912831288   -0.0057066263701805505
0.010635969605901817   -0.11923341116357844   -0.005799800167311884
-0.0026913867798775   -0.11955776484392582   -0.005834780140621664
-0.002806580825277491   -0.11950828417049209   -0.005958020883150468
-0.0010556522565176385   -0.09276541912831288   -0.0057066263701805505
0.010635969605901817   -0.11923341116357844   -0.005799800167311884
-0.002806580825277491   -0.11950828417049209   -0.005958020883150468
0.012392922228930623   -0.09261501745434435   -0.00580733347625281
-0.0010556522565176385   -0.09276541912831288   -0.0057066263701805505
-0.0026913867798775   -0.11955776484392582   -0.005834780140621664
0.012452470669121347   -0.09256311763784637   -0.005740070155687848
-0.0010117057867241415   -0.09278867477933245   -0.00564401844685359
-0.0026913867798775   -0.11955776484392582   -0.005834780140621664
0.010635969605901817   -0.11923341116357844   -0.005799800167311884
0.012452470669121347   -0.09256311763784637   -0.005740070155687848
0.010712164859634535   -0.11921555129080477   -0.005658653028193716
-0.0010117057867241415   -0.09278867477933245   -0.00564401844685359
0.01246259475108864   -0.09248631389148652   -0.0056976448975006025
0.010712164859634535   -0.11921555129080477   -0.005658653028193716
0.012452470669121347   -0.09256311763784637   -0.005740070155687848
-0.0010117057867241415   -0.09278867477933245   -0.00564401844685359
0.010712164859634535   -0.11921555129080477   -0.005658653028193716
-0.0025938734671262062   -0.11963088415561156   -0.005739584342896696
-0.0026913867798775   -0.11955776484392582   -0.005834780140621664
-0.0010117057867241415   -0.09278867477933245   -0.00564401844685359
0.010712164859634535   -0.11921555129080477   -0.005658653028193716
-0.0026913867798775   -0.11955776484392582   -0.005834780140621664
0.012452470669121347   -0.09256311763784637   -0.005740070155687848
0.012302540223677005   -0.09265917527520882   -0.005899960767423586
0.0103367879226866   -0.11932587474348307   -0.00615962246399144
0.02691766899451713   -0.09263194882314141   -0.006045125291544312
0.012392922228930623   -0.09261501745434435   -0.00580733347625281
0.0103367879226866   -0.11932587474348307   -0.00615962246399144
0.024543186460947802   -0.11906508153458283   -0.006377639968360625
0.02691766899451713   -0.09263194882314141   -0.006045125291544312
0.02495071432988393   -0.11892468580609242   -0.006124163088354816
0.012392922228930623   -0.09261501745434435   -0.00580733347625281
0.02709557759717807   -0.09251379023533807   -0.005970118787765468
0.02495071432988393   -0.11892468580609242   -0.006124163088354816
0.02691766899451713   -0.09263194882314141   -0.006045125291544312
0.012392922228930623   -0.09261501745434435   -0.00580733347625281
0.02495071432988393   -0.11892468580609242   -0.006124163088354816
0.010492425729420387   -0.11926502329597288   -0.005966202058514251
0.0103367879226866   -0.11932587474348307   -0.00615962246399144
0.012392922228930623   -0.09261501745434435   -0.00580733347625281
0.02495071432988393   -0.11892468580609242   -0.006124163088354816
0.0103367879226866   -0.11932587474348307   -0.00615962246399144
0.02691766899451713   -0.09263194882314141   -0.006045125291544312
0.012392922228930623   -0.09261501745434435   -0.00580733347625281
0.010492425729420387   -0.11926502329597288   -0.005966202058514251
0.02709557759717807   -0.09251379023533807   -0.005970118787765468
0.012452470669121347   -0.09256311763784637   -0.005740070155687848
0.010492425729420387   -0.11926502329597288   -0.005966202058514251
0.02495071432988393   -0.11892468580609242   -0.006124163088354816
0.02709557759717807   -0.09251379023533807   -0.005970118787765468
0.025230009101159696   -0.11885664470446435   -0.005909134132291881
0.012452470669121347   -0.09256311763784637   -0.005740070155687848
0.02718810898476103   -0.09242022487418303   -0.005933623579437306
0.025230009101159696   -0.11885664470446435   -0.005909134132291881
0.02709557759717807   -0.09251379023533807   -0.005970118787765468
0.012452470669121347   -0.09256311763784637   -0.005740070155687848
0.025230009101159696   -0.11885664470446435   -0.005909134132291881
0.010635969605901817   -0.11923341116357844   -0.005799800167311884
0.010492425729420387   -0.11926502329597288   -0.005966202058514251
0.012452470669121347   -0.09256311763784637   -0.005740070155687848
0.025230009101159696   -0.11885664470446435   -0.005909134132291881
0.010492425729420387   -0.11926502329597288   -0.005966202058514251
0.02709557759717807   -0.09251379023533807   -0.005970118787765468
0.012452470669121347   -0.09256311763784637   -0.005740070155687848
0.010635969605901817   -0.11923341116357844   -0.005799800167311884
0.02718810898476103   -0.09242022487418303   -0.005933623579437306
0.01246259475108864   -0.09248631389148652   -0.0056976448975006025
0.010635969605901817   -0.11923341116357844   -0.005799800167311884
0.025230009101159696   -0.11885664470446435   -0.005909134132291881
0.02718810898476103   -0.09242022487418303   -0.005933623579437306
0.025477040774064767   -0.11878209548184308   -0.005734141778075233
0.01246259475108864   -0.09248631389148652   -0.0056976448975006025
0.027207081422314934   -0.09226931004866538   -0.005936294658025175
0.025477040774064767   -0.11878209548184308   -0.005734141778075233
0.02718810898476103   -0.09242022487418303   -0.005933623579437306
0.01246259475108864   -0.09248631389148652   -0.0056976448975006025
0.025477040774064767   -0.11878209548184308   -0.005734141778075233
0.010712164859634535   -0.11921555129080477   -0.005658653028193716
0.010635969605901817   -0.11923341116357844   -0.005799800167311884
0.01246259475108864   -0.09248631389148652   -0.0056976448975006025
0.025477040774064767   -0.11878209548184308   -0.005734141778075233
0.010635969605901817   -0.11923341116357844   -0.005799800167311884
0.02718810898476103   -0.09242022487418303   -0.005933623579437306
-0.04352446126538757   -0.11946701516183068   -0.00686971819657597
-0.04236683654113805   -0.14479258273352194   -0.006565697838542102
-0.029056245341168373   -0.11953584738487041   -0.006476954622511595
-0.04347678112811288   -0.11973373222507516   -0.006856353481231851
-0.04236683654113805   -0.14479258273352194   -0.006565697838542102
-0.02893922306965783   -0.1450845375562212   -0.006328585610844109
-0.029056245341168373   -0.11953584738487041   -0.006476954622511595
-0.028769810005240808   -0.14523360537099828   -0.006364178851574555
-0.04347678112811288   -0.11973373222507516   -0.006856353481231851
-0.02897984479875503   -0.11973526428044111   -0.0064167251335820515
-0.028769810005240808   -0.14523360537099828   -0.006364178851574555
-0.029056245341168373   -0.11953584738487041   -0.006476954622511595
-0.04347678112811288   -0.11973373222507516   -0.006856353481231851
-0.028769810005240808   -0.14523360537099828   -0.006364178851574555
-0.04206112868235579   -0.14499382209901382   -0.006733372912348597
-0.04236683654113805   -0.14479258273352194   -0.006565697838542102
-0.04347678112811288   -0.11973373222507516   -0.006856353481231851
-0.028769810005240808   -0.14523360537099828   -0.006364178851574555
-0.04236683654113805   -0.14479258273352194   -0.006565697838542102
-0.029056245341168373   -0.11953584738487041   -0.006476954622511595
-0.04347678112811288   -0.11973373222507516   -0.006856353481231851
-0.04206112868235579   -0.14499382209901382   -0.006733372912348597
-0.02897984479875503   -0.11973526428044111   -0.0064167251335820515
-0.043345648283148644   -0.11999230821998966   -0.006883620873218256
-0.04206112868235579   -0.14499382209901382   -0.006733372912348597
-0.028769810005240808   -0.14523360537099828   -0.006364178851574555
-0.02897984479875503   -0.11973526428044111   -0.0064167251335820515
-0.028540148374736122   -0.14544541421774781   -0.0064277092582191026
-0.043345648283148644   -0.11999230821998966   -0.006883620873218256
-0.028859728180408363   -0.119955884649826   -0.00638368015135957
-0.028540148374736122   -0.14544541421774781   -0.0064277092582191026
-0.02897984479875503   -0.11973526428044111   -0.0064167251335820515
-0.043345648283148644   -0.11999230821998966   -0.006883620873218256
-0.028540148374736122   -0.14544541421774781   -0.0064277092582191026
-0.041711557949404836   -0.14524027829830968   -0.006944996669481563
-0.04206112868235579   -0.14499382209901382   -0.006733372912348597
-0.043345648283148644   -0.11999230821998966   -0.006883620873218256
-0.028540148374736122   -0.14544541421774781   -0.0064277092582191026
-0.04206112868235579   -0.14499382209901382   -0.006733372912348597
-0.02897984479875503   -0.11973526428044111   -0.0064167251335820515
-0.043345648283148644   -0.11999230821998966   -0.006883620873218256
-0.041711557949404836   -0.14524027829830968   -0.006944996669481563
-0.028859728180408363   -0.119955884649826   -0.00638368015135957
-0.043131563391313646   -0.1203250399937101   -0.006953544666254504
-0.041711557949404836   -0.14524027829830968   -0.006944996669481563
-0.028540148374736122   -0.14544541421774781   -0.0064277092582191026
-0.028859728180408363   -0.119955884649826   -0.00638368015135957
-0.028293591064145786   -0.14573286446865039   -0.006520021345233442
-0.043131563391313646   -0.1203250399937101   -0.006953544666254504
-0.02870360761982228   -0.12021287647583229   -0.006377402470207987
-0.028293591064145786   -0.14573286446865039   -0.006520021345233442
-0.028859728180408363   -0.119955884649826   -0.00638368015135957
-0.043131563391313646   -0.1203250399937101   -0.006953544666254504
-0.028293591064145786   -0.14573286446865039   -0.006520021345233442
-0.04123510341580411   -0.14561516250857975   -0.00720134847638882
-0.041711557949404836   -0.14524027829830968   -0.006944996669481563
-0.043131563391313646   -0.1203250399937101   -0.006953544666254504
-0.028293591064145786   -0.14573286446865039   -0.006520021345233442
-0.041711557949404836   -0.14524027829830968   -0.006944996669481563
-0.028859728180408363   -0.119955884649826   -0.00638368015135957
-0.029056245341168373   -0.11953584738487041   -0.006476954622511595
-0.02893922306965783   -0.1450845375562212   -0.006328585610844109
-0.015804735675427953   -0.11955113432208635   -0.006215807166649963
-0.02897984479875503   -0.11973526428044111   -0.0064167251335820515
-0.02893922306965783   -0.1450845375562212   -0.006328585610844109
-0.016906251236161764   -0.14520057331444514   -0.006176696275166801
-0.015804735675427953   -0.11955113432208635   -0.006215807166649963
-0.01672160236967838   -0.14527825939224295   -0.00609922584605641
-0.02897984479875503   -0.11973526428044111   -0.0064167251335820515
-0.015701869494102835   -0.11966571046933411   -0.00610937786716539
-0.01672160236967838   -0.14527825939224295   -0.00609922584605641
-0.015804735675427953   -0.11955113432208635   -0.006215807166649963
-0.02897984479875503   -0.11973526428044111   -0.0064167251335820515
-0.01672160236967838   -0.14527825939224295   -0.00609922584605641
-0.028769810005240808   -0.14523360537099828   -0.006364178851574555
-0.02893922306965783   -0.1450845375562212   -0.006328585610844109
-0.02897984479875503   -0.11973526428044111   -0.0064167251335820515
-0.01672160236967838   -0.14527825939224295   -0.00609922584605641
-0.02893922306965783   -0.1450845375562212   -0.006328585610844109
-0.015804735675427953   -0.11955113432208635   -0.006215807166649963
-0.02897984479875503   -0.11973526428044111   -0.0064167251335820515
-0.028769810005240808   -0.14523360537099828   -0.006364178851574555
-0.015701869494102835   -0.11966571046933411   -0.00610937786716539
-0.028859728180408363   -0.119955884649826   -0.00638368015135957
-0.028769810005240808   -0.14523360537099828   -0.006364178851574555
-0.01672160236967838   -0.14527825939224295   -0.00609922584605641
-0.015701869494102835   -0.11966571046933411   -0.00610937786716539
-0.016522910195042127   -0.14541630520634005   -0.00604935608541287
-0.028859728180408363   -0.119955884649826   -0.00638368015135957
-0.015585418278948009   -0.11980472411207303   -0.006030244892280024
-0.016522910195042127   -0.14541630520634005   -0.00604935608541287
-0.015701869494102835   -0.11966571046933411   -0.00610937786716539
-0.028859728180408363   -0.119955884649826   -0.00638368015135957
-0.016522910195042127   -0.14541630520634005   -0.00604935608541287
-0.028540148374736122   -0.14544541421774781   -0.0064277092582191026
-0.028769810005240808   -0.14523360537099828   -0.006364178851574555
-0.028859728180408363   -0.119955884649826   -0.00638368015135957
-0.016522910195042127   -0.14541630520634005   -0.00604935608541287
-0.028769810005240808   -0.14523360537099828   -0.006364178851574555
-0.015701869494102835   -0.11966571046933411   -0.00610937786716539
-0.028859728180408363   -0.119955884649826   -0.00638368015135957
-0.028540148374736122   -0.14544541421774781   -0.0064277092582191026
-0.015585418278948009   -0.11980472411207303   -0.006030244892280024
-0.02870360761982228   -0.12021287647583229   -0.006377402470207987
-0.028540148374736122   -0.14544541421774781   -0.0064277092582191026
-0.016522910195042127   -0.14541630520634005   -0.00604935608541287
-0.015585418278948009   -0.11980472411207303   -0.006030244892280024
-0.016318674867359034   -0.1456164739371058   -0.006028423888130357
-0.02870360761982228   -0.12021287647583229   -0.006377402470207987
-0.015459830450013217   -0.11996860794515227   -0.005979281137779005
-0.016318674867359034   -0.1456164739371058   -0.006028423888130357
-0.015585418278948009   -0.11980472411207303   -0.006030244892280024
-0.02870360761982228   -0.12021287647583229   -0.006377402470207987
-0.016318674867359034   -0.1456164739371058   -0.006028423888130357
-0.028293591064145786   -0.14573286446865039   -0.006520021345233442
-0.028540148374736122   -0.14544541421774781   -0.0064277092582191026
-0.02870360761982228   -0.12021287647583229   -0.006377402470207987
-0.016318674867359034   -0.1456164739371058   -0.006028423888130357
-0.028540148374736122   -0.14544541421774781   -0.0064277092582191026
-0.015585418278948009   -0.11980472411207303   -0.006030244892280024
-0.015804735675427953   -0.11955113432208635   -0.006215807166649963
-0.016906251236161764   -0.14520057331444514   -0.006176696275166801
-0.002928432789516401   -0.11948129989915446   -0.00610835487701062
-0.015701869494102835   -0.11966571046933411   -0.00610937786716539
-0.016906251236161764   -0.14520057331444514   -0.006176696275166801
-0.005238263382918788   -0.14511250786892219   -0.006150663634036341
-0.002928432789516401   -0.11948129989915446   -0.00610835487701062
-0.005034004192916886   -0.14511476504968107   -0.00596400780689237
-0.015701869494102835   -0.11966571046933411   -0.00610937786716539
-0.002806580825277491   -0.11950828417049209   -0.005958020883150468
-0.005034004192916886   -0.14511476504968107   -0.00596400780689237
-0.002928432789516401   -0.11948129989915446   -0.00610835487701062
-0.015701869494102835   -0.11966571046933411   -0.00610937786716539
-0.005034004192916886   -0.14511476504968107   -0.00596400780689237
-0.01672160236967838   -0.14527825939224295   -0.00609922584605641
-0.016906251236161764   -0.14520057331444514   -0.006176696275166801
-0.015701869494102835   -0.11966571046933411   -0.00610937786716539
-0.005034004192916886   -0.14511476504968107   -0.00596400780689237
-0.016906251236161764   -0.14520057331444514   -0.006176696275166801
-0.002928432789516401   -0.11948129989915446   -0.00610835487701062
-0.015701869494102835   -0.11966571046933411   -0.00610937786716539
-0.01672160236967838   -0.14527825939224295   -0.00609922584605641
-0.002806580825277491   -0.11950828417049209   -0.005958020883150468
-0.015585418278948009   -0.11980472411207303   -0.006030244892280024
-0.01672160236967838   -0.14527825939224295   -0.00609922584605641
-0.005034004192916886   -0.14511476504968107   -0.00596400780689237
-0.002806580825277491   -0.11950828417049209   -0.005958020883150468
-0.004835140486356149   -0.14517290942458283   -0.005805012203127487
-0.015585418278948009   -0.11980472411207303   -0.006030244892280024
-0.0026913867798775   -0.11955776484392582   -0.005834780140621664
-0.004835140486356149   -0.14517290942458283   -0.005805012203127487
-0.002806580825277491   -0.11950828417049209   -0.005958020883150468
-0.015585418278948009   -0.11980472411207303   -0.006030244892280024
-0.004835140486356149   -0.14517290942458283   -0.005805012203127487
-0.016522910195042127   -0.14541630520634005   -0.00604935608541287
-0.01672160236967838   -0.14527825939224295   -0.00609922584605641
-0.015585418278948009   -0.11980472411207303   -0.006030244892280024
-0.004835140486356149   -0.14517290942458283   -0.005805012203127487
-0.01672160236967838   -0.14527825939224295   -0.00609922584605641
-0.002806580825277491   -0.11950828417049209   -0.005958020883150468
-0.015585418278948009   -0.11980472411207303   -0.006030244892280024
-0.016522910195042127   -0.14541630520634005   -0.00604935608541287
-0.0026913867798775   -0.11955776484392582   -0.005834780140621664
-0.015459830450013217   -0.11996860794515227   -0.005979281137779005
-0.016522910195042127   -0.14541630520634005   -0.00604935608541287
-0.004835140486356149   -0.14517290942458283   -0.005805012203127487
-0.0026913867798775   -0.11955776484392582   -0.005834780140621664
-0.00465783142739231   -0.1452918004818572   -0.005674642369872664
-0.015459830450013217   -0.11996860794515227   -0.005979281137779005
-0.0025938734671262062   -0.11963088415561156   -0.005739584342896696
-0.00465783142739231   -0.1452918004818572   -0.005674642369872664
-0.0026913867798775   -0.11955776484392582   -0.005834780140621664
-0.015459830450013217   -0.11996860794515227   -0.005979281137779005
-0.00465783142739231   -0.1452918004818572   -0.005674642369872664
-0.016318674867359034   -0.1456164739371058   -0.006028423888130357
-0.016522910195042127   -0.14541630520634005   -0.00604935608541287
-0.015459830450013217   -0.11996860794515227   -0.005979281137779005
-0.00465783142739231   -0.1452918004818572   -0.005674642369872664
-0.016522910195042127   -0.14541630520634005   -0.00604935608541287
-0.0026913867798775   -0.11955776484392582   -0.005834780140621664
-0.002928432789516401   -0.11948129989915446   -0.00610835487701062
-0.005238263382918788   -0.14511250786892219   -0.006150663634036341
0.0103367879226866   -0.11932587474348307   -0.00615962246399144
-0.002806580825277491   -0.11950828417049209   -0.005958020883150468
-0.005238263382918788   -0.14511250786892219   -0.006150663634036341
0.006834401597468558   -0.14482658361549033   -0.006260384208990323
0.0103367879226866   -0.11932587474348307   -0.00615962246399144
0.007084089731183315   -0.14474833531297185   -0.005965618066578175
-0.002806580825277491   -0.11950828417049209   -0.005958020883150468
0.010492425729420387   -0.11926502329597288   -0.005966202058514251
0.007084089731183315   -0.14474833531297185   -0.005965618066578175
0.0103367879226866   -0.11932587474348307   -0.00615962246399144
-0.002806580825277491   -0.11950828417049209   -0.005958020883150468
0.007084089731183315   -0.14474833531297185   -0.005965618066578175
-0.005034004192916886   -0.14511476504968107   -0.00596400780689237
-0.005238263382918788   -0.14511250786892219   -0.006150663634036341
-0.002806580825277491   -0.11950828417049209   -0.005958020883150468
0.007084089731183315   -0.14474833531297185   -0.005965618066578175
-0.005238263382918788   -0.14511250786892219   -0.006150663634036341
0.0103367879226866   -0.11932587474348307   -0.00615962246399144
-0.002806580825277491   -0.11950828417049209   -0.005958020883150468
-0.005034004192916886   -0.14511476504968107   -0.00596400780689237
0.010492425729420387   -0.11926502329597288   -0.005966202058514251
-0.0026913867798775   -0.11955776484392582   -0.005834780140621664
-0.005034004192916886   -0.14511476504968107   -0.00596400780689237
0.007084089731183315   -0.14474833531297185   -0.005965618066578175
0.010492425729420387   -0.11926502329597288   -0.005966202058514251
0.0073399379721662324   -0.14473391316694564   -0.005700296161797098
-0.0026913867798775   -0.11955776484392582   -0.005834780140621664
0.010635969605901817   -0.11923341116357844   -0.005799800167311884
0.0073399379721662324   -0.14473391316694564   -0.005700296161797098
0.010492425729420387   -0.11926502329597288   -0.005966202058514251
-0.0026913867798775   -0.11955776484392582   -0.005834780140621664
0.0073399379721662324   -0.14473391316694564   -0.005700296161797098
-0.004835140486356149   -0.14517290942458283   -0.005805012203127487
-0.005034004192916886   -0.14511476504968107   -0.00596400780689237
-0.0026913867798775   -0.11955776484392582   -0.005834780140621664
0.0073399379721662324   -0.14473391316694564   -0.005700296161797098
-0.005034004192916886   -0.14511476504968107   -0.00596400780689237
0.010492425729420387   -0.11926502329597288   -0.005966202058514251
-0.0026913867798775   -0.11955776484392582   -0.005834780140621664
-0.004835140486356149   -0.14517290942458283   -0.005805012203127487
0.010635969605901817   -0.11923341116357844   -0.005799800167311884
-0.0025938734671262062   -0.11963088415561156   -0.005739584342896696
-0.004835140486356149   -0.14517290942458283   -0.005805012203127487
0.0073399379721662324   -0.14473391316694564   -0.005700296161797098
0.010635969605901817   -0.11923341116357844   -0.005799800167311884
0.0075097748795990935   -0.14477150289589283   -0.005460539569240221
-0.0025938734671262062   -0.11963088415561156   -0.005739584342896696
0.010712164859634535   -0.11921555129080477   -0.005658653028193716
0.0075097748795990935   -0.14477150289589283   -0.005460539569240221
0.010635969605901817   -0.11923341116357844   -0.005799800167311884
-0.0025938734671262062   -0.11963088415561156   -0.005739584342896696
0.0075097748795990935   -0.14477150289589283   -0.005460539569240221
-0.00465783142739231   -0.1452918004818572   -0.005674642369872664
-0.004835140486356149   -0.14517290942458283   -0.005805012203127487
-0.0025938734671262062   -0.11963088415561156   -0.005739584342896696
0.0075097748795990935   -0.14477150289589283   -0.005460539569240221
-0.004835140486356149   -0.14517290942458283   -0.005805012203127487
0.010635969605901817   -0.11923341116357844   -0.005799800167311884
0.0103367879226866   -0.11932587474348307   -0.00615962246399144
0.006834401597468558   -0.14482658361549033   -0.006260384208990323
0.024543186460947802   -0.11906508153458283   -0.006377639968360625
0.010492425729420387   -0.11926502329597288   -0.005966202058514251
0.006834401597468558   -0.14482658361549033   -0.006260384208990323
0.019683150463604214   -0.1443351676013804   -0.006545255053827142
0.024543186460947802   -0.11906508153458283   -0.006377639968360625
0.020347253046507245   -0.1441734274708953   -0.006116615823306745
0.010492425729420387   -0.11926502329597288   -0.005966202058514251
0.02495071432988393   -0.11892468580609242   -0.006124163088354816
0.020347253046507245   -0.1441734274708953   -0.006116615823306745
0.024543186460947802   -0.11906508153458283   -0.006377639968360625
0.010492425729420387   -0.11926502329597288   -0.005966202058514251
0.020347253046507245   -0.1441734274708953   -0.006116615823306745
0.007084089731183315   -0.14474833531297185   -0.005965618066578175
0.006834401597468558   -0.14482658361549033   -0.006260384208990323
0.010492425729420387   -0.11926502329597288   -0.005966202058514251
0.020347253046507245   -0.1441734274708953   -0.006116615823306745
0.006834401597468558   -0.14482658361549033   -0.006260384208990323
0.024543186460947802   -0.11906508153458283   -0.006377639968360625
0.010492425729420387   -0.11926502329597288   -0.005966202058514251
0.007084089731183315   -0.14474833531297185   -0.005965618066578175
0.02495071432988393   -0.11892468580609242   -0.006124163088354816
0.010635969605901817   -0.11923341116357844   -0.005799800167311884
0.007084089731183315   -0.14474833531297185   -0.005965618066578175
0.020347253046507245   -0.1441734274708953   -0.006116615823306745
0.02495071432988393   -0.11892468580609242   -0.006124163088354816
0.020838621538997085   -0.14412911882774776   -0.005727106736811578
0.010635969605901817   -0.11923341116357844   -0.005799800167311884
0.025230009101159696   -0.11885664470446435   -0.005909134132291881
0.020838621538997085   -0.14412911882774776   -0.005727106736811578
0.02495071432988393   -0.11892468580609242   -0.006124163088354816
0.010635969605901817   -0.11923341116357844   -0.005799800167311884
0.020838621538997085   -0.14412911882774776   -0.005727106736811578
0.0073399379721662324   -0.14473391316694564   -0.005700296161797098
0.007084089731183315   -0.14474833531297185   -0.005965618066578175
0.010635969605901817   -0.11923341116357844   -0.005799800167311884
0.020838621538997085   -0.14412911882774776   -0.005727106736811578
0.007084089731183315   -0.14474833531297185   -0.005965618066578175
0.02495071432988393   -0.11892468580609242   -0.006124163088354816
0.010635969605901817   -0.11923341116357844   -0.005799800167311884
0.0073399379721662324   -0.14473391316694564   -0.005700296161797098
0.025230009101159696   -0.11885664470446435   -0.005909134132291881
0.010712164859634535   -0.11921555129080477   -0.005658653028193716
0.0073399379721662324   -0.14473391316694564   -0.005700296161797098
0.020838621538997085   -0.14412911882774776   -0.005727106736811578
0.025230009101159696   -0.11885664470446435   -0.005909134132291881
0.02133605861383176   -0.14412854479406742   -0.005378491232904323
0.010712164859634535   -0.11921555129080477   -0.005658653028193716
0.025477040774064767   -0.11878209548184308   -0.005734141778075233
0.02133605861383176   -0.14412854479406742   -0.005378491232904323
0.025230009101159696   -0.11885664470446435   -0.005909134132291881
0.010712164859634535   -0.11921555129080477   -0.005658653028193716
0.02133605861383176   -0.14412854479406742   -0.005378491232904323
0.0075097748795990935   -0.14477150289589283   -0.005460539569240221
0.0073399379721662324   -0.14473391316694564   -0.005700296161797098
0.010712164859634535   -0.11921555129080477   -0.005658653028193716
0.02133605861383176   -0.14412854479406742   -0.005378491232904323
0.0073399379721662324   -0.14473391316694564   -0.005700296161797098
0.025230009101159696   -0.11885664470446435   -0.005909134132291881
-0.04236683654113805   -0.14479258273352194   -0.006565697838542102
-0.03866219899133187   -0.167215363318366   -0.006120932646904172
-0.02893922306965783   -0.1450845375562212   -0.006328585610844109
-0.04206112868235579   -0.14499382209901382   -0.006733372912348597
-0.03866219899133187   -0.167215363318366   -0.006120932646904172
-0.02735767575472951   -0.16774324341249114   -0.006082305353855349
-0.02893922306965783   -0.1450845375562212   -0.006328585610844109
-0.027074718275526516   -0.1678196736828723   -0.006206961010611166
-0.04206112868235579   -0.14499382209901382   -0.006733372912348597
-0.028769810005240808   -0.14523360537099828   -0.006364178851574555
-0.027074718275526516   -0.1678196736828723   -0.006206961010611166
-0.02893922306965783   -0.1450845375562212   -0.006328585610844109
-0.04206112868235579   -0.14499382209901382   -0.006733372912348597
-0.027074718275526516   -0.1678196736828723   -0.006206961010611166
-0.038073727757529666   -0.16732888453524053   -0.006469499985806993
-0.03866219899133187   -0.167215363318366   -0.006120932646904172
-0.04206112868235579   -0.14499382209901382   -0.006733372912348597
-0.027074718275526516   -0.1678196736828723   -0.006206961010611166
-0.03866219899133187   -0.167215363318366   -0.006120932646904172
-0.02893922306965783   -0.1450845375562212   -0.006328585610844109
-0.04206112868235579   -0.14499382209901382   -0.006733372912348597
-0.038073727757529666   -0.16732888453524053   -0.006469499985806993
-0.028769810005240808   -0.14523360537099828   -0.006364178851574555
-0.041711557949404836   -0.14524027829830968   -0.006944996669481563
-0.038073727757529666   -0.16732888453524053   -0.006469499985806993
-0.027074718275526516   -0.1678196736828723   -0.006206961010611166
-0.028769810005240808   -0.14523360537099828   -0.006364178851574555
-0.026719353856604778   -0.16800238931028066   -0.006360030265805432
-0.041711557949404836   -0.14524027829830968   -0.006944996669481563
-0.028540148374736122   -0.14544541421774781   -0.0064277092582191026
-0.026719353856604778   -0.16800238931028066   -0.006360030265805432
-0.028769810005240808   -0.14523360537099828   -0.006364178851574555
-0.041711557949404836   -0.14524027829830968   -0.006944996669481563
-0.026719353856604778   -0.16800238931028066   -0.006360030265805432
-0.03748629618880629   -0.16754329666983306   -0.006864338891280369
-0.038073727757529666   -0.16732888453524053   -0.006469499985806993
-0.041711557949404836   -0.14524027829830968   -0.006944996669481563
-0.026719353856604778   -0.16800238931028066   -0.006360030265805432
-0.038073727757529666   -0.16732888453524053   -0.006469499985806993
-0.028769810005240808   -0.14523360537099828   -0.006364178851574555
-0.041711557949404836   -0.14524027829830968   -0.006944996669481563
-0.03748629618880629   -0.16754329666983306   -0.006864338891280369
-0.028540148374736122   -0.14544541421774781   -0.0064277092582191026
-0.04123510341580411   -0.14561516250857975   -0.00720134847638882
-0.03748629618880629   -0.16754329666983306   -0.006864338891280369
-0.026719353856604778   -0.16800238931028066   -0.006360030265805432
-0.028540148374736122   -0.14544541421774781   -0.0064277092582191026
-0.02636863566431588   -0.16830176040254213   -0.0065412477090633645
-0.04123510341580411   -0.14561516250857975   -0.00720134847638882
-0.028293591064145786   -0.14573286446865039   -0.006520021345233442
-0.02636863566431588   -0.16830176040254213   -0.0065412477090633645
-0.028540148374736122   -0.14544541421774781   -0.0064277092582191026
-0.04123510341580411   -0.14561516250857975   -0.00720134847638882
-0.02636863566431588   -0.16830176040254213   -0.0065412477090633645
-0.036733704645912496   -0.16794310722902303   -0.007304560559302247
-0.03748629618880629   -0.16754329666983306   -0.006864338891280369
-0.04123510341580411   -0.14561516250857975   -0.00720134847638882
-0.02636863566431588   -0.16830176040254213   -0.0065412477090633645
-0.03748629618880629   -0.16754329666983306   -0.006864338891280369
-0.028540148374736122   -0.14544541421774781   -0.0064277092582191026
-0.02893922306965783   -0.1450845375562212   -0.006328585610844109
-0.02735767575472951   -0.16774324341249114   -0.006082305353855349
-0.016906251236161764   -0.14520057331444514   -0.006176696275166801
-0.028769810005240808   -0.14523360537099828   -0.006364178851574555
-0.02735767575472951   -0.16774324341249114   -0.006082305353855349
-0.01757498915187558   -0.16799138853995402   -0.006066710809033481
-0.016906251236161764   -0.14520057331444514   -0.006176696275166801
-0.017284514798595076   -0.1680165880494356   -0.006011143558317759
-0.028769810005240808   -0.14523360537099828   -0.006364178851574555
-0.01672160236967838   -0.14527825939224295   -0.00609922584605641
-0.017284514798595076   -0.1680165880494356   -0.006011143558317759
-0.016906251236161764   -0.14520057331444514   -0.006176696275166801
-0.028769810005240808   -0.14523360537099828   -0.006364178851574555
-0.017284514798595076   -0.1680165880494356   -0.006011143558317759
-0.027074718275526516   -0.1678196736828723   -0.006206961010611166
-0.02735767575472951   -0.16774324341249114   -0.006082305353855349
-0.028769810005240808   -0.14523360537099828   -0.006364178851574555
-0.017284514798595076   -0.1680165880494356   -0.006011143558317759
-0.02735767575472951   -0.16774324341249114   -0.006082305353855349
-0.016906251236161764   -0.14520057331444514   -0.006176696275166801
-0.028769810005240808   -0.14523360537099828   -0.006364178851574555
-0.027074718275526516   -0.1678196736828723   -0.006206961010611166
-0.01672160236967838   -0.14527825939224295   -0.00609922584605641
-0.028540148374736122   -0.14544541421774781   -0.0064277092582191026
-0.027074718275526516   -0.1678196736828723   -0.006206961010611166
-0.017284514798595076   -0.1680165880494356   -0.006011143558317759
-0.01672160236967838   -0.14527825939224295   -0.00609922584605641
-0.016984774556107477   -0.168136654352171   -0.0059831495834911045
-0.028540148374736122   -0.14544541421774781   -0.0064277092582191026
-0.016522910195042127   -0.14541630520634005   -0.00604935608541287
-0.016984774556107477   -0.168136654352171   -0.0059831495834911045
-0.01672160236967838   -0.14527825939224295   -0.00609922584605641
-0.028540148374736122   -0.14544541421774781   -0.0064277092582191026
-0.016984774556107477   -0.168136654352171   -0.0059831495834911045
-0.026719353856604778   -0.16800238931028066   -0.006360030265805432
-0.027074718275526516   -0.1678196736828723   -0.006206961010611166
-0.028540148374736122   -0.14544541421774781   -0.0064277092582191026
-0.016984774556107477   -0.168136654352171   -0.0059831495834911045
-0.027074718275526516   -0.1678196736828723   -0.006206961010611166
-0.01672160236967838   -0.14527825939224295   -0.00609922584605641
-0.028540148374736122   -0.14544541421774781   -0.0064277092582191026
-0.026719353856604778   -0.16800238931028066   -0.006360030265805432
-0.016522910195042127   -0.14541630520634005   -0.00604935608541287
-0.028293591064145786   -0.14573286446865039   -0.006520021345233442
-0.026719353856604778   -0.16800238931028066   -0.006360030265805432
-0.016984774556107477   -0.168136654352171   -0.0059831495834911045
-0.016522910195042127   -0.14541630520634005   -0.00604935608541287
-0.016685558817892056   -0.1683572598355983   -0.005982348982132658
-0.028293591064145786   -0.14573286446865039   -0.006520021345233442
-0.016318674867359034   -0.1456164739371058   -0.006028423888130357
-0.016685558817892056   -0.1683572598355983   -0.005982348982132658
-0.016522910195042127   -0.14541630520634005   -0.00604935608541287
-0.028293591064145786   -0.14573286446865039   -0.006520021345233442
-0.016685558817892056   -0.1683572598355983   -0.005982348982132658
-0.02636863566431588   -0.16830176040254213   -0.0065412477090633645
-0.026719353856604778   -0.16800238931028066   -0.006360030265805432
-0.028293591064145786   -0.14573286446865039   -0.006520021345233442
-0.016685558817892056   -0.1683572598355983   -0.005982348982132658
-0.026719353856604778   -0.16800238931028066   -0.006360030265805432
-0.016522910195042127   -0.14541630520634005   -0.00604935608541287
-0.016906251236161764   -0.14520057331444514   -0.006176696275166801
-0.01757498915187558   -0.16799138853995402   -0.006066710809033481
-0.005238263382918788   -0.14511250786892219   -0.006150663634036341
-0.01672160236967838   -0.14527825939224295   -0.00609922584605641
-0.01757498915187558   -0.16799138853995402   -0.006066710809033481
-0.008117662449076756   -0.1679480696367617   -0.006136198034919261
-0.005238263382918788   -0.14511250786892219   -0.006150663634036341
-0.0077994744439593726   -0.1679157975607509   -0.005906749068761907
-0.01672160236967838   -0.14527825939224295   -0.00609922584605641
-0.005034004192916886   -0.14511476504968107   -0.00596400780689237
-0.0077994744439593726   -0.1679157975607509   -0.005906749068761907
-0.005238263382918788   -0.14511250786892219   -0.006150663634036341
-0.01672160236967838   -0.14527825939224295   -0.00609922584605641
-0.0077994744439593726   -0.1679157975607509   -0.005906749068761907
-0.017284514798595076   -0.1680165880494356   -0.006011143558317759
-0.01757498915187558   -0.16799138853995402   -0.006066710809033481
-0.01672160236967838   -0.14527825939224295   -0.00609922584605641
-0.0077994744439593726   -0.1679157975607509   -0.005906749068761907
-0.01757498915187558   -0.16799138853995402   -0.006066710809033481
-0.005238263382918788   -0.14511250786892219   -0.006150663634036341
-0.01672160236967838   -0.14527825939224295   -0.00609922584605641
-0.017284514798595076   -0.1680165880494356   -0.006011143558317759
-0.005034004192916886   -0.14511476504968107   -0.00596400780689237
-0.016522910195042127   -0.14541630520634005   -0.00604935608541287
-0.017284514798595076   -0.1680165880494356   -0.006011143558317759
-0.0077994744439593726   -0.1679157975607509   -0.005906749068761907
-0.005034004192916886   -0.14511476504968107   -0.00596400780689237
-0.007490764763877348   -0.16796921078618857   -0.005706688147120978
-0.016522910195042127   -0.14541630520634005   -0.00604935608541287
-0.004835140486356149   -0.14517290942458283   -0.005805012203127487
-0.007490764763877348   -0.16796921078618857   -0.005706688147120978
-0.005034004192916886   -0.14511476504968107   -0.00596400780689237
-0.016522910195042127   -0.14541630520634005   -0.00604935608541287
-0.007490764763877348   -0.16796921078618857   -0.005706688147120978
-0.016984774556107477   -0.168136654352171   -0.0059831495834911045
-0.017284514798595076   -0.1680165880494356   -0.006011143558317759
-0.016522910195042127   -0.14541630520634005   -0.00604935608541287
-0.007490764763877348   -0.16796921078618857   -0.005706688147120978
-0.017284514798595076   -0.1680165880494356   -0.006011143558317759
-0.005034004192916886   -0.14511476504968107   -0.00596400780689237
-0.016522910195042127   -0.14541630520634005   -0.00604935608541287
-0.016984774556107477   -0.168136654352171   -0.0059831495834911045
-0.004835140486356149   -0.14517290942458283   -0.005805012203127487
-0.016318674867359034   -0.1456164739371058   -0.006028423888130357
-0.016984774556107477   -0.168136654352171   -0.0059831495834911045
-0.007490764763877348   -0.16796921078618857   -0.005706688147120978
-0.004835140486356149   -0.14517290942458283   -0.005805012203127487
-0.007211945178989429   -0.16812091362028814   -0.005533456375607977
-0.016318674867359034   -0.1456164739371058   -0.006028423888130357
-0.00465783142739231   -0.1452918004818572   -0.005674642369872664
-0.007211945178989429   -0.16812091362028814   -0.005533456375607977
-0.004835140486356149   -0.14517290942458283   -0.005805012203127487
-0.016318674867359034   -0.1456164739371058   -0.006028423888130357
-0.007211945178989429   -0.16812091362028814   -0.005533456375607977
-0.016685558817892056   -0.1683572598355983   -0.005982348982132658
-0.016984774556107477   -0.168136654352171   -0.0059831495834911045
-0.016318674867359034   -0.1456164739371058   -0.006028423888130357
-0.007211945178989429   -0.16812091362028814   -0.005533456375607977
-0.016984774556107477   -0.168136654352171   -0.0059831495834911045
-0.004835140486356149   -0.14517290942458283   -0.005805012203127487
-0.005238263382918788   -0.14511250786892219   -0.006150663634036341
-0.008117662449076756   -0.1679480696367617   -0.006136198034919261
0.006834401597468558   -0.14482658361549033   -0.006260384208990323
-0.005034004192916886   -0.14511476504968107   -0.00596400780689237
-0.008117662449076756   -0.1679480696367617   -0.006136198034919261
0.0017870555713627992   -0.16760289462287412   -0.006306292242022541
0.006834401597468558   -0.14482658361549033   -0.006260384208990323
0.002173952289425086   -0.16749751492503323   -0.0059036101048870245
-0.005034004192916886   -0.14511476504968107   -0.00596400780689237
0.007084089731183315   -0.14474833531297185   -0.005965618066578175
0.002173952289425086   -0.16749751492503323   -0.0059036101048870245
0.006834401597468558   -0.14482658361549033   -0.006260384208990323
-0.005034004192916886   -0.14511476504968107   -0.00596400780689237
0.002173952289425086   -0.16749751492503323   -0.0059036101048870245
-0.0077994744439593726   -0.1679157975607509   -0.005906749068761907
-0.008117662449076756   -0.1679480696367617   -0.006136198034919261
-0.005034004192916886   -0.14511476504968107   -0.00596400780689237
0.002173952289425086   -0.16749751492503323   -0.0059036101048870245
-0.008117662449076756   -0.1679480696367617   -0.006136198034919261
0.006834401597468558   -0.14482658361549033   -0.006260384208990323
-0.005034004192916886   -0.14511476504968107   -0.00596400780689237
-0.0077994744439593726   -0.1679157975607509   -0.005906749068761907
0.007084089731183315   -0.14474833531297185   -0.005965618066578175
-0.004835140486356149   -0.14517290942458283   -0.005805012203127487
-0.0077994744439593726   -0.1679157975607509   -0.005906749068761907
0.002173952289425086   -0.16749751492503323   -0.0059036101048870245
0.007084089731183315   -0.14474833531297185   -0.005965618066578175
0.00258138278998171   -0.16748794896051034   -0.00553820548506261
-0.004835140486356149   -0.14517290942458283   -0.005805012203127487
0.0073399379721662324   -0.14473391316694564   -0.005700296161797098
0.00258138278998171   -0.16748794896051034   -0.00553820548506261
0.007084089731183315   -0.14474833531297185   -0.005965618066578175
-0.004835140486356149   -0.14517290942458283   -0.005805012203127487
0.00258138278998171   -0.16748794896051034   -0.00553820548506261
-0.007490764763877348   -0.16796921078618857   -0.005706688147120978
-0.0077994744439593726   -0.1679157975607509   -0.005906749068761907
-0.004835140486356149   -0.14517290942458283   -0.005805012203127487
0.00258138278998171   -0.16748794896051034   -0.00553820548506261
-0.0077994744439593726   -0.1679157975607509   -0.005906749068761907
0.007084089731183315   -0.14474833531297185   -0.005965618066578175
-0.004835140486356149   -0.14517290942458283   -0.005805012203127487
-0.007490764763877348   -0.16796921078618857   -0.005706688147120978
0.0073399379721662324   -0.14473391316694564   -0.005700296161797098
-0.00465783142739231   -0.1452918004818572   -0.005674642369872664
-0.007490764763877348   -0.16796921078618857   -0.005706688147120978
0.00258138278998171   -0.16748794896051034   -0.00553820548506261
0.0073399379721662324   -0.14473391316694564   -0.005700296161797098
0.002879370965085941   -0.1675698802566984   -0.005198479904727759
-0.00465783142739231   -0.1452918004818572   -0.005674642369872664
0.0075097748795990935   -0.14477150289589283   -0.005460539569240221
0.002879370965085941   -0.1675698802566984   -0.005198479904727759
0.0073399379721662324   -0.14473391316694564   -0.005700296161797098
-0.00465783142739231   -0.1452918004818572   -0.005674642369872664
0.002879370965085941   -0.1675698802566984   -0.005198479904727759
-0.007211945178989429   -0.16812091362028814   -0.005533456375607977
-0.007490764763877348   -0.16796921078618857   -0.005706688147120978
-0.00465783142739231   -0.1452918004818572   -0.005674642369872664
0.002879370965085941   -0.1675698802566984   -0.005198479904727759
-0.007490764763877348   -0.16796921078618857   -0.005706688147120978
0.0073399379721662324   -0.14473391316694564   -0.005700296161797098
0.006834401597468558   -0.14482658361549033   -0.006260384208990323
0.0017870555713627992   -0.16760289462287412   -0.006306292242022541
0.019683150463604214   -0.1443351676013804   -0.006545255053827142
0.007084089731183315   -0.14474833531297185   -0.005965618066578175
0.0017870555713627992   -0.16760289462287412   -0.006306292242022541
0.012354681906963733   -0.16692300657315481   -0.00667140912897337
0.019683150463604214   -0.1443351676013804   -0.006545255053827142
0.013332223420745753   -0.16672050900074725   -0.006055252173407764
0.007084089731183315   -0.14474833531297185   -0.005965618066578175
0.020347253046507245   -0.1441734274708953   -0.006116615823306745
0.013332223420745753   -0.16672050900074725   -0.006055252173407764
0.019683150463604214   -0.1443351676013804   -0.006545255053827142
0.007084089731183315   -0.14474833531297185   -0.005965618066578175
0.013332223420745753   -0.16672050900074725   -0.006055252173407764
0.002173952289425086   -0.16749751492503323   -0.0059036101048870245
0.0017870555713627992   -0.16760289462287412   -0.006306292242022541
0.007084089731183315   -0.14474833531297185   -0.005965618066578175
0.013332223420745753   -0.16672050900074725   -0.006055252173407764
0.0017870555713627992   -0.16760289462287412   -0.006306292242022541
0.019683150463604214   -0.1443351676013804   -0.006545255053827142
0.007084089731183315   -0.14474833531297185   -0.005965618066578175
0.002173952289425086   -0.16749751492503323   -0.0059036101048870245
0.020347253046507245   -0.1441734274708953   -0.006116615823306745
0.0073399379721662324   -0.14473391316694564   -0.005700296161797098
0.002173952289425086   -0.16749751492503323   -0.0059036101048870245
0.013332223420745753   -0.16672050900074725   -0.006055252173407764
0.020347253046507245   -0.1441734274708953   -0.006116615823306745
0.014081552455902074   -0.16668545452921613   -0.005485312964694541
0.0073399379721662324   -0.14473391316694564   -0.005700296161797098
0.020838621538997085   -0.14412911882774776   -0.005727106736811578
0.014081552455902074   -0.16668545452921613   -0.005485312964694541
0.020347253046507245   -0.1441734274708953   -0.006116615823306745
0.0073399379721662324   -0.14473391316694564   -0.005700296161797098
0.014081552455902074   -0.16668545452921613   -0.005485312964694541
0.00258138278998171   -0.16748794896051034   -0.00553820548506261
0.002173952289425086   -0.16749751492503323   -0.0059036101048870245
0.0073399379721662324   -0.14473391316694564   -0.005700296161797098
0.014081552455902074   -0.16668545452921613   -0.005485312964694541
0.002173952289425086   -0.16749751492503323   -0.0059036101048870245
0.020347253046507245   -0.1441734274708953   -0.006116615823306745
0.0073399379721662324   -0.14473391316694564   -0.005700296161797098
0.00258138278998171   -0.16748794896051034   -0.00553820548506261
0.020838621538997085   -0.14412911882774776   -0.005727106736811578
0.0075097748795990935   -0.14477150289589283   -0.005460539569240221
0.00258138278998171   -0.16748794896051034   -0.00553820548506261
0.014081552455902074   -0.16668545452921613   -0.005485312964694541
0.020838621538997085   -0.14412911882774776   -0.005727106736811578
0.014856854117211667   -0.1667451265911549   -0.004966266635365012
0.0075097748795990935   -0.14477150289589283   -0.005460539569240221
0.02133605861383176   -0.14412854479406742   -0.005378491232904323
0.014856854117211667   -0.1667451265911549   -0.004966266635365012
0.020838621538997085   -0.14412911882774776   -0.005727106736811578
0.0075097748795990935   -0.14477150289589283   -0.005460539569240221
0.014856854117211667   -0.1667451265911549   -0.004966266635365012
0.002879370965085941   -0.1675698802566984   -0.005198479904727759
0.00258138278998171   -0.16748794896051034   -0.00553820548506261
0.0075097748795990935   -0.14477150289589283   -0.005460539569240221
0.014856854117211667   -0.1667451265911549   -0.004966266635365012
0.00258138278998171   -0.16748794896051034   -0.00553820548506261
0.020838621538997085   -0.14412911882774776   -0.005727106736811578
-0.03866219899133187   -0.167215363318366   -0.006120932646904172
-0.03235924625126126   -0.18482216766117576   -0.005551815664097721
-0.02735767575472951   -0.16774324341249114   -0.006082305353855349
-0.038073727757529666   -0.16732888453524053   -0.006469499985806993
-0.03235924625126126   -0.18482216766117576   -0.005551815664097721
-0.02431671021193145   -0.1856052144120098   -0.005786971930515393
-0.02735767575472951   -0.16774324341249114   -0.006082305353855349
-0.0239078201412281   -0.185564415003557   -0.005978887877815785
-0.038073727757529666   -0.16732888453524053   -0.006469499985806993
-0.027074718275526516   -0.1678196736828723   -0.006206961010611166
-0.0239078201412281   -0.185564415003557   -0.005978887877815785
-0.02735767575472951   -0.16774324341249114   -0.006082305353855349
-0.038073727757529666   -0.16732888453524053   -0.006469499985806993
-0.0239078201412281   -0.185564415003557   -0.005978887877815785
-0.03147979590762797   -0.18479982156759603   -0.00606935534387509
-0.03235924625126126   -0.18482216766117576   -0.005551815664097721
-0.038073727757529666   -0.16732888453524053   -0.006469499985806993
-0.0239078201412281   -0.185564415003557   -0.005978887877815785
-0.03235924625126126   -0.18482216766117576   -0.005551815664097721
-0.02735767575472951   -0.16774324341249114   -0.006082305353855349
-0.038073727757529666   -0.16732888453524053   -0.006469499985806993
-0.03147979590762797   -0.18479982156759603   -0.00606935534387509
-0.027074718275526516   -0.1678196736828723   -0.006206961010611166
-0.03748629618880629   -0.16754329666983306   -0.006864338891280369
-0.03147979590762797   -0.18479982156759603   -0.00606935534387509
-0.0239078201412281   -0.185564415003557   -0.005978887877815785
-0.027074718275526516   -0.1678196736828723   -0.006206961010611166
-0.02342721764411762   -0.1856763030818607   -0.006199892697292671
-0.03748629618880629   -0.16754329666983306   -0.006864338891280369
-0.026719353856604778   -0.16800238931028066   -0.006360030265805432
-0.02342721764411762   -0.1856763030818607   -0.006199892697292671
-0.027074718275526516   -0.1678196736828723   -0.006206961010611166
-0.03748629618880629   -0.16754329666983306   -0.006864338891280369
-0.02342721764411762   -0.1856763030818607   -0.006199892697292671
-0.03066880368940282   -0.1849381981347922   -0.006627839060462113
-0.03147979590762797   -0.18479982156759603   -0.00606935534387509
-0.03748629618880629   -0.16754329666983306   -0.006864338891280369
-0.02342721764411762   -0.1856763030818607   -0.006199892697292671
-0.03147979590762797   -0.18479982156759603   -0.00606935534387509
-0.027074718275526516   -0.1678196736828723   -0.006206961010611166
-0.03748629618880629   -0.16754329666983306   -0.006864338891280369
-0.03066880368940282   -0.1849381981347922   -0.006627839060462113
-0.026719353856604778   -0.16800238931028066   -0.006360030265805432
-0.036733704645912496   -0.16794310722902303   -0.007304560559302247
-0.03066880368940282   -0.1849381981347922   -0.006627839060462113
-0.02342721764411762   -0.1856763030818607   -0.006199892697292671
-0.026719353856604778   -0.16800238931028066   -0.006360030265805432
-0.022991199445973533   -0.18594337996896693   -0.006448119277085748
-0.036733704645912496   -0.16794310722902303   -0.007304560559302247
-0.02636863566431588   -0.16830176040254213   -0.0065412477090633645
-0.022991199445973533   -0.18594337996896693   -0.006448119277085748
-0.026719353856604778   -0.16800238931028066   -0.006360030265805432
-0.036733704645912496   -0.16794310722902303   -0.007304560559302247
-0.022991199445973533   -0.18594337996896693   -0.006448119277085748
-0.029679889681082695   -0.1853087958720176   -0.007224818396153778
-0.03066880368940282   -0.1849381981347922   -0.006627839060462113
-0.036733704645912496   -0.16794310722902303   -0.007304560559302247
-0.022991199445973533   -0.18594337996896693   -0.006448119277085748
-0.03066880368940282   -0.1849381981347922   -0.006627839060462113
-0.026719353856604778   -0.16800238931028066   -0.006360030265805432
-0.02735767575472951   -0.16774324341249114   -0.006082305353855349
-0.02431671021193145   -0.1856052144120098   -0.005786971930515393
-0.01757498915187558   -0.16799138853995402   -0.006066710809033481
-0.027074718275526516   -0.1678196736828723   -0.006206961010611166
-0.02431671021193145   -0.1856052144120098   -0.005786971930515393
-0.01775270552490292   -0.1861149650249552   -0.005970928750816434
-0.01757498915187558   -0.16799138853995402   -0.006066710809033481
-0.017332823882135806   -0.18605008279915178   -0.005912168231378427
-0.027074718275526516   -0.1678196736828723   -0.006206961010611166
-0.017284514798595076   -0.1680165880494356   -0.006011143558317759
-0.017332823882135806   -0.18605008279915178   -0.005912168231378427
-0.01757498915187558   -0.16799138853995402   -0.006066710809033481
-0.027074718275526516   -0.1678196736828723   -0.006206961010611166
-0.017332823882135806   -0.18605008279915178   -0.005912168231378427
-0.0239078201412281   -0.185564415003557   -0.005978887877815785
-0.02431671021193145   -0.1856052144120098   -0.005786971930515393
-0.027074718275526516   -0.1678196736828723   -0.006206961010611166
-0.017332823882135806   -0.18605008279915178   -0.005912168231378427
-0.02431671021193145   -0.1856052144120098   -0.005786971930515393
-0.01757498915187558   -0.16799138853995402   -0.006066710809033481
-0.027074718275526516   -0.1678196736828723   -0.006206961010611166
-0.0239078201412281   -0.185564415003557   -0.005978887877815785
-0.017284514798595076   -0.1680165880494356   -0.006011143558317759
-0.026719353856604778   -0.16800238931028066   -0.006360030265805432
-0.0239078201412281   -0.185564415003557   -0.005978887877815785
-0.017332823882135806   -0.18605008279915178   -0.005912168231378427
-0.017284514798595076   -0.1680165880494356   -0.006011143558317759
-0.01691903125824015   -0.18611689831626335   -0.005881639141254269
-0.026719353856604778   -0.16800238931028066   -0.006360030265805432
-0.016984774556107477   -0.168136654352171   -0.0059831495834911045
-0.01691903125824015   -0.18611689831626335   -0.005881639141254269
-0.017284514798595076   -0.1680165880494356   -0.006011143558317759
-0.026719353856604778   -0.16800238931028066   -0.006360030265805432
-0.01691903125824015   -0.18611689831626335   -0.005881639141254269
-0.02342721764411762   -0.1856763030818607   -0.006199892697292671
-0.0239078201412281   -0.185564415003557   -0.005978887877815785
-0.026719353856604778   -0.16800238931028066   -0.006360030265805432
-0.01691903125824015   -0.18611689831626335   -0.005881639141254269
-0.0239078201412281   -0.185564415003557   -0.005978887877815785
-0.017284514798595076   -0.1680165880494356   -0.006011143558317759
-0.026719353856604778   -0.16800238931028066   -0.006360030265805432
-0.02342721764411762   -0.1856763030818607   -0.006199892697292671
-0.016984774556107477   -0.168136654352171   -0.0059831495834911045
-0.02636863566431588   -0.16830176040254213   -0.0065412477090633645
-0.02342721764411762   -0.1856763030818607   -0.006199892697292671
-0.01691903125824015   -0.18611689831626335   -0.005881639141254269
-0.016984774556107477   -0.168136654352171   -0.0059831495834911045
-0.016538488501076126   -0.18631986546068371   -0.005885287959923659
-0.02636863566431588   -0.16830176040254213   -0.0065412477090633645
-0.016685558817892056   -0.1683572598355983   -0.005982348982132658
-0.016538488501076126   -0.18631986546068371   -0.005885287959923659
-0.016984774556107477   -0.168136654352171   -0.0059831495834911045
-0.02636863566431588   -0.16830176040254213   -0.0065412477090633645
-0.016538488501076126   -0.18631986546068371   -0.005885287959923659
-0.022991199445973533   -0.18594337996896693   -0.006448119277085748
-0.02342721764411762   -0.1856763030818607   -0.006199892697292671
-0.02636863566431588   -0.16830176040254213   -0.0065412477090633645
-0.016538488501076126   -0.18631986546068371   -0.005885287959923659
-0.02342721764411762   -0.1856763030818607   -0.006199892697292671
-0.016984774556107477   -0.168136654352171   -0.0059831495834911045
-0.01757498915187558   -0.16799138853995402   -0.006066710809033481
-0.01775270552490292   -0.1861149650249552   -0.005970928750816434
-0.008117662449076756   -0.1679480696367617   -0.006136198034919261
-0.017284514798595076   -0.1680165880494356   -0.006011143558317759
-0.01775270552490292   -0.1861149650249552   -0.005970928750816434
-0.011466494808471544   -0.18638621862341043   -0.006187556930994306
-0.008117662449076756   -0.1679480696367617   -0.006136198034919261
-0.010993093991748184   -0.18629306146185373   -0.005892525810596822
-0.017284514798595076   -0.1680165880494356   -0.006011143558317759
-0.0077994744439593726   -0.1679157975607509   -0.005906749068761907
-0.010993093991748184   -0.18629306146185373   -0.005892525810596822
-0.008117662449076756   -0.1679480696367617   -0.006136198034919261
-0.017284514798595076   -0.1680165880494356   -0.006011143558317759
-0.010993093991748184   -0.18629306146185373   -0.005892525810596822
-0.017332823882135806   -0.18605008279915178   -0.005912168231378427
-0.01775270552490292   -0.1861149650249552   -0.005970928750816434
-0.017284514798595076   -0.1680165880494356   -0.006011143558317759
-0.010993093991748184   -0.18629306146185373   -0.005892525810596822
-0.01775270552490292   -0.1861149650249552   -0.005970928750816434
-0.008117662449076756   -0.1679480696367617   -0.006136198034919261
-0.017284514798595076   -0.1680165880494356   -0.006011143558317759
-0.017332823882135806   -0.18605008279915178   -0.005912168231378427
-0.0077994744439593726   -0.1679157975607509   -0.005906749068761907
-0.016984774556107477   -0.168136654352171   -0.0059831495834911045
-0.017332823882135806   -0.18605008279915178   -0.005912168231378427
-0.010993093991748184   -0.18629306146185373   -0.005892525810596822
-0.0077994744439593726   -0.1679157975607509   -0.005906749068761907
-0.010541978232041805   -0.18631552028016998   -0.005622368233286795
-0.016984774556107477   -0.168136654352171   -0.0059831495834911045
-0.007490764763877348   -0.16796921078618857   -0.005706688147120978
-0.010541978232041805   -0.18631552028016998   -0.005622368233286795
-0.0077994744439593726   -0.1679157975607509   -0.005906749068761907
-0.016984774556107477   -0.168136654352171   -0.0059831495834911045
-0.010541978232041805   -0.18631552028016998   -0.005622368233286795
-0.01691903125824015   -0.18611689831626335   -0.005881639141254269
-0.017332823882135806   -0.18605008279915178   -0.005912168231378427
-0.016984774556107477   -0.168136654352171   -0.0059831495834911045
-0.010541978232041805   -0.18631552028016998   -0.005622368233286795
-0.017332823882135806   -0.18605008279915178   -0.005912168231378427
-0.0077994744439593726   -0.1679157975607509   -0.005906749068761907
-0.016984774556107477   -0.168136654352171   -0.0059831495834911045
-0.01691903125824015   -0.18611689831626335   -0.005881639141254269
-0.007490764763877348   -0.16796921078618857   -0.005706688147120978
-0.016685558817892056   -0.1683572598355983   -0.005982348982132658
-0.01691903125824015   -0.18611689831626335   -0.005881639141254269
-0.010541978232041805   -0.18631552028016998   -0.005622368233286795
-0.007490764763877348   -0.16796921078618857   -0.005706688147120978
-0.010167092784942683   -0.18647647228670317   -0.00539281316763671
-0.016685558817892056   -0.1683572598355983   -0.005982348982132658
-0.007211945178989429   -0.16812091362028814   -0.005533456375607977
-0.010167092784942683   -0.18647647228670317   -0.00539281316763671
-0.007490764763877348   -0.16796921078618857   -0.005706688147120978
-0.016685558817892056   -0.1683572598355983   -0.005982348982132658
-0.010167092784942683   -0.18647647228670317   -0.00539281316763671
-0.016538488501076126   -0.18631986546068371   -0.005885287959923659
-0.01691903125824015   -0.18611689831626335   -0.005881639141254269
-0.016685558817892056   -0.1683572598355983   -0.005982348982132658
-0.010167092784942683   -0.18647647228670317   -0.00539281316763671
-0.01691903125824015   -0.18611689831626335   -0.005881639141254269
-0.007490764763877348   -0.16796921078618857   -0.005706688147120978
-0.008117662449076756   -0.1679480696367617   -0.006136198034919261
-0.011466494808471544   -0.18638621862341043   -0.006187556930994306
0.0017870555713627992   -0.16760289462287412   -0.006306292242022541
-0.0077994744439593726   -0.1679157975607509   -0.005906749068761907
-0.011466494808471544   -0.18638621862341043   -0.006187556930994306
-0.004776317218342194   -0.18632505949552947   -0.006442090017698307
0.0017870555713627992   -0.16760289462287412   -0.006306292242022541
-0.004168521006066316   -0.18617914043612926   -0.005921213982158963
-0.0077994744439593726   -0.1679157975607509   -0.005906749068761907
0.002173952289425086   -0.16749751492503323   -0.0059036101048870245
-0.004168521006066316   -0.18617914043612926   -0.005921213982158963
0.0017870555713627992   -0.16760289462287412   -0.006306292242022541
-0.0077994744439593726   -0.1679157975607509   -0.005906749068761907
-0.004168521006066316   -0.18617914043612926   -0.005921213982158963
-0.010993093991748184   -0.18629306146185373   -0.005892525810596822
-0.011466494808471544   -0.18638621862341043   -0.006187556930994306
-0.0077994744439593726   -0.1679157975607509   -0.005906749068761907
-0.004168521006066316   -0.18617914043612926   -0.005921213982158963
-0.011466494808471544   -0.18638621862341043   -0.006187556930994306
0.0017870555713627992   -0.16760289462287412   -0.006306292242022541
-0.0077994744439593726   -0.1679157975607509   -0.005906749068761907
-0.010993093991748184   -0.18629306146185373   -0.005892525810596822
0.002173952289425086   -0.16749751492503323   -0.0059036101048870245
-0.007490764763877348   -0.16796921078618857   -0.005706688147120978
-0.010993093991748184   -0.18629306146185373   -0.005892525810596822
-0.004168521006066316   -0.18617914043612926   -0.005921213982158963
0.002173952289425086   -0.16749751492503323   -0.0059036101048870245
-0.00354781551423955   -0.18615297853153426   -0.005426995527356134
-0.007490764763877348   -0.16796921078618857   -0.005706688147120978
0.00258138278998171   -0.16748794896051034   -0.00553820548506261
-0.00354781551423955   -0.18615297853153426   -0.005426995527356134
0.002173952289425086   -0.16749751492503323   -0.0059036101048870245
-0.007490764763877348   -0.16796921078618857   -0.005706688147120978
-0.00354781551423955   -0.18615297853153426   -0.005426995527356134
-0.010541978232041805   -0.18631552028016998   -0.005622368233286795
-0.010993093991748184   -0.18629306146185373   -0.005892525810596822
-0.007490764763877348   -0.16796921078618857   -0.005706688147120978
-0.00354781551423955   -0.18615297853153426   -0.005426995527356134
-0.010993093991748184   -0.18629306146185373   -0.005892525810596822
0.002173952289425086   -0.16749751492503323   -0.0059036101048870245
-0.007490764763877348   -0.16796921078618857   -0.005706688147120978
-0.010541978232041805   -0.18631552028016998   -0.005622368233286795
0.00258138278998171   -0.16748794896051034   -0.00553820548506261
-0.007211945178989429   -0.16812091362028814   -0.005533456375607977
-0.010541978232041805   -0.18631552028016998   -0.005622368233286795
-0.00354781551423955   -0.18615297853153426   -0.005426995527356134
0.00258138278998171   -0.16748794896051034   -0.00553820548506261
-0.0030876548061325696   -0.1862726952583718   -0.004978495109137331
-0.007211945178989429   -0.16812091362028814   -0.005533456375607977
0.002879370965085941   -0.1675698802566984   -0.005198479904727759
-0.0030876548061325696   -0.1862726952583718   -0.004978495109137331
0.00258138278998171   -0.16748794896051034   -0.00553820548506261
-0.007211945178989429   -0.16812091362028814   -0.005533456375607977
-0.0030876548061325696   -0.1862726952583718   -0.004978495109137331
-0.010167092784942683   -0.18647647228670317   -0.00539281316763671
-0.010541978232041805   -0.18631552028016998   -0.005622368233286795
-0.007211945178989429   -0.16812091362028814   -0.005533456375607977
-0.0030876548061325696   -0.1862726952583718   -0.004978495109137331
-0.010541978232041805   -0.18631552028016998   -0.005622368233286795
0.00258138278998171   -0.16748794896051034   -0.00553820548506261
0.0017870555713627992   -0.16760289462287412   -0.006306292242022541
-0.004776317218342194   -0.18632505949552947   -0.006442090017698307
0.012354681906963733   -0.16692300657315481   -0.00667140912897337
0.002173952289425086   -0.16749751492503323   -0.0059036101048870245
-0.004776317218342194   -0.18632505949552947   -0.006442090017698307
0.0024350992317720894   -0.18568468297612528   -0.006965932649130012
0.012354681906963733   -0.16692300657315481   -0.00667140912897337
0.0038462884242025873   -0.18536643905591138   -0.00611351219458404
0.002173952289425086   -0.16749751492503323   -0.0059036101048870245
0.013332223420745753   -0.16672050900074725   -0.006055252173407764
0.0038462884242025873   -0.18536643905591138   -0.00611351219458404
0.012354681906963733   -0.16692300657315481   -0.00667140912897337
0.002173952289425086   -0.16749751492503323   -0.0059036101048870245
0.0038462884242025873   -0.18536643905591138   -0.00611351219458404
-0.004168521006066316   -0.18617914043612926   -0.005921213982158963
-0.004776317218342194   -0.18632505949552947   -0.006442090017698307
0.002173952289425086   -0.16749751492503323   -0.0059036101048870245
0.0038462884242025873   -0.18536643905591138   -0.00611351219458404
-0.004776317218342194   -0.18632505949552947   -0.006442090017698307
0.012354681906963733   -0.16692300657315481   -0.00667140912897337
0.002173952289425086   -0.16749751492503323   -0.0059036101048870245
-0.004168521006066316   -0.18617914043612926   -0.005921213982158963
0.013332223420745753   -0.16672050900074725   -0.006055252173407764
0.00258138278998171   -0.16748794896051034   -0.00553820548506261
-0.004168521006066316   -0.18617914043612926   -0.005921213982158963
0.0038462884242025873   -0.18536643905591138   -0.00611351219458404
0.013332223420745753   -0.16672050900074725   -0.006055252173407764
0.004955604034981503   -0.18530164092473847   -0.0053135925946162016
0.00258138278998171   -0.16748794896051034   -0.00553820548506261
0.014081552455902074   -0.16668545452921613   -0.005485312964694541
0.004955604034981503   -0.18530164092473847   -0.0053135925946162016
0.013332223420745753   -0.16672050900074725   -0.006055252173407764
0.00258138278998171   -0.16748794896051034   -0.00553820548506261
0.004955604034981503   -0.18530164092473847   -0.0053135925946162016
-0.00354781551423955   -0.18615297853153426   -0.005426995527356134
-0.004168521006066316   -0.18617914043612926   -0.005921213982158963
0.00258138278998171   -0.16748794896051034   -0.00553820548506261
0.004955604034981503   -0.18530164092473847   -0.0053135925946162016
-0.004168521006066316   -0.18617914043612926   -0.005921213982158963
0.013332223420745753   -0.16672050900074725   -0.006055252173407764
0.00258138278998171   -0.16748794896051034   -0.00553820548506261
-0.00354781551423955   -0.18615297853153426   -0.005426995527356134
0.014081552455902074   -0.16668545452921613   -0.005485312964694541
0.002879370965085941   -0.1675698802566984   -0.005198479904727759
-0.00354781551423955   -0.18615297853153426   -0.005426995527356134
0.004955604034981503   -0.18530164092473847   -0.0053135925946162016
0.014081552455902074   -0.16668545452921613   -0.005485312964694541
0.006107058289949324   -0.18535439432374887   -0.004583587283776623
0.002879370965085941   -0.1675698802566984   -0.005198479904727759
0.014856854117211667   -0.1667451265911549   -0.004966266635365012
0.006107058289949324   -0.18535439432374887   -0.004583587283776623
0.014081552455902074   -0.16668545452921613   -0.005485312964694541
0.002879370965085941   -0.1675698802566984   -0.005198479904727759
0.006107058289949324   -0.18535439432374887   -0.004583587283776623
-0.0030876548061325696   -0.1862726952583718   -0.004978495109137331
-0.00354781551423955   -0.18615297853153426   -0.005426995527356134
0.002879370965085941   -0.1675698802566984   -0.005198479904727759
0.006107058289949324   -0.18535439432374887   -0.004583587283776623
-0.00354781551423955   -0.18615297853153426   -0.005426995527356134
0.014081552455902074   -0.16668545452921613   -0.005485312964694541
-0.03235924625126126   -0.18482216766117576   -0.005551815664097721
-0.02368164048141333   -0.1952783197304864   -0.004884048992395261
-0.02431671021193145   -0.1856052144120098   -0.005786971930515393
-0.03147979590762797   -0.18479982156759603   -0.00606935534387509
-0.02368164048141333   -0.1952783197304864   -0.004884048992395261
-0.019951073441308576   -0.19626971310475066   -0.005481308248723208
-0.02431671021193145   -0.1856052144120098   -0.005786971930515393
-0.01943426949280137   -0.1960727289873282   -0.005685127589012158
-0.03147979590762797   -0.18479982156759603   -0.00606935534387509
-0.0239078201412281   -0.185564415003557   -0.005978887877815785
-0.01943426949280137   -0.1960727289873282   -0.005685127589012158
-0.02431671021193145   -0.1856052144120098   -0.005786971930515393
-0.03147979590762797   -0.18479982156759603   -0.00606935534387509
-0.01943426949280137   -0.1960727289873282   -0.005685127589012158
-0.02258433565368147   -0.1950565424952275   -0.005505223612932336
-0.02368164048141333   -0.1952783197304864   -0.004884048992395261
-0.03147979590762797   -0.18479982156759603   -0.00606935534387509
-0.01943426949280137   -0.1960727289873282   -0.005685127589012158
-0.02368164048141333   -0.1952783197304864   -0.004884048992395261
-0.02431671021193145   -0.1856052144120098   -0.005786971930515393
-0.03147979590762797   -0.18479982156759603   -0.00606935534387509
-0.02258433565368147   -0.1950565424952275   -0.005505223612932336
-0.0239078201412281   -0.185564415003557   -0.005978887877815785
-0.03066880368940282   -0.1849381981347922   -0.006627839060462113
-0.02258433565368147   -0.1950565424952275   -0.005505223612932336
-0.01943426949280137   -0.1960727289873282   -0.005685127589012158
-0.0239078201412281   -0.185564415003557   -0.005978887877815785
-0.018862423841422456   -0.1960810180042802   -0.005890987471906509
-0.03066880368940282   -0.1849381981347922   -0.006627839060462113
-0.02342721764411762   -0.1856763030818607   -0.006199892697292671
-0.018862423841422456   -0.1960810180042802   -0.005890987471906509
-0.0239078201412281   -0.185564415003557   -0.005978887877815785
-0.03066880368940282   -0.1849381981347922   -0.006627839060462113
-0.018862423841422456   -0.1960810180042802   -0.005890987471906509
-0.021637447242094977   -0.19507389139529394   -0.006123878446314095
-0.02258433565368147   -0.1950565424952275   -0.005505223612932336
-0.03066880368940282   -0.1849381981347922   -0.006627839060462113
-0.018862423841422456   -0.1960810180042802   -0.005890987471906509
-0.02258433565368147   -0.1950565424952275   -0.005505223612932336
-0.0239078201412281   -0.185564415003557   -0.005978887877815785
-0.03066880368940282   -0.1849381981347922   -0.006627839060462113
-0.021637447242094977   -0.19507389139529394   -0.006123878446314095
-0.02342721764411762   -0.1856763030818607   -0.006199892697292671
-0.029679889681082695   -0.1853087958720176   -0.007224818396153778
-0.021637447242094977   -0.19507389139529394   -0.006123878446314095
-0.018862423841422456   -0.1960810180042802   -0.005890987471906509
-0.02342721764411762   -0.1856763030818607   -0.006199892697292671
-0.018330894018783617   -0.19629546582770008   -0.006099753227412005
-0.029679889681082695   -0.1853087958720176   -0.007224818396153778
-0.022991199445973533   -0.18594337996896693   -0.006448119277085748
-0.018330894018783617   -0.19629546582770008   -0.006099753227412005
-0.02342721764411762   -0.1856763030818607   -0.006199892697292671
-0.029679889681082695   -0.1853087958720176   -0.007224818396153778
-0.018330894018783617   -0.19629546582770008   -0.006099753227412005
-0.020514737222399822   -0.19534394176068517   -0.006755899382523514
-0.021637447242094977   -0.19507389139529394   -0.006123878446314095
-0.029679889681082695   -0.1853087958720176   -0.007224818396153778
-0.018330894018783617   -0.19629546582770008   -0.006099753227412005
-0.021637447242094977   -0.19507389139529394   -0.006123878446314095
-0.02342721764411762   -0.1856763030818607   -0.006199892697292671
-0.02431671021193145   -0.1856052144120098   -0.005786971930515393
-0.019951073441308576   -0.19626971310475066   -0.005481308248723208
-0.01775270552490292   -0.1861149650249552   -0.005970928750816434
-0.0239078201412281   -0.185564415003557   -0.005978887877815785
-0.019951073441308576   -0.19626971310475066   -0.005481308248723208
-0.0172246298598111   -0.1972698941019002   -0.006009530624957415
-0.01775270552490292   -0.1861149650249552   -0.005970928750816434
-0.016678855481282926   -0.19706805805925615   -0.005865224136048049
-0.0239078201412281   -0.185564415003557   -0.005978887877815785
-0.017332823882135806   -0.18605008279915178   -0.005912168231378427
-0.016678855481282926   -0.19706805805925615   -0.005865224136048049
-0.01775270552490292   -0.1861149650249552   -0.005970928750816434
-0.0239078201412281   -0.185564415003557   -0.005978887877815785
-0.016678855481282926   -0.19706805805925615   -0.005865224136048049
-0.01943426949280137   -0.1960727289873282   -0.005685127589012158
-0.019951073441308576   -0.19626971310475066   -0.005481308248723208
-0.0239078201412281   -0.185564415003557   -0.005978887877815785
-0.016678855481282926   -0.19706805805925615   -0.005865224136048049
-0.019951073441308576   -0.19626971310475066   -0.005481308248723208
-0.01775270552490292   -0.1861149650249552   -0.005970928750816434
-0.0239078201412281   -0.185564415003557   -0.005978887877815785
-0.01943426949280137   -0.1960727289873282   -0.005685127589012158
-0.017332823882135806   -0.18605008279915178   -0.005912168231378427
-0.02342721764411762   -0.1856763030818607   -0.006199892697292671
-0.01943426949280137   -0.1960727289873282   -0.005685127589012158
-0.016678855481282926   -0.19706805805925615   -0.005865224136048049
-0.017332823882135806   -0.18605008279915178   -0.005912168231378427
-0.016151408875768696   -0.1970633625854172   -0.0057190871564919725
-0.02342721764411762   -0.1856763030818607   -0.006199892697292671
-0.01691903125824015   -0.18611689831626335   -0.005881639141254269
-0.016151408875768696   -0.1970633625854172   -0.0057190871564919725
-0.017332823882135806   -0.18605008279915178   -0.005912168231378427
-0.02342721764411762   -0.1856763030818607   -0.006199892697292671
-0.016151408875768696   -0.1970633625854172   -0.0057190871564919725
-0.018862423841422456   -0.1960810180042802   -0.005890987471906509
-0.01943426949280137   -0.1960727289873282   -0.005685127589012158
-0.02342721764411762   -0.1856763030818607   -0.006199892697292671
-0.016151408875768696   -0.1970633625854172   -0.0057190871564919725
-0.01943426949280137   -0.1960727289873282   -0.005685127589012158
-0.017332823882135806   -0.18605008279915178   -0.005912168231378427
-0.02342721764411762   -0.1856763030818607   -0.006199892697292671
-0.018862423841422456   -0.1960810180042802   -0.005890987471906509
-0.01691903125824015   -0.18611689831626335   -0.005881639141254269
-0.022991199445973533   -0.18594337996896693   -0.006448119277085748
-0.018862423841422456   -0.1960810180042802   -0.005890987471906509
-0.016151408875768696   -0.1970633625854172   -0.0057190871564919725
-0.01691903125824015   -0.18611689831626335   -0.005881639141254269
-0.015601341403186671   -0.19725162576172917   -0.005578633547314944
-0.022991199445973533   -0.18594337996896693   -0.006448119277085748
-0.016538488501076126   -0.18631986546068371   -0.005885287959923659
-0.015601341403186671   -0.19725162576172917   -0.005578633547314944
-0.01691903125824015   -0.18611689831626335   -0.005881639141254269
-0.022991199445973533   -0.18594337996896693   -0.006448119277085748
-0.015601341403186671   -0.19725162576172917   -0.005578633547314944
-0.018330894018783617   -0.19629546582770008   -0.006099753227412005
-0.018862423841422456   -0.1960810180042802   -0.005890987471906509
-0.022991199445973533   -0.18594337996896693   -0.006448119277085748
-0.015601341403186671   -0.19725162576172917   -0.005578633547314944
-0.018862423841422456   -0.1960810180042802   -0.005890987471906509
-0.01691903125824015   -0.18611689831626335   -0.005881639141254269
-0.01775270552490292   -0.1861149650249552   -0.005970928750816434
-0.0172246298598111   -0.1972698941019002   -0.006009530624957415
-0.011466494808471544   -0.18638621862341043   -0.006187556930994306
-0.017332823882135806   -0.18605008279915178   -0.005912168231378427
-0.0172246298598111   -0.1972698941019002   -0.006009530624957415
-0.014736721152594997   -0.1984823972137827   -0.006590472975205608
-0.011466494808471544   -0.18638621862341043   -0.006187556930994306
-0.014067327950539369   -0.19830781006162543   -0.006078401527258845
-0.017332823882135806   -0.18605008279915178   -0.005912168231378427
-0.010993093991748184   -0.18629306146185373   -0.005892525810596822
-0.014067327950539369   -0.19830781006162543   -0.006078401527258845
-0.011466494808471544   -0.18638621862341043   -0.006187556930994306
-0.017332823882135806   -0.18605008279915178   -0.005912168231378427
-0.014067327950539369   -0.19830781006162543   -0.006078401527258845
-0.016678855481282926   -0.19706805805925615   -0.005865224136048049
-0.0172246298598111   -0.1972698941019002   -0.006009530624957415
-0.017332823882135806   -0.18605008279915178   -0.005912168231378427
-0.014067327950539369   -0.19830781006162543   -0.006078401527258845
-0.0172246298598111   -0.1972698941019002   -0.006009530624957415
-0.011466494808471544   -0.18638621862341043   -0.006187556930994306
-0.017332823882135806   -0.18605008279915178   -0.005912168231378427
-0.016678855481282926   -0.19706805805925615   -0.005865224136048049
-0.010993093991748184   -0.18629306146185373   -0.005892525810596822
-0.01691903125824015   -0.18611689831626335   -0.005881639141254269
-0.016678855481282926   -0.19706805805925615   -0.005865224136048049
-0.014067327950539369   -0.19830781006162543   -0.006078401527258845
-0.010993093991748184   -0.18629306146185373   -0.005892525810596822
-0.013447446911805093   -0.19829783840466833   -0.005568282320170237
-0.01691903125824015   -0.18611689831626335   -0.005881639141254269
-0.010541978232041805   -0.18631552028016998   -0.005622368233286795
-0.013447446911805093   -0.19829783840466833   -0.005568282320170237
-0.010993093991748184   -0.18629306146185373   -0.005892525810596822
-0.01691903125824015   -0.18611689831626335   -0.005881639141254269
-0.013447446911805093   -0.19829783840466833   -0.005568282320170237
-0.016151408875768696   -0.1970633625854172   -0.0057190871564919725
-0.016678855481282926   -0.19706805805925615   -0.005865224136048049
-0.01691903125824015   -0.18611689831626335   -0.005881639141254269
-0.013447446911805093   -0.19829783840466833   -0.005568282320170237
-0.016678855481282926   -0.19706805805925615   -0.005865224136048049
-0.010993093991748184   -0.18629306146185373   -0.005892525810596822
-0.01691903125824015   -0.18611689831626335   -0.005881639141254269
-0.016151408875768696   -0.1970633625854172   -0.0057190871564919725
-0.010541978232041805   -0.18631552028016998   -0.005622368233286795
-0.016538488501076126   -0.18631986546068371   -0.005885287959923659
-0.016151408875768696   -0.1970633625854172   -0.0057190871564919725
-0.013447446911805093   -0.19829783840466833   -0.005568282320170237
-0.010541978232041805   -0.18631552028016998   -0.005622368233286795
-0.01278145816348261   -0.19844342762852138   -0.005056649714493294
-0.016538488501076126   -0.18631986546068371   -0.005885287959923659
-0.010167092784942683   -0.18647647228670317   -0.00539281316763671
-0.01278145816348261   -0.19844342762852138   -0.005056649714493294
-0.010541978232041805   -0.18631552028016998   -0.005622368233286795
-0.016538488501076126   -0.18631986546068371   -0.005885287959923659
-0.01278145816348261   -0.19844342762852138   -0.005056649714493294
-0.015601341403186671   -0.19725162576172917   -0.005578633547314944
-0.016151408875768696   -0.1970633625854172   -0.0057190871564919725
-0.016538488501076126   -0.18631986546068371   -0.005885287959923659
-0.01278145816348261   -0.19844342762852138   -0.005056649714493294
-0.016151408875768696   -0.1970633625854172   -0.0057190871564919725
-0.010541978232041805   -0.18631552028016998   -0.005622368233286795
-0.011466494808471544   -0.18638621862341043   -0.006187556930994306
-0.014736721152594997   -0.1984823972137827   -0.006590472975205608
-0.004776317218342194   -0.18632505949552947   -0.006442090017698307
-0.010993093991748184   -0.18629306146185373   -0.005892525810596822
-0.014736721152594997   -0.1984823972137827   -0.006590472975205608
-0.012288195517623744   -0.2   -0.007033876995435903
-0.004776317218342194   -0.18632505949552947   -0.006442090017698307
-0.011447094428492347   -0.2   -0.00625841862102162
-0.010993093991748184   -0.18629306146185373   -0.005892525810596822
-0.004168521006066316   -0.18617914043612926   -0.005921213982158963
-0.011447094428492347   -0.2   -0.00625841862102162
-0.004776317218342194   -0.18632505949552947   -0.006442090017698307
-0.010993093991748184   -0.18629306146185373   -0.005892525810596822
-0.011447094428492347   -0.2   -0.00625841862102162
-0.014067327950539369   -0.19830781006162543   -0.006078401527258845
-0.014736721152594997   -0.1984823972137827   -0.006590472975205608
-0.010993093991748184   -0.18629306146185373   -0.005892525810596822
-0.011447094428492347   -0.2   -0.00625841862102162
-0.014736721152594997   -0.1984823972137827   -0.006590472975205608
-0.004776317218342194   -0.18632505949552947   -0.006442090017698307
-0.010993093991748184   -0.18629306146185373   -0.005892525810596822
-0.014067327950539369   -0.19830781006162543   -0.006078401527258845
-0.004168521006066316   -0.18617914043612926   -0.005921213982158963
-0.010541978232041805   -0.18631552028016998   -0.005622368233286795
-0.014067327950539369   -0.19830781006162543   -0.006078401527258845
-0.011447094428492347   -0.2   -0.00625841862102162
-0.004168521006066316   -0.18617914043612926   -0.005921213982158963
-0.010602660265643753   -0.2   -0.005473741350633664
-0.010541978232041805   -0.18631552028016998   -0.005622368233286795
-0.00354781551423955   -0.18615297853153426   -0.005426995527356134
-0.010602660265643753   -0.2   -0.005473741350633664
-0.004168521006066316   -0.18617914043612926   -0.005921213982158963
-0.010541978232041805   -0.18631552028016998   -0.005622368233286795
-0.010602660265643753   -0.2   -0.005473741350633664
-0.013447446911805093   -0.19829783840466833   -0.005568282320170237
-0.014067327950539369   -0.19830781006162543   -0.006078401527258845
-0.010541978232041805   -0.18631552028016998   -0.005622368233286795
-0.010602660265643753   -0.2   -0.005473741350633664
-0.014067327950539369   -0.19830781006162543   -0.006078401527258845
-0.004168521006066316   -0.18617914043612926   -0.005921213982158963
-0.010541978232041805   -0.18631552028016998   -0.005622368233286795
-0.013447446911805093   -0.19829783840466833   -0.005568282320170237
-0.00354781551423955   -0.18615297853153426   -0.005426995527356134
-0.010167092784942683   -0.18647647228670317   -0.00539281316763671
-0.013447446911805093   -0.19829783840466833   -0.005568282320170237
-0.010602660265643753   -0.2   -0.005473741350633664
-0.00354781551423955   -0.18615297853153426   -0.005426995527356134
-0.00977637210215868   -0.2   -0.004699380630185724
-0.010167092784942683   -0.18647647228670317   -0.00539281316763671
-0.0030876548061325696   -0.1862726952583718   -0.004978495109137331
-0.00977637210215868   -0.2   -0.004699380630185724
-0.00354781551423955   -0.18615297853153426   -0.005426995527356134
-0.010167092784942683   -0.18647647228670317   -0.00539281316763671
-0.00977637210215868   -0.2   -0.004699380630185724
-0.01278145816348261   -0.19844342762852138   -0.005056649714493294
-0.013447446911805093   -0.19829783840466833   -0.005568282320170237
-0.010167092784942683   -0.18647647228670317   -0.00539281316763671
-0.00977637210215868   -0.2   -0.004699380630185724
-0.013447446911805093   -0.19829783840466833   -0.005568282320170237
-0.00354781551423955   -0.18615297853153426   -0.005426995527356134
-0.004776317218342194   -0.18632505949552947   -0.006442090017698307
-0.012288195517623744   -0.2   -0.007033876995435903
0.0024350992317720894   -0.18568468297612528   -0.006965932649130012
-0.004168521006066316   -0.18617914043612926   -0.005921213982158963
-0.012288195517623744   -0.2   -0.007033876995435903
-0.010519342780915339   -0.2   -0.0075709043128800975
0.0024350992317720894   -0.18568468297612528   -0.006965932649130012
-0.008766101912026873   -0.2   -0.006450258487200714
-0.004168521006066316   -0.18617914043612926   -0.005921213982158963
0.0038462884242025873   -0.18536643905591138   -0.00611351219458404
-0.008766101912026873   -0.2   -0.006450258487200714
0.0024350992317720894   -0.18568468297612528   -0.006965932649130012
-0.004168521006066316   -0.18617914043612926   -0.005921213982158963
-0.008766101912026873   -0.2   -0.006450258487200714
-0.011447094428492347   -0.2   -0.00625841862102162
-0.012288195517623744   -0.2   -0.007033876995435903
-0.004168521006066316   -0.18617914043612926   -0.005921213982158963
-0.008766101912026873   -0.2   -0.006450258487200714
-0.012288195517623744   -0.2   -0.007033876995435903
0.0024350992317720894   -0.18568468297612528   -0.006965932649130012
-0.004168521006066316   -0.18617914043612926   -0.005921213982158963
-0.011447094428492347   -0.2   -0.00625841862102162
0.0038462884242025873   -0.18536643905591138   -0.00611351219458404
-0.00354781551423955   -0.18615297853153426   -0.005426995527356134
-0.011447094428492347   -0.2   -0.00625841862102162
-0.008766101912026873   -0.2   -0.006450258487200714
0.0038462884242025873   -0.18536643905591138   -0.00611351219458404
-0.007367863688368374   -0.2   -0.005378152354549082
-0.00354781551423955   -0.18615297853153426   -0.005426995527356134
0.004955604034981503   -0.18530164092473847   -0.0053135925946162016
-0.007367863688368374   -0.2   -0.005378152354549082
0.0038462884242025873   -0.18536643905591138   -0.00611351219458404
-0.00354781551423955   -0.18615297853153426   -0.005426995527356134
-0.007367863688368374   -0.2   -0.005378152354549082
-0.010602660265643753   -0.2   -0.005473741350633664
-0.011447094428492347   -0.2   -0.00625841862102162
-0.00354781551423955   -0.18615297853153426   -0.005426995527356134
-0.007367863688368374   -0.2   -0.005378152354549082
-0.011447094428492347   -0.2   -0.00625841862102162
0.0038462884242025873   -0.18536643905591138   -0.00611351219458404
-0.00354781551423955   -0.18615297853153426   -0.005426995527356134
-0.010602660265643753   -0.2   -0.005473741350633664
0.004955604034981503   -0.18530164092473847   -0.0053135925946162016
-0.0030876548061325696   -0.1862726952583718   -0.004978495109137331
-0.010602660265643753   -0.2   -0.005473741350633664
-0.007367863688368374   -0.2   -0.005378152354549082
0.004955604034981503   -0.18530164092473847   -0.0053135925946162016
-0.005640395139911983   -0.2   -0.004265245278118974
-0.0030876548061325696   -0.1862726952583718   -0.004978495109137331
0.006107058289949324   -0.18535439432374887   -0.004583587283776623
-0.005640395139911983   -0.2   -0.004265245278118974
0.004955604034981503   -0.18530164092473847   -0.0053135925946162016
-0.0030876548061325696   -0.1862726952583718   -0.004978495109137331
-0.005640395139911983   -0.2   -0.004265245278118974
-0.00977637210215868   -0.2   -0.004699380630185724
-0.010602660265643753   -0.2   -0.005473741350633664
-0.0030876548061325696   -0.1862726952583718   -0.004978495109137331
-0.005640395139911983   -0.2   -0.004265245278118974
-0.010602660265643753   -0.2   -0.005473741350633664
0.004955604034981503   -0.18530164092473847   -0.0053135925946162016
-0.02368164048141333   -0.1952783197304864   -0.004884048992395261
-0.01408095177745265   -0.1957581946169864   -0.004179289695467064
-0.019951073441308576   -0.19626971310475066   -0.005481308248723208
-0.02258433565368147   -0.1950565424952275   -0.005505223612932336
-0.01408095177745265   -0.1957581946169864   -0.004179289695467064
-0.014965383405288411   -0.1965200521984394   -0.004948162102476327
-0.019951073441308576   -0.19626971310475066   -0.005481308248723208
-0.014574930397757056   -0.19625129092652127   -0.005226988583696814
-0.02258433565368147   -0.1950565424952275   -0.005505223612932336
-0.01943426949280137   -0.1960727289873282   -0.005685127589012158
-0.014574930397757056   -0.19625129092652127   -0.005226988583696814
-0.019951073441308576   -0.19626971310475066   -0.005481308248723208
-0.02258433565368147   -0.1950565424952275   -0.005505223612932336
-0.014574930397757056   -0.19625129092652127   -0.005226988583696814
-0.013087608411560253   -0.19541326586634325   -0.004831785069036614
-0.01408095177745265   -0.1957581946169864   -0.004179289695467064
-0.02258433565368147   -0.1950565424952275   -0.005505223612932336
-0.014574930397757056   -0.19625129092652127   -0.005226988583696814
-0.01408095177745265   -0.1957581946169864   -0.004179289695467064
-0.019951073441308576   -0.19626971310475066   -0.005481308248723208
-0.02258433565368147   -0.1950565424952275   -0.005505223612932336
-0.013087608411560253   -0.19541326586634325   -0.004831785069036614
-0.01943426949280137   -0.1960727289873282   -0.005685127589012158
-0.021637447242094977   -0.19507389139529394   -0.006123878446314095
-0.013087608411560253   -0.19541326586634325   -0.004831785069036614
-0.014574930397757056   -0.19625129092652127   -0.005226988583696814
-0.01943426949280137   -0.1960727289873282   -0.005685127589012158
-0.014117298633322842   -0.19615060888460917   -0.0054839958319146545
-0.021637447242094977   -0.19507389139529394   -0.006123878446314095
-0.018862423841422456   -0.1960810180042802   -0.005890987471906509
-0.014117298633322842   -0.19615060888460917   -0.0054839958319146545
-0.01943426949280137   -0.1960727289873282   -0.005685127589012158
-0.021637447242094977   -0.19507389139529394   -0.006123878446314095
-0.014117298633322842   -0.19615060888460917   -0.0054839958319146545
-0.012260623023349605   -0.19530541868644374   -0.0054571908126260695
-0.013087608411560253   -0.19541326586634325   -0.004831785069036614
-0.021637447242094977   -0.19507389139529394   -0.006123878446314095
-0.014117298633322842   -0.19615060888460917   -0.0054839958319146545
-0.013087608411560253   -0.19541326586634325   -0.004831785069036614
-0.01943426949280137   -0.1960727289873282   -0.005685127589012158
-0.021637447242094977   -0.19507389139529394   -0.006123878446314095
-0.012260623023349605   -0.19530541868644374   -0.0054571908126260695
-0.018862423841422456   -0.1960810180042802   -0.005890987471906509
-0.020514737222399822   -0.19534394176068517   -0.006755899382523514
-0.012260623023349605   -0.19530541868644374   -0.0054571908126260695
-0.014117298633322842   -0.19615060888460917   -0.0054839958319146545
-0.018862423841422456   -0.1960810180042802   -0.005890987471906509
-0.013725066255826777   -0.19621939467497768   -0.005717814235193734
-0.020514737222399822   -0.19534394176068517   -0.006755899382523514
-0.018330894018783617   -0.19629546582770008   -0.006099753227412005
-0.013725066255826777   -0.19621939467497768   -0.005717814235193734
-0.018862423841422456   -0.1960810180042802   -0.005890987471906509
-0.020514737222399822   -0.19534394176068517   -0.006755899382523514
-0.013725066255826777   -0.19621939467497768   -0.005717814235193734
-0.011325749426838462   -0.19539130799943838   -0.006052675863736247
-0.012260623023349605   -0.19530541868644374   -0.0054571908126260695
-0.020514737222399822   -0.19534394176068517   -0.006755899382523514
-0.013725066255826777   -0.19621939467497768   -0.005717814235193734
-0.012260623023349605   -0.19530541868644374   -0.0054571908126260695
-0.018862423841422456   -0.1960810180042802   -0.005890987471906509
-0.019951073441308576   -0.19626971310475066   -0.005481308248723208
-0.014965383405288411   -0.1965200521984394   -0.004948162102476327
-0.0172246298598111   -0.1972698941019002   -0.006009530624957415
-0.01943426949280137   -0.1960727289873282   -0.005685127589012158
-0.014965383405288411   -0.1965200521984394   -0.004948162102476327
-0.01614987300370307   -0.19699352033812534   -0.005563285417809082
-0.0172246298598111   -0.1972698941019002   -0.006009530624957415
-0.015804086684403956   -0.19675363718921485   -0.005570935196315049
-0.01943426949280137   -0.1960727289873282   -0.005685127589012158
-0.016678855481282926   -0.19706805805925615   -0.005865224136048049
-0.015804086684403956   -0.19675363718921485   -0.005570935196315049
-0.0172246298598111   -0.1972698941019002   -0.006009530624957415
-0.01943426949280137   -0.1960727289873282   -0.005685127589012158
-0.015804086684403956   -0.19675363718921485   -0.005570935196315049
-0.014574930397757056   -0.19625129092652127   -0.005226988583696814
-0.014965383405288411   -0.1965200521984394   -0.004948162102476327
-0.01943426949280137   -0.1960727289873282   -0.005685127589012158
-0.015804086684403956   -0.19675363718921485   -0.005570935196315049
-0.014965383405288411   -0.1965200521984394   -0.004948162102476327
-0.0172246298598111   -0.1972698941019002   -0.006009530624957415
-0.01943426949280137   -0.1960727289873282   -0.005685127589012158
-0.014574930397757056   -0.19625129092652127   -0.005226988583696814
-0.016678855481282926   -0.19706805805925615   -0.005865224136048049
-0.018862423841422456   -0.1960810180042802   -0.005890987471906509
-0.014574930397757056   -0.19625129092652127   -0.005226988583696814
-0.015804086684403956   -0.19675363718921485   -0.005570935196315049
-0.016678855481282926   -0.19706805805925615   -0.005865224136048049
-0.01541911328629672   -0.19666600343489984   -0.005550293629692882
-0.018862423841422456   -0.1960810180042802   -0.005890987471906509
-0.016151408875768696   -0.1970633625854172   -0.0057190871564919725
-0.01541911328629672   -0.19666600343489984   -0.005550293629692882
-0.016678855481282926   -0.19706805805925615   -0.005865224136048049
-0.018862423841422456   -0.1960810180042802   -0.005890987471906509
-0.01541911328629672   -0.19666600343489984   -0.005550293629692882
-0.014117298633322842   -0.19615060888460917   -0.0054839958319146545
-0.014574930397757056   -0.19625129092652127   -0.005226988583696814
-0.018862423841422456   -0.1960810180042802   -0.005890987471906509
-0.01541911328629672   -0.19666600343489984   -0.005550293629692882
-0.014574930397757056   -0.19625129092652127   -0.005226988583696814
-0.016678855481282926   -0.19706805805925615   -0.005865224136048049
-0.018862423841422456   -0.1960810180042802   -0.005890987471906509
-0.014117298633322842   -0.19615060888460917   -0.0054839958319146545
-0.016151408875768696   -0.1970633625854172   -0.0057190871564919725
-0.018330894018783617   -0.19629546582770008   -0.006099753227412005
-0.014117298633322842   -0.19615060888460917   -0.0054839958319146545
-0.01541911328629672   -0.19666600343489984   -0.005550293629692882
-0.016151408875768696   -0.1970633625854172   -0.0057190871564919725
-0.015027591406406566   -0.1967235365497638   -0.005507457775719084
-0.018330894018783617   -0.19629546582770008   -0.006099753227412005
-0.015601341403186671   -0.19725162576172917   -0.005578633547314944
-0.015027591406406566   -0.1967235365497638   -0.005507457775719084
-0.016151408875768696   -0.1970633625854172   -0.0057190871564919725
-0.018330894018783617   -0.19629546582770008   -0.006099753227412005
-0.015027591406406566   -0.1967235365497638   -0.005507457775719084
-0.013725066255826777   -0.19621939467497768   -0.005717814235193734
-0.014117298633322842   -0.19615060888460917   -0.0054839958319146545
-0.018330894018783617   -0.19629546582770008   -0.006099753227412005
-0.015027591406406566   -0.1967235365497638   -0.005507457775719084
-0.014117298633322842   -0.19615060888460917   -0.0054839958319146545
-0.016151408875768696   -0.1970633625854172   -0.0057190871564919725
-0.0172246298598111   -0.1972698941019002   -0.006009530624957415
-0.01614987300370307   -0.19699352033812534   -0.005563285417809082
-0.014736721152594997   -0.1984823972137827   -0.006590472975205608
-0.016678855481282926   -0.19706805805925615   -0.005865224136048049
-0.01614987300370307   -0.19699352033812534   -0.005563285417809082
-0.017417993912786298   -0.19719631055329684   -0.006168313633353605
-0.014736721152594997   -0.1984823972137827   -0.006590472975205608
-0.017059810947348462   -0.19696789001032647   -0.005915243236931264
-0.016678855481282926   -0.19706805805925615   -0.005865224136048049
-0.014067327950539369   -0.19830781006162543   -0.006078401527258845
-0.017059810947348462   -0.19696789001032647   -0.005915243236931264
-0.014736721152594997   -0.1984823972137827   -0.006590472975205608
-0.016678855481282926   -0.19706805805925615   -0.005865224136048049
-0.017059810947348462   -0.19696789001032647   -0.005915243236931264
-0.015804086684403956   -0.19675363718921485   -0.005570935196315049
-0.01614987300370307   -0.19699352033812534   -0.005563285417809082
-0.016678855481282926   -0.19706805805925615   -0.005865224136048049
-0.017059810947348462   -0.19696789001032647   -0.005915243236931264
-0.01614987300370307   -0.19699352033812534   -0.005563285417809082
-0.014736721152594997   -0.1984823972137827   -0.006590472975205608
-0.016678855481282926   -0.19706805805925615   -0.005865224136048049
-0.015804086684403956   -0.19675363718921485   -0.005570935196315049
-0.014067327950539369   -0.19830781006162543   -0.006078401527258845
-0.016151408875768696   -0.1970633625854172   -0.0057190871564919725
-0.015804086684403956   -0.19675363718921485   -0.005570935196315049
-0.017059810947348462   -0.19696789001032647   -0.005915243236931264
-0.014067327950539369   -0.19830781006162543   -0.006078401527258845
-0.016629911218019194   -0.19689423991016963   -0.0056277257336383914
-0.016151408875768696   -0.1970633625854172   -0.0057190871564919725
-0.013447446911805093   -0.19829783840466833   -0.005568282320170237
-0.016629911218019194   -0.19689423991016963   -0.0056277257336383914
-0.014067327950539369   -0.19830781006162543   -0.006078401527258845
-0.016151408875768696   -0.1970633625854172   -0.0057190871564919725
-0.016629911218019194   -0.19689423991016963   -0.0056277257336383914
-0.01541911328629672   -0.19666600343489984   -0.005550293629692882
-0.015804086684403956   -0.19675363718921485   -0.005570935196315049
-0.016151408875768696   -0.1970633625854172   -0.0057190871564919725
-0.016629911218019194   -0.19689423991016963   -0.0056277257336383914
-0.015804086684403956   -0.19675363718921485   -0.005570935196315049
-0.014067327950539369   -0.19830781006162543   -0.006078401527258845
-0.016151408875768696   -0.1970633625854172   -0.0057190871564919725
-0.01541911328629672   -0.19666600343489984   -0.005550293629692882
-0.013447446911805093   -0.19829783840466833   -0.005568282320170237
-0.015601341403186671   -0.19725162576172917   -0.005578633547314944
-0.01541911328629672   -0.19666600343489984   -0.005550293629692882
-0.016629911218019194   -0.19689423991016963   -0.0056277257336383914
-0.013447446911805093   -0.19829783840466833   -0.005568282320170237
-0.016187643261280492   -0.1969507244733783   -0.0053213227267177995
-0.015601341403186671   -0.19725162576172917   -0.005578633547314944
-0.01278145816348261   -0.19844342762852138   -0.005056649714493294
-0.016187643261280492   -0.1969507244733783   -0.0053213227267177995
-0.013447446911805093   -0.19829783840466833   -0.005568282320170237
-0.015601341403186671   -0.19725162576172917   -0.005578633547314944
-0.016187643261280492   -0.1969507244733783   -0.0053213227267177995
-0.015027591406406566   -0.1967235365497638   -0.005507457775719084
-0.01541911328629672   -0.19666600343489984   -0.005550293629692882
-0.015601341403186671   -0.19725162576172917   -0.005578633547314944
-0.016187643261280492   -0.1969507244733783   -0.0053213227267177995
-0.01541911328629672   -0.19666600343489984   -0.005550293629692882
-0.013447446911805093   -0.19829783840466833   -0.005568282320170237
-0.014736721152594997   -0.1984823972137827   -0.006590472975205608
-0.017417993912786298   -0.19719631055329684   -0.006168313633353605
-0.012288195517623744   -0.2   -0.007033876995435903
-0.014067327950539369   -0.19830781006162543   -0.006078401527258845
-0.017417993912786298   -0.19719631055329684   -0.006168313633353605
-0.019253482398764062   -0.1969887962439907   -0.006742113874602234
-0.012288195517623744   -0.2   -0.007033876995435903
-0.018785494427056095   -0.1967737248730227   -0.006241055059375344
-0.014067327950539369   -0.19830781006162543   -0.006078401527258845
-0.011447094428492347   -0.2   -0.00625841862102162
-0.018785494427056095   -0.1967737248730227   -0.006241055059375344
-0.012288195517623744   -0.2   -0.007033876995435903
-0.014067327950539369   -0.19830781006162543   -0.006078401527258845
-0.018785494427056095   -0.1967737248730227   -0.006241055059375344
-0.017059810947348462   -0.19696789001032647   -0.005915243236931264
-0.017417993912786298   -0.19719631055329684   -0.006168313633353605
-0.014067327950539369   -0.19830781006162543   -0.006078401527258845
-0.018785494427056095   -0.1967737248730227   -0.006241055059375344
-0.017417993912786298   -0.19719631055329684   -0.006168313633353605
-0.012288195517623744   -0.2   -0.007033876995435903
-0.014067327950539369   -0.19830781006162543   -0.006078401527258845
-0.017059810947348462   -0.19696789001032647   -0.005915243236931264
-0.011447094428492347   -0.2   -0.00625841862102162
-0.013447446911805093   -0.19829783840466833   -0.005568282320170237
-0.017059810947348462   -0.19696789001032647   -0.005915243236931264
-0.018785494427056095   -0.1967737248730227   -0.006241055059375344
-0.011447094428492347   -0.2   -0.00625841862102162
-0.01816864867921929   -0.19672401612297383   -0.0057017364326243415
-0.013447446911805093   -0.19829783840466833   -0.005568282320170237
-0.010602660265643753   -0.2   -0.005473741350633664
-0.01816864867921929   -0.19672401612297383   -0.0057017364326243415
-0.011447094428492347   -0.2   -0.00625841862102162
-0.013447446911805093   -0.19829783840466833   -0.005568282320170237
-0.01816864867921929   -0.19672401612297383   -0.0057017364326243415
-0.016629911218019194   -0.19689423991016963   -0.0056277257336383914
-0.017059810947348462   -0.19696789001032647   -0.005915243236931264
-0.013447446911805093   -0.19829783840466833   -0.005568282320170237
-0.01816864867921929   -0.19672401612297383   -0.0057017364326243415
-0.017059810947348462   -0.19696789001032647   -0.005915243236931264
-0.011447094428492347   -0.2   -0.00625841862102162
-0.013447446911805093   -0.19829783840466833   -0.005568282320170237
-0.016629911218019194   -0.19689423991016963   -0.0056277257336383914
-0.010602660265643753   -0.2   -0.005473741350633664
-0.01278145816348261   -0.19844342762852138   -0.005056649714493294
-0.016629911218019194   -0.19689423991016963   -0.0056277257336383914
-0.01816864867921929   -0.19672401612297383   -0.0057017364326243415
-0.010602660265643753   -0.2   -0.005473741350633664
-0.01758737839666008   -0.196807521118676   -0.005141373750578371
-0.01278145816348261   -0.19844342762852138   -0.005056649714493294
-0.00977637210215868   -0.2   -0.004699380630185724
-0.01758737839666008   -0.196807521118676   -0.005141373750578371
-0.010602660265643753   -0.2   -0.005473741350633664
-0.01278145816348261   -0.19844342762852138   -0.005056649714493294
-0.01758737839666008   -0.196807521118676   -0.005141373750578371
-0.016187643261280492   -0.1969507244733783   -0.0053213227267177995
-0.016629911218019194   -0.19689423991016963   -0.0056277257336383914
-0.01278145816348261   -0.19844342762852138   -0.005056649714493294
-0.01758737839666008   -0.196807521118676   -0.005141373750578371
-0.016629911218019194   -0.19689423991016963   -0.0056277257336383914
-0.010602660265643753   -0.2   -0.005473741350633664
-0.012288195517623744   -0.2   -0.007033876995435903
-0.019253482398764062   -0.1969887962439907   -0.006742113874602234
-0.010519342780915339   -0.2   -0.0075709043128800975
-0.011447094428492347   -0.2   -0.00625841862102162
-0.019253482398764062   -0.1969887962439907   -0.006742113874602234
-0.022807254403520463   -0.19602349649968812   -0.007348561367782088
-0.010519342780915339   -0.2   -0.0075709043128800975
-0.021570206854234154   -0.19584322102582907   -0.006526364609686239
-0.011447094428492347   -0.2   -0.00625841862102162
-0.008766101912026873   -0.2   -0.006450258487200714
-0.021570206854234154   -0.19584322102582907   -0.006526364609686239
-0.010519342780915339   -0.2   -0.0075709043128800975
-0.011447094428492347   -0.2   -0.00625841862102162
-0.021570206854234154   -0.19584322102582907   -0.006526364609686239
-0.018785494427056095   -0.1967737248730227   -0.006241055059375344
-0.019253482398764062   -0.1969887962439907   -0.006742113874602234
-0.011447094428492347   -0.2   -0.00625841862102162
-0.021570206854234154   -0.19584322102582907   -0.006526364609686239
-0.019253482398764062   -0.1969887962439907   -0.006742113874602234
-0.010519342780915339   -0.2   -0.0075709043128800975
-0.011447094428492347   -0.2   -0.00625841862102162
-0.018785494427056095   -0.1967737248730227   -0.006241055059375344
-0.008766101912026873   -0.2   -0.006450258487200714
-0.010602660265643753   -0.2   -0.005473741350633664
-0.018785494427056095   -0.1967737248730227   -0.006241055059375344
-0.021570206854234154   -0.19584322102582907   -0.006526364609686239
-0.008766101912026873   -0.2   -0.006450258487200714
-0.02043214061073436   -0.1958178074991372   -0.005648094842332708
-0.010602660265643753   -0.2   -0.005473741350633664
-0.007367863688368374   -0.2   -0.005378152354549082
-0.02043214061073436   -0.1958178074991372   -0.005648094842332708
-0.008766101912026873   -0.2   -0.006450258487200714
-0.010602660265643753   -0.2   -0.005473741350633664
-0.02043214061073436   -0.1958178074991372   -0.005648094842332708
-0.01816864867921929   -0.19672401612297383   -0.0057017364326243415
-0.018785494427056095   -0.1967737248730227   -0.006241055059375344
-0.010602660265643753   -0.2   -0.005473741350633664
-0.02043214061073436   -0.1958178074991372   -0.005648094842332708
-0.018785494427056095   -0.1967737248730227   -0.006241055059375344
-0.008766101912026873   -0.2   -0.006450258487200714
-0.010602660265643753   -0.2   -0.005473741350633664
-0.01816864867921929   -0.19672401612297383   -0.0057017364326243415
-0.007367863688368374   -0.2   -0.005378152354549082
-0.00977637210215868   -0.2   -0.004699380630185724
-0.01816864867921929   -0.19672401612297383   -0.0057017364326243415
-0.02043214061073436   -0.1958178074991372   -0.005648094842332708
-0.007367863688368374   -0.2   -0.005378152354549082
-0.018995157586088204   -0.19605467084328831   -0.004728984081940054
-0.00977637210215868   -0.2   -0.004699380630185724
-0.005640395139911983   -0.2   -0.004265245278118974
-0.018995157586088204   -0.19605467084328831   -0.004728984081940054
-0.007367863688368374   -0.2   -0.005378152354549082
-0.00977637210215868   -0.2   -0.004699380630185724
-0.018995157586088204   -0.19605467084328831   -0.004728984081940054
-0.01758737839666008   -0.196807521118676   -0.005141373750578371
-0.01816864867921929   -0.19672401612297383   -0.0057017364326243415
-0.00977637210215868   -0.2   -0.004699380630185724
-0.018995157586088204   -0.19605467084328831   -0.004728984081940054
-0.01816864867921929   -0.19672401612297383   -0.0057017364326243415
-0.007367863688368374   -0.2   -0.005378152354549082
-0.01408095177745265   -0.1957581946169864   -0.004179289695467064
-0.005651823434598735   -0.18828650330068766   -0.0036139501920798983
-0.014965383405288411   -0.1965200521984394   -0.004948162102476327
-0.013087608411560253   -0.19541326586634325   -0.004831785069036614
-0.005651823434598735   -0.18828650330068766   -0.0036139501920798983
-0.010699108715614403   -0.18885938271474728   -0.00443014515807631
-0.014965383405288411   -0.1965200521984394   -0.004948162102476327
-0.01042212859501081   -0.18853429477399206   -0.004678316572506075
-0.013087608411560253   -0.19541326586634325   -0.004831785069036614
-0.014574930397757056   -0.19625129092652127   -0.005226988583696814
-0.01042212859501081   -0.18853429477399206   -0.004678316572506075
-0.014965383405288411   -0.1965200521984394   -0.004948162102476327
-0.013087608411560253   -0.19541326586634325   -0.004831785069036614
-0.01042212859501081   -0.18853429477399206   -0.004678316572506075
-0.004861458216499716   -0.1878845430019144   -0.004176711239020238
-0.005651823434598735   -0.18828650330068766   -0.0036139501920798983
-0.013087608411560253   -0.19541326586634325   -0.004831785069036614
-0.01042212859501081   -0.18853429477399206   -0.004678316572506075
-0.005651823434598735   -0.18828650330068766   -0.0036139501920798983
-0.014965383405288411   -0.1965200521984394   -0.004948162102476327
-0.013087608411560253   -0.19541326586634325   -0.004831785069036614
-0.004861458216499716   -0.1878845430019144   -0.004176711239020238
-0.014574930397757056   -0.19625129092652127   -0.005226988583696814
-0.012260623023349605   -0.19530541868644374   -0.0054571908126260695
-0.004861458216499716   -0.1878845430019144   -0.004176711239020238
-0.01042212859501081   -0.18853429477399206   -0.004678316572506075
-0.014574930397757056   -0.19625129092652127   -0.005226988583696814
-0.010110730835008151   -0.18835261331106604   -0.004903883522419419
-0.012260623023349605   -0.19530541868644374   -0.0054571908126260695
-0.014117298633322842   -0.19615060888460917   -0.0054839958319146545
-0.010110730835008151   -0.18835261331106604   -0.004903883522419419
-0.014574930397757056   -0.19625129092652127   -0.005226988583696814
-0.012260623023349605   -0.19530541868644374   -0.0054571908126260695
-0.010110730835008151   -0.18835261331106604   -0.004903883522419419
-0.004239576705492655   -0.1876913239259739   -0.004705952580688199
-0.004861458216499716   -0.1878845430019144   -0.004176711239020238
-0.012260623023349605   -0.19530541868644374   -0.0054571908126260695
-0.010110730835008151   -0.18835261331106604   -0.004903883522419419
-0.004861458216499716   -0.1878845430019144   -0.004176711239020238
-0.014574930397757056   -0.19625129092652127   -0.005226988583696814
-0.012260623023349605   -0.19530541868644374   -0.0054571908126260695
-0.004239576705492655   -0.1876913239259739   -0.004705952580688199
-0.014117298633322842   -0.19615060888460917   -0.0054839958319146545
-0.011325749426838462   -0.19539130799943838   -0.006052675863736247
-0.004239576705492655   -0.1876913239259739   -0.004705952580688199
-0.010110730835008151   -0.18835261331106604   -0.004903883522419419
-0.014117298633322842   -0.19615060888460917   -0.0054839958319146545
-0.009871856697056609   -0.18830928263963298   -0.005107553601896364
-0.011325749426838462   -0.19539130799943838   -0.006052675863736247
-0.013725066255826777   -0.19621939467497768   -0.005717814235193734
-0.009871856697056609   -0.18830928263963298   -0.005107553601896364
-0.014117298633322842   -0.19615060888460917   -0.0054839958319146545
-0.011325749426838462   -0.19539130799943838   -0.006052675863736247
-0.009871856697056609   -0.18830928263963298   -0.005107553601896364
-0.0035613934687742355   -0.1876516815387847   -0.005200238767576479
-0.004239576705492655   -0.1876913239259739   -0.004705952580688199
-0.011325749426838462   -0.19539130799943838   -0.006052675863736247
-0.009871856697056609   -0.18830928263963298   -0.005107553601896364
-0.004239576705492655   -0.1876913239259739   -0.004705952580688199
-0.014117298633322842   -0.19615060888460917   -0.0054839958319146545
-0.014965383405288411   -0.1965200521984394   -0.004948162102476327
-0.010699108715614403   -0.18885938271474728   -0.00443014515807631
-0.01614987300370307   -0.19699352033812534   -0.005563285417809082
-0.014574930397757056   -0.19625129092652127   -0.005226988583696814
-0.010699108715614403   -0.18885938271474728   -0.00443014515807631
-0.015674470167307435   -0.1890621171664487   -0.005096571468183725
-0.01614987300370307   -0.19699352033812534   -0.005563285417809082
-0.015441316183543493   -0.1887784457514648   -0.0051106225020882004
-0.014574930397757056   -0.19625129092652127   -0.005226988583696814
-0.015804086684403956   -0.19675363718921485   -0.005570935196315049
-0.015441316183543493   -0.1887784457514648   -0.0051106225020882004
-0.01614987300370307   -0.19699352033812534   -0.005563285417809082
-0.014574930397757056   -0.19625129092652127   -0.005226988583696814
-0.015441316183543493   -0.1887784457514648   -0.0051106225020882004
-0.01042212859501081   -0.18853429477399206   -0.004678316572506075
-0.010699108715614403   -0.18885938271474728   -0.00443014515807631
-0.014574930397757056   -0.19625129092652127   -0.005226988583696814
-0.015441316183543493   -0.1887784457514648   -0.0051106225020882004
-0.010699108715614403   -0.18885938271474728   -0.00443014515807631
-0.01614987300370307   -0.19699352033812534   -0.005563285417809082
-0.014574930397757056   -0.19625129092652127   -0.005226988583696814
-0.01042212859501081   -0.18853429477399206   -0.004678316572506075
-0.015804086684403956   -0.19675363718921485   -0.005570935196315049
-0.014117298633322842   -0.19615060888460917   -0.0054839958319146545
-0.01042212859501081   -0.18853429477399206   -0.004678316572506075
-0.015441316183543493   -0.1887784457514648   -0.0051106225020882004
-0.015804086684403956   -0.19675363718921485   -0.005570935196315049
-0.01520021830830497   -0.18862407038920717   -0.005103745483790573
-0.014117298633322842   -0.19615060888460917   -0.0054839958319146545
-0.01541911328629672   -0.19666600343489984   -0.005550293629692882
-0.01520021830830497   -0.18862407038920717   -0.005103745483790573
-0.015804086684403956   -0.19675363718921485   -0.005570935196315049
-0.014117298633322842   -0.19615060888460917   -0.0054839958319146545
-0.01520021830830497   -0.18862407038920717   -0.005103745483790573
-0.010110730835008151   -0.18835261331106604   -0.004903883522419419
-0.01042212859501081   -0.18853429477399206   -0.004678316572506075
-0.014117298633322842   -0.19615060888460917   -0.0054839958319146545
-0.01520021830830497   -0.18862407038920717   -0.005103745483790573
-0.01042212859501081   -0.18853429477399206   -0.004678316572506075
-0.015804086684403956   -0.19675363718921485   -0.005570935196315049
-0.014117298633322842   -0.19615060888460917   -0.0054839958319146545
-0.010110730835008151   -0.18835261331106604   -0.004903883522419419
-0.01541911328629672   -0.19666600343489984   -0.005550293629692882
-0.013725066255826777   -0.19621939467497768   -0.005717814235193734
-0.010110730835008151   -0.18835261331106604   -0.004903883522419419
-0.01520021830830497   -0.18862407038920717   -0.005103745483790573
-0.01541911328629672   -0.19666600343489984   -0.005550293629692882
-0.014967644825259276   -0.1885926529443427   -0.005075715316609765
-0.013725066255826777   -0.19621939467497768   -0.005717814235193734
-0.015027591406406566   -0.1967235365497638   -0.005507457775719084
-0.014967644825259276   -0.1885926529443427   -0.005075715316609765
-0.01541911328629672   -0.19666600343489984   -0.005550293629692882
-0.013725066255826777   -0.19621939467497768   -0.005717814235193734
-0.014967644825259276   -0.1885926529443427   -0.005075715316609765
-0.009871856697056609   -0.18830928263963298   -0.005107553601896364
-0.010110730835008151   -0.18835261331106604   -0.004903883522419419
-0.013725066255826777   -0.19621939467497768   -0.005717814235193734
-0.014967644825259276   -0.1885926529443427   -0.005075715316609765
-0.010110730835008151   -0.18835261331106604   -0.004903883522419419
-0.01541911328629672   -0.19666600343489984   -0.005550293629692882
-0.01614987300370307   -0.19699352033812534   -0.005563285417809082
-0.015674470167307435   -0.1890621171664487   -0.005096571468183725
-0.017417993912786298   -0.19719631055329684   -0.006168313633353605
-0.015804086684403956   -0.19675363718921485   -0.005570935196315049
-0.015674470167307435   -0.1890621171664487   -0.005096571468183725
-0.020614377280319236   -0.18888323147843553   -0.005720108148599467
-0.017417993912786298   -0.19719631055329684   -0.006168313633353605
-0.02038306253185041   -0.18863144979036148   -0.005509733329910386
-0.015804086684403956   -0.19675363718921485   -0.005570935196315049
-0.017059810947348462   -0.19696789001032647   -0.005915243236931264
-0.02038306253185041   -0.18863144979036148   -0.005509733329910386
-0.017417993912786298   -0.19719631055329684   -0.006168313633353605
-0.015804086684403956   -0.19675363718921485   -0.005570935196315049
-0.02038306253185041   -0.18863144979036148   -0.005509733329910386
-0.015441316183543493   -0.1887784457514648   -0.0051106225020882004
-0.015674470167307435   -0.1890621171664487   -0.005096571468183725
-0.015804086684403956   -0.19675363718921485   -0.005570935196315049
-0.02038306253185041   -0.18863144979036148   -0.005509733329910386
-0.015674470167307435   -0.1890621171664487   -0.005096571468183725
-0.017417993912786298   -0.19719631055329684   -0.006168313633353605
-0.015804086684403956   -0.19675363718921485   -0.005570935196315049
-0.015441316183543493   -0.1887784457514648   -0.0051106225020882004
-0.017059810947348462   -0.19696789001032647   -0.005915243236931264
-0.01541911328629672   -0.19666600343489984   -0.005550293629692882
-0.015441316183543493   -0.1887784457514648   -0.0051106225020882004
-0.02038306253185041   -0.18863144979036148   -0.005509733329910386
-0.017059810947348462   -0.19696789001032647   -0.005915243236931264
-0.020123465405869477   -0.18850676166359667   -0.005278727248584532
-0.01541911328629672   -0.19666600343489984   -0.005550293629692882
-0.016629911218019194   -0.19689423991016963   -0.0056277257336383914
-0.020123465405869477   -0.18850676166359667   -0.005278727248584532
-0.017059810947348462   -0.19696789001032647   -0.005915243236931264
-0.01541911328629672   -0.19666600343489984   -0.005550293629692882
-0.020123465405869477   -0.18850676166359667   -0.005278727248584532
-0.01520021830830497   -0.18862407038920717   -0.005103745483790573
-0.015441316183543493   -0.1887784457514648   -0.0051106225020882004
-0.01541911328629672   -0.19666600343489984   -0.005550293629692882
-0.020123465405869477   -0.18850676166359667   -0.005278727248584532
-0.015441316183543493   -0.1887784457514648   -0.0051106225020882004
-0.017059810947348462   -0.19696789001032647   -0.005915243236931264
-0.01541911328629672   -0.19666600343489984   -0.005550293629692882
-0.01520021830830497   -0.18862407038920717   -0.005103745483790573
-0.016629911218019194   -0.19689423991016963   -0.0056277257336383914
-0.015027591406406566   -0.1967235365497638   -0.005507457775719084
-0.01520021830830497   -0.18862407038920717   -0.005103745483790573
-0.020123465405869477   -0.18850676166359667   -0.005278727248584532
-0.016629911218019194   -0.19689423991016963   -0.0056277257336383914
-0.019862648081397347   -0.18849677498566603   -0.0050245738846131606
-0.015027591406406566   -0.1967235365497638   -0.005507457775719084
-0.016187643261280492   -0.1969507244733783   -0.0053213227267177995
-0.019862648081397347   -0.18849677498566603   -0.0050245738846131606
-0.016629911218019194   -0.19689423991016963   -0.0056277257336383914
-0.015027591406406566   -0.1967235365497638   -0.005507457775719084
-0.019862648081397347   -0.18849677498566603   -0.0050245738846131606
-0.014967644825259276   -0.1885926529443427   -0.005075715316609765
-0.01520021830830497   -0.18862407038920717   -0.005103745483790573
-0.015027591406406566   -0.1967235365497638   -0.005507457775719084
-0.019862648081397347   -0.18849677498566603   -0.0050245738846131606
-0.01520021830830497   -0.18862407038920717   -0.005103745483790573
-0.016629911218019194   -0.19689423991016963   -0.0056277257336383914
-0.017417993912786298   -0.19719631055329684   -0.006168313633353605
-0.020614377280319236   -0.18888323147843553   -0.005720108148599467
-0.019253482398764062   -0.1969887962439907   -0.006742113874602234
-0.017059810947348462   -0.19696789001032647   -0.005915243236931264
-0.020614377280319236   -0.18888323147843553   -0.005720108148599467
-0.026044513120755702   -0.18829879340272188   -0.006292280901495356
-0.019253482398764062   -0.1969887962439907   -0.006742113874602234
-0.02576175844330748   -0.1880790874341245   -0.0058626338531174525
-0.017059810947348462   -0.19696789001032647   -0.005915243236931264
-0.018785494427056095   -0.1967737248730227   -0.006241055059375344
-0.02576175844330748   -0.1880790874341245   -0.0058626338531174525
-0.019253482398764062   -0.1969887962439907   -0.006742113874602234
-0.017059810947348462   -0.19696789001032647   -0.005915243236931264
-0.02576175844330748   -0.1880790874341245   -0.0058626338531174525
-0.02038306253185041   -0.18863144979036148   -0.005509733329910386
-0.020614377280319236   -0.18888323147843553   -0.005720108148599467
-0.017059810947348462   -0.19696789001032647   -0.005915243236931264
-0.02576175844330748   -0.1880790874341245   -0.0058626338531174525
-0.020614377280319236   -0.18888323147843553   -0.005720108148599467
-0.019253482398764062   -0.1969887962439907   -0.006742113874602234
-0.017059810947348462   -0.19696789001032647   -0.005915243236931264
-0.02038306253185041   -0.18863144979036148   -0.005509733329910386
-0.018785494427056095   -0.1967737248730227   -0.006241055059375344
-0.016629911218019194   -0.19689423991016963   -0.0056277257336383914
-0.02038306253185041   -0.18863144979036148   -0.005509733329910386
-0.02576175844330748   -0.1880790874341245   -0.0058626338531174525
-0.018785494427056095   -0.1967737248730227   -0.006241055059375344
-0.025371759614220512   -0.18798396722945168   -0.005413828940677349
-0.016629911218019194   -0.19689423991016963   -0.0056277257336383914
-0.01816864867921929   -0.19672401612297383   -0.0057017364326243415
-0.025371759614220512   -0.18798396722945168   -0.005413828940677349
-0.018785494427056095   -0.1967737248730227   -0.006241055059375344
-0.016629911218019194   -0.19689423991016963   -0.0056277257336383914
-0.025371759614220512   -0.18798396722945168   -0.005413828940677349
-0.020123465405869477   -0.18850676166359667   -0.005278727248584532
-0.02038306253185041   -0.18863144979036148   -0.005509733329910386
-0.016629911218019194   -0.19689423991016963   -0.0056277257336383914
-0.025371759614220512   -0.18798396722945168   -0.005413828940677349
-0.02038306253185041   -0.18863144979036148   -0.005509733329910386
-0.018785494427056095   -0.1967737248730227   -0.006241055059375344
-0.016629911218019194   -0.19689423991016963   -0.0056277257336383914
-0.020123465405869477   -0.18850676166359667   -0.005278727248584532
-0.01816864867921929   -0.19672401612297383   -0.0057017364326243415
-0.016187643261280492   -0.1969507244733783   -0.0053213227267177995
-0.020123465405869477   -0.18850676166359667   -0.005278727248584532
-0.025371759614220512   -0.18798396722945168   -0.005413828940677349
-0.01816864867921929   -0.19672401612297383   -0.0057017364326243415
-0.025030689256616445   -0.18801361797564722   -0.00493325267182042
-0.016187643261280492   -0.1969507244733783   -0.0053213227267177995
-0.01758737839666008   -0.196807521118676   -0.005141373750578371
-0.025030689256616445   -0.18801361797564722   -0.00493325267182042
-0.01816864867921929   -0.19672401612297383   -0.0057017364326243415
-0.016187643261280492   -0.1969507244733783   -0.0053213227267177995
-0.025030689256616445   -0.18801361797564722   -0.00493325267182042
-0.019862648081397347   -0.18849677498566603   -0.0050245738846131606
-0.020123465405869477   -0.18850676166359667   -0.005278727248584532
-0.016187643261280492   -0.1969507244733783   -0.0053213227267177995
-0.025030689256616445   -0.18801361797564722   -0.00493325267182042
-0.020123465405869477   -0.18850676166359667   -0.005278727248584532
-0.01816864867921929   -0.19672401612297383   -0.0057017364326243415
-0.019253482398764062   -0.1969887962439907   -0.006742113874602234
-0.026044513120755702   -0.18829879340272188   -0.006292280901495356
-0.022807254403520463   -0.19602349649968812   -0.007348561367782088
-0.018785494427056095   -0.1967737248730227   -0.006241055059375344
-0.026044513120755702   -0.18829879340272188   -0.006292280901495356
-0.03303782346371687   -0.1873483121784116   -0.006839698612327389
-0.022807254403520463   -0.19602349649968812   -0.007348561367782088
-0.03213302727108897   -0.18711086442889197   -0.006161547262561918
-0.018785494427056095   -0.1967737248730227   -0.006241055059375344
-0.021570206854234154   -0.19584322102582907   -0.006526364609686239
-0.03213302727108897   -0.18711086442889197   -0.006161547262561918
-0.022807254403520463   -0.19602349649968812   -0.007348561367782088
-0.018785494427056095   -0.1967737248730227   -0.006241055059375344
-0.03213302727108897   -0.18711086442889197   -0.006161547262561918
-0.02576175844330748   -0.1880790874341245   -0.0058626338531174525
-0.026044513120755702   -0.18829879340272188   -0.006292280901495356
-0.018785494427056095   -0.1967737248730227   -0.006241055059375344
-0.03213302727108897   -0.18711086442889197   -0.006161547262561918
-0.026044513120755702   -0.18829879340272188   -0.006292280901495356
-0.022807254403520463   -0.19602349649968812   -0.007348561367782088
-0.018785494427056095   -0.1967737248730227   -0.006241055059375344
-0.02576175844330748   -0.1880790874341245   -0.0058626338531174525
-0.021570206854234154   -0.19584322102582907   -0.006526364609686239
-0.01816864867921929   -0.19672401612297383   -0.0057017364326243415
-0.02576175844330748   -0.1880790874341245   -0.0058626338531174525
-0.03213302727108897   -0.18711086442889197   -0.006161547262561918
-0.021570206854234154   -0.19584322102582907   -0.006526364609686239
-0.03132080197835249   -0.18702288088269395   -0.005443310876296398
-0.01816864867921929   -0.19672401612297383   -0.0057017364326243415
-0.02043214061073436   -0.1958178074991372   -0.005648094842332708
-0.03132080197835249   -0.18702288088269395   -0.005443310876296398
-0.021570206854234154   -0.19584322102582907   -0.006526364609686239
-0.01816864867921929   -0.19672401612297383   -0.0057017364326243415
-0.03132080197835249   -0.18702288088269395   -0.005443310876296398
-0.025371759614220512   -0.18798396722945168   -0.005413828940677349
-0.02576175844330748   -0.1880790874341245   -0.0058626338531174525
-0.01816864867921929   -0.19672401612297383   -0.0057017364326243415
-0.03132080197835249   -0.18702288088269395   -0.005443310876296398
-0.02576175844330748   -0.1880790874341245   -0.0058626338531174525
-0.021570206854234154   -0.19584322102582907   -0.006526364609686239
-0.01816864867921929   -0.19672401612297383   -0.0057017364326243415
-0.025371759614220512   -0.18798396722945168   -0.005413828940677349
-0.02043214061073436   -0.1958178074991372   -0.005648094842332708
-0.01758737839666008   -0.196807521118676   -0.005141373750578371
-0.025371759614220512   -0.18798396722945168   -0.005413828940677349
-0.03132080197835249   -0.18702288088269395   -0.005443310876296398
-0.02043214061073436   -0.1958178074991372   -0.005648094842332708
-0.030267962664883255   -0.18712936356337298   -0.00469186170097703
-0.01758737839666008   -0.196807521118676   -0.005141373750578371
-0.018995157586088204   -0.19605467084328831   -0.004728984081940054
-0.030267962664883255   -0.18712936356337298   -0.00469186170097703
-0.02043214061073436   -0.1958178074991372   -0.005648094842332708
-0.01758737839666008   -0.196807521118676   -0.005141373750578371
-0.030267962664883255   -0.18712936356337298   -0.00469186170097703
-0.025030689256616445   -0.18801361797564722   -0.00493325267182042
-0.025371759614220512   -0.18798396722945168   -0.005413828940677349
-0.01758737839666008   -0.196807521118676   -0.005141373750578371
-0.030267962664883255   -0.18712936356337298   -0.00469186170097703
-0.025371759614220512   -0.18798396722945168   -0.005413828940677349
-0.02043214061073436   -0.1958178074991372   -0.005648094842332708
-0.005651823434598735   -0.18828650330068766   -0.0036139501920798983
0.0011676569918323962   -0.17459833178794712   -0.0029918534010484137
-0.010699108715614403   -0.18885938271474728   -0.00443014515807631
-0.004861458216499716   -0.1878845430019144   -0.004176711239020238
0.0011676569918323962   -0.17459833178794712   -0.0029918534010484137
-0.00732023977090437   -0.17501701788668117   -0.003792714059029806
-0.010699108715614403   -0.18885938271474728   -0.00443014515807631
-0.007173922701141359   -0.17467642884181214   -0.0039890693504452315
-0.004861458216499716   -0.1878845430019144   -0.004176711239020238
-0.01042212859501081   -0.18853429477399206   -0.004678316572506075
-0.007173922701141359   -0.17467642884181214   -0.0039890693504452315
-0.010699108715614403   -0.18885938271474728   -0.00443014515807631
-0.004861458216499716   -0.1878845430019144   -0.004176711239020238
-0.007173922701141359   -0.17467642884181214   -0.0039890693504452315
0.001717594215466271   -0.17419022153612582   -0.003438664964107442
0.0011676569918323962   -0.17459833178794712   -0.0029918534010484137
-0.004861458216499716   -0.1878845430019144   -0.004176711239020238
-0.007173922701141359   -0.17467642884181214   -0.0039890693504452315
0.0011676569918323962   -0.17459833178794712   -0.0029918534010484137
-0.010699108715614403   -0.18885938271474728   -0.00443014515807631
-0.004861458216499716   -0.1878845430019144   -0.004176711239020238
0.001717594215466271   -0.17419022153612582   -0.003438664964107442
-0.01042212859501081   -0.18853429477399206   -0.004678316572506075
-0.004239576705492655   -0.1876913239259739   -0.004705952580688199
0.001717594215466271   -0.17419022153612582   -0.003438664964107442
-0.007173922701141359   -0.17467642884181214   -0.0039890693504452315
-0.01042212859501081   -0.18853429477399206   -0.004678316572506075
-0.007007640547334659   -0.17445245251981784   -0.004162309491806986
-0.004239576705492655   -0.1876913239259739   -0.004705952580688199
-0.010110730835008151   -0.18835261331106604   -0.004903883522419419
-0.007007640547334659   -0.17445245251981784   -0.004162309491806986
-0.01042212859501081   -0.18853429477399206   -0.004678316572506075
-0.004239576705492655   -0.1876913239259739   -0.004705952580688199
-0.007007640547334659   -0.17445245251981784   -0.004162309491806986
0.002121919193520148   -0.173952603949093   -0.0038531248191559114
0.001717594215466271   -0.17419022153612582   -0.003438664964107442
-0.004239576705492655   -0.1876913239259739   -0.004705952580688199
-0.007007640547334659   -0.17445245251981784   -0.004162309491806986
0.001717594215466271   -0.17419022153612582   -0.003438664964107442
-0.01042212859501081   -0.18853429477399206   -0.004678316572506075
-0.004239576705492655   -0.1876913239259739   -0.004705952580688199
0.002121919193520148   -0.173952603949093   -0.0038531248191559114
-0.010110730835008151   -0.18835261331106604   -0.004903883522419419
-0.0035613934687742355   -0.1876516815387847   -0.005200238767576479
0.002121919193520148   -0.173952603949093   -0.0038531248191559114
-0.007007640547334659   -0.17445245251981784   -0.004162309491806986
-0.010110730835008151   -0.18835261331106604   -0.004903883522419419
-0.0069082676661170375   -0.17433851462735228   -0.004314714428949519
-0.0035613934687742355   -0.1876516815387847   -0.005200238767576479
-0.009871856697056609   -0.18830928263963298   -0.005107553601896364
-0.0069082676661170375   -0.17433851462735228   -0.004314714428949519
-0.010110730835008151   -0.18835261331106604   -0.004903883522419419
-0.0035613934687742355   -0.1876516815387847   -0.005200238767576479
-0.0069082676661170375   -0.17433851462735228   -0.004314714428949519
0.0025538510851917324   -0.17383276194738959   -0.004235059748030707
0.002121919193520148   -0.173952603949093   -0.0038531248191559114
-0.0035613934687742355   -0.1876516815387847   -0.005200238767576479
-0.0069082676661170375   -0.17433851462735228   -0.004314714428949519
0.002121919193520148   -0.173952603949093   -0.0038531248191559114
-0.010110730835008151   -0.18835261331106604   -0.004903883522419419
-0.010699108715614403   -0.18885938271474728   -0.00443014515807631
-0.00732023977090437   -0.17501701788668117   -0.003792714059029806
-0.015674470167307435   -0.1890621171664487   -0.005096571468183725
-0.01042212859501081   -0.18853429477399206   -0.004678316572506075
-0.00732023977090437   -0.17501701788668117   -0.003792714059029806
-0.015525006184739162   -0.1750969455293081   -0.004453603551913102
-0.015674470167307435   -0.1890621171664487   -0.005096571468183725
-0.015417204671997047   -0.17480433289827152   -0.004458937868071427
-0.01042212859501081   -0.18853429477399206   -0.004678316572506075
-0.015441316183543493   -0.1887784457514648   -0.0051106225020882004
-0.015417204671997047   -0.17480433289827152   -0.004458937868071427
-0.015674470167307435   -0.1890621171664487   -0.005096571468183725
-0.01042212859501081   -0.18853429477399206   -0.004678316572506075
-0.015417204671997047   -0.17480433289827152   -0.004458937868071427
-0.007173922701141359   -0.17467642884181214   -0.0039890693504452315
-0.00732023977090437   -0.17501701788668117   -0.003792714059029806
-0.01042212859501081   -0.18853429477399206   -0.004678316572506075
-0.015417204671997047   -0.17480433289827152   -0.004458937868071427
-0.00732023977090437   -0.17501701788668117   -0.003792714059029806
-0.015674470167307435   -0.1890621171664487   -0.005096571468183725
-0.01042212859501081   -0.18853429477399206   -0.004678316572506075
-0.007173922701141359   -0.17467642884181214   -0.0039890693504452315
-0.015441316183543493   -0.1887784457514648   -0.0051106225020882004
-0.010110730835008151   -0.18835261331106604   -0.004903883522419419
-0.007173922701141359   -0.17467642884181214   -0.0039890693504452315
-0.015417204671997047   -0.17480433289827152   -0.004458937868071427
-0.015441316183543493   -0.1887784457514648   -0.0051106225020882004
-0.015306396766001875   -0.17461611915850112   -0.004442139840188268
-0.010110730835008151   -0.18835261331106604   -0.004903883522419419
-0.01520021830830497   -0.18862407038920717   -0.005103745483790573
-0.015306396766001875   -0.17461611915850112   -0.004442139840188268
-0.015441316183543493   -0.1887784457514648   -0.0051106225020882004
-0.010110730835008151   -0.18835261331106604   -0.004903883522419419
-0.015306396766001875   -0.17461611915850112   -0.004442139840188268
-0.007007640547334659   -0.17445245251981784   -0.004162309491806986
-0.007173922701141359   -0.17467642884181214   -0.0039890693504452315
-0.010110730835008151   -0.18835261331106604   -0.004903883522419419
-0.015306396766001875   -0.17461611915850112   -0.004442139840188268
-0.007173922701141359   -0.17467642884181214   -0.0039890693504452315
-0.015441316183543493   -0.1887784457514648   -0.0051106225020882004
-0.010110730835008151   -0.18835261331106604   -0.004903883522419419
-0.007007640547334659   -0.17445245251981784   -0.004162309491806986
-0.01520021830830497   -0.18862407038920717   -0.005103745483790573
-0.009871856697056609   -0.18830928263963298   -0.005107553601896364
-0.007007640547334659   -0.17445245251981784   -0.004162309491806986
-0.015306396766001875   -0.17461611915850112   -0.004442139840188268
-0.01520021830830497   -0.18862407038920717   -0.005103745483790573
-0.01520946200360936   -0.1745305410548915   -0.004404661021061628
-0.009871856697056609   -0.18830928263963298   -0.005107553601896364
-0.014967644825259276   -0.1885926529443427   -0.005075715316609765
-0.01520946200360936   -0.1745305410548915   -0.004404661021061628
-0.01520021830830497   -0.18862407038920717   -0.005103745483790573
-0.009871856697056609   -0.18830928263963298   -0.005107553601896364
-0.01520946200360936   -0.1745305410548915   -0.004404661021061628
-0.0069082676661170375   -0.17433851462735228   -0.004314714428949519
-0.007007640547334659   -0.17445245251981784   -0.004162309491806986
-0.009871856697056609   -0.18830928263963298   -0.005107553601896364
-0.01520946200360936   -0.1745305410548915   -0.004404661021061628
-0.007007640547334659   -0.17445245251981784   -0.004162309491806986
-0.01520021830830497   -0.18862407038920717   -0.005103745483790573
-0.015674470167307435   -0.1890621171664487   -0.005096571468183725
-0.015525006184739162   -0.1750969455293081   -0.004453603551913102
-0.020614377280319236   -0.18888323147843553   -0.005720108148599467
-0.015441316183543493   -0.1887784457514648   -0.0051106225020882004
-0.015525006184739162   -0.1750969455293081   -0.004453603551913102
-0.023599436932593466   -0.17483629566522865   -0.005050269702145152
-0.020614377280319236   -0.18888323147843553   -0.005720108148599467
-0.02349904907093692   -0.17458374763273637   -0.004869207229146874
-0.015441316183543493   -0.1887784457514648   -0.0051106225020882004
-0.02038306253185041   -0.18863144979036148   -0.005509733329910386
-0.02349904907093692   -0.17458374763273637   -0.004869207229146874
-0.020614377280319236   -0.18888323147843553   -0.005720108148599467
-0.015441316183543493   -0.1887784457514648   -0.0051106225020882004
-0.02349904907093692   -0.17458374763273637   -0.004869207229146874
-0.015417204671997047   -0.17480433289827152   -0.004458937868071427
-0.015525006184739162   -0.1750969455293081   -0.004453603551913102
-0.015441316183543493   -0.1887784457514648   -0.0051106225020882004
-0.02349904907093692   -0.17458374763273637   -0.004869207229146874
-0.015525006184739162   -0.1750969455293081   -0.004453603551913102
-0.020614377280319236   -0.18888323147843553   -0.005720108148599467
-0.015441316183543493   -0.1887784457514648   -0.0051106225020882004
-0.015417204671997047   -0.17480433289827152   -0.004458937868071427
-0.02038306253185041   -0.18863144979036148   -0.005509733329910386
-0.01520021830830497   -0.18862407038920717   -0.005103745483790573
-0.015417204671997047   -0.17480433289827152   -0.004458937868071427
-0.02349904907093692   -0.17458374763273637   -0.004869207229146874
-0.02038306253185041   -0.18863144979036148   -0.005509733329910386
-0.023377769861011886   -0.1744344430186706   -0.004666480321007898
-0.01520021830830497   -0.18862407038920717   -0.005103745483790573
-0.020123465405869477   -0.18850676166359667   -0.005278727248584532
-0.023377769861011886   -0.1744344430186706   -0.004666480321007898
-0.02038306253185041   -0.18863144979036148   -0.005509733329910386
-0.01520021830830497   -0.18862407038920717   -0.005103745483790573
-0.023377769861011886   -0.1744344430186706   -0.004666480321007898
-0.015306396766001875   -0.17461611915850112   -0.004442139840188268
-0.015417204671997047   -0.17480433289827152   -0.004458937868071427
-0.01520021830830497   -0.18862407038920717   -0.005103745483790573
-0.023377769861011886   -0.1744344430186706   -0.004666480321007898
-0.015417204671997047   -0.17480433289827152   -0.004458937868071427
-0.02038306253185041   -0.18863144979036148   -0.005509733329910386
-0.01520021830830497   -0.18862407038920717   -0.005103745483790573
-0.015306396766001875   -0.17461611915850112   -0.004442139840188268
-0.020123465405869477   -0.18850676166359667   -0.005278727248584532
-0.014967644825259276   -0.1885926529443427   -0.005075715316609765
-0.015306396766001875   -0.17461611915850112   -0.004442139840188268
-0.023377769861011886   -0.1744344430186706   -0.004666480321007898
-0.020123465405869477   -0.18850676166359667   -0.005278727248584532
-0.023259720651366105   -0.17438350762413068   -0.0044427591247311925
-0.014967644825259276   -0.1885926529443427   -0.005075715316609765
-0.019862648081397347   -0.18849677498566603   -0.0050245738846131606
-0.023259720651366105   -0.17438350762413068   -0.0044427591247311925
-0.020123465405869477   -0.18850676166359667   -0.005278727248584532
-0.014967644825259276   -0.1885926529443427   -0.005075715316609765
-0.023259720651366105   -0.17438350762413068   -0.0044427591247311925
-0.01520946200360936   -0.1745305410548915   -0.004404661021061628
-0.015306396766001875   -0.17461611915850112   -0.004442139840188268
-0.014967644825259276   -0.1885926529443427   -0.005075715316609765
-0.023259720651366105   -0.17438350762413068   -0.0044427591247311925
-0.015306396766001875   -0.17461611915850112   -0.004442139840188268
-0.020123465405869477   -0.18850676166359667   -0.005278727248584532
-0.020614377280319236   -0.18888323147843553   -0.005720108148599467
-0.023599436932593466   -0.17483629566522865   -0.005050269702145152
-0.026044513120755702   -0.18829879340272188   -0.006292280901495356
-0.02038306253185041   -0.18863144979036148   -0.005509733329910386
-0.023599436932593466   -0.17483629566522865   -0.005050269702145152
-0.03206295061442401   -0.17424449451013901   -0.005580175236066964
-0.026044513120755702   -0.18829879340272188   -0.006292280901495356
-0.0319322241513615   -0.17403033253218053   -0.0052125475606121284
-0.02038306253185041   -0.18863144979036148   -0.005509733329910386
-0.02576175844330748   -0.1880790874341245   -0.0058626338531174525
-0.0319322241513615   -0.17403033253218053   -0.0052125475606121284
-0.026044513120755702   -0.18829879340272188   -0.006292280901495356
-0.02038306253185041   -0.18863144979036148   -0.005509733329910386
-0.0319322241513615   -0.17403033253218053   -0.0052125475606121284
-0.02349904907093692   -0.17458374763273637   -0.004869207229146874
-0.023599436932593466   -0.17483629566522865   -0.005050269702145152
-0.02038306253185041   -0.18863144979036148   -0.005509733329910386
-0.0319322241513615   -0.17403033253218053   -0.0052125475606121284
-0.023599436932593466   -0.17483629566522865   -0.005050269702145152
-0.026044513120755702   -0.18829879340272188   -0.006292280901495356
-0.02038306253185041   -0.18863144979036148   -0.005509733329910386
-0.02349904907093692   -0.17458374763273637   -0.004869207229146874
-0.02576175844330748   -0.1880790874341245   -0.0058626338531174525
-0.020123465405869477   -0.18850676166359667   -0.005278727248584532
-0.02349904907093692   -0.17458374763273637   -0.004869207229146874
-0.0319322241513615   -0.17403033253218053   -0.0052125475606121284
-0.02576175844330748   -0.1880790874341245   -0.0058626338531174525
-0.03171083741511129   -0.17391630595458535   -0.004826565186188203
-0.020123465405869477   -0.18850676166359667   -0.005278727248584532
-0.025371759614220512   -0.18798396722945168   -0.005413828940677349
-0.03171083741511129   -0.17391630595458535   -0.004826565186188203
-0.02576175844330748   -0.1880790874341245   -0.0058626338531174525
-0.020123465405869477   -0.18850676166359667   -0.005278727248584532
-0.03171083741511129   -0.17391630595458535   -0.004826565186188203
-0.023377769861011886   -0.1744344430186706   -0.004666480321007898
-0.02349904907093692   -0.17458374763273637   -0.004869207229146874
-0.020123465405869477   -0.18850676166359667   -0.005278727248584532
-0.03171083741511129   -0.17391630595458535   -0.004826565186188203
-0.02349904907093692   -0.17458374763273637   -0.004869207229146874
-0.02576175844330748   -0.1880790874341245   -0.0058626338531174525
-0.020123465405869477   -0.18850676166359667   -0.005278727248584532
-0.023377769861011886   -0.1744344430186706   -0.004666480321007898
-0.025371759614220512   -0.18798396722945168   -0.005413828940677349
-0.019862648081397347   -0.18849677498566603   -0.0050245738846131606
-0.023377769861011886   -0.1744344430186706   -0.004666480321007898
-0.03171083741511129   -0.17391630595458535   -0.004826565186188203
-0.025371759614220512   -0.18798396722945168   -0.005413828940677349
-0.03153053149665914   -0.17390835379452654   -0.004416545719483017
-0.019862648081397347   -0.18849677498566603   -0.0050245738846131606
-0.025030689256616445   -0.18801361797564722   -0.00493325267182042
-0.03153053149665914   -0.17390835379452654   -0.004416545719483017
-0.025371759614220512   -0.18798396722945168   -0.005413828940677349
-0.019862648081397347   -0.18849677498566603   -0.0050245738846131606
-0.03153053149665914   -0.17390835379452654   -0.004416545719483017
-0.023259720651366105   -0.17438350762413068   -0.0044427591247311925
-0.023377769861011886   -0.1744344430186706   -0.004666480321007898
-0.019862648081397347   -0.18849677498566603   -0.0050245738846131606
-0.03153053149665914   -0.17390835379452654   -0.004416545719483017
-0.023377769861011886   -0.1744344430186706   -0.004666480321007898
-0.025371759614220512   -0.18798396722945168   -0.005413828940677349
-0.026044513120755702   -0.18829879340272188   -0.006292280901495356
-0.03206295061442401   -0.17424449451013901   -0.005580175236066964
-0.03303782346371687   -0.1873483121784116   -0.006839698612327389
-0.02576175844330748   -0.1880790874341245   -0.0058626338531174525
-0.03206295061442401   -0.17424449451013901   -0.005580175236066964
-0.041934291518715194   -0.1733937024099227   -0.00607300243969696
-0.03303782346371687   -0.1873483121784116   -0.006839698612327389
-0.04126885456508655   -0.1731709234396254   -0.005497863452483951
-0.02576175844330748   -0.1880790874341245   -0.0058626338531174525
-0.03213302727108897   -0.18711086442889197   -0.006161547262561918
-0.04126885456508655   -0.1731709234396254   -0.005497863452483951
-0.03303782346371687   -0.1873483121784116   -0.006839698612327389
-0.02576175844330748   -0.1880790874341245   -0.0058626338531174525
-0.04126885456508655   -0.1731709234396254   -0.005497863452483951
-0.0319322241513615   -0.17403033253218053   -0.0052125475606121284
-0.03206295061442401   -0.17424449451013901   -0.005580175236066964
-0.02576175844330748   -0.1880790874341245   -0.0058626338531174525
-0.04126885456508655   -0.1731709234396254   -0.005497863452483951
-0.03206295061442401   -0.17424449451013901   -0.005580175236066964
-0.03303782346371687   -0.1873483121784116   -0.006839698612327389
-0.02576175844330748   -0.1880790874341245   -0.0058626338531174525
-0.0319322241513615   -0.17403033253218053   -0.0052125475606121284
-0.03213302727108897   -0.18711086442889197   -0.006161547262561918
-0.025371759614220512   -0.18798396722945168   -0.005413828940677349
-0.0319322241513615   -0.17403033253218053   -0.0052125475606121284
-0.04126885456508655   -0.1731709234396254   -0.005497863452483951
-0.03213302727108897   -0.18711086442889197   -0.006161547262561918
-0.040690525000031806   -0.17306646980543783   -0.004892518551747563
-0.025371759614220512   -0.18798396722945168   -0.005413828940677349
-0.03132080197835249   -0.18702288088269395   -0.005443310876296398
-0.040690525000031806   -0.17306646980543783   -0.004892518551747563
-0.03213302727108897   -0.18711086442889197   -0.006161547262561918
-0.025371759614220512   -0.18798396722945168   -0.005413828940677349
-0.040690525000031806   -0.17306646980543783   -0.004892518551747563
-0.03171083741511129   -0.17391630595458535   -0.004826565186188203
-0.0319322241513615   -0.17403033253218053   -0.0052125475606121284
-0.025371759614220512   -0.18798396722945168   -0.005413828940677349
-0.040690525000031806   -0.17306646980543783   -0.004892518551747563
-0.0319322241513615   -0.17403033253218053   -0.0052125475606121284
-0.03213302727108897   -0.18711086442889197   -0.006161547262561918
-0.025371759614220512   -0.18798396722945168   -0.005413828940677349
-0.03171083741511129   -0.17391630595458535   -0.004826565186188203
-0.03132080197835249   -0.18702288088269395   -0.005443310876296398
-0.025030689256616445   -0.18801361797564722   -0.00493325267182042
-0.03171083741511129   -0.17391630595458535   -0.004826565186188203
-0.040690525000031806   -0.17306646980543783   -0.004892518551747563
-0.03132080197835249   -0.18702288088269395   -0.005443310876296398
-0.039911022588799125   -0.17312433678088368   -0.004260836007228073
-0.025030689256616445   -0.18801361797564722   -0.00493325267182042
-0.030267962664883255   -0.18712936356337298   -0.00469186170097703
-0.039911022588799125   -0.17312433678088368   -0.004260836007228073
-0.03132080197835249   -0.18702288088269395   -0.005443310876296398
-0.025030689256616445   -0.18801361797564722   -0.00493325267182042
-0.039911022588799125   -0.17312433678088368   -0.004260836007228073
-0.03153053149665914   -0.17390835379452654   -0.004416545719483017
-0.03171083741511129   -0.17391630595458535   -0.004826565186188203
-0.025030689256616445   -0.18801361797564722   -0.00493325267182042
-0.039911022588799125   -0.17312433678088368   -0.004260836007228073
-0.03171083741511129   -0.17391630595458535   -0.004826565186188203
-0.03132080197835249   -0.18702288088269395   -0.005443310876296398
0.0011676569918323962   -0.17459833178794712   -0.0029918534010484137
0.006328352146242971   -0.15605844779438915   -0.0022807641870256825
-0.00732023977090437   -0.17501701788668117   -0.003792714059029806
0.001717594215466271   -0.17419022153612582   -0.003438664964107442
0.006328352146242971   -0.15605844779438915   -0.0022807641870256825
-0.004889251133514265   -0.15633394325158825   -0.0030449824902306394
-0.00732023977090437   -0.17501701788668117   -0.003792714059029806
-0.004859494963585158   -0.1559951994185535   -0.003180543979942942
0.001717594215466271   -0.17419022153612582   -0.003438664964107442
-0.007173922701141359   -0.17467642884181214   -0.0039890693504452315
-0.004859494963585158   -0.1559951994185535   -0.003180543979942942
-0.00732023977090437   -0.17501701788668117   -0.003792714059029806
0.001717594215466271   -0.17419022153612582   -0.003438664964107442
-0.004859494963585158   -0.1559951994185535   -0.003180543979942942
0.006652883287004514   -0.15566037858786735   -0.0026100040990410657
0.006328352146242971   -0.15605844779438915   -0.0022807641870256825
0.001717594215466271   -0.17419022153612582   -0.003438664964107442
-0.004859494963585158   -0.1559951994185535   -0.003180543979942942
0.006328352146242971   -0.15605844779438915   -0.0022807641870256825
-0.00732023977090437   -0.17501701788668117   -0.003792714059029806
0.001717594215466271   -0.17419022153612582   -0.003438664964107442
0.006652883287004514   -0.15566037858786735   -0.0026100040990410657
-0.007173922701141359   -0.17467642884181214   -0.0039890693504452315
0.002121919193520148   -0.173952603949093   -0.0038531248191559114
0.006652883287004514   -0.15566037858786735   -0.0026100040990410657
-0.004859494963585158   -0.1559951994185535   -0.003180543979942942
-0.007173922701141359   -0.17467642884181214   -0.0039890693504452315
-0.004821754402967817   -0.155748166997218   -0.003295042041422363
0.002121919193520148   -0.173952603949093   -0.0038531248191559114
-0.007007640547334659   -0.17445245251981784   -0.004162309491806986
-0.004821754402967817   -0.155748166997218   -0.003295042041422363
-0.007173922701141359   -0.17467642884181214   -0.0039890693504452315
0.002121919193520148   -0.173952603949093   -0.0038531248191559114
-0.004821754402967817   -0.155748166997218   -0.003295042041422363
0.00685980741066563   -0.1553974311117592   -0.002909492166175847
0.006652883287004514   -0.15566037858786735   -0.0026100040990410657
0.002121919193520148   -0.173952603949093   -0.0038531248191559114
-0.004821754402967817   -0.155748166997218   -0.003295042041422363
0.006652883287004514   -0.15566037858786735   -0.0026100040990410657
-0.007173922701141359   -0.17467642884181214   -0.0039890693504452315
0.002121919193520148   -0.173952603949093   -0.0038531248191559114
0.00685980741066563   -0.1553974311117592   -0.002909492166175847
-0.007007640547334659   -0.17445245251981784   -0.004162309491806986
0.0025538510851917324   -0.17383276194738959   -0.004235059748030707
0.00685980741066563   -0.1553974311117592   -0.002909492166175847
-0.004821754402967817   -0.155748166997218   -0.003295042041422363
-0.007007640547334659   -0.17445245251981784   -0.004162309491806986
-0.004841008524849082   -0.15558502300725396   -0.0033900154687700273
0.0025538510851917324   -0.17383276194738959   -0.004235059748030707
-0.0069082676661170375   -0.17433851462735228   -0.004314714428949519
-0.004841008524849082   -0.15558502300725396   -0.0033900154687700273
-0.007007640547334659   -0.17445245251981784   -0.004162309491806986
0.0025538510851917324   -0.17383276194738959   -0.004235059748030707
-0.004841008524849082   -0.15558502300725396   -0.0033900154687700273
0.007071394350929547   -0.1552191058053327   -0.0031798392774603783
0.00685980741066563   -0.1553974311117592   -0.002909492166175847
0.0025538510851917324   -0.17383276194738959   -0.004235059748030707
-0.004841008524849082   -0.15558502300725396   -0.0033900154687700273
0.00685980741066563   -0.1553974311117592   -0.002909492166175847
-0.007007640547334659   -0.17445245251981784   -0.004162309491806986
-0.00732023977090437   -0.17501701788668117   -0.003792714059029806
-0.004889251133514265   -0.15633394325158825   -0.0030449824902306394
-0.015525006184739162   -0.1750969455293081   -0.004453603551913102
-0.007173922701141359   -0.17467642884181214   -0.0039890693504452315
-0.004889251133514265   -0.15633394325158825   -0.0030449824902306394
-0.01567856583831421   -0.15633471966155826   -0.0036765491052265886
-0.015525006184739162   -0.1750969455293081   -0.004453603551913102
-0.01568028449089387   -0.15604769535989518   -0.0036637901594975767
-0.007173922701141359   -0.17467642884181214   -0.0039890693504452315
-0.015417204671997047   -0.17480433289827152   -0.004458937868071427
-0.01568028449089387   -0.15604769535989518   -0.0036637901594975767
-0.015525006184739162   -0.1750969455293081   -0.004453603551913102
-0.007173922701141359   -0.17467642884181214   -0.0039890693504452315
-0.01568028449089387   -0.15604769535989518   -0.0036637901594975767
-0.004859494963585158   -0.1559951994185535   -0.003180543979942942
-0.004889251133514265   -0.15633394325158825   -0.0030449824902306394
-0.007173922701141359   -0.17467642884181214   -0.0039890693504452315
-0.01568028449089387   -0.15604769535989518   -0.0036637901594975767
-0.004889251133514265   -0.15633394325158825   -0.0030449824902306394
-0.015525006184739162   -0.1750969455293081   -0.004453603551913102
-0.007173922701141359   -0.17467642884181214   -0.0039890693504452315
-0.004859494963585158   -0.1559951994185535   -0.003180543979942942
-0.015417204671997047   -0.17480433289827152   -0.004458937868071427
-0.007007640547334659   -0.17445245251981784   -0.004162309491806986
-0.004859494963585158   -0.1559951994185535   -0.003180543979942942
-0.01568028449089387   -0.15604769535989518   -0.0036637901594975767
-0.015417204671997047   -0.17480433289827152   -0.004458937868071427
-0.01568130100664711   -0.15584154365403413   -0.003630065472715974
-0.007007640547334659   -0.17445245251981784   -0.004162309491806986
-0.015306396766001875   -0.17461611915850112   -0.004442139840188268
-0.01568130100664711   -0.15584154365403413   -0.003630065472715974
-0.015417204671997047   -0.17480433289827152   -0.004458937868071427
-0.007007640547334659   -0.17445245251981784   -0.004162309491806986
-0.01568130100664711   -0.15584154365403413   -0.003630065472715974
-0.004821754402967817   -0.155748166997218   -0.003295042041422363
-0.004859494963585158   -0.1559951994185535   -0.003180543979942942
-0.007007640547334659   -0.17445245251981784   -0.004162309491806986
-0.01568130100664711   -0.15584154365403413   -0.003630065472715974
-0.004859494963585158   -0.1559951994185535   -0.003180543979942942
-0.015417204671997047   -0.17480433289827152   -0.004458937868071427
-0.007007640547334659   -0.17445245251981784   -0.004162309491806986
-0.004821754402967817   -0.155748166997218   -0.003295042041422363
-0.015306396766001875   -0.17461611915850112   -0.004442139840188268
-0.0069082676661170375   -0.17433851462735228   -0.004314714428949519
-0.004821754402967817   -0.155748166997218   -0.003295042041422363
-0.01568130100664711   -0.15584154365403413   -0.003630065472715974
-0.015306396766001875   -0.17461611915850112   -0.004442139840188268
-0.015696781465875376   -0.1557164008720744   -0.0035764422326286767
-0.0069082676661170375   -0.17433851462735228   -0.004314714428949519
-0.01520946200360936   -0.1745305410548915   -0.004404661021061628
-0.015696781465875376   -0.1557164008720744   -0.0035764422326286767
-0.015306396766001875   -0.17461611915850112   -0.004442139840188268
-0.0069082676661170375   -0.17433851462735228   -0.004314714428949519
-0.015696781465875376   -0.1557164008720744   -0.0035764422326286767
-0.004841008524849082   -0.15558502300725396   -0.0033900154687700273
-0.004821754402967817   -0.155748166997218   -0.003295042041422363
-0.0069082676661170375   -0.17433851462735228   -0.004314714428949519
-0.015696781465875376   -0.1557164008720744   -0.0035764422326286767
-0.004821754402967817   -0.155748166997218   -0.003295042041422363
-0.015306396766001875   -0.17461611915850112   -0.004442139840188268
-0.015525006184739162   -0.1750969455293081   -0.004453603551913102
-0.01567856583831421   -0.15633471966155826   -0.0036765491052265886
-0.023599436932593466   -0.17483629566522865   -0.005050269702145152
-0.015417204671997047   -0.17480433289827152   -0.004458937868071427
-0.01567856583831421   -0.15633471966155826   -0.0036765491052265886
-0.026283345735846245   -0.15606668567661103   -0.004230190497451541
-0.023599436932593466   -0.17483629566522865   -0.005050269702145152
-0.026293003985607157   -0.1558252329914731   -0.004070883503860729
-0.015417204671997047   -0.17480433289827152   -0.004458937868071427
-0.02349904907093692   -0.17458374763273637   -0.004869207229146874
-0.026293003985607157   -0.1558252329914731   -0.004070883503860729
-0.023599436932593466   -0.17483629566522865   -0.005050269702145152
-0.015417204671997047   -0.17480433289827152   -0.004458937868071427
-0.026293003985607157   -0.1558252329914731   -0.004070883503860729
-0.01568028449089387   -0.15604769535989518   -0.0036637901594975767
-0.01567856583831421   -0.15633471966155826   -0.0036765491052265886
-0.015417204671997047   -0.17480433289827152   -0.004458937868071427
-0.026293003985607157   -0.1558252329914731   -0.004070883503860729
-0.01567856583831421   -0.15633471966155826   -0.0036765491052265886
-0.023599436932593466   -0.17483629566522865   -0.005050269702145152
-0.015417204671997047   -0.17480433289827152   -0.004458937868071427
-0.01568028449089387   -0.15604769535989518   -0.0036637901594975767
-0.02349904907093692   -0.17458374763273637   -0.004869207229146874
-0.015306396766001875   -0.17461611915850112   -0.004442139840188268
-0.01568028449089387   -0.15604769535989518   -0.0036637901594975767
-0.026293003985607157   -0.1558252329914731   -0.004070883503860729
-0.02349904907093692   -0.17458374763273637   -0.004869207229146874
-0.026284553548452542   -0.1556639355353319   -0.003891006884726226
-0.015306396766001875   -0.17461611915850112   -0.004442139840188268
-0.023377769861011886   -0.1744344430186706   -0.004666480321007898
-0.026284553548452542   -0.1556639355353319   -0.003891006884726226
-0.02349904907093692   -0.17458374763273637   -0.004869207229146874
-0.015306396766001875   -0.17461611915850112   -0.004442139840188268
-0.026284553548452542   -0.1556639355353319   -0.003891006884726226
-0.01568130100664711   -0.15584154365403413   -0.003630065472715974
-0.01568028449089387   -0.15604769535989518   -0.0036637901594975767
-0.015306396766001875   -0.17461611915850112   -0.004442139840188268
-0.026284553548452542   -0.1556639355353319   -0.003891006884726226
-0.01568028449089387   -0.15604769535989518   -0.0036637901594975767
-0.02349904907093692   -0.17458374763273637   -0.004869207229146874
-0.015306396766001875   -0.17461611915850112   -0.004442139840188268
-0.01568130100664711   -0.15584154365403413   -0.003630065472715974
-0.023377769861011886   -0.1744344430186706   -0.004666480321007898
-0.01520946200360936   -0.1745305410548915   -0.004404661021061628
-0.01568130100664711   -0.15584154365403413   -0.003630065472715974
-0.026284553548452542   -0.1556639355353319   -0.003891006884726226
-0.023377769861011886   -0.1744344430186706   -0.004666480321007898
-0.026279319840791102   -0.15558136546566534   -0.003691165722341259
-0.01520946200360936   -0.1745305410548915   -0.004404661021061628
-0.023259720651366105   -0.17438350762413068   -0.0044427591247311925
-0.026279319840791102   -0.15558136546566534   -0.003691165722341259
-0.023377769861011886   -0.1744344430186706   -0.004666480321007898
-0.01520946200360936   -0.1745305410548915   -0.004404661021061628
-0.026279319840791102   -0.15558136546566534   -0.003691165722341259
-0.015696781465875376   -0.1557164008720744   -0.0035764422326286767
-0.01568130100664711   -0.15584154365403413   -0.003630065472715974
-0.01520946200360936   -0.1745305410548915   -0.004404661021061628
-0.026279319840791102   -0.15558136546566534   -0.003691165722341259
-0.01568130100664711   -0.15584154365403413   -0.003630065472715974
-0.023377769861011886   -0.1744344430186706   -0.004666480321007898
-0.023599436932593466   -0.17483629566522865   -0.005050269702145152
-0.026283345735846245   -0.15606668567661103   -0.004230190497451541
-0.03206295061442401   -0.17424449451013901   -0.005580175236066964
-0.02349904907093692   -0.17458374763273637   -0.004869207229146874
-0.026283345735846245   -0.15606668567661103   -0.004230190497451541
-0.03721951678853546   -0.15554014736871502   -0.004706754156422899
-0.03206295061442401   -0.17424449451013901   -0.005580175236066964
-0.03720714828682233   -0.15534244871398528   -0.004399194639680237
-0.02349904907093692   -0.17458374763273637   -0.004869207229146874
-0.0319322241513615   -0.17403033253218053   -0.0052125475606121284
-0.03720714828682233   -0.15534244871398528   -0.004399194639680237
-0.03206295061442401   -0.17424449451013901   -0.005580175236066964
-0.02349904907093692   -0.17458374763273637   -0.004869207229146874
-0.03720714828682233   -0.15534244871398528   -0.004399194639680237
-0.026293003985607157   -0.1558252329914731   -0.004070883503860729
-0.026283345735846245   -0.15606668567661103   -0.004230190497451541
-0.02349904907093692   -0.17458374763273637   -0.004869207229146874
-0.03720714828682233   -0.15534244871398528   -0.004399194639680237
-0.026283345735846245   -0.15606668567661103   -0.004230190497451541
-0.03206295061442401   -0.17424449451013901   -0.005580175236066964
-0.02349904907093692   -0.17458374763273637   -0.004869207229146874
-0.026293003985607157   -0.1558252329914731   -0.004070883503860729
-0.0319322241513615   -0.17403033253218053   -0.0052125475606121284
-0.023377769861011886   -0.1744344430186706   -0.004666480321007898
-0.026293003985607157   -0.1558252329914731   -0.004070883503860729
-0.03720714828682233   -0.15534244871398528   -0.004399194639680237
-0.0319322241513615   -0.17403033253218053   -0.0052125475606121284
-0.037116142586529316   -0.15522181577071598   -0.004074158981310762
-0.023377769861011886   -0.1744344430186706   -0.004666480321007898
-0.03171083741511129   -0.17391630595458535   -0.004826565186188203
-0.037116142586529316   -0.15522181577071598   -0.004074158981310762
-0.0319322241513615   -0.17403033253218053   -0.0052125475606121284
-0.023377769861011886   -0.1744344430186706   -0.004666480321007898
-0.037116142586529316   -0.15522181577071598   -0.004074158981310762
-0.026284553548452542   -0.1556639355353319   -0.003891006884726226
-0.026293003985607157   -0.1558252329914731   -0.004070883503860729
-0.023377769861011886   -0.1744344430186706   -0.004666480321007898
-0.037116142586529316   -0.15522181577071598   -0.004074158981310762
-0.026293003985607157   -0.1558252329914731   -0.004070883503860729
-0.0319322241513615   -0.17403033253218053   -0.0052125475606121284
-0.023377769861011886   -0.1744344430186706   -0.004666480321007898
-0.026284553548452542   -0.1556639355353319   -0.003891006884726226
-0.03171083741511129   -0.17391630595458535   -0.004826565186188203
-0.023259720651366105   -0.17438350762413068   -0.0044427591247311925
-0.026284553548452542   -0.1556639355353319   -0.003891006884726226
-0.037116142586529316   -0.15522181577071598   -0.004074158981310762
-0.03171083741511129   -0.17391630595458535   -0.004826565186188203
-0.03705515484205049   -0.1551865048239326   -0.0037275660871123597
-0.023259720651366105   -0.17438350762413068   -0.0044427591247311925
-0.03153053149665914   -0.17390835379452654   -0.004416545719483017
-0.03705515484205049   -0.1551865048239326   -0.0037275660871123597
-0.03171083741511129   -0.17391630595458535   -0.004826565186188203
-0.023259720651366105   -0.17438350762413068   -0.0044427591247311925
-0.03705515484205049   -0.1551865048239326   -0.0037275660871123597
-0.026279319840791102   -0.15558136546566534   -0.003691165722341259
-0.026284553548452542   -0.1556639355353319   -0.003891006884726226
-0.023259720651366105   -0.17438350762413068   -0.0044427591247311925
-0.03705515484205049   -0.1551865048239326   -0.0037275660871123597
-0.026284553548452542   -0.1556639355353319   -0.003891006884726226
-0.03171083741511129   -0.17391630595458535   -0.004826565186188203
-0.03206295061442401   -0.17424449451013901   -0.005580175236066964
-0.03721951678853546   -0.15554014736871502   -0.004706754156422899
-0.041934291518715194   -0.1733937024099227   -0.00607300243969696
-0.0319322241513615   -0.17403033253218053   -0.0052125475606121284
-0.03721951678853546   -0.15554014736871502   -0.004706754156422899
-0.049434730005354297   -0.15481585677303997   -0.005135781236311144
-0.041934291518715194   -0.1733937024099227   -0.00607300243969696
-0.04898179680327293   -0.1546221818139282   -0.004665700865309502
-0.0319322241513615   -0.17403033253218053   -0.0052125475606121284
-0.04126885456508655   -0.1731709234396254   -0.005497863452483951
-0.04898179680327293   -0.1546221818139282   -0.004665700865309502
-0.041934291518715194   -0.1733937024099227   -0.00607300243969696
-0.0319322241513615   -0.17403033253218053   -0.0052125475606121284
-0.04898179680327293   -0.1546221818139282   -0.004665700865309502
-0.03720714828682233   -0.15534244871398528   -0.004399194639680237
-0.03721951678853546   -0.15554014736871502   -0.004706754156422899
-0.0319322241513615   -0.17403033253218053   -0.0052125475606121284
-0.04898179680327293   -0.1546221818139282   -0.004665700865309502
-0.03721951678853546   -0.15554014736871502   -0.004706754156422899
-0.041934291518715194   -0.1733937024099227   -0.00607300243969696
-0.0319322241513615   -0.17403033253218053   -0.0052125475606121284
-0.03720714828682233   -0.15534244871398528   -0.004399194639680237
-0.04126885456508655   -0.1731709234396254   -0.005497863452483951
-0.03171083741511129   -0.17391630595458535   -0.004826565186188203
-0.03720714828682233   -0.15534244871398528   -0.004399194639680237
-0.04898179680327293   -0.1546221818139282   -0.004665700865309502
-0.04126885456508655   -0.1731709234396254   -0.005497863452483951
-0.04859392569546871   -0.1545163602462398   -0.004166294540796128
-0.03171083741511129   -0.17391630595458535   -0.004826565186188203
-0.040690525000031806   -0.17306646980543783   -0.004892518551747563
-0.04859392569546871   -0.1545163602462398   -0.004166294540796128
-0.04126885456508655   -0.1731709234396254   -0.005497863452483951
-0.03171083741511129   -0.17391630595458535   -0.004826565186188203
-0.04859392569546871   -0.1545163602462398   -0.004166294540796128
-0.037116142586529316   -0.15522181577071598   -0.004074158981310762
-0.03720714828682233   -0.15534244871398528   -0.004399194639680237
-0.03171083741511129   -0.17391630595458535   -0.004826565186188203
-0.04859392569546871   -0.1545163602462398   -0.004166294540796128
-0.03720714828682233   -0.15534244871398528   -0.004399194639680237
-0.04126885456508655   -0.1731709234396254   -0.005497863452483951
-0.03171083741511129   -0.17391630595458535   -0.004826565186188203
-0.037116142586529316   -0.15522181577071598   -0.004074158981310762
-0.040690525000031806   -0.17306646980543783   -0.004892518551747563
-0.03153053149665914   -0.17390835379452654   -0.004416545719483017
-0.037116142586529316   -0.15522181577071598   -0.004074158981310762
-0.04859392569546871   -0.1545163602462398   -0.004166294540796128
-0.040690525000031806   -0.17306646980543783   -0.004892518551747563
-0.048033454260324925   -0.15454606374647348   -0.0036415593243346238
-0.03153053149665914   -0.17390835379452654   -0.004416545719483017
-0.039911022588799125   -0.17312433678088368   -0.004260836007228073
-0.048033454260324925   -0.15454606374647348   -0.0036415593243346238
-0.040690525000031806   -0.17306646980543783   -0.004892518551747563
-0.03153053149665914   -0.17390835379452654   -0.004416545719483017
-0.048033454260324925   -0.15454606374647348   -0.0036415593243346238
-0.03705515484205049   -0.1551865048239326   -0.0037275660871123597
-0.037116142586529316   -0.15522181577071598   -0.004074158981310762
-0.03153053149665914   -0.17390835379452654   -0.004416545719483017
-0.048033454260324925   -0.15454606374647348   -0.0036415593243346238
-0.037116142586529316   -0.15522181577071598   -0.004074158981310762
-0.040690525000031806   -0.17306646980543783   -0.004892518551747563
0.006328352146242971   -0.15605844779438915   -0.0022807641870256825
0.009868435454154327   -0.13379647327260027   -0.0015185275045007359
-0.004889251133514265   -0.15633394325158825   -0.0030449824902306394
0.006652883287004514   -0.15566037858786735   -0.0026100040990410657
0.009868435454154327   -0.13379647327260027   -0.0015185275045007359
-0.0034213045489693804   -0.13393056512343193   -0.002237647881679762
-0.004889251133514265   -0.15633394325158825   -0.0030449824902306394
-0.003485098313650038   -0.13359998233240578   -0.002310079227137989
0.006652883287004514   -0.15566037858786735   -0.0026100040990410657
-0.004859494963585158   -0.1559951994185535   -0.003180543979942942
-0.003485098313650038   -0.13359998233240578   -0.002310079227137989
-0.004889251133514265   -0.15633394325158825   -0.0030449824902306394
0.006652883287004514   -0.15566037858786735   -0.0026100040990410657
-0.003485098313650038   -0.13359998233240578   -0.002310079227137989
0.009994091722348135   -0.13341297747625017   -0.0017330107206986554
0.009868435454154327   -0.13379647327260027   -0.0015185275045007359
0.006652883287004514   -0.15566037858786735   -0.0026100040990410657
-0.003485098313650038   -0.13359998233240578   -0.002310079227137989
0.009868435454154327   -0.13379647327260027   -0.0015185275045007359
-0.004889251133514265   -0.15633394325158825   -0.0030449824902306394
0.006652883287004514   -0.15566037858786735   -0.0026100040990410657
0.009994091722348135   -0.13341297747625017   -0.0017330107206986554
-0.004859494963585158   -0.1559951994185535   -0.003180543979942942
0.00685980741066563   -0.1553974311117592   -0.002909492166175847
0.009994091722348135   -0.13341297747625017   -0.0017330107206986554
-0.003485098313650038   -0.13359998233240578   -0.002310079227137989
-0.004859494963585158   -0.1559951994185535   -0.003180543979942942
-0.003552299002846681   -0.13333711194746098   -0.002363770367731048
0.00685980741066563   -0.1553974311117592   -0.002909492166175847
-0.004821754402967817   -0.155748166997218   -0.003295042041422363
-0.003552299002846681   -0.13333711194746098   -0.002363770367731048
-0.004859494963585158   -0.1559951994185535   -0.003180543979942942
0.00685980741066563   -0.1553974311117592   -0.002909492166175847
-0.003552299002846681   -0.13333711194746098   -0.002363770367731048
0.010030427637494635   -0.1331318095905195   -0.0019198620601533394
0.009994091722348135   -0.13341297747625017   -0.0017330107206986554
0.00685980741066563   -0.1553974311117592   -0.002909492166175847
-0.003552299002846681   -0.13333711194746098   -0.002363770367731048
0.009994091722348135   -0.13341297747625017   -0.0017330107206986554
-0.004859494963585158   -0.1559951994185535   -0.003180543979942942
0.00685980741066563   -0.1553974311117592   -0.002909492166175847
0.010030427637494635   -0.1331318095905195   -0.0019198620601533394
-0.004821754402967817   -0.155748166997218   -0.003295042041422363
0.007071394350929547   -0.1552191058053327   -0.0031798392774603783
0.010030427637494635   -0.1331318095905195   -0.0019198620601533394
-0.003552299002846681   -0.13333711194746098   -0.002363770367731048
-0.004821754402967817   -0.155748166997218   -0.003295042041422363
-0.003665567547822169   -0.133133798176022   -0.0023993584950917895
0.007071394350929547   -0.1552191058053327   -0.0031798392774603783
-0.004841008524849082   -0.15558502300725396   -0.0033900154687700273
-0.003665567547822169   -0.133133798176022   -0.0023993584950917895
-0.004821754402967817   -0.155748166997218   -0.003295042041422363
0.007071394350929547   -0.1552191058053327   -0.0031798392774603783
-0.003665567547822169   -0.133133798176022   -0.0023993584950917895
0.010048756383468492   -0.1329040436341855   -0.0020803811932036905
0.010030427637494635   -0.1331318095905195   -0.0019198620601533394
0.007071394350929547   -0.1552191058053327   -0.0031798392774603783
-0.003665567547822169   -0.133133798176022   -0.0023993584950917895
0.010030427637494635   -0.1331318095905195   -0.0019198620601533394
-0.004821754402967817   -0.155748166997218   -0.003295042041422363
-0.004889251133514265   -0.15633394325158825   -0.0030449824902306394
-0.0034213045489693804   -0.13393056512343193   -0.002237647881679762
-0.01567856583831421   -0.15633471966155826   -0.0036765491052265886
-0.004859494963585158   -0.1559951994185535   -0.003180543979942942
-0.0034213045489693804   -0.13393056512343193   -0.002237647881679762
-0.01615628418324661   -0.13385977990033396   -0.0028313653060352733
-0.01567856583831421   -0.15633471966155826   -0.0036765491052265886
-0.016243905839508865   -0.1335829098141762   -0.00279697753506809
-0.004859494963585158   -0.1559951994185535   -0.003180543979942942
-0.01568028449089387   -0.15604769535989518   -0.0036637901594975767
-0.016243905839508865   -0.1335829098141762   -0.00279697753506809
-0.01567856583831421   -0.15633471966155826   -0.0036765491052265886
-0.004859494963585158   -0.1559951994185535   -0.003180543979942942
-0.016243905839508865   -0.1335829098141762   -0.00279697753506809
-0.003485098313650038   -0.13359998233240578   -0.002310079227137989
-0.0034213045489693804   -0.13393056512343193   -0.002237647881679762
-0.004859494963585158   -0.1559951994185535   -0.003180543979942942
-0.016243905839508865   -0.1335829098141762   -0.00279697753506809
-0.0034213045489693804   -0.13393056512343193   -0.002237647881679762
-0.01567856583831421   -0.15633471966155826   -0.0036765491052265886
-0.004859494963585158   -0.1559951994185535   -0.003180543979942942
-0.003485098313650038   -0.13359998233240578   -0.002310079227137989
-0.01568028449089387   -0.15604769535989518   -0.0036637901594975767
-0.004821754402967817   -0.155748166997218   -0.003295042041422363
-0.003485098313650038   -0.13359998233240578   -0.002310079227137989
-0.016243905839508865   -0.1335829098141762   -0.00279697753506809
-0.01568028449089387   -0.15604769535989518   -0.0036637901594975767
-0.01633272276893098   -0.13336409914207406   -0.002743312307729068
-0.004821754402967817   -0.155748166997218   -0.003295042041422363
-0.01568130100664711   -0.15584154365403413   -0.003630065472715974
-0.01633272276893098   -0.13336409914207406   -0.002743312307729068
-0.01568028449089387   -0.15604769535989518   -0.0036637901594975767
-0.004821754402967817   -0.155748166997218   -0.003295042041422363
-0.01633272276893098   -0.13336409914207406   -0.002743312307729068
-0.003552299002846681   -0.13333711194746098   -0.002363770367731048
-0.003485098313650038   -0.13359998233240578   -0.002310079227137989
-0.004821754402967817   -0.155748166997218   -0.003295042041422363
-0.01633272276893098   -0.13336409914207406   -0.002743312307729068
-0.003485098313650038   -0.13359998233240578   -0.002310079227137989
-0.01568028449089387   -0.15604769535989518   -0.0036637901594975767
-0.004821754402967817   -0.155748166997218   -0.003295042041422363
-0.003552299002846681   -0.13333711194746098   -0.002363770367731048
-0.01568130100664711   -0.15584154365403413   -0.003630065472715974
-0.004841008524849082   -0.15558502300725396   -0.0033900154687700273
-0.003552299002846681   -0.13333711194746098   -0.002363770367731048
-0.01633272276893098   -0.13336409914207406   -0.002743312307729068
-0.01568130100664711   -0.15584154365403413   -0.003630065472715974
-0.016435243797098334   -0.13320434169576048   -0.002671279897135977
-0.004841008524849082   -0.15558502300725396   -0.0033900154687700273
-0.015696781465875376   -0.1557164008720744   -0.0035764422326286767
-0.016435243797098334   -0.13320434169576048   -0.002671279897135977
-0.01568130100664711   -0.15584154365403413   -0.003630065472715974
-0.004841008524849082   -0.15558502300725396   -0.0033900154687700273
-0.016435243797098334   -0.13320434169576048   -0.002671279897135977
-0.003665567547822169   -0.133133798176022   -0.0023993584950917895
-0.003552299002846681   -0.13333711194746098   -0.002363770367731048
-0.004841008524849082   -0.15558502300725396   -0.0033900154687700273
-0.016435243797098334   -0.13320434169576048   -0.002671279897135977
-0.003552299002846681   -0.13333711194746098   -0.002363770367731048
-0.01568130100664711   -0.15584154365403413   -0.003630065472715974
-0.01567856583831421   -0.15633471966155826   -0.0036765491052265886
-0.01615628418324661   -0.13385977990033396   -0.0028313653060352733
-0.026283345735846245   -0.15606668567661103   -0.004230190497451541
-0.01568028449089387   -0.15604769535989518   -0.0036637901594975767
-0.01615628418324661   -0.13385977990033396   -0.0028313653060352733
-0.028675132121272397   -0.13359638063584242   -0.0033400959889258327
-0.026283345735846245   -0.15606668567661103   -0.004230190497451541
-0.028769476986906777   -0.13336843978660057   -0.0031993673318024365
-0.01568028449089387   -0.15604769535989518   -0.0036637901594975767
-0.026293003985607157   -0.1558252329914731   -0.004070883503860729
-0.028769476986906777   -0.13336843978660057   -0.0031993673318024365
-0.026283345735846245   -0.15606668567661103   -0.004230190497451541
-0.01568028449089387   -0.15604769535989518   -0.0036637901594975767
-0.028769476986906777   -0.13336843978660057   -0.0031993673318024365
-0.016243905839508865   -0.1335829098141762   -0.00279697753506809
-0.01615628418324661   -0.13385977990033396   -0.0028313653060352733
-0.01568028449089387   -0.15604769535989518   -0.0036637901594975767
-0.028769476986906777   -0.13336843978660057   -0.0031993673318024365
-0.01615628418324661   -0.13385977990033396   -0.0028313653060352733
-0.026283345735846245   -0.15606668567661103   -0.004230190497451541
-0.01568028449089387   -0.15604769535989518   -0.0036637901594975767
-0.016243905839508865   -0.1335829098141762   -0.00279697753506809
-0.026293003985607157   -0.1558252329914731   -0.004070883503860729
-0.01568130100664711   -0.15584154365403413   -0.003630065472715974
-0.016243905839508865   -0.1335829098141762   -0.00279697753506809
-0.028769476986906777   -0.13336843978660057   -0.0031993673318024365
-0.026293003985607157   -0.1558252329914731   -0.004070883503860729
-0.028847775998351904   -0.1331980009064487   -0.00303969300959121
-0.01568130100664711   -0.15584154365403413   -0.003630065472715974
-0.026284553548452542   -0.1556639355353319   -0.003891006884726226
-0.028847775998351904   -0.1331980009064487   -0.00303969300959121
-0.026293003985607157   -0.1558252329914731   -0.004070883503860729
-0.01568130100664711   -0.15584154365403413   -0.003630065472715974
-0.028847775998351904   -0.1331980009064487   -0.00303969300959121
-0.01633272276893098   -0.13336409914207406   -0.002743312307729068
-0.016243905839508865   -0.1335829098141762   -0.00279697753506809
-0.01568130100664711   -0.15584154365403413   -0.003630065472715974
-0.028847775998351904   -0.1331980009064487   -0.00303969300959121
-0.016243905839508865   -0.1335829098141762   -0.00279697753506809
-0.026293003985607157   -0.1558252329914731   -0.004070883503860729
-0.01568130100664711   -0.15584154365403413   -0.003630065472715974
-0.01633272276893098   -0.13336409914207406   -0.002743312307729068
-0.026284553548452542   -0.1556639355353319   -0.003891006884726226
-0.015696781465875376   -0.1557164008720744   -0.0035764422326286767
-0.01633272276893098   -0.13336409914207406   -0.002743312307729068
-0.028847775998351904   -0.1331980009064487   -0.00303969300959121
-0.026284553548452542   -0.1556639355353319   -0.003891006884726226
-0.02892830786567792   -0.13308482993765927   -0.0028616368998936846
-0.015696781465875376   -0.1557164008720744   -0.0035764422326286767
-0.026279319840791102   -0.15558136546566534   -0.003691165722341259
-0.02892830786567792   -0.13308482993765927   -0.0028616368998936846
-0.026284553548452542   -0.1556639355353319   -0.003891006884726226
-0.015696781465875376   -0.1557164008720744   -0.0035764422326286767
-0.02892830786567792   -0.13308482993765927   -0.0028616368998936846
-0.016435243797098334   -0.13320434169576048   -0.002671279897135977
-0.01633272276893098   -0.13336409914207406   -0.002743312307729068
-0.015696781465875376   -0.1557164008720744   -0.0035764422326286767
-0.02892830786567792   -0.13308482993765927   -0.0028616368998936846
-0.01633272276893098   -0.13336409914207406   -0.002743312307729068
-0.026284553548452542   -0.1556639355353319   -0.003891006884726226
-0.026283345735846245   -0.15606668567661103   -0.004230190497451541
-0.028675132121272397   -0.13359638063584242   -0.0033400959889258327
-0.03721951678853546   -0.15554014736871502   -0.004706754156422899
-0.026293003985607157   -0.1558252329914731   -0.004070883503860729
-0.028675132121272397   -0.13359638063584242   -0.0033400959889258327
-0.041491846138257855   -0.13314569235163884   -0.003765616657177753
-0.03721951678853546   -0.15554014736871502   -0.004706754156422899
-0.041570242373403454   -0.13296563565117345   -0.0035171179093403844
-0.026293003985607157   -0.1558252329914731   -0.004070883503860729
-0.03720714828682233   -0.15534244871398528   -0.004399194639680237
-0.041570242373403454   -0.13296563565117345   -0.0035171179093403844
-0.03721951678853546   -0.15554014736871502   -0.004706754156422899
-0.026293003985607157   -0.1558252329914731   -0.004070883503860729
-0.041570242373403454   -0.13296563565117345   -0.0035171179093403844
-0.028769476986906777   -0.13336843978660057   -0.0031993673318024365
-0.028675132121272397   -0.13359638063584242   -0.0033400959889258327
-0.026293003985607157   -0.1558252329914731   -0.004070883503860729
-0.041570242373403454   -0.13296563565117345   -0.0035171179093403844
-0.028675132121272397   -0.13359638063584242   -0.0033400959889258327
-0.03721951678853546   -0.15554014736871502   -0.004706754156422899
-0.026293003985607157   -0.1558252329914731   -0.004070883503860729
-0.028769476986906777   -0.13336843978660057   -0.0031993673318024365
-0.03720714828682233   -0.15534244871398528   -0.004399194639680237
-0.026284553548452542   -0.1556639355353319   -0.003891006884726226
-0.028769476986906777   -0.13336843978660057   -0.0031993673318024365
-0.041570242373403454   -0.13296563565117345   -0.0035171179093403844
-0.03720714828682233   -0.15534244871398528   -0.004399194639680237
-0.04158145688275917   -0.1328394123100211   -0.003252298252291063
-0.026284553548452542   -0.1556639355353319   -0.003891006884726226
-0.037116142586529316   -0.15522181577071598   -0.004074158981310762
-0.04158145688275917   -0.1328394123100211   -0.003252298252291063
-0.03720714828682233   -0.15534244871398528   -0.004399194639680237
-0.026284553548452542   -0.1556639355353319   -0.003891006884726226
-0.04158145688275917   -0.1328394123100211   -0.003252298252291063
-0.028847775998351904   -0.1331980009064487   -0.00303969300959121
-0.028769476986906777   -0.13336843978660057   -0.0031993673318024365
-0.026284553548452542   -0.1556639355353319   -0.003891006884726226
-0.04158145688275917   -0.1328394123100211   -0.003252298252291063
-0.028769476986906777   -0.13336843978660057   -0.0031993673318024365
-0.03720714828682233   -0.15534244871398528   -0.004399194639680237
-0.026284553548452542   -0.1556639355353319   -0.003891006884726226
-0.028847775998351904   -0.1331980009064487   -0.00303969300959121
-0.037116142586529316   -0.15522181577071598   -0.004074158981310762
-0.026279319840791102   -0.15558136546566534   -0.003691165722341259
-0.028847775998351904   -0.1331980009064487   -0.00303969300959121
-0.04158145688275917   -0.1328394123100211   -0.003252298252291063
-0.037116142586529316   -0.15522181577071598   -0.004074158981310762
-0.041611465585159005   -0.13277557831294223   -0.0029677109649634908
-0.026279319840791102   -0.15558136546566534   -0.003691165722341259
-0.03705515484205049   -0.1551865048239326   -0.0037275660871123597
-0.041611465585159005   -0.13277557831294223   -0.0029677109649634908
-0.037116142586529316   -0.15522181577071598   -0.004074158981310762
-0.026279319840791102   -0.15558136546566534   -0.003691165722341259
-0.041611465585159005   -0.13277557831294223   -0.0029677109649634908
-0.02892830786567792   -0.13308482993765927   -0.0028616368998936846
-0.028847775998351904   -0.1331980009064487   -0.00303969300959121
-0.026279319840791102   -0.15558136546566534   -0.003691165722341259
-0.041611465585159005   -0.13277557831294223   -0.0029677109649634908
-0.028847775998351904   -0.1331980009064487   -0.00303969300959121
-0.037116142586529316   -0.15522181577071598   -0.004074158981310762
-0.03721951678853546   -0.15554014736871502   -0.004706754156422899
-0.041491846138257855   -0.13314569235163884   -0.003765616657177753
-0.049434730005354297   -0.15481585677303997   -0.005135781236311144
-0.03720714828682233   -0.15534244871398528   -0.004399194639680237
-0.041491846138257855   -0.13314569235163884   -0.003765616657177753
-0.05546627046768708   -0.13255586658321106   -0.004129037821501041
-0.049434730005354297   -0.15481585677303997   -0.005135781236311144
-0.055202817556883395   -0.1323914073346973   -0.003767008749496544
-0.03720714828682233   -0.15534244871398528   -0.004399194639680237
-0.04898179680327293   -0.1546221818139282   -0.004665700865309502
-0.055202817556883395   -0.1323914073346973   -0.003767008749496544
-0.049434730005354297   -0.15481585677303997   -0.005135781236311144
-0.03720714828682233   -0.15534244871398528   -0.004399194639680237
-0.055202817556883395   -0.1323914073346973   -0.003767008749496544
-0.041570242373403454   -0.13296563565117345   -0.0035171179093403844
-0.041491846138257855   -0.13314569235163884   -0.003765616657177753
-0.03720714828682233   -0.15534244871398528   -0.004399194639680237
-0.055202817556883395   -0.1323914073346973   -0.003767008749496544
-0.041491846138257855   -0.13314569235163884   -0.003765616657177753
-0.049434730005354297   -0.15481585677303997   -0.005135781236311144
-0.03720714828682233   -0.15534244871398528   -0.004399194639680237
-0.041570242373403454   -0.13296563565117345   -0.0035171179093403844
-0.04898179680327293   -0.1546221818139282   -0.004665700865309502
-0.037116142586529316   -0.15522181577071598   -0.004074158981310762
-0.041570242373403454   -0.13296563565117345   -0.0035171179093403844
-0.055202817556883395   -0.1323914073346973   -0.003767008749496544
-0.04898179680327293   -0.1546221818139282   -0.004665700865309502
-0.05498046188467529   -0.1322839079616548   -0.0033765126103358464
-0.037116142586529316   -0.15522181577071598   -0.004074158981310762
-0.04859392569546871   -0.1545163602462398   -0.004166294540796128
-0.05498046188467529   -0.1322839079616548   -0.0033765126103358464
-0.04898179680327293   -0.1546221818139282   -0.004665700865309502
-0.037116142586529316   -0.15522181577071598   -0.004074158981310762
-0.05498046188467529   -0.1322839079616548   -0.0033765126103358464
-0.04158145688275917   -0.1328394123100211   -0.003252298252291063
-0.041570242373403454   -0.13296563565117345   -0.0035171179093403844
-0.037116142586529316   -0.15522181577071598   -0.004074158981310762
-0.05498046188467529   -0.1322839079616548   -0.0033765126103358464
-0.041570242373403454   -0.13296563565117345   -0.0035171179093403844
-0.04898179680327293   -0.1546221818139282   -0.004665700865309502
-0.037116142586529316   -0.15522181577071598   -0.004074158981310762
-0.04158145688275917   -0.1328394123100211   -0.003252298252291063
-0.04859392569546871   -0.1545163602462398   -0.004166294540796128
-0.03705515484205049   -0.1551865048239326   -0.0037275660871123597
-0.04158145688275917   -0.1328394123100211   -0.003252298252291063
-0.05498046188467529   -0.1322839079616548   -0.0033765126103358464
-0.04859392569546871   -0.1545163602462398   -0.004166294540796128
-0.054612160031536364   -0.13228264096011585   -0.0029610894982683164
-0.03705515484205049   -0.1551865048239326   -0.0037275660871123597
-0.048033454260324925   -0.15454606374647348   -0.0036415593243346238
-0.054612160031536364   -0.13228264096011585   -0.0029610894982683164
-0.04859392569546871   -0.1545163602462398   -0.004166294540796128
-0.03705515484205049   -0.1551865048239326   -0.0037275660871123597
-0.054612160031536364   -0.13228264096011585   -0.0029610894982683164
-0.041611465585159005   -0.13277557831294223   -0.0029677109649634908
-0.04158145688275917   -0.1328394123100211   -0.003252298252291063
-0.03705515484205049   -0.1551865048239326   -0.0037275660871123597
-0.054612160031536364   -0.13228264096011585   -0.0029610894982683164
-0.04158145688275917   -0.1328394123100211   -0.003252298252291063
-0.04859392569546871   -0.1545163602462398   -0.004166294540796128
0.009868435454154327   -0.13379647327260027   -0.0015185275045007359
0.011817428064859303   -0.10885076503896889   -0.0007710674845937433
-0.0034213045489693804   -0.13393056512343193   -0.002237647881679762
0.009994091722348135   -0.13341297747625017   -0.0017330107206986554
0.011817428064859303   -0.10885076503896889   -0.0007710674845937433
-0.00291827277911588   -0.10884536228978432   -0.001438432812584805
-0.0034213045489693804   -0.13393056512343193   -0.002237647881679762
-0.00305176782250982   -0.1085253811913001   -0.0014471538554684782
0.009994091722348135   -0.13341297747625017   -0.0017330107206986554
-0.003485098313650038   -0.13359998233240578   -0.002310079227137989
-0.00305176782250982   -0.1085253811913001   -0.0014471538554684782
-0.0034213045489693804   -0.13393056512343193   -0.002237647881679762
0.009994091722348135   -0.13341297747625017   -0.0017330107206986554
-0.00305176782250982   -0.1085253811913001   -0.0014471538554684782
0.011770991525322988   -0.108483468543023   -0.0008724682870857668
0.011817428064859303   -0.10885076503896889   -0.0007710674845937433
0.009994091722348135   -0.13341297747625017   -0.0017330107206986554
-0.00305176782250982   -0.1085253811913001   -0.0014471538554684782
0.011817428064859303   -0.10885076503896889   -0.0007710674845937433
-0.0034213045489693804   -0.13393056512343193   -0.002237647881679762
0.009994091722348135   -0.13341297747625017   -0.0017330107206986554
0.011770991525322988   -0.108483468543023   -0.0008724682870857668
-0.003485098313650038   -0.13359998233240578   -0.002310079227137989
0.010030427637494635   -0.1331318095905195   -0.0019198620601533394
0.011770991525322988   -0.108483468543023   -0.0008724682870857668
-0.00305176782250982   -0.1085253811913001   -0.0014471538554684782
-0.003485098313650038   -0.13359998233240578   -0.002310079227137989
-0.003200073355713121   -0.10824878314489725   -0.0014393207185786968
0.010030427637494635   -0.1331318095905195   -0.0019198620601533394
-0.003552299002846681   -0.13333711194746098   -0.002363770367731048
-0.003200073355713121   -0.10824878314489725   -0.0014393207185786968
-0.003485098313650038   -0.13359998233240578   -0.002310079227137989
0.010030427637494635   -0.1331318095905195   -0.0019198620601533394
-0.003200073355713121   -0.10824878314489725   -0.0014393207185786968
0.011661764323488115   -0.10818635224609506   -0.0009473361180317003
0.011770991525322988   -0.108483468543023   -0.0008724682870857668
0.010030427637494635   -0.1331318095905195   -0.0019198620601533394
-0.003200073355713121   -0.10824878314489725   -0.0014393207185786968
0.011770991525322988   -0.108483468543023   -0.0008724682870857668
-0.003485098313650038   -0.13359998233240578   -0.002310079227137989
0.010030427637494635   -0.1331318095905195   -0.0019198620601533394
0.011661764323488115   -0.10818635224609506   -0.0009473361180317003
-0.003552299002846681   -0.13333711194746098   -0.002363770367731048
0.010048756383468492   -0.1329040436341855   -0.0020803811932036905
0.011661764323488115   -0.10818635224609506   -0.0009473361180317003
-0.003200073355713121   -0.10824878314489725   -0.0014393207185786968
-0.003552299002846681   -0.13333711194746098   -0.002363770367731048
-0.003383546430222533   -0.1080084990713088   -0.0014142807911206683
0.010048756383468492   -0.1329040436341855   -0.0020803811932036905
-0.003665567547822169   -0.133133798176022   -0.0023993584950917895
-0.003383546430222533   -0.1080084990713088   -0.0014142807911206683
-0.003552299002846681   -0.13333711194746098   -0.002363770367731048
0.010048756383468492   -0.1329040436341855   -0.0020803811932036905
-0.003383546430222533   -0.1080084990713088   -0.0014142807911206683
0.011509848186401307   -0.10791166774248889   -0.000997523274259156
0.011661764323488115   -0.10818635224609506   -0.0009473361180317003
0.010048756383468492   -0.1329040436341855   -0.0020803811932036905
-0.003383546430222533   -0.1080084990713088   -0.0014142807911206683
0.011661764323488115   -0.10818635224609506   -0.0009473361180317003
-0.003552299002846681   -0.13333711194746098   -0.002363770367731048
-0.0034213045489693804   -0.13393056512343193   -0.002237647881679762
-0.00291827277911588   -0.10884536228978432   -0.001438432812584805
-0.01615628418324661   -0.13385977990033396   -0.0028313653060352733
-0.003485098313650038   -0.13359998233240578   -0.002310079227137989
-0.00291827277911588   -0.10884536228978432   -0.001438432812584805
-0.0169716980238217   -0.10871165520662679   -0.001990981518264578
-0.01615628418324661   -0.13385977990033396   -0.0028313653060352733
-0.0171204809165951   -0.1084452975000382   -0.0019332471911922987
-0.003485098313650038   -0.13359998233240578   -0.002310079227137989
-0.016243905839508865   -0.1335829098141762   -0.00279697753506809
-0.0171204809165951   -0.1084452975000382   -0.0019332471911922987
-0.01615628418324661   -0.13385977990033396   -0.0028313653060352733
-0.003485098313650038   -0.13359998233240578   -0.002310079227137989
-0.0171204809165951   -0.1084452975000382   -0.0019332471911922987
-0.00305176782250982   -0.1085253811913001   -0.0014471538554684782
-0.00291827277911588   -0.10884536228978432   -0.001438432812584805
-0.003485098313650038   -0.13359998233240578   -0.002310079227137989
-0.0171204809165951   -0.1084452975000382   -0.0019332471911922987
-0.00291827277911588   -0.10884536228978432   -0.001438432812584805
-0.01615628418324661   -0.13385977990033396   -0.0028313653060352733
-0.003485098313650038   -0.13359998233240578   -0.002310079227137989
-0.00305176782250982   -0.1085253811913001   -0.0014471538554684782
-0.016243905839508865   -0.1335829098141762   -0.00279697753506809
-0.003552299002846681   -0.13333711194746098   -0.002363770367731048
-0.00305176782250982   -0.1085253811913001   -0.0014471538554684782
-0.0171204809165951   -0.1084452975000382   -0.0019332471911922987
-0.016243905839508865   -0.1335829098141762   -0.00279697753506809
-0.01727221581027443   -0.10821426100477614   -0.0018582853700274441
-0.003552299002846681   -0.13333711194746098   -0.002363770367731048
-0.01633272276893098   -0.13336409914207406   -0.002743312307729068
-0.01727221581027443   -0.10821426100477614   -0.0018582853700274441
-0.016243905839508865   -0.1335829098141762   -0.00279697753506809
-0.003552299002846681   -0.13333711194746098   -0.002363770367731048
-0.01727221581027443   -0.10821426100477614   -0.0018582853700274441
-0.003200073355713121   -0.10824878314489725   -0.0014393207185786968
-0.00305176782250982   -0.1085253811913001   -0.0014471538554684782
-0.003552299002846681   -0.13333711194746098   -0.002363770367731048
-0.01727221581027443   -0.10821426100477614   -0.0018582853700274441
-0.00305176782250982   -0.1085253811913001   -0.0014471538554684782
-0.016243905839508865   -0.1335829098141762   -0.00279697753506809
-0.003552299002846681   -0.13333711194746098   -0.002363770367731048
-0.003200073355713121   -0.10824878314489725   -0.0014393207185786968
-0.01633272276893098   -0.13336409914207406   -0.002743312307729068
-0.003665567547822169   -0.133133798176022   -0.0023993584950917895
-0.003200073355713121   -0.10824878314489725   -0.0014393207185786968
-0.01727221581027443   -0.10821426100477614   -0.0018582853700274441
-0.01633272276893098   -0.13336409914207406   -0.002743312307729068
-0.017436682706375575   -0.10802067899159783   -0.0017668851692925025
-0.003665567547822169   -0.133133798176022   -0.0023993584950917895
-0.016435243797098334   -0.13320434169576048   -0.002671279897135977
-0.017436682706375575   -0.10802067899159783   -0.0017668851692925025
-0.01633272276893098   -0.13336409914207406   -0.002743312307729068
-0.003665567547822169   -0.133133798176022   -0.0023993584950917895
-0.017436682706375575   -0.10802067899159783   -0.0017668851692925025
-0.003383546430222533   -0.1080084990713088   -0.0014142807911206683
-0.003200073355713121   -0.10824878314489725   -0.0014393207185786968
-0.003665567547822169   -0.133133798176022   -0.0023993584950917895
-0.017436682706375575   -0.10802067899159783   -0.0017668851692925025
-0.003200073355713121   -0.10824878314489725   -0.0014393207185786968
-0.01633272276893098   -0.13336409914207406   -0.002743312307729068
-0.01615628418324661   -0.13385977990033396   -0.0028313653060352733
-0.0169716980238217   -0.10871165520662679   -0.001990981518264578
-0.028675132121272397   -0.13359638063584242   -0.0033400959889258327
-0.016243905839508865   -0.1335829098141762   -0.00279697753506809
-0.0169716980238217   -0.10871165520662679   -0.001990981518264578
-0.030787409335066844   -0.10846372467487052   -0.002458117613767319
-0.028675132121272397   -0.13359638063584242   -0.0033400959889258327
-0.030940375382265184   -0.10824692228035632   -0.0023339921584605875
-0.016243905839508865   -0.1335829098141762   -0.00279697753506809
-0.028769476986906777   -0.13336843978660057   -0.0031993673318024365
-0.030940375382265184   -0.10824692228035632   -0.0023339921584605875
-0.028675132121272397   -0.13359638063584242   -0.0033400959889258327
-0.016243905839508865   -0.1335829098141762   -0.00279697753506809
-0.030940375382265184   -0.10824692228035632   -0.0023339921584605875
-0.0171204809165951   -0.1084452975000382   -0.0019332471911922987
-0.0169716980238217   -0.10871165520662679   -0.001990981518264578
-0.016243905839508865   -0.1335829098141762   -0.00279697753506809
-0.030940375382265184   -0.10824692228035632   -0.0023339921584605875
-0.0169716980238217   -0.10871165520662679   -0.001990981518264578
-0.028675132121272397   -0.13359638063584242   -0.0033400959889258327
-0.016243905839508865   -0.1335829098141762   -0.00279697753506809
-0.0171204809165951   -0.1084452975000382   -0.0019332471911922987
-0.028769476986906777   -0.13336843978660057   -0.0031993673318024365
-0.01633272276893098   -0.13336409914207406   -0.002743312307729068
-0.0171204809165951   -0.1084452975000382   -0.0019332471911922987
-0.030940375382265184   -0.10824692228035632   -0.0023339921584605875
-0.028769476986906777   -0.13336843978660057   -0.0031993673318024365
-0.03107924173724011   -0.10806519084536387   -0.0021930347406817997
-0.01633272276893098   -0.13336409914207406   -0.002743312307729068
-0.028847775998351904   -0.1331980009064487   -0.00303969300959121
-0.03107924173724011   -0.10806519084536387   -0.0021930347406817997
-0.028769476986906777   -0.13336843978660057   -0.0031993673318024365
-0.01633272276893098   -0.13336409914207406   -0.002743312307729068
-0.03107924173724011   -0.10806519084536387   -0.0021930347406817997
-0.01727221581027443   -0.10821426100477614   -0.0018582853700274441
-0.0171204809165951   -0.1084452975000382   -0.0019332471911922987
-0.01633272276893098   -0.13336409914207406   -0.002743312307729068
-0.03107924173724011   -0.10806519084536387   -0.0021930347406817997
-0.0171204809165951   -0.1084452975000382   -0.0019332471911922987
-0.028769476986906777   -0.13336843978660057   -0.0031993673318024365
-0.01633272276893098   -0.13336409914207406   -0.002743312307729068
-0.01727221581027443   -0.10821426100477614   -0.0018582853700274441
-0.028847775998351904   -0.1331980009064487   -0.00303969300959121
-0.016435243797098334   -0.13320434169576048   -0.002671279897135977
-0.01727221581027443   -0.10821426100477614   -0.0018582853700274441
-0.03107924173724011   -0.10806519084536387   -0.0021930347406817997
-0.028847775998351904   -0.1331980009064487   -0.00303969300959121
-0.031219411442932915   -0.10791885090236408   -0.0020358942859331243
-0.016435243797098334   -0.13320434169576048   -0.002671279897135977
-0.02892830786567792   -0.13308482993765927   -0.0028616368998936846
-0.031219411442932915   -0.10791885090236408   -0.0020358942859331243
-0.028847775998351904   -0.1331980009064487   -0.00303969300959121
-0.016435243797098334   -0.13320434169576048   -0.002671279897135977
-0.031219411442932915   -0.10791885090236408   -0.0020358942859331243
-0.017436682706375575   -0.10802067899159783   -0.0017668851692925025
-0.01727221581027443   -0.10821426100477614   -0.0018582853700274441
-0.016435243797098334   -0.13320434169576048   -0.002671279897135977
-0.031219411442932915   -0.10791885090236408   -0.0020358942859331243
-0.01727221581027443   -0.10821426100477614   -0.0018582853700274441
-0.028847775998351904   -0.1331980009064487   -0.00303969300959121
-0.028675132121272397   -0.13359638063584242   -0.0033400959889258327
-0.030787409335066844   -0.10846372467487052   -0.002458117613767319
-0.041491846138257855   -0.13314569235163884   -0.003765616657177753
-0.028769476986906777   -0.13336843978660057   -0.0031993673318024365
-0.030787409335066844   -0.10846372467487052   -0.002458117613767319
-0.04487631702427786   -0.108096265068174   -0.0028407748630397164
-0.041491846138257855   -0.13314569235163884   -0.003765616657177753
-0.045018539680173726   -0.10792949347161826   -0.0026497607997610687
-0.028769476986906777   -0.13336843978660057   -0.0031993673318024365
-0.041570242373403454   -0.13296563565117345   -0.0035171179093403844
-0.045018539680173726   -0.10792949347161826   -0.0026497607997610687
-0.041491846138257855   -0.13314569235163884   -0.003765616657177753
-0.028769476986906777   -0.13336843978660057   -0.0031993673318024365
-0.045018539680173726   -0.10792949347161826   -0.0026497607997610687
-0.030940375382265184   -0.10824692228035632   -0.0023339921584605875
-0.030787409335066844   -0.10846372467487052   -0.002458117613767319
-0.028769476986906777   -0.13336843978660057   -0.0031993673318024365
-0.045018539680173726   -0.10792949347161826   -0.0026497607997610687
-0.030787409335066844   -0.10846372467487052   -0.002458117613767319
-0.041491846138257855   -0.13314569235163884   -0.003765616657177753
-0.028769476986906777   -0.13336843978660057   -0.0031993673318024365
-0.030940375382265184   -0.10824692228035632   -0.0023339921584605875
-0.041570242373403454   -0.13296563565117345   -0.0035171179093403844
-0.028847775998351904   -0.1331980009064487   -0.00303969300959121
-0.030940375382265184   -0.10824692228035632   -0.0023339921584605875
-0.045018539680173726   -0.10792949347161826   -0.0026497607997610687
-0.041570242373403454   -0.13296563565117345   -0.0035171179093403844
-0.045105426060365314   -0.10779316831252955   -0.0024442020058132344
-0.028847775998351904   -0.1331980009064487   -0.00303969300959121
-0.04158145688275917   -0.1328394123100211   -0.003252298252291063
-0.045105426060365314   -0.10779316831252955   -0.0024442020058132344
-0.041570242373403454   -0.13296563565117345   -0.0035171179093403844
-0.028847775998351904   -0.1331980009064487   -0.00303969300959121
-0.045105426060365314   -0.10779316831252955   -0.0024442020058132344
-0.03107924173724011   -0.10806519084536387   -0.0021930347406817997
-0.030940375382265184   -0.10824692228035632   -0.0023339921584605875
-0.028847775998351904   -0.1331980009064487   -0.00303969300959121
-0.045105426060365314   -0.10779316831252955   -0.0024442020058132344
-0.030940375382265184   -0.10824692228035632   -0.0023339921584605875
-0.041570242373403454   -0.13296563565117345   -0.0035171179093403844
-0.028847775998351904   -0.1331980009064487   -0.00303969300959121
-0.03107924173724011   -0.10806519084536387   -0.0021930347406817997
-0.04158145688275917   -0.1328394123100211   -0.003252298252291063
-0.02892830786567792   -0.13308482993765927   -0.0028616368998936846
-0.03107924173724011   -0.10806519084536387   -0.0021930347406817997
-0.045105426060365314   -0.10779316831252955   -0.0024442020058132344
-0.04158145688275917   -0.1328394123100211   -0.003252298252291063
-0.04520047585815765   -0.10769526762238826   -0.0022210835121154603
-0.02892830786567792   -0.13308482993765927   -0.0028616368998936846
-0.041611465585159005   -0.13277557831294223   -0.0029677109649634908
-0.04520047585815765   -0.10769526762238826   -0.0022210835121154603
-0.04158145688275917   -0.1328394123100211   -0.003252298252291063
-0.02892830786567792   -0.13308482993765927   -0.0028616368998936846
-0.04520047585815765   -0.10769526762238826   -0.0022210835121154603
-0.031219411442932915   -0.10791885090236408   -0.0020358942859331243
-0.03107924173724011   -0.10806519084536387   -0.0021930347406817997
-0.02892830786567792   -0.13308482993765927   -0.0028616368998936846
-0.04520047585815765   -0.10769526762238826   -0.0022210835121154603
-0.03107924173724011   -0.10806519084536387   -0.0021930347406817997
-0.04158145688275917   -0.1328394123100211   -0.003252298252291063
-0.041491846138257855   -0.13314569235163884   -0.003765616657177753
-0.04487631702427786   -0.108096265068174   -0.0028407748630397164
-0.05546627046768708   -0.13255586658321106   -0.004129037821501041
-0.041570242373403454   -0.13296563565117345   -0.0035171179093403844
-0.04487631702427786   -0.108096265068174   -0.0028407748630397164
-0.05999378281777315   -0.10764549365321614   -0.003145677786343434
-0.05546627046768708   -0.13255586658321106   -0.004129037821501041
-0.059893768173575904   -0.10750450255904133   -0.0028919922064475872
-0.041570242373403454   -0.13296563565117345   -0.0035171179093403844
-0.055202817556883395   -0.1323914073346973   -0.003767008749496544
-0.059893768173575904   -0.10750450255904133   -0.0028919922064475872
-0.05546627046768708   -0.13255586658321106   -0.004129037821501041
-0.041570242373403454   -0.13296563565117345   -0.0035171179093403844
-0.059893768173575904   -0.10750450255904133   -0.0028919922064475872
-0.045018539680173726   -0.10792949347161826   -0.0026497607997610687
-0.04487631702427786   -0.108096265068174   -0.0028407748630397164
-0.041570242373403454   -0.13296563565117345   -0.0035171179093403844
-0.059893768173575904   -0.10750450255904133   -0.0028919922064475872
-0.04487631702427786   -0.108096265068174   -0.0028407748630397164
-0.05546627046768708   -0.13255586658321106   -0.004129037821501041
-0.041570242373403454   -0.13296563565117345   -0.0035171179093403844
-0.045018539680173726   -0.10792949347161826   -0.0026497607997610687
-0.055202817556883395   -0.1323914073346973   -0.003767008749496544
-0.04158145688275917   -0.1328394123100211   -0.003252298252291063
-0.045018539680173726   -0.10792949347161826   -0.0026497607997610687
-0.059893768173575904   -0.10750450255904133   -0.0028919922064475872
-0.055202817556883395   -0.1323914073346973   -0.003767008749496544
-0.05981231945807881   -0.10738955274048721   -0.002611620592493254
-0.04158145688275917   -0.1328394123100211   -0.003252298252291063
-0.05498046188467529   -0.1322839079616548   -0.0033765126103358464
-0.05981231945807881   -0.10738955274048721   -0.002611620592493254
-0.055202817556883395   -0.1323914073346973   -0.003767008749496544
-0.04158145688275917   -0.1328394123100211   -0.003252298252291063
-0.05981231945807881   -0.10738955274048721   -0.002611620592493254
-0.045105426060365314   -0.10779316831252955   -0.0024442020058132344
-0.045018539680173726   -0.10792949347161826   -0.0026497607997610687
-0.04158145688275917   -0.1328394123100211   -0.003252298252291063
-0.05981231945807881   -0.10738955274048721   -0.002611620592493254
-0.045018539680173726   -0.10792949347161826   -0.0026497607997610687
-0.055202817556883395   -0.1323914073346973   -0.003767008749496544
-0.04158145688275917   -0.1328394123100211   -0.003252298252291063
-0.045105426060365314   -0.10779316831252955   -0.0024442020058132344
-0.05498046188467529   -0.1322839079616548   -0.0033765126103358464
-0.041611465585159005   -0.13277557831294223   -0.0029677109649634908
-0.045105426060365314   -0.10779316831252955   -0.0024442020058132344
-0.05981231945807881   -0.10738955274048721   -0.002611620592493254
-0.05498046188467529   -0.1322839079616548   -0.0033765126103358464
-0.05961287045028407   -0.10734952240015247   -0.0023076117235903654
-0.041611465585159005   -0.13277557831294223   -0.0029677109649634908
-0.054612160031536364   -0.13228264096011585   -0.0029610894982683164
-0.05961287045028407   -0.10734952240015247   -0.0023076117235903654
-0.05498046188467529   -0.1322839079616548   -0.0033765126103358464
-0.041611465585159005   -0.13277557831294223   -0.0029677109649634908
-0.05961287045028407   -0.10734952240015247   -0.0023076117235903654
-0.04520047585815765   -0.10769526762238826   -0.0022210835121154603
-0.045105426060365314   -0.10779316831252955   -0.0024442020058132344
-0.041611465585159005   -0.13277557831294223   -0.0029677109649634908
-0.05961287045028407   -0.10734952240015247   -0.0023076117235903654
-0.045105426060365314   -0.10779316831252955   -0.0024442020058132344
-0.05498046188467529   -0.1322839079616548   -0.0033765126103358464
0.011817428064859303   -0.10885076503896889   -0.0007710674845937433
0.012181329286829069   -0.0822139578345016   -0.00011595434496433564
-0.00291827277911588   -0.10884536228978432   -0.001438432812584805
0.011770991525322988   -0.108483468543023   -0.0008724682870857668
0.012181329286829069   -0.0822139578345016   -0.00011595434496433564
-0.0033737978102146206   -0.0820750264831877   -0.0007169964395213847
-0.00291827277911588   -0.10884536228978432   -0.001438432812584805
-0.003556249144265678   -0.08176843681091987   -0.0006622599931982529
0.011770991525322988   -0.108483468543023   -0.0008724682870857668
-0.00305176782250982   -0.1085253811913001   -0.0014471538554684782
-0.003556249144265678   -0.08176843681091987   -0.0006622599931982529
-0.00291827277911588   -0.10884536228978432   -0.001438432812584805
0.011770991525322988   -0.108483468543023   -0.0008724682870857668
-0.003556249144265678   -0.08176843681091987   -0.0006622599931982529
0.011985564433069149   -0.08186324561489461   -0.00010265329697241592
0.012181329286829069   -0.0822139578345016   -0.00011595434496433564
0.011770991525322988   -0.108483468543023   -0.0008724682870857668
-0.003556249144265678   -0.08176843681091987   -0.0006622599931982529
0.012181329286829069   -0.0822139578345016   -0.00011595434496433564
-0.00291827277911588   -0.10884536228978432   -0.001438432812584805
0.011770991525322988   -0.108483468543023   -0.0008724682870857668
0.011985564433069149   -0.08186324561489461   -0.00010265329697241592
-0.00305176782250982   -0.1085253811913001   -0.0014471538554684782
0.011661764323488115   -0.10818635224609506   -0.0009473361180317003
0.011985564433069149   -0.08186324561489461   -0.00010265329697241592
-0.003556249144265678   -0.08176843681091987   -0.0006622599931982529
-0.00305176782250982   -0.1085253811913001   -0.0014471538554684782
-0.0037649628424962153   -0.08147821648919966   -0.0005925696140638703
0.011661764323488115   -0.10818635224609506   -0.0009473361180317003
-0.003200073355713121   -0.10824878314489725   -0.0014393207185786968
-0.0037649628424962153   -0.08147821648919966   -0.0005925696140638703
-0.00305176782250982   -0.1085253811913001   -0.0014471538554684782
0.011661764323488115   -0.10818635224609506   -0.0009473361180317003
-0.0037649628424962153   -0.08147821648919966   -0.0005925696140638703
0.011746937449893169   -0.08154856946168944   -5.8758768817836e-05
0.011985564433069149   -0.08186324561489461   -0.00010265329697241592
0.011661764323488115   -0.10818635224609506   -0.0009473361180317003
-0.0037649628424962153   -0.08147821648919966   -0.0005925696140638703
0.011985564433069149   -0.08186324561489461   -0.00010265329697241592
-0.00305176782250982   -0.1085253811913001   -0.0014471538554684782
0.011661764323488115   -0.10818635224609506   -0.0009473361180317003
0.011746937449893169   -0.08154856946168944   -5.8758768817836e-05
-0.003200073355713121   -0.10824878314489725   -0.0014393207185786968
0.011509848186401307   -0.10791166774248889   -0.000997523274259156
0.011746937449893169   -0.08154856946168944   -5.8758768817836e-05
-0.0037649628424962153   -0.08147821648919966   -0.0005925696140638703
-0.003200073355713121   -0.10824878314489725   -0.0014393207185786968
-0.003998806763528465   -0.08120043734262522   -0.0005041692035333205
0.011509848186401307   -0.10791166774248889   -0.000997523274259156
-0.003383546430222533   -0.1080084990713088   -0.0014142807911206683
-0.003998806763528465   -0.08120043734262522   -0.0005041692035333205
-0.003200073355713121   -0.10824878314489725   -0.0014393207185786968
0.011509848186401307   -0.10791166774248889   -0.000997523274259156
-0.003998806763528465   -0.08120043734262522   -0.0005041692035333205
0.011432822037837404   -0.08121875789163521   1.4332913137034449e-05
0.011746937449893169   -0.08154856946168944   -5.8758768817836e-05
0.011509848186401307   -0.10791166774248889   -0.000997523274259156
-0.003998806763528465   -0.08120043734262522   -0.0005041692035333205
0.011746937449893169   -0.08154856946168944   -5.8758768817836e-05
-0.003200073355713121   -0.10824878314489725   -0.0014393207185786968
-0.00291827277911588   -0.10884536228978432   -0.001438432812584805
-0.0033737978102146206   -0.0820750264831877   -0.0007169964395213847
-0.0169716980238217   -0.10871165520662679   -0.001990981518264578
-0.00305176782250982   -0.1085253811913001   -0.0014471538554684782
-0.0033737978102146206   -0.0820750264831877   -0.0007169964395213847
-0.018113647367123654   -0.08191529477917865   -0.0012274628923901979
-0.0169716980238217   -0.10871165520662679   -0.001990981518264578
-0.018299206986285243   -0.08165806932593951   -0.0011450170222466593
-0.00305176782250982   -0.1085253811913001   -0.0014471538554684782
-0.0171204809165951   -0.1084452975000382   -0.0019332471911922987
-0.018299206986285243   -0.08165806932593951   -0.0011450170222466593
-0.0169716980238217   -0.10871165520662679   -0.001990981518264578
-0.00305176782250982   -0.1085253811913001   -0.0014471538554684782
-0.018299206986285243   -0.08165806932593951   -0.0011450170222466593
-0.003556249144265678   -0.08176843681091987   -0.0006622599931982529
-0.0033737978102146206   -0.0820750264831877   -0.0007169964395213847
-0.00305176782250982   -0.1085253811913001   -0.0014471538554684782
-0.018299206986285243   -0.08165806932593951   -0.0011450170222466593
-0.0033737978102146206   -0.0820750264831877   -0.0007169964395213847
-0.0169716980238217   -0.10871165520662679   -0.001990981518264578
-0.00305176782250982   -0.1085253811913001   -0.0014471538554684782
-0.003556249144265678   -0.08176843681091987   -0.0006622599931982529
-0.0171204809165951   -0.1084452975000382   -0.0019332471911922987
-0.003200073355713121   -0.10824878314489725   -0.0014393207185786968
-0.003556249144265678   -0.08176843681091987   -0.0006622599931982529
-0.018299206986285243   -0.08165806932593951   -0.0011450170222466593
-0.0171204809165951   -0.1084452975000382   -0.0019332471911922987
-0.01848885435059742   -0.08141356910839265   -0.0010483516260155028
-0.003200073355713121   -0.10824878314489725   -0.0014393207185786968
-0.01727221581027443   -0.10821426100477614   -0.0018582853700274441
-0.01848885435059742   -0.08141356910839265   -0.0010483516260155028
-0.0171204809165951   -0.1084452975000382   -0.0019332471911922987
-0.003200073355713121   -0.10824878314489725   -0.0014393207185786968
-0.01848885435059742   -0.08141356910839265   -0.0010483516260155028
-0.0037649628424962153   -0.08147821648919966   -0.0005925696140638703
-0.003556249144265678   -0.08176843681091987   -0.0006622599931982529
-0.003200073355713121   -0.10824878314489725   -0.0014393207185786968
-0.01848885435059742   -0.08141356910839265   -0.0010483516260155028
-0.003556249144265678   -0.08176843681091987   -0.0006622599931982529
-0.0171204809165951   -0.1084452975000382   -0.0019332471911922987
-0.003200073355713121   -0.10824878314489725   -0.0014393207185786968
-0.0037649628424962153   -0.08147821648919966   -0.0005925696140638703
-0.01727221581027443   -0.10821426100477614   -0.0018582853700274441
-0.003383546430222533   -0.1080084990713088   -0.0014142807911206683
-0.0037649628424962153   -0.08147821648919966   -0.0005925696140638703
-0.01848885435059742   -0.08141356910839265   -0.0010483516260155028
-0.01727221581027443   -0.10821426100477614   -0.0018582853700274441
-0.01869045683822324   -0.08118548414237352   -0.0009372887990207492
-0.003383546430222533   -0.1080084990713088   -0.0014142807911206683
-0.017436682706375575   -0.10802067899159783   -0.0017668851692925025
-0.01869045683822324   -0.08118548414237352   -0.0009372887990207492
-0.01727221581027443   -0.10821426100477614   -0.0018582853700274441
-0.003383546430222533   -0.1080084990713088   -0.0014142807911206683
-0.01869045683822324   -0.08118548414237352   -0.0009372887990207492
-0.003998806763528465   -0.08120043734262522   -0.0005041692035333205
-0.0037649628424962153   -0.08147821648919966   -0.0005925696140638703
-0.003383546430222533   -0.1080084990713088   -0.0014142807911206683
-0.01869045683822324   -0.08118548414237352   -0.0009372887990207492
-0.0037649628424962153   -0.08147821648919966   -0.0005925696140638703
-0.01727221581027443   -0.10821426100477614   -0.0018582853700274441
-0.0169716980238217   -0.10871165520662679   -0.001990981518264578
-0.018113647367123654   -0.08191529477917865   -0.0012274628923901979
-0.030787409335066844   -0.10846372467487052   -0.002458117613767319
-0.0171204809165951   -0.1084452975000382   -0.0019332471911922987
-0.018113647367123654   -0.08191529477917865   -0.0012274628923901979
-0.03261484897121408   -0.08172475188478666   -0.001662048522727743
-0.030787409335066844   -0.10846372467487052   -0.002458117613767319
-0.032798845849268884   -0.08151339289158142   -0.001551826055113654
-0.0171204809165951   -0.1084452975000382   -0.0019332471911922987
-0.030940375382265184   -0.10824692228035632   -0.0023339921584605875
-0.032798845849268884   -0.08151339289158142   -0.001551826055113654
-0.030787409335066844   -0.10846372467487052   -0.002458117613767319
-0.0171204809165951   -0.1084452975000382   -0.0019332471911922987
-0.032798845849268884   -0.08151339289158142   -0.001551826055113654
-0.018299206986285243   -0.08165806932593951   -0.0011450170222466593
-0.018113647367123654   -0.08191529477917865   -0.0012274628923901979
-0.0171204809165951   -0.1084452975000382   -0.0019332471911922987
-0.032798845849268884   -0.08151339289158142   -0.001551826055113654
-0.018113647367123654   -0.08191529477917865   -0.0012274628923901979
-0.030787409335066844   -0.10846372467487052   -0.002458117613767319
-0.0171204809165951   -0.1084452975000382   -0.0019332471911922987
-0.018299206986285243   -0.08165806932593951   -0.0011450170222466593
-0.030940375382265184   -0.10824692228035632   -0.0023339921584605875
-0.01727221581027443   -0.10821426100477614   -0.0018582853700274441
-0.018299206986285243   -0.08165806932593951   -0.0011450170222466593
-0.032798845849268884   -0.08151339289158142   -0.001551826055113654
-0.030940375382265184   -0.10824692228035632   -0.0023339921584605875
-0.0329710006408369   -0.08131552153229965   -0.0014278717255479388
-0.01727221581027443   -0.10821426100477614   -0.0018582853700274441
-0.03107924173724011   -0.10806519084536387   -0.0021930347406817997
-0.0329710006408369   -0.08131552153229965   -0.0014278717255479388
-0.030940375382265184   -0.10824692228035632   -0.0023339921584605875
-0.01727221581027443   -0.10821426100477614   -0.0018582853700274441
-0.0329710006408369   -0.08131552153229965   -0.0014278717255479388
-0.01848885435059742   -0.08141356910839265   -0.0010483516260155028
-0.018299206986285243   -0.08165806932593951   -0.0011450170222466593
-0.01727221581027443   -0.10821426100477614   -0.0018582853700274441
-0.0329710006408369   -0.08131552153229965   -0.0014278717255479388
-0.018299206986285243   -0.08165806932593951   -0.0011450170222466593
-0.030940375382265184   -0.10824692228035632   -0.0023339921584605875
-0.01727221581027443   -0.10821426100477614   -0.0018582853700274441
-0.01848885435059742   -0.08141356910839265   -0.0010483516260155028
-0.03107924173724011   -0.10806519084536387   -0.0021930347406817997
-0.017436682706375575   -0.10802067899159783   -0.0017668851692925025
-0.01848885435059742   -0.08141356910839265   -0.0010483516260155028
-0.0329710006408369   -0.08131552153229965   -0.0014278717255479388
-0.03107924173724011   -0.10806519084536387   -0.0021930347406817997
-0.033143769166833925   -0.08113170094420877   -0.0012908729057206972
-0.017436682706375575   -0.10802067899159783   -0.0017668851692925025
-0.031219411442932915   -0.10791885090236408   -0.0020358942859331243
-0.033143769166833925   -0.08113170094420877   -0.0012908729057206972
-0.03107924173724011   -0.10806519084536387   -0.0021930347406817997
-0.017436682706375575   -0.10802067899159783   -0.0017668851692925025
-0.033143769166833925   -0.08113170094420877   -0.0012908729057206972
-0.01869045683822324   -0.08118548414237352   -0.0009372887990207492
-0.01848885435059742   -0.08141356910839265   -0.0010483516260155028
-0.017436682706375575   -0.10802067899159783   -0.0017668851692925025
-0.033143769166833925   -0.08113170094420877   -0.0012908729057206972
-0.01848885435059742   -0.08141356910839265   -0.0010483516260155028
-0.03107924173724011   -0.10806519084536387   -0.0021930347406817997
-0.030787409335066844   -0.10846372467487052   -0.002458117613767319
-0.03261484897121408   -0.08172475188478666   -0.001662048522727743
-0.04487631702427786   -0.108096265068174   -0.0028407748630397164
-0.030940375382265184   -0.10824692228035632   -0.0023339921584605875
-0.03261484897121408   -0.08172475188478666   -0.001662048522727743
-0.047377291608881544   -0.08146780935945351   -0.00201705598336279
-0.04487631702427786   -0.108096265068174   -0.0028407748630397164
-0.04755357777900324   -0.08130472044695505   -0.0018793824004632112
-0.030940375382265184   -0.10824692228035632   -0.0023339921584605875
-0.045018539680173726   -0.10792949347161826   -0.0026497607997610687
-0.04755357777900324   -0.08130472044695505   -0.0018793824004632112
-0.04487631702427786   -0.108096265068174   -0.0028407748630397164
-0.030940375382265184   -0.10824692228035632   -0.0023339921584605875
-0.04755357777900324   -0.08130472044695505   -0.0018793824004632112
-0.032798845849268884   -0.08151339289158142   -0.001551826055113654
-0.03261484897121408   -0.08172475188478666   -0.001662048522727743
-0.030940375382265184   -0.10824692228035632   -0.0023339921584605875
-0.04755357777900324   -0.08130472044695505   -0.0018793824004632112
-0.03261484897121408   -0.08172475188478666   -0.001662048522727743
-0.04487631702427786   -0.108096265068174   -0.0028407748630397164
-0.030940375382265184   -0.10824692228035632   -0.0023339921584605875
-0.032798845849268884   -0.08151339289158142   -0.001551826055113654
-0.045018539680173726   -0.10792949347161826   -0.0026497607997610687
-0.03107924173724011   -0.10806519084536387   -0.0021930347406817997
-0.032798845849268884   -0.08151339289158142   -0.001551826055113654
-0.04755357777900324   -0.08130472044695505   -0.0018793824004632112
-0.045018539680173726   -0.10792949347161826   -0.0026497607997610687
-0.0476877319000646   -0.08114972985412097   -0.001730277107204316
-0.03107924173724011   -0.10806519084536387   -0.0021930347406817997
-0.045105426060365314   -0.10779316831252955   -0.0024442020058132344
-0.0476877319000646   -0.08114972985412097   -0.001730277107204316
-0.045018539680173726   -0.10792949347161826   -0.0026497607997610687
-0.03107924173724011   -0.10806519084536387   -0.0021930347406817997
-0.0476877319000646   -0.08114972985412097   -0.001730277107204316
-0.0329710006408369   -0.08131552153229965   -0.0014278717255479388
-0.032798845849268884   -0.08151339289158142   -0.001551826055113654
-0.03107924173724011   -0.10806519084536387   -0.0021930347406817997
-0.0476877319000646   -0.08114972985412097   -0.001730277107204316
-0.032798845849268884   -0.08151339289158142   -0.001551826055113654
-0.045018539680173726   -0.10792949347161826   -0.0026497607997610687
-0.03107924173724011   -0.10806519084536387   -0.0021930347406817997
-0.0329710006408369   -0.08131552153229965   -0.0014278717255479388
-0.045105426060365314   -0.10779316831252955   -0.0024442020058132344
-0.031219411442932915   -0.10791885090236408   -0.0020358942859331243
-0.0329710006408369   -0.08131552153229965   -0.0014278717255479388
-0.0476877319000646   -0.08114972985412097   -0.001730277107204316
-0.045105426060365314   -0.10779316831252955   -0.0024442020058132344
-0.047820719930801496   -0.0810095259471435   -0.0015667277684198394
-0.031219411442932915   -0.10791885090236408   -0.0020358942859331243
-0.04520047585815765   -0.10769526762238826   -0.0022210835121154603
-0.047820719930801496   -0.0810095259471435   -0.0015667277684198394
-0.045105426060365314   -0.10779316831252955   -0.0024442020058132344
-0.031219411442932915   -0.10791885090236408   -0.0020358942859331243
-0.047820719930801496   -0.0810095259471435   -0.0015667277684198394
-0.033143769166833925   -0.08113170094420877   -0.0012908729057206972
-0.0329710006408369   -0.08131552153229965   -0.0014278717255479388
-0.031219411442932915   -0.10791885090236408   -0.0020358942859331243
-0.047820719930801496   -0.0810095259471435   -0.0015667277684198394
-0.0329710006408369   -0.08131552153229965   -0.0014278717255479388
-0.045105426060365314   -0.10779316831252955   -0.0024442020058132344
-0.04487631702427786   -0.108096265068174   -0.0028407748630397164
-0.047377291608881544   -0.08146780935945351   -0.00201705598336279
-0.05999378281777315   -0.10764549365321614   -0.003145677786343434
-0.045018539680173726   -0.10792949347161826   -0.0026497607997610687
-0.047377291608881544   -0.08146780935945351   -0.00201705598336279
-0.06301844992123393   -0.08116537263545082   -0.002281921611691345
-0.05999378281777315   -0.10764549365321614   -0.003145677786343434
-0.063048341800056   -0.08103442108528917   -0.0021307535969742487
-0.045018539680173726   -0.10792949347161826   -0.0026497607997610687
-0.059893768173575904   -0.10750450255904133   -0.0028919922064475872
-0.063048341800056   -0.08103442108528917   -0.0021307535969742487
-0.05999378281777315   -0.10764549365321614   -0.003145677786343434
-0.045018539680173726   -0.10792949347161826   -0.0026497607997610687
-0.063048341800056   -0.08103442108528917   -0.0021307535969742487
-0.04755357777900324   -0.08130472044695505   -0.0018793824004632112
-0.047377291608881544   -0.08146780935945351   -0.00201705598336279
-0.045018539680173726   -0.10792949347161826   -0.0026497607997610687
-0.063048341800056   -0.08103442108528917   -0.0021307535969742487
-0.047377291608881544   -0.08146780935945351   -0.00201705598336279
-0.05999378281777315   -0.10764549365321614   -0.003145677786343434
-0.045018539680173726   -0.10792949347161826   -0.0026497607997610687
-0.04755357777900324   -0.08130472044695505   -0.0018793824004632112
-0.059893768173575904   -0.10750450255904133   -0.0028919922064475872
-0.045105426060365314   -0.10779316831252955   -0.0024442020058132344
-0.04755357777900324   -0.08130472044695505   -0.0018793824004632112
-0.063048341800056   -0.08103442108528917   -0.0021307535969742487
-0.059893768173575904   -0.10750450255904133   -0.0028919922064475872
-0.06307856968260346   -0.08090144199654752   -0.001956530087002823
-0.045105426060365314   -0.10779316831252955   -0.0024442020058132344
-0.05981231945807881   -0.10738955274048721   -0.002611620592493254
-0.06307856968260346   -0.08090144199654752   -0.001956530087002823
-0.059893768173575904   -0.10750450255904133   -0.0028919922064475872
-0.045105426060365314   -0.10779316831252955   -0.0024442020058132344
-0.06307856968260346   -0.08090144199654752   -0.001956530087002823
-0.0476877319000646   -0.08114972985412097   -0.001730277107204316
-0.04755357777900324   -0.08130472044695505   -0.0018793824004632112
-0.045105426060365314   -0.10779316831252955   -0.0024442020058132344
-0.06307856968260346   -0.08090144199654752   -0.001956530087002823
-0.04755357777900324   -0.08130472044695505   -0.0018793824004632112
-0.059893768173575904   -0.10750450255904133   -0.0028919922064475872
-0.045105426060365314   -0.10779316831252955   -0.0024442020058132344
-0.0476877319000646   -0.08114972985412097   -0.001730277107204316
-0.05981231945807881   -0.10738955274048721   -0.002611620592493254
-0.04520047585815765   -0.10769526762238826   -0.0022210835121154603
-0.0476877319000646   -0.08114972985412097   -0.001730277107204316
-0.06307856968260346   -0.08090144199654752   -0.001956530087002823
-0.05981231945807881   -0.10738955274048721   -0.002611620592493254
-0.06302164571177515   -0.0808114893358466   -0.001762008312531197
-0.04520047585815765   -0.10769526762238826   -0.0022210835121154603
-0.05961287045028407   -0.10734952240015247   -0.0023076117235903654
-0.06302164571177515   -0.0808114893358466   -0.001762008312531197
-0.05981231945807881   -0.10738955274048721   -0.002611620592493254
-0.04520047585815765   -0.10769526762238826   -0.0022210835121154603
-0.06302164571177515   -0.0808114893358466   -0.001762008312531197
-0.047820719930801496   -0.0810095259471435   -0.0015667277684198394
-0.0476877319000646   -0.08114972985412097   -0.001730277107204316
-0.04520047585815765   -0.10769526762238826   -0.0022210835121154603
-0.06302164571177515   -0.0808114893358466   -0.001762008312531197
-0.0476877319000646   -0.08114972985412097   -0.001730277107204316
-0.05981231945807881   -0.10738955274048721   -0.002611620592493254
0.012181329286829069   -0.0822139578345016   -0.00011595434496433564
0.01089615072014615   -0.054815659906912104   0.0003358924212150918
-0.0033737978102146206   -0.0820750264831877   -0.0007169964395213847
0.011985564433069149   -0.08186324561489461   -0.00010265329697241592
0.01089615072014615   -0.054815659906912104   0.0003358924212150918
-0.004758766111220182   -0.05455548721503956   -0.0001438566758925359
-0.0033737978102146206   -0.0820750264831877   -0.0007169964395213847
-0.004975805909759107   -0.05427738515415249   -3.099210159074255e-05
0.011985564433069149   -0.08186324561489461   -0.00010265329697241592
-0.003556249144265678   -0.08176843681091987   -0.0006622599931982529
-0.004975805909759107   -0.05427738515415249   -3.099210159074255e-05
-0.0033737978102146206   -0.0820750264831877   -0.0007169964395213847
0.011985564433069149   -0.08186324561489461   -0.00010265329697241592
-0.004975805909759107   -0.05427738515415249   -3.099210159074255e-05
0.010552796282240788   -0.0544810957909742   0.0004776535488279211
0.01089615072014615   -0.054815659906912104   0.0003358924212150918
0.011985564433069149   -0.08186324561489461   -0.00010265329697241592
-0.004975805909759107   -0.05427738515415249   -3.099210159074255e-05
0.01089615072014615   -0.054815659906912104   0.0003358924212150918
-0.0033737978102146206   -0.0820750264831877   -0.0007169964395213847
0.011985564433069149   -0.08186324561489461   -0.00010265329697241592
0.010552796282240788   -0.0544810957909742   0.0004776535488279211
-0.003556249144265678   -0.08176843681091987   -0.0006622599931982529
0.011746937449893169   -0.08154856946168944   -5.8758768817836e-05
0.010552796282240788   -0.0544810957909742   0.0004776535488279211
-0.004975805909759107   -0.05427738515415249   -3.099210159074255e-05
-0.003556249144265678   -0.08176843681091987   -0.0006622599931982529
-0.005229451598056223   -0.053983546466355205   0.0001017519968490393
0.011746937449893169   -0.08154856946168944   -5.8758768817836e-05
-0.0037649628424962153   -0.08147821648919966   -0.0005925696140638703
-0.005229451598056223   -0.053983546466355205   0.0001017519968490393
-0.003556249144265678   -0.08176843681091987   -0.0006622599931982529
0.011746937449893169   -0.08154856946168944   -5.8758768817836e-05
-0.005229451598056223   -0.053983546466355205   0.0001017519968490393
0.010170862676597298   -0.05414804895197123   0.0006801062176762482
0.010552796282240788   -0.0544810957909742   0.0004776535488279211
0.011746937449893169   -0.08154856946168944   -5.8758768817836e-05
-0.005229451598056223   -0.053983546466355205   0.0001017519968490393
0.010552796282240788   -0.0544810957909742   0.0004776535488279211
-0.003556249144265678   -0.08176843681091987   -0.0006622599931982529
0.011746937449893169   -0.08154856946168944   -5.8758768817836e-05
0.010170862676597298   -0.05414804895197123   0.0006801062176762482
-0.0037649628424962153   -0.08147821648919966   -0.0005925696140638703
0.011432822037837404   -0.08121875789163521   1.4332913137034449e-05
0.010170862676597298   -0.05414804895197123   0.0006801062176762482
-0.005229451598056223   -0.053983546466355205   0.0001017519968490393
-0.0037649628424962153   -0.08147821648919966   -0.0005925696140638703
-0.005491519329419479   -0.05367125774955613   0.00025406985219948
0.011432822037837404   -0.08121875789163521   1.4332913137034449e-05
-0.003998806763528465   -0.08120043734262522   -0.0005041692035333205
-0.005491519329419479   -0.05367125774955613   0.00025406985219948
-0.0037649628424962153   -0.08147821648919966   -0.0005925696140638703
0.011432822037837404   -0.08121875789163521   1.4332913137034449e-05
-0.005491519329419479   -0.05367125774955613   0.00025406985219948
0.009704315548992697   -0.05373922681788358   0.0009026765287116379
0.010170862676597298   -0.05414804895197123   0.0006801062176762482
0.011432822037837404   -0.08121875789163521   1.4332913137034449e-05
-0.005491519329419479   -0.05367125774955613   0.00025406985219948
0.010170862676597298   -0.05414804895197123   0.0006801062176762482
-0.0037649628424962153   -0.08147821648919966   -0.0005925696140638703
-0.0033737978102146206   -0.0820750264831877   -0.0007169964395213847
-0.004758766111220182   -0.05455548721503956   -0.0001438566758925359
-0.018113647367123654   -0.08191529477917865   -0.0012274628923901979
-0.003556249144265678   -0.08176843681091987   -0.0006622599931982529
-0.004758766111220182   -0.05455548721503956   -0.0001438566758925359
-0.019504967110416885   -0.05448825801886502   -0.0006072037769408955
-0.018113647367123654   -0.08191529477917865   -0.0012274628923901979
-0.019700664854978654   -0.05424482635630268   -0.0005028165040005986
-0.003556249144265678   -0.08176843681091987   -0.0006622599931982529
-0.018299206986285243   -0.08165806932593951   -0.0011450170222466593
-0.019700664854978654   -0.05424482635630268   -0.0005028165040005986
-0.018113647367123654   -0.08191529477917865   -0.0012274628923901979
-0.003556249144265678   -0.08176843681091987   -0.0006622599931982529
-0.019700664854978654   -0.05424482635630268   -0.0005028165040005986
-0.004975805909759107   -0.05427738515415249   -3.099210159074255e-05
-0.004758766111220182   -0.05455548721503956   -0.0001438566758925359
-0.003556249144265678   -0.08176843681091987   -0.0006622599931982529
-0.019700664854978654   -0.05424482635630268   -0.0005028165040005986
-0.004758766111220182   -0.05455548721503956   -0.0001438566758925359
-0.018113647367123654   -0.08191529477917865   -0.0012274628923901979
-0.003556249144265678   -0.08176843681091987   -0.0006622599931982529
-0.004975805909759107   -0.05427738515415249   -3.099210159074255e-05
-0.018299206986285243   -0.08165806932593951   -0.0011450170222466593
-0.0037649628424962153   -0.08147821648919966   -0.0005925696140638703
-0.004975805909759107   -0.05427738515415249   -3.099210159074255e-05
-0.019700664854978654   -0.05424482635630268   -0.0005028165040005986
-0.018299206986285243   -0.08165806932593951   -0.0011450170222466593
-0.019902981747281907   -0.053991484766731414   -0.00038819282933636205
-0.0037649628424962153   -0.08147821648919966   -0.0005925696140638703
-0.01848885435059742   -0.08141356910839265   -0.0010483516260155028
-0.019902981747281907   -0.053991484766731414   -0.00038819282933636205
-0.018299206986285243   -0.08165806932593951   -0.0011450170222466593
-0.0037649628424962153   -0.08147821648919966   -0.0005925696140638703
-0.019902981747281907   -0.053991484766731414   -0.00038819282933636205
-0.005229451598056223   -0.053983546466355205   0.0001017519968490393
-0.004975805909759107   -0.05427738515415249   -3.099210159074255e-05
-0.0037649628424962153   -0.08147821648919966   -0.0005925696140638703
-0.019902981747281907   -0.053991484766731414   -0.00038819282933636205
-0.004975805909759107   -0.05427738515415249   -3.099210159074255e-05
-0.018299206986285243   -0.08165806932593951   -0.0011450170222466593
-0.0037649628424962153   -0.08147821648919966   -0.0005925696140638703
-0.005229451598056223   -0.053983546466355205   0.0001017519968490393
-0.01848885435059742   -0.08141356910839265   -0.0010483516260155028
-0.003998806763528465   -0.08120043734262522   -0.0005041692035333205
-0.005229451598056223   -0.053983546466355205   0.0001017519968490393
-0.019902981747281907   -0.053991484766731414   -0.00038819282933636205
-0.01848885435059742   -0.08141356910839265   -0.0010483516260155028
-0.02011348666568322   -0.053732593717446556   -0.0002612595079158892
-0.003998806763528465   -0.08120043734262522   -0.0005041692035333205
-0.01869045683822324   -0.08118548414237352   -0.0009372887990207492
-0.02011348666568322   -0.053732593717446556   -0.0002612595079158892
-0.01848885435059742   -0.08141356910839265   -0.0010483516260155028
-0.003998806763528465   -0.08120043734262522   -0.0005041692035333205
-0.02011348666568322   -0.053732593717446556   -0.0002612595079158892
-0.005491519329419479   -0.05367125774955613   0.00025406985219948
-0.005229451598056223   -0.053983546466355205   0.0001017519968490393
-0.003998806763528465   -0.08120043734262522   -0.0005041692035333205
-0.02011348666568322   -0.053732593717446556   -0.0002612595079158892
-0.005229451598056223   -0.053983546466355205   0.0001017519968490393
-0.01848885435059742   -0.08141356910839265   -0.0010483516260155028
-0.018113647367123654   -0.08191529477917865   -0.0012274628923901979
-0.019504967110416885   -0.05448825801886502   -0.0006072037769408955
-0.03261484897121408   -0.08172475188478666   -0.001662048522727743
-0.018299206986285243   -0.08165806932593951   -0.0011450170222466593
-0.019504967110416885   -0.05448825801886502   -0.0006072037769408955
-0.03410307109296526   -0.054469715526737614   -0.0010265972858489634
-0.03261484897121408   -0.08172475188478666   -0.001662048522727743
-0.03428991730873568   -0.05425575237809354   -0.0009275485310047323
-0.018299206986285243   -0.08165806932593951   -0.0011450170222466593
-0.032798845849268884   -0.08151339289158142   -0.001551826055113654
-0.03428991730873568   -0.05425575237809354   -0.0009275485310047323
-0.03261484897121408   -0.08172475188478666   -0.001662048522727743
-0.018299206986285243   -0.08165806932593951   -0.0011450170222466593
-0.03428991730873568   -0.05425575237809354   -0.0009275485310047323
-0.019700664854978654   -0.05424482635630268   -0.0005028165040005986
-0.019504967110416885   -0.05448825801886502   -0.0006072037769408955
-0.018299206986285243   -0.08165806932593951   -0.0011450170222466593
-0.03428991730873568   -0.05425575237809354   -0.0009275485310047323
-0.019504967110416885   -0.05448825801886502   -0.0006072037769408955
-0.03261484897121408   -0.08172475188478666   -0.001662048522727743
-0.018299206986285243   -0.08165806932593951   -0.0011450170222466593
-0.019700664854978654   -0.05424482635630268   -0.0005028165040005986
-0.032798845849268884   -0.08151339289158142   -0.001551826055113654
-0.01848885435059742   -0.08141356910839265   -0.0010483516260155028
-0.019700664854978654   -0.05424482635630268   -0.0005028165040005986
-0.03428991730873568   -0.05425575237809354   -0.0009275485310047323
-0.032798845849268884   -0.08151339289158142   -0.001551826055113654
-0.03446789397283257   -0.054037712177401456   -0.0008195691217619284
-0.01848885435059742   -0.08141356910839265   -0.0010483516260155028
-0.0329710006408369   -0.08131552153229965   -0.0014278717255479388
-0.03446789397283257   -0.054037712177401456   -0.0008195691217619284
-0.032798845849268884   -0.08151339289158142   -0.001551826055113654
-0.01848885435059742   -0.08141356910839265   -0.0010483516260155028
-0.03446789397283257   -0.054037712177401456   -0.0008195691217619284
-0.019902981747281907   -0.053991484766731414   -0.00038819282933636205
-0.019700664854978654   -0.05424482635630268   -0.0005028165040005986
-0.01848885435059742   -0.08141356910839265   -0.0010483516260155028
-0.03446789397283257   -0.054037712177401456   -0.0008195691217619284
-0.019700664854978654   -0.05424482635630268   -0.0005028165040005986
-0.032798845849268884   -0.08151339289158142   -0.001551826055113654
-0.01848885435059742   -0.08141356910839265   -0.0010483516260155028
-0.019902981747281907   -0.053991484766731414   -0.00038819282933636205
-0.0329710006408369   -0.08131552153229965   -0.0014278717255479388
-0.01869045683822324   -0.08118548414237352   -0.0009372887990207492
-0.019902981747281907   -0.053991484766731414   -0.00038819282933636205
-0.03446789397283257   -0.054037712177401456   -0.0008195691217619284
-0.0329710006408369   -0.08131552153229965   -0.0014278717255479388
-0.03464406681617505   -0.05381438351003147   -0.0007031843667478446
-0.01869045683822324   -0.08118548414237352   -0.0009372887990207492
-0.033143769166833925   -0.08113170094420877   -0.0012908729057206972
-0.03464406681617505   -0.05381438351003147   -0.0007031843667478446
-0.0329710006408369   -0.08131552153229965   -0.0014278717255479388
-0.01869045683822324   -0.08118548414237352   -0.0009372887990207492
-0.03464406681617505   -0.05381438351003147   -0.0007031843667478446
-0.02011348666568322   -0.053732593717446556   -0.0002612595079158892
-0.019902981747281907   -0.053991484766731414   -0.00038819282933636205
-0.01869045683822324   -0.08118548414237352   -0.0009372887990207492
-0.03464406681617505   -0.05381438351003147   -0.0007031843667478446
-0.019902981747281907   -0.053991484766731414   -0.00038819282933636205
-0.0329710006408369   -0.08131552153229965   -0.0014278717255479388
-0.03261484897121408   -0.08172475188478666   -0.001662048522727743
-0.03410307109296526   -0.054469715526737614   -0.0010265972858489634
-0.047377291608881544   -0.08146780935945351   -0.00201705598336279
-0.032798845849268884   -0.08151339289158142   -0.001551826055113654
-0.03410307109296526   -0.054469715526737614   -0.0010265972858489634
-0.04900995800939614   -0.05438565358179964   -0.0013800202522935671
-0.047377291608881544   -0.08146780935945351   -0.00201705598336279
-0.049188091204254956   -0.05421045224108429   -0.001286742145524396
-0.032798845849268884   -0.08151339289158142   -0.001551826055113654
-0.04755357777900324   -0.08130472044695505   -0.0018793824004632112
-0.049188091204254956   -0.05421045224108429   -0.001286742145524396
-0.047377291608881544   -0.08146780935945351   -0.00201705598336279
-0.032798845849268884   -0.08151339289158142   -0.001551826055113654
-0.049188091204254956   -0.05421045224108429   -0.001286742145524396
-0.03428991730873568   -0.05425575237809354   -0.0009275485310047323
-0.03410307109296526   -0.054469715526737614   -0.0010265972858489634
-0.032798845849268884   -0.08151339289158142   -0.001551826055113654
-0.049188091204254956   -0.05421045224108429   -0.001286742145524396
-0.03410307109296526   -0.054469715526737614   -0.0010265972858489634
-0.047377291608881544   -0.08146780935945351   -0.00201705598336279
-0.032798845849268884   -0.08151339289158142   -0.001551826055113654
-0.03428991730873568   -0.05425575237809354   -0.0009275485310047323
-0.04755357777900324   -0.08130472044695505   -0.0018793824004632112
-0.0329710006408369   -0.08131552153229965   -0.0014278717255479388
-0.03428991730873568   -0.05425575237809354   -0.0009275485310047323
-0.049188091204254956   -0.05421045224108429   -0.001286742145524396
-0.04755357777900324   -0.08130472044695505   -0.0018793824004632112
-0.04933929214627919   -0.05402556767243574   -0.001187181804416576
-0.0329710006408369   -0.08131552153229965   -0.0014278717255479388
-0.0476877319000646   -0.08114972985412097   -0.001730277107204316
-0.04933929214627919   -0.05402556767243574   -0.001187181804416576
-0.04755357777900324   -0.08130472044695505   -0.0018793824004632112
-0.0329710006408369   -0.08131552153229965   -0.0014278717255479388
-0.04933929214627919   -0.05402556767243574   -0.001187181804416576
-0.03446789397283257   -0.054037712177401456   -0.0008195691217619284
-0.03428991730873568   -0.05425575237809354   -0.0009275485310047323
-0.0329710006408369   -0.08131552153229965   -0.0014278717255479388
-0.04933929214627919   -0.05402556767243574   -0.001187181804416576
-0.03428991730873568   -0.05425575237809354   -0.0009275485310047323
-0.04755357777900324   -0.08130472044695505   -0.0018793824004632112
-0.0329710006408369   -0.08131552153229965   -0.0014278717255479388
-0.03446789397283257   -0.054037712177401456   -0.0008195691217619284
-0.0476877319000646   -0.08114972985412097   -0.001730277107204316
-0.033143769166833925   -0.08113170094420877   -0.0012908729057206972
-0.03446789397283257   -0.054037712177401456   -0.0008195691217619284
-0.04933929214627919   -0.05402556767243574   -0.001187181804416576
-0.0476877319000646   -0.08114972985412097   -0.001730277107204316
-0.04948221461351417   -0.053835638832598315   -0.0010785461625894036
-0.033143769166833925   -0.08113170094420877   -0.0012908729057206972
-0.047820719930801496   -0.0810095259471435   -0.0015667277684198394
-0.04948221461351417   -0.053835638832598315   -0.0010785461625894036
-0.0476877319000646   -0.08114972985412097   -0.001730277107204316
-0.033143769166833925   -0.08113170094420877   -0.0012908729057206972
-0.04948221461351417   -0.053835638832598315   -0.0010785461625894036
-0.03464406681617505   -0.05381438351003147   -0.0007031843667478446
-0.03446789397283257   -0.054037712177401456   -0.0008195691217619284
-0.033143769166833925   -0.08113170094420877   -0.0012908729057206972
-0.04948221461351417   -0.053835638832598315   -0.0010785461625894036
-0.03446789397283257   -0.054037712177401456   -0.0008195691217619284
-0.0476877319000646   -0.08114972985412097   -0.001730277107204316
-0.047377291608881544   -0.08146780935945351   -0.00201705598336279
-0.04900995800939614   -0.05438565358179964   -0.0013800202522935671
-0.06301844992123393   -0.08116537263545082   -0.002281921611691345
-0.04755357777900324   -0.08130472044695505   -0.0018793824004632112
-0.04900995800939614   -0.05438565358179964   -0.0013800202522935671
-0.06461916362211613   -0.05424793728508094   -0.001643351548669537
-0.06301844992123393   -0.08116537263545082   -0.002281921611691345
-0.06473130945061778   -0.054100062110299975   -0.00157424832793336
-0.04755357777900324   -0.08130472044695505   -0.0018793824004632112
-0.063048341800056   -0.08103442108528917   -0.0021307535969742487
-0.06473130945061778   -0.054100062110299975   -0.00157424832793336
-0.06301844992123393   -0.08116537263545082   -0.002281921611691345
-0.04755357777900324   -0.08130472044695505   -0.0018793824004632112
-0.06473130945061778   -0.054100062110299975   -0.00157424832793336
-0.049188091204254956   -0.05421045224108429   -0.001286742145524396
-0.04900995800939614   -0.05438565358179964   -0.0013800202522935671
-0.04755357777900324   -0.08130472044695505   -0.0018793824004632112
-0.06473130945061778   -0.054100062110299975   -0.00157424832793336
-0.04900995800939614   -0.05438565358179964   -0.0013800202522935671
-0.06301844992123393   -0.08116537263545082   -0.002281921611691345
-0.04755357777900324   -0.08130472044695505   -0.0018793824004632112
-0.049188091204254956   -0.05421045224108429   -0.001286742145524396
-0.063048341800056   -0.08103442108528917   -0.0021307535969742487
-0.0476877319000646   -0.08114972985412097   -0.001730277107204316
-0.049188091204254956   -0.05421045224108429   -0.001286742145524396
-0.06473130945061778   -0.054100062110299975   -0.00157424832793336
-0.063048341800056   -0.08103442108528917   -0.0021307535969742487
-0.06483385293300789   -0.05393307201223447   -0.0014896120085660922
-0.0476877319000646   -0.08114972985412097   -0.001730277107204316
-0.06307856968260346   -0.08090144199654752   -0.001956530087002823
-0.06483385293300789   -0.05393307201223447   -0.0014896120085660922
-0.063048341800056   -0.08103442108528917   -0.0021307535969742487
-0.0476877319000646   -0.08114972985412097   -0.001730277107204316
-0.06483385293300789   -0.05393307201223447   -0.0014896120085660922
-0.04933929214627919   -0.05402556767243574   -0.001187181804416576
-0.049188091204254956   -0.05421045224108429   -0.001286742145524396
-0.0476877319000646   -0.08114972985412097   -0.001730277107204316
-0.06483385293300789   -0.05393307201223447   -0.0014896120085660922
-0.049188091204254956   -0.05421045224108429   -0.001286742145524396
-0.063048341800056   -0.08103442108528917   -0.0021307535969742487
-0.0476877319000646   -0.08114972985412097   -0.001730277107204316
-0.04933929214627919   -0.05402556767243574   -0.001187181804416576
-0.06307856968260346   -0.08090144199654752   -0.001956530087002823
-0.047820719930801496   -0.0810095259471435   -0.0015667277684198394
-0.04933929214627919   -0.05402556767243574   -0.001187181804416576
-0.06483385293300789   -0.05393307201223447   -0.0014896120085660922
-0.06307856968260346   -0.08090144199654752   -0.001956530087002823
-0.06488516029346254   -0.0537788262084236   -0.0013933934812885326
-0.047820719930801496   -0.0810095259471435   -0.0015667277684198394
-0.06302164571177515   -0.0808114893358466   -0.001762008312531197
-0.06488516029346254   -0.0537788262084236   -0.0013933934812885326
-0.06307856968260346   -0.08090144199654752   -0.001956530087002823
-0.047820719930801496   -0.0810095259471435   -0.0015667277684198394
-0.06488516029346254   -0.0537788262084236   -0.0013933934812885326
-0.04948221461351417   -0.053835638832598315   -0.0010785461625894036
-0.04933929214627919   -0.05402556767243574   -0.001187181804416576
-0.047820719930801496   -0.0810095259471435   -0.0015667277684198394
-0.06488516029346254   -0.0537788262084236   -0.0013933934812885326
-0.04933929214627919   -0.05402556767243574   -0.001187181804416576
-0.06307856968260346   -0.08090144199654752   -0.001956530087002823
0.01089615072014615   -0.054815659906912104   0.0003358924212150918
0.007619572497845336   -0.027499512674329308   0.00035915317475932986
-0.004758766111220182   -0.05455548721503956   -0.0001438566758925359
0.010552796282240788   -0.0544810957909742   0.0004776535488279211
0.007619572497845336   -0.027499512674329308   0.00035915317475932986
-0.006960894984864998   -0.027138523728783146   0.00017538529222362135
-0.004758766111220182   -0.05455548721503956   -0.0001438566758925359
-0.007176186797307102   -0.026995890332543022   0.0003312689816676529
0.010552796282240788   -0.0544810957909742   0.0004776535488279211
-0.004975805909759107   -0.05427738515415249   -3.099210159074255e-05
-0.007176186797307102   -0.026995890332543022   0.0003312689816676529
-0.004758766111220182   -0.05455548721503956   -0.0001438566758925359
0.010552796282240788   -0.0544810957909742   0.0004776535488279211
-0.007176186797307102   -0.026995890332543022   0.0003312689816676529
0.006949216852492532   -0.027145140188404644   0.0007459343302827545
0.007619572497845336   -0.027499512674329308   0.00035915317475932986
0.010552796282240788   -0.0544810957909742   0.0004776535488279211
-0.007176186797307102   -0.026995890332543022   0.0003312689816676529
0.007619572497845336   -0.027499512674329308   0.00035915317475932986
-0.004758766111220182   -0.05455548721503956   -0.0001438566758925359
0.010552796282240788   -0.0544810957909742   0.0004776535488279211
0.006949216852492532   -0.027145140188404644   0.0007459343302827545
-0.004975805909759107   -0.05427738515415249   -3.099210159074255e-05
0.010170862676597298   -0.05414804895197123   0.0006801062176762482
0.006949216852492532   -0.027145140188404644   0.0007459343302827545
-0.007176186797307102   -0.026995890332543022   0.0003312689816676529
-0.004975805909759107   -0.05427738515415249   -3.099210159074255e-05
-0.007458083149067683   -0.02674542890220702   0.0005202534910318236
0.010170862676597298   -0.05414804895197123   0.0006801062176762482
-0.005229451598056223   -0.053983546466355205   0.0001017519968490393
-0.007458083149067683   -0.02674542890220702   0.0005202534910318236
-0.004975805909759107   -0.05427738515415249   -3.099210159074255e-05
0.010170862676597298   -0.05414804895197123   0.0006801062176762482
-0.007458083149067683   -0.02674542890220702   0.0005202534910318236
0.006556201332277004   -0.026853596358262354   0.0010351608738101016
0.006949216852492532   -0.027145140188404644   0.0007459343302827545
0.010170862676597298   -0.05414804895197123   0.0006801062176762482
-0.007458083149067683   -0.02674542890220702   0.0005202534910318236
0.006949216852492532   -0.027145140188404644   0.0007459343302827545
-0.004975805909759107   -0.05427738515415249   -3.099210159074255e-05
0.010170862676597298   -0.05414804895197123   0.0006801062176762482
0.006556201332277004   -0.026853596358262354   0.0010351608738101016
-0.005229451598056223   -0.053983546466355205   0.0001017519968490393
0.009704315548992697   -0.05373922681788358   0.0009026765287116379
0.006556201332277004   -0.026853596358262354   0.0010351608738101016
-0.007458083149067683   -0.02674542890220702   0.0005202534910318236
-0.005229451598056223   -0.053983546466355205   0.0001017519968490393
-0.0076946215166169675   -0.026475487830549416   0.0006866778753812402
0.009704315548992697   -0.05373922681788358   0.0009026765287116379
-0.005491519329419479   -0.05367125774955613   0.00025406985219948
-0.0076946215166169675   -0.026475487830549416   0.0006866778753812402
-0.005229451598056223   -0.053983546466355205   0.0001017519968490393
0.009704315548992697   -0.05373922681788358   0.0009026765287116379
-0.0076946215166169675   -0.026475487830549416   0.0006866778753812402
0.006053294976124433   -0.026409578886257577   0.0013660615231928797
0.006556201332277004   -0.026853596358262354   0.0010351608738101016
0.009704315548992697   -0.05373922681788358   0.0009026765287116379
-0.0076946215166169675   -0.026475487830549416   0.0006866778753812402
0.006556201332277004   -0.026853596358262354   0.0010351608738101016
-0.005229451598056223   -0.053983546466355205   0.0001017519968490393
-0.004758766111220182   -0.05455548721503956   -0.0001438566758925359
-0.006960894984864998   -0.027138523728783146   0.00017538529222362135
-0.019504967110416885   -0.05448825801886502   -0.0006072037769408955
-0.004975805909759107   -0.05427738515415249   -3.099210159074255e-05
-0.006960894984864998   -0.027138523728783146   0.00017538529222362135
-0.02085139503970124   -0.027536476288829905   -0.00019564888197097592
-0.019504967110416885   -0.05448825801886502   -0.0006072037769408955
-0.021048699288643113   -0.027320866040694003   -8.560995577813448e-05
-0.004975805909759107   -0.05427738515415249   -3.099210159074255e-05
-0.019700664854978654   -0.05424482635630268   -0.0005028165040005986
-0.021048699288643113   -0.027320866040694003   -8.560995577813448e-05
-0.019504967110416885   -0.05448825801886502   -0.0006072037769408955
-0.004975805909759107   -0.05427738515415249   -3.099210159074255e-05
-0.021048699288643113   -0.027320866040694003   -8.560995577813448e-05
-0.007176186797307102   -0.026995890332543022   0.0003312689816676529
-0.006960894984864998   -0.027138523728783146   0.00017538529222362135
-0.004975805909759107   -0.05427738515415249   -3.099210159074255e-05
-0.021048699288643113   -0.027320866040694003   -8.560995577813448e-05
-0.006960894984864998   -0.027138523728783146   0.00017538529222362135
-0.019504967110416885   -0.05448825801886502   -0.0006072037769408955
-0.004975805909759107   -0.05427738515415249   -3.099210159074255e-05
-0.007176186797307102   -0.026995890332543022   0.0003312689816676529
-0.019700664854978654   -0.05424482635630268   -0.0005028165040005986
-0.005229451598056223   -0.053983546466355205   0.0001017519968490393
-0.007176186797307102   -0.026995890332543022   0.0003312689816676529
-0.021048699288643113   -0.027320866040694003   -8.560995577813448e-05
-0.019700664854978654   -0.05424482635630268   -0.0005028165040005986
-0.0212547168264395   -0.027078068648531912   3.0591396418731905e-05
-0.005229451598056223   -0.053983546466355205   0.0001017519968490393
-0.019902981747281907   -0.053991484766731414   -0.00038819282933636205
-0.0212547168264395   -0.027078068648531912   3.0591396418731905e-05
-0.019700664854978654   -0.05424482635630268   -0.0005028165040005986
-0.005229451598056223   -0.053983546466355205   0.0001017519968490393
-0.0212547168264395   -0.027078068648531912   3.0591396418731905e-05
-0.007458083149067683   -0.02674542890220702   0.0005202534910318236
-0.007176186797307102   -0.026995890332543022   0.0003312689816676529
-0.005229451598056223   -0.053983546466355205   0.0001017519968490393
-0.0212547168264395   -0.027078068648531912   3.0591396418731905e-05
-0.007176186797307102   -0.026995890332543022   0.0003312689816676529
-0.019700664854978654   -0.05424482635630268   -0.0005028165040005986
-0.005229451598056223   -0.053983546466355205   0.0001017519968490393
-0.007458083149067683   -0.02674542890220702   0.0005202534910318236
-0.019902981747281907   -0.053991484766731414   -0.00038819282933636205
-0.005491519329419479   -0.05367125774955613   0.00025406985219948
-0.007458083149067683   -0.02674542890220702   0.0005202534910318236
-0.0212547168264395   -0.027078068648531912   3.0591396418731905e-05
-0.019902981747281907   -0.053991484766731414   -0.00038819282933636205
-0.021450114350176235   -0.02681197047970033   0.00015859188177292966
-0.005491519329419479   -0.05367125774955613   0.00025406985219948
-0.02011348666568322   -0.053732593717446556   -0.0002612595079158892
-0.021450114350176235   -0.02681197047970033   0.00015859188177292966
-0.019902981747281907   -0.053991484766731414   -0.00038819282933636205
-0.005491519329419479   -0.05367125774955613   0.00025406985219948
-0.021450114350176235   -0.02681197047970033   0.00015859188177292966
-0.0076946215166169675   -0.026475487830549416   0.0006866778753812402
-0.007458083149067683   -0.02674542890220702   0.0005202534910318236
-0.005491519329419479   -0.05367125774955613   0.00025406985219948
-0.021450114350176235   -0.02681197047970033   0.00015859188177292966
-0.007458083149067683   -0.02674542890220702   0.0005202534910318236
-0.019902981747281907   -0.053991484766731414   -0.00038819282933636205
-0.019504967110416885   -0.05448825801886502   -0.0006072037769408955
-0.02085139503970124   -0.027536476288829905   -0.00019564888197097592
-0.03410307109296526   -0.054469715526737614   -0.0010265972858489634
-0.019700664854978654   -0.05424482635630268   -0.0005028165040005986
-0.02085139503970124   -0.027536476288829905   -0.00019564888197097592
-0.03508832211274969   -0.027847258588193004   -0.0006052478223223501
-0.03410307109296526   -0.054469715526737614   -0.0010265972858489634
-0.03526511996925838   -0.027626086456931875   -0.0005202973510045492
-0.019700664854978654   -0.05424482635630268   -0.0005028165040005986
-0.03428991730873568   -0.05425575237809354   -0.0009275485310047323
-0.03526511996925838   -0.027626086456931875   -0.0005202973510045492
-0.03410307109296526   -0.054469715526737614   -0.0010265972858489634
-0.019700664854978654   -0.05424482635630268   -0.0005028165040005986
-0.03526511996925838   -0.027626086456931875   -0.0005202973510045492
-0.021048699288643113   -0.027320866040694003   -8.560995577813448e-05
-0.02085139503970124   -0.027536476288829905   -0.00019564888197097592
-0.019700664854978654   -0.05424482635630268   -0.0005028165040005986
-0.03526511996925838   -0.027626086456931875   -0.0005202973510045492
-0.02085139503970124   -0.027536476288829905   -0.00019564888197097592
-0.03410307109296526   -0.054469715526737614   -0.0010265972858489634
-0.019700664854978654   -0.05424482635630268   -0.0005028165040005986
-0.021048699288643113   -0.027320866040694003   -8.560995577813448e-05
-0.03428991730873568   -0.05425575237809354   -0.0009275485310047323
-0.019902981747281907   -0.053991484766731414   -0.00038819282933636205
-0.021048699288643113   -0.027320866040694003   -8.560995577813448e-05
-0.03526511996925838   -0.027626086456931875   -0.0005202973510045492
-0.03428991730873568   -0.05425575237809354   -0.0009275485310047323
-0.03543405766570591   -0.02739277840221691   -0.0004358071237097969
-0.019902981747281907   -0.053991484766731414   -0.00038819282933636205
-0.03446789397283257   -0.054037712177401456   -0.0008195691217619284
-0.03543405766570591   -0.02739277840221691   -0.0004358071237097969
-0.03428991730873568   -0.05425575237809354   -0.0009275485310047323
-0.019902981747281907   -0.053991484766731414   -0.00038819282933636205
-0.03543405766570591   -0.02739277840221691   -0.0004358071237097969
-0.0212547168264395   -0.027078068648531912   3.0591396418731905e-05
-0.021048699288643113   -0.027320866040694003   -8.560995577813448e-05
-0.019902981747281907   -0.053991484766731414   -0.00038819282933636205
-0.03543405766570591   -0.02739277840221691   -0.0004358071237097969
-0.021048699288643113   -0.027320866040694003   -8.560995577813448e-05
-0.03428991730873568   -0.05425575237809354   -0.0009275485310047323
-0.019902981747281907   -0.053991484766731414   -0.00038819282933636205
-0.0212547168264395   -0.027078068648531912   3.0591396418731905e-05
-0.03446789397283257   -0.054037712177401456   -0.0008195691217619284
-0.02011348666568322   -0.053732593717446556   -0.0002612595079158892
-0.0212547168264395   -0.027078068648531912   3.0591396418731905e-05
-0.03543405766570591   -0.02739277840221691   -0.0004358071237097969
-0.03446789397283257   -0.054037712177401456   -0.0008195691217619284
-0.03558953797430657   -0.027140400593348997   -0.0003440178440848771
-0.02011348666568322   -0.053732593717446556   -0.0002612595079158892
-0.03464406681617505   -0.05381438351003147   -0.0007031843667478446
-0.03558953797430657   -0.027140400593348997   -0.0003440178440848771
-0.03446789397283257   -0.054037712177401456   -0.0008195691217619284
-0.02011348666568322   -0.053732593717446556   -0.0002612595079158892
-0.03558953797430657   -0.027140400593348997   -0.0003440178440848771
-0.021450114350176235   -0.02681197047970033   0.00015859188177292966
-0.0212547168264395   -0.027078068648531912   3.0591396418731905e-05
-0.02011348666568322   -0.053732593717446556   -0.0002612595079158892
-0.03558953797430657   -0.027140400593348997   -0.0003440178440848771
-0.0212547168264395   -0.027078068648531912   3.0591396418731905e-05
-0.03446789397283257   -0.054037712177401456   -0.0008195691217619284
-0.03410307109296526   -0.054469715526737614   -0.0010265972858489634
-0.03508832211274969   -0.027847258588193004   -0.0006052478223223501
-0.04900995800939614   -0.05438565358179964   -0.0013800202522935671
-0.03428991730873568   -0.05425575237809354   -0.0009275485310047323
-0.03508832211274969   -0.027847258588193004   -0.0006052478223223501
-0.04982516177779381   -0.027974461592922047   -0.000983771469966655
-0.04900995800939614   -0.05438565358179964   -0.0013800202522935671
-0.049984351670151424   -0.027775290627367166   -0.0009221140513757877
-0.03428991730873568   -0.05425575237809354   -0.0009275485310047323
-0.049188091204254956   -0.05421045224108429   -0.001286742145524396
-0.049984351670151424   -0.027775290627367166   -0.0009221140513757877
-0.04900995800939614   -0.05438565358179964   -0.0013800202522935671
-0.03428991730873568   -0.05425575237809354   -0.0009275485310047323
-0.049984351670151424   -0.027775290627367166   -0.0009221140513757877
-0.03526511996925838   -0.027626086456931875   -0.0005202973510045492
-0.03508832211274969   -0.027847258588193004   -0.0006052478223223501
-0.03428991730873568   -0.05425575237809354   -0.0009275485310047323
-0.049984351670151424   -0.027775290627367166   -0.0009221140513757877
-0.03508832211274969   -0.027847258588193004   -0.0006052478223223501
-0.04900995800939614   -0.05438565358179964   -0.0013800202522935671
-0.03428991730873568   -0.05425575237809354   -0.0009275485310047323
-0.03526511996925838   -0.027626086456931875   -0.0005202973510045492
-0.049188091204254956   -0.05421045224108429   -0.001286742145524396
-0.03446789397283257   -0.054037712177401456   -0.0008195691217619284
-0.03526511996925838   -0.027626086456931875   -0.0005202973510045492
-0.049984351670151424   -0.027775290627367166   -0.0009221140513757877
-0.049188091204254956   -0.05421045224108429   -0.001286742145524396
-0.05012618878238412   -0.027558758064394256   -0.0008623850829396543
-0.03446789397283257   -0.054037712177401456   -0.0008195691217619284
-0.04933929214627919   -0.05402556767243574   -0.001187181804416576
-0.05012618878238412   -0.027558758064394256   -0.0008623850829396543
-0.049188091204254956   -0.05421045224108429   -0.001286742145524396
-0.03446789397283257   -0.054037712177401456   -0.0008195691217619284
-0.05012618878238412   -0.027558758064394256   -0.0008623850829396543
-0.03543405766570591   -0.02739277840221691   -0.0004358071237097969
-0.03526511996925838   -0.027626086456931875   -0.0005202973510045492
-0.03446789397283257   -0.054037712177401456   -0.0008195691217619284
-0.05012618878238412   -0.027558758064394256   -0.0008623850829396543
-0.03526511996925838   -0.027626086456931875   -0.0005202973510045492
-0.049188091204254956   -0.05421045224108429   -0.001286742145524396
-0.03446789397283257   -0.054037712177401456   -0.0008195691217619284
-0.03543405766570591   -0.02739277840221691   -0.0004358071237097969
-0.04933929214627919   -0.05402556767243574   -0.001187181804416576
-0.03464406681617505   -0.05381438351003147   -0.0007031843667478446
-0.03543405766570591   -0.02739277840221691   -0.0004358071237097969
-0.05012618878238412   -0.027558758064394256   -0.0008623850829396543
-0.04933929214627919   -0.05402556767243574   -0.001187181804416576
-0.050254553884086235   -0.0273284570645942   -0.0008010821071076015
-0.03464406681617505   -0.05381438351003147   -0.0007031843667478446
-0.04948221461351417   -0.053835638832598315   -0.0010785461625894036
-0.050254553884086235   -0.0273284570645942   -0.0008010821071076015
-0.04933929214627919   -0.05402556767243574   -0.001187181804416576
-0.03464406681617505   -0.05381438351003147   -0.0007031843667478446
-0.050254553884086235   -0.0273284570645942   -0.0008010821071076015
-0.03558953797430657   -0.027140400593348997   -0.0003440178440848771
-0.03543405766570591   -0.02739277840221691   -0.0004358071237097969
-0.03464406681617505   -0.05381438351003147   -0.0007031843667478446
-0.050254553884086235   -0.0273284570645942   -0.0008010821071076015
-0.03543405766570591   -0.02739277840221691   -0.0004358071237097969
-0.04933929214627919   -0.05402556767243574   -0.001187181804416576
-0.04900995800939614   -0.05438565358179964   -0.0013800202522935671
-0.04982516177779381   -0.027974461592922047   -0.000983771469966655
-0.06461916362211613   -0.05424793728508094   -0.001643351548669537
-0.049188091204254956   -0.05421045224108429   -0.001286742145524396
-0.04982516177779381   -0.027974461592922047   -0.000983771469966655
-0.0650809632075833   -0.027989219388245563   -0.0012993411523630975
-0.06461916362211613   -0.05424793728508094   -0.001643351548669537
-0.06521821326164957   -0.027795647442414594   -0.0012733940338201719
-0.049188091204254956   -0.05421045224108429   -0.001286742145524396
-0.06473130945061778   -0.054100062110299975   -0.00157424832793336
-0.06521821326164957   -0.027795647442414594   -0.0012733940338201719
-0.06461916362211613   -0.05424793728508094   -0.001643351548669537
-0.049188091204254956   -0.05421045224108429   -0.001286742145524396
-0.06521821326164957   -0.027795647442414594   -0.0012733940338201719
-0.049984351670151424   -0.027775290627367166   -0.0009221140513757877
-0.04982516177779381   -0.027974461592922047   -0.000983771469966655
-0.049188091204254956   -0.05421045224108429   -0.001286742145524396
-0.06521821326164957   -0.027795647442414594   -0.0012733940338201719
-0.04982516177779381   -0.027974461592922047   -0.000983771469966655
-0.06461916362211613   -0.05424793728508094   -0.001643351548669537
-0.049188091204254956   -0.05421045224108429   -0.001286742145524396
-0.049984351670151424   -0.027775290627367166   -0.0009221140513757877
-0.06473130945061778   -0.054100062110299975   -0.00157424832793336
-0.04933929214627919   -0.05402556767243574   -0.001187181804416576
-0.049984351670151424   -0.027775290627367166   -0.0009221140513757877
-0.06521821326164957   -0.027795647442414594   -0.0012733940338201719
-0.06473130945061778   -0.054100062110299975   -0.00157424832793336
-0.06534117669444406   -0.02758676729821982   -0.0012431445611747966
-0.04933929214627919   -0.05402556767243574   -0.001187181804416576
-0.06483385293300789   -0.05393307201223447   -0.0014896120085660922
-0.06534117669444406   -0.02758676729821982   -0.0012431445611747966
-0.06473130945061778   -0.054100062110299975   -0.00157424832793336
-0.04933929214627919   -0.05402556767243574   -0.001187181804416576
-0.06534117669444406   -0.02758676729821982   -0.0012431445611747966
-0.05012618878238412   -0.027558758064394256   -0.0008623850829396543
-0.049984351670151424   -0.027775290627367166   -0.0009221140513757877
-0.04933929214627919   -0.05402556767243574   -0.001187181804416576
-0.06534117669444406   -0.02758676729821982   -0.0012431445611747966
-0.049984351670151424   -0.027775290627367166   -0.0009221140513757877
-0.06473130945061778   -0.054100062110299975   -0.00157424832793336
-0.04933929214627919   -0.05402556767243574   -0.001187181804416576
-0.05012618878238412   -0.027558758064394256   -0.0008623850829396543
-0.06483385293300789   -0.05393307201223447   -0.0014896120085660922
-0.04948221461351417   -0.053835638832598315   -0.0010785461625894036
-0.05012618878238412   -0.027558758064394256   -0.0008623850829396543
-0.06534117669444406   -0.02758676729821982   -0.0012431445611747966
-0.06483385293300789   -0.05393307201223447   -0.0014896120085660922
-0.0654451899907276   -0.0273655053607872   -0.0012153446886431774
-0.04948221461351417   -0.053835638832598315   -0.0010785461625894036
-0.06488516029346254   -0.0537788262084236   -0.0013933934812885326
-0.0654451899907276   -0.0273655053607872   -0.0012153446886431774
-0.06483385293300789   -0.05393307201223447   -0.0014896120085660922
-0.04948221461351417   -0.053835638832598315   -0.0010785461625894036
-0.0654451899907276   -0.0273655053607872   -0.0012153446886431774
-0.050254553884086235   -0.0273284570645942   -0.0008010821071076015
-0.05012618878238412   -0.027558758064394256   -0.0008623850829396543
-0.04948221461351417   -0.053835638832598315   -0.0010785461625894036
-0.0654451899907276   -0.0273655053607872   -0.0012153446886431774
-0.05012618878238412   -0.027558758064394256   -0.0008623850829396543
-0.06483385293300789   -0.05393307201223447   -0.0014896120085660922
0.007619572497845336   -0.027499512674329308   0.00035915317475932986
0.0   0.0   0.0
-0.006960894984864998   -0.027138523728783146   0.00017538529222362135
0.006949216852492532   -0.027145140188404644   0.0007459343302827545
0.0   0.0   0.0
-0.008759831276615363   -0.002185097207203865   -8.231852458183535e-05
-0.006960894984864998   -0.027138523728783146   0.00017538529222362135
-0.00928244054452628   -0.0016909795651774242   0.00021577984763575898
0.006949216852492532   -0.027145140188404644   0.0007459343302827545
-0.007176186797307102   -0.026995890332543022   0.0003312689816676529
-0.00928244054452628   -0.0016909795651774242   0.00021577984763575898
-0.006960894984864998   -0.027138523728783146   0.00017538529222362135
0.006949216852492532   -0.027145140188404644   0.0007459343302827545
-0.00928244054452628   -0.0016909795651774242   0.00021577984763575898
0.0   0.0   0.0
0.0   0.0   0.0
0.006949216852492532   -0.027145140188404644   0.0007459343302827545
-0.00928244054452628   -0.0016909795651774242   0.00021577984763575898
0.0   0.0   0.0
-0.006960894984864998   -0.027138523728783146   0.00017538529222362135
0.006949216852492532   -0.027145140188404644   0.0007459343302827545
0.0   0.0   0.0
-0.007176186797307102   -0.026995890332543022   0.0003312689816676529
0.006556201332277004   -0.026853596358262354   0.0010351608738101016
0.0   0.0   0.0
-0.00928244054452628   -0.0016909795651774242   0.00021577984763575898
-0.007176186797307102   -0.026995890332543022   0.0003312689816676529
-0.009609345204865932   -0.0014519011008388076   0.0003866573535624878
0.006556201332277004   -0.026853596358262354   0.0010351608738101016
-0.007458083149067683   -0.02674542890220702   0.0005202534910318236
-0.009609345204865932   -0.0014519011008388076   0.0003866573535624878
-0.007176186797307102   -0.026995890332543022   0.0003312689816676529
0.006556201332277004   -0.026853596358262354   0.0010351608738101016
-0.009609345204865932   -0.0014519011008388076   0.0003866573535624878
0.0   0.0   0.0
0.0   0.0   0.0
0.006556201332277004   -0.026853596358262354   0.0010351608738101016
-0.009609345204865932   -0.0014519011008388076   0.0003866573535624878
0.0   0.0   0.0
-0.007176186797307102   -0.026995890332543022   0.0003312689816676529
0.006556201332277004   -0.026853596358262354   0.0010351608738101016
0.0   0.0   0.0
-0.007458083149067683   -0.02674542890220702   0.0005202534910318236
0.006053294976124433   -0.026409578886257577   0.0013660615231928797
0.0   0.0   0.0
-0.009609345204865932   -0.0014519011008388076   0.0003866573535624878
-0.007458083149067683   -0.02674542890220702   0.0005202534910318236
-0.01004574699926969   -0.0011350383352831716   0.0005825661067975829
0.006053294976124433   -0.026409578886257577   0.0013660615231928797
-0.0076946215166169675   -0.026475487830549416   0.0006866778753812402
-0.01004574699926969   -0.0011350383352831716   0.0005825661067975829
-0.007458083149067683   -0.02674542890220702   0.0005202534910318236
0.006053294976124433   -0.026409578886257577   0.0013660615231928797
-0.01004574699926969   -0.0011350383352831716   0.0005825661067975829
0.0   0.0   0.0
0.0   0.0   0.0
0.006053294976124433   -0.026409578886257577   0.0013660615231928797
-0.01004574699926969   -0.0011350383352831716   0.0005825661067975829
0.0   0.0   0.0
-0.007458083149067683   -0.02674542890220702   0.0005202534910318236
-0.006960894984864998   -0.027138523728783146   0.00017538529222362135
-0.008759831276615363   -0.002185097207203865   -8.231852458183535e-05
-0.02085139503970124   -0.027536476288829905   -0.00019564888197097592
-0.007176186797307102   -0.026995890332543022   0.0003312689816676529
-0.008759831276615363   -0.002185097207203865   -8.231852458183535e-05
-0.021480278621204003   -0.002848965101179445   -9.011167487319378e-05
-0.02085139503970124   -0.027536476288829905   -0.00019564888197097592
-0.02174814729337646   -0.0025767991547484726   -1.538444927570378e-05
-0.007176186797307102   -0.026995890332543022   0.0003312689816676529
-0.021048699288643113   -0.027320866040694003   -8.560995577813448e-05
-0.02174814729337646   -0.0025767991547484726   -1.538444927570378e-05
-0.02085139503970124   -0.027536476288829905   -0.00019564888197097592
-0.007176186797307102   -0.026995890332543022   0.0003312689816676529
-0.02174814729337646   -0.0025767991547484726   -1.538444927570378e-05
-0.00928244054452628   -0.0016909795651774242   0.00021577984763575898
-0.008759831276615363   -0.002185097207203865   -8.231852458183535e-05
-0.007176186797307102   -0.026995890332543022   0.0003312689816676529
-0.02174814729337646   -0.0025767991547484726   -1.538444927570378e-05
-0.008759831276615363   -0.002185097207203865   -8.231852458183535e-05
-0.02085139503970124   -0.027536476288829905   -0.00019564888197097592
-0.007176186797307102   -0.026995890332543022   0.0003312689816676529
-0.00928244054452628   -0.0016909795651774242   0.00021577984763575898
-0.021048699288643113   -0.027320866040694003   -8.560995577813448e-05
-0.007458083149067683   -0.02674542890220702   0.0005202534910318236
-0.00928244054452628   -0.0016909795651774242   0.00021577984763575898
-0.02174814729337646   -0.0025767991547484726   -1.538444927570378e-05
-0.021048699288643113   -0.027320866040694003   -8.560995577813448e-05
-0.02201438449495322   -0.0022589181954964623   0.00011975200827220912
-0.007458083149067683   -0.02674542890220702   0.0005202534910318236
-0.0212547168264395   -0.027078068648531912   3.0591396418731905e-05
-0.02201438449495322   -0.0022589181954964623   0.00011975200827220912
-0.021048699288643113   -0.027320866040694003   -8.560995577813448e-05
-0.007458083149067683   -0.02674542890220702   0.0005202534910318236
-0.02201438449495322   -0.0022589181954964623   0.00011975200827220912
-0.009609345204865932   -0.0014519011008388076   0.0003866573535624878
-0.00928244054452628   -0.0016909795651774242   0.00021577984763575898
-0.007458083149067683   -0.02674542890220702   0.0005202534910318236
-0.02201438449495322   -0.0022589181954964623   0.00011975200827220912
-0.00928244054452628   -0.0016909795651774242   0.00021577984763575898
-0.021048699288643113   -0.027320866040694003   -8.560995577813448e-05
-0.007458083149067683   -0.02674542890220702   0.0005202534910318236
-0.009609345204865932   -0.0014519011008388076   0.0003866573535624878
-0.0212547168264395   -0.027078068648531912   3.0591396418731905e-05
-0.0076946215166169675   -0.026475487830549416   0.0006866778753812402
-0.009609345204865932   -0.0014519011008388076   0.0003866573535624878
-0.02201438449495322   -0.0022589181954964623   0.00011975200827220912
-0.0212547168264395   -0.027078068648531912   3.0591396418731905e-05
-0.022307224463084203   -0.0018926842311983005   0.00024834486608189317
-0.0076946215166169675   -0.026475487830549416   0.0006866778753812402
-0.021450114350176235   -0.02681197047970033   0.00015859188177292966
-0.022307224463084203   -0.0018926842311983005   0.00024834486608189317
-0.0212547168264395   -0.027078068648531912   3.0591396418731905e-05
-0.0076946215166169675   -0.026475487830549416   0.0006866778753812402
-0.022307224463084203   -0.0018926842311983005   0.00024834486608189317
-0.01004574699926969   -0.0011350383352831716   0.0005825661067975829
-0.009609345204865932   -0.0014519011008388076   0.0003866573535624878
-0.0076946215166169675   -0.026475487830549416   0.0006866778753812402
-0.022307224463084203   -0.0018926842311983005   0.00024834486608189317
-0.009609345204865932   -0.0014519011008388076   0.0003866573535624878
-0.0212547168264395   -0.027078068648531912   3.0591396418731905e-05
-0.02085139503970124   -0.027536476288829905   -0.00019564888197097592
-0.021480278621204003   -0.002848965101179445   -9.011167487319378e-05
-0.03508832211274969   -0.027847258588193004   -0.0006052478223223501
-0.021048699288643113   -0.027320866040694003   -8.560995577813448e-05
-0.021480278621204003   -0.002848965101179445   -9.011167487319378e-05
-0.035437806324648116   -0.003026799018705003   -0.00035405671444890715
-0.03508832211274969   -0.027847258588193004   -0.0006052478223223501
-0.03559945027647572   -0.002812085039407351   -0.00033421936832383255
-0.021048699288643113   -0.027320866040694003   -8.560995577813448e-05
-0.03526511996925838   -0.027626086456931875   -0.0005202973510045492
-0.03559945027647572   -0.002812085039407351   -0.00033421936832383255
-0.03508832211274969   -0.027847258588193004   -0.0006052478223223501
-0.021048699288643113   -0.027320866040694003   -8.560995577813448e-05
-0.03559945027647572   -0.002812085039407351   -0.00033421936832383255
-0.02174814729337646   -0.0025767991547484726   -1.538444927570378e-05
-0.021480278621204003   -0.002848965101179445   -9.011167487319378e-05
-0.021048699288643113   -0.027320866040694003   -8.560995577813448e-05
-0.03559945027647572   -0.002812085039407351   -0.00033421936832383255
-0.021480278621204003   -0.002848965101179445   -9.011167487319378e-05
-0.03508832211274969   -0.027847258588193004   -0.0006052478223223501
-0.021048699288643113   -0.027320866040694003   -8.560995577813448e-05
-0.02174814729337646   -0.0025767991547484726   -1.538444927570378e-05
-0.03526511996925838   -0.027626086456931875   -0.0005202973510045492
-0.0212547168264395   -0.027078068648531912   3.0591396418731905e-05
-0.02174814729337646   -0.0025767991547484726   -1.538444927570378e-05
-0.03559945027647572   -0.002812085039407351   -0.00033421936832383255
-0.03526511996925838   -0.027626086456931875   -0.0005202973510045492
-0.035767370657263854   -0.0025641136929023985   -0.00029891125352198955
-0.0212547168264395   -0.027078068648531912   3.0591396418731905e-05
-0.03543405766570591   -0.02739277840221691   -0.0004358071237097969
-0.035767370657263854   -0.0025641136929023985   -0.00029891125352198955
-0.03526511996925838   -0.027626086456931875   -0.0005202973510045492
-0.0212547168264395   -0.027078068648531912   3.0591396418731905e-05
-0.035767370657263854   -0.0025641136929023985   -0.00029891125352198955
-0.02201438449495322   -0.0022589181954964623   0.00011975200827220912
-0.02174814729337646   -0.0025767991547484726   -1.538444927570378e-05
-0.0212547168264395   -0.027078068648531912   3.0591396418731905e-05
-0.035767370657263854   -0.0025641136929023985   -0.00029891125352198955
-0.02174814729337646   -0.0025767991547484726   -1.538444927570378e-05
-0.03526511996925838   -0.027626086456931875   -0.0005202973510045492
-0.0212547168264395   -0.027078068648531912   3.0591396418731905e-05
-0.02201438449495322   -0.0022589181954964623   0.00011975200827220912
-0.03543405766570591   -0.02739277840221691   -0.0004358071237097969
-0.021450114350176235   -0.02681197047970033   0.00015859188177292966
-0.02201438449495322   -0.0022589181954964623   0.00011975200827220912
-0.035767370657263854   -0.0025641136929023985   -0.00029891125352198955
-0.03543405766570591   -0.02739277840221691   -0.0004358071237097969
-0.03592506425458273   -0.002264462640167218   -0.0002521998675567692
-0.021450114350176235   -0.02681197047970033   0.00015859188177292966
-0.03558953797430657   -0.027140400593348997   -0.0003440178440848771
-0.03592506425458273   -0.002264462640167218   -0.0002521998675567692
-0.03543405766570591   -0.02739277840221691   -0.0004358071237097969
-0.021450114350176235   -0.02681197047970033   0.00015859188177292966
-0.03592506425458273   -0.002264462640167218   -0.0002521998675567692
-0.022307224463084203   -0.0018926842311983005   0.00024834486608189317
-0.02201438449495322   -0.0022589181954964623   0.00011975200827220912
-0.021450114350176235   -0.02681197047970033   0.00015859188177292966
-0.03592506425458273   -0.002264462640167218   -0.0002521998675567692
-0.02201438449495322   -0.0022589181954964623   0.00011975200827220912
-0.03543405766570591   -0.02739277840221691   -0.0004358071237097969
-0.03508832211274969   -0.027847258588193004   -0.0006052478223223501
-0.035437806324648116   -0.003026799018705003   -0.00035405671444890715
-0.04982516177779381   -0.027974461592922047   -0.000983771469966655
-0.03526511996925838   -0.027626086456931875   -0.0005202973510045492
-0.035437806324648116   -0.003026799018705003   -0.00035405671444890715
-0.05008167233691132   -0.0029874759272872854   -0.0007273097777730286
-0.04982516177779381   -0.027974461592922047   -0.000983771469966655
-0.05019062044043313   -0.0027926781499879646   -0.0007189469447718496
-0.03526511996925838   -0.027626086456931875   -0.0005202973510045492
-0.049984351670151424   -0.027775290627367166   -0.0009221140513757877
-0.05019062044043313   -0.0027926781499879646   -0.0007189469447718496
-0.04982516177779381   -0.027974461592922047   -0.000983771469966655
-0.03526511996925838   -0.027626086456931875   -0.0005202973510045492
-0.05019062044043313   -0.0027926781499879646   -0.0007189469447718496
-0.03559945027647572   -0.002812085039407351   -0.00033421936832383255
-0.035437806324648116   -0.003026799018705003   -0.00035405671444890715
-0.03526511996925838   -0.027626086456931875   -0.0005202973510045492
-0.05019062044043313   -0.0027926781499879646   -0.0007189469447718496
-0.035437806324648116   -0.003026799018705003   -0.00035405671444890715
-0.04982516177779381   -0.027974461592922047   -0.000983771469966655
-0.03526511996925838   -0.027626086456931875   -0.0005202973510045492
-0.03559945027647572   -0.002812085039407351   -0.00033421936832383255
-0.049984351670151424   -0.027775290627367166   -0.0009221140513757877
-0.03543405766570591   -0.02739277840221691   -0.0004358071237097969
-0.03559945027647572   -0.002812085039407351   -0.00033421936832383255
-0.05019062044043313   -0.0027926781499879646   -0.0007189469447718496
-0.049984351670151424   -0.027775290627367166   -0.0009221140513757877
-0.050304338981696124   -0.0025770496237695413   -0.0007138567990060061
-0.03543405766570591   -0.02739277840221691   -0.0004358071237097969
-0.05012618878238412   -0.027558758064394256   -0.0008623850829396543
-0.050304338981696124   -0.0025770496237695413   -0.0007138567990060061
-0.049984351670151424   -0.027775290627367166   -0.0009221140513757877
-0.03543405766570591   -0.02739277840221691   -0.0004358071237097969
-0.050304338981696124   -0.0025770496237695413   -0.0007138567990060061
-0.035767370657263854   -0.0025641136929023985   -0.00029891125352198955
-0.03559945027647572   -0.002812085039407351   -0.00033421936832383255
-0.03543405766570591   -0.02739277840221691   -0.0004358071237097969
-0.050304338981696124   -0.0025770496237695413   -0.0007138567990060061
-0.03559945027647572   -0.002812085039407351   -0.00033421936832383255
-0.049984351670151424   -0.027775290627367166   -0.0009221140513757877
-0.03543405766570591   -0.02739277840221691   -0.0004358071237097969
-0.035767370657263854   -0.0025641136929023985   -0.00029891125352198955
-0.05012618878238412   -0.027558758064394256   -0.0008623850829396543
-0.03558953797430657   -0.027140400593348997   -0.0003440178440848771
-0.035767370657263854   -0.0025641136929023985   -0.00029891125352198955
-0.050304338981696124   -0.0025770496237695413   -0.0007138567990060061
-0.05012618878238412   -0.027558758064394256   -0.0008623850829396543
-0.05038949427299655   -0.0023447914105183647   -0.0007125921890796804
-0.03558953797430657   -0.027140400593348997   -0.0003440178440848771
-0.050254553884086235   -0.0273284570645942   -0.0008010821071076015
-0.05038949427299655   -0.0023447914105183647   -0.0007125921890796804
-0.05012618878238412   -0.027558758064394256   -0.0008623850829396543
-0.03558953797430657   -0.027140400593348997   -0.0003440178440848771
-0.05038949427299655   -0.0023447914105183647   -0.0007125921890796804
-0.03592506425458273   -0.002264462640167218   -0.0002521998675567692
-0.035767370657263854   -0.0025641136929023985   -0.00029891125352198955
-0.03558953797430657   -0.027140400593348997   -0.0003440178440848771
-0.05038949427299655   -0.0023447914105183647   -0.0007125921890796804
-0.035767370657263854   -0.0025641136929023985   -0.00029891125352198955
-0.05012618878238412   -0.027558758064394256   -0.0008623850829396543
-0.04982516177779381   -0.027974461592922047   -0.000983771469966655
-0.05008167233691132   -0.0029874759272872854   -0.0007273097777730286
-0.0650809632075833   -0.027989219388245563   -0.0012993411523630975
-0.049984351670151424   -0.027775290627367166   -0.0009221140513757877
-0.05008167233691132   -0.0029874759272872854   -0.0007273097777730286
-0.06512548891950094   -0.0029646692469614123   -0.0010941675356069783
-0.0650809632075833   -0.027989219388245563   -0.0012993411523630975
-0.06521328533421651   -0.0027529178769169047   -0.001094395825123741
-0.049984351670151424   -0.027775290627367166   -0.0009221140513757877
-0.06521821326164957   -0.027795647442414594   -0.0012733940338201719
-0.06521328533421651   -0.0027529178769169047   -0.001094395825123741
-0.0650809632075833   -0.027989219388245563   -0.0012993411523630975
-0.049984351670151424   -0.027775290627367166   -0.0009221140513757877
-0.06521328533421651   -0.0027529178769169047   -0.001094395825123741
-0.05019062044043313   -0.0027926781499879646   -0.0007189469447718496
-0.05008167233691132   -0.0029874759272872854   -0.0007273097777730286
-0.049984351670151424   -0.027775290627367166   -0.0009221140513757877
-0.06521328533421651   -0.0027529178769169047   -0.001094395825123741
-0.05008167233691132   -0.0029874759272872854   -0.0007273097777730286
-0.0650809632075833   -0.027989219388245563   -0.0012993411523630975
-0.049984351670151424   -0.027775290627367166   -0.0009221140513757877
-0.05019062044043313   -0.0027926781499879646   -0.0007189469447718496
-0.06521821326164957   -0.027795647442414594   -0.0012733940338201719
-0.05012618878238412   -0.027558758064394256   -0.0008623850829396543
-0.05019062044043313   -0.0027926781499879646   -0.0007189469447718496
-0.06521328533421651   -0.0027529178769169047   -0.001094395825123741
-0.06521821326164957   -0.027795647442414594   -0.0012733940338201719
-0.06530976917223073   -0.0025421813577380967   -0.0011111043966192927
-0.05012618878238412   -0.027558758064394256   -0.0008623850829396543
-0.06534117669444406   -0.02758676729821982   -0.0012431445611747966
-0.06530976917223073   -0.0025421813577380967   -0.0011111043966192927
-0.06521821326164957   -0.027795647442414594   -0.0012733940338201719
-0.05012618878238412   -0.027558758064394256   -0.0008623850829396543
-0.06530976917223073   -0.0025421813577380967   -0.0011111043966192927
-0.050304338981696124   -0.0025770496237695413   -0.0007138567990060061
-0.05019062044043313   -0.0027926781499879646   -0.0007189469447718496
-0.05012618878238412   -0.027558758064394256   -0.0008623850829396543
-0.06530976917223073   -0.0025421813577380967   -0.0011111043966192927
-0.05019062044043313   -0.0027926781499879646   -0.0007189469447718496
-0.06521821326164957   -0.027795647442414594   -0.0012733940338201719
-0.05012618878238412   -0.027558758064394256   -0.0008623850829396543
-0.050304338981696124   -0.0025770496237695413   -0.0007138567990060061
-0.06534117669444406   -0.02758676729821982   -0.0012431445611747966
-0.050254553884086235   -0.0273284570645942   -0.0008010821071076015
-0.050304338981696124   -0.0025770496237695413   -0.0007138567990060061
-0.06530976917223073   -0.0025421813577380967   -0.0011111043966192927
-0.06534117669444406   -0.02758676729821982   -0.0012431445611747966
-0.0653804530347539   -0.0023133122994155606   -0.001129059374200273
-0.050254553884086235   -0.0273284570645942   -0.0008010821071076015
-0.0654451899907276   -0.0273655053607872   -0.0012153446886431774
-0.0653804530347539   -0.0023133122994155606   -0.001129059374200273
-0.06534117669444406   -0.02758676729821982   -0.0012431445611747966
-0.050254553884086235   -0.0273284570645942   -0.0008010821071076015
-0.0653804530347539   -0.0023133122994155606   -0.001129059374200273
-0.05038949427299655   -0.0023447914105183647   -0.0007125921890796804
-0.050304338981696124   -0.0025770496237695413   -0.0007138567990060061
-0.050254553884086235   -0.0273284570645942   -0.0008010821071076015
-0.0653804530347539   -0.0023133122994155606   -0.001129059374200273
-0.050304338981696124   -0.0025770496237695413   -0.0007138567990060061
-0.06534117669444406   -0.02758676729821982   -0.0012431445611747966
              </DataArray>   
          </PointData>  
       </Piece>  
   </UnstructuredGrid> 
</VTKFile> 
