<?xml version="1.0"?> 
<VTKFile type="UnstructuredGrid"> 
   <UnstructuredGrid> 
      <Piece NumberOfPoints="6000"  NumberOfCells="1500">  
          <Points>  
             <DataArray type="Float64" NumberOfComponents="3" format="ascii">   
-500.0   0.0   0.0
-450.0   0.0   0.0
-500.0   30.0   0.0
-500.0   0.0   16.666666666666668
-450.0   0.0   0.0
-450.0   30.0   0.0
-500.0   30.0   0.0
-450.0   30.0   16.666666666666668
-500.0   0.0   16.666666666666668
-500.0   30.0   16.666666666666668
-450.0   30.0   16.666666666666668
-500.0   30.0   0.0
-500.0   0.0   16.666666666666668
-450.0   30.0   16.666666666666668
-450.0   0.0   16.666666666666668
-450.0   0.0   0.0
-500.0   0.0   16.666666666666668
-450.0   30.0   16.666666666666668
-450.0   0.0   0.0
-500.0   30.0   0.0
-500.0   0.0   16.666666666666668
-450.0   0.0   16.666666666666668
-500.0   30.0   16.666666666666668
-500.0   0.0   33.333333333333336
-450.0   0.0   16.666666666666668
-450.0   30.0   16.666666666666668
-500.0   30.0   16.666666666666668
-450.0   30.0   33.333333333333336
-500.0   0.0   33.333333333333336
-500.0   30.0   33.333333333333336
-450.0   30.0   33.333333333333336
-500.0   30.0   16.666666666666668
-500.0   0.0   33.333333333333336
-450.0   30.0   33.333333333333336
-450.0   0.0   33.333333333333336
-450.0   0.0   16.666666666666668
-500.0   0.0   33.333333333333336
-450.0   30.0   33.333333333333336
-450.0   0.0   16.666666666666668
-500.0   30.0   16.666666666666668
-500.0   0.0   33.333333333333336
-450.0   0.0   33.333333333333336
-500.0   30.0   33.333333333333336
-500.0   0.0   50.0
-450.0   0.0   33.333333333333336
-450.0   30.0   33.333333333333336
-500.0   30.0   33.333333333333336
-450.0   30.0   50.0
-500.0   0.0   50.0
-500.0   30.0   50.0
-450.0   30.0   50.0
-500.0   30.0   33.333333333333336
-500.0   0.0   50.0
-450.0   30.0   50.0
-450.0   0.0   50.0
-450.0   0.0   33.333333333333336
-500.0   0.0   50.0
-450.0   30.0   50.0
-450.0   0.0   33.333333333333336
-500.0   30.0   33.333333333333336
-500.0   30.0   0.0
-450.0   30.0   0.0
-500.0   60.0   0.0
-500.0   30.0   16.666666666666668
-450.0   30.0   0.0
-450.0   60.0   0.0
-500.0   60.0   0.0
-450.0   60.0   16.666666666666668
-500.0   30.0   16.666666666666668
-500.0   60.0   16.666666666666668
-450.0   60.0   16.666666666666668
-500.0   60.0   0.0
-500.0   30.0   16.666666666666668
-450.0   60.0   16.666666666666668
-450.0   30.0   16.666666666666668
-450.0   30.0   0.0
-500.0   30.0   16.666666666666668
-450.0   60.0   16.666666666666668
-450.0   30.0   0.0
-500.0   60.0   0.0
-500.0   30.0   16.666666666666668
-450.0   30.0   16.666666666666668
-500.0   60.0   16.666666666666668
-500.0   30.0   33.333333333333336
-450.0   30.0   16.666666666666668
-450.0   60.0   16.666666666666668
-500.0   60.0   16.666666666666668
-450.0   60.0   33.333333333333336
-500.0   30.0   33.333333333333336
-500.0   60.0   33.333333333333336
-450.0   60.0   33.333333333333336
-500.0   60.0   16.666666666666668
-500.0   30.0   33.333333333333336
-450.0   60.0   33.333333333333336
-450.0   30.0   33.333333333333336
-450.0   30.0   16.666666666666668
-500.0   30.0   33.333333333333336
-450.0   60.0   33.333333333333336
-450.0   30.0   16.666666666666668
-500.0   60.0   16.666666666666668
-500.0   30.0   33.333333333333336
-450.0   30.0   33.333333333333336
-500.0   60.0   33.333333333333336
-500.0   30.0   50.0
-450.0   30.0   33.333333333333336
-450.0   60.0   33.333333333333336
-500.0   60.0   33.333333333333336
-450.0   60.0   50.0
-500.0   30.0   50.0
-500.0   60.0   50.0
-450.0   60.0   50.0
-500.0   60.0   33.333333333333336
-500.0   30.0   50.0
-450.0   60.0   50.0
-450.0   30.0   50.0
-450.0   30.0   33.333333333333336
-500.0   30.0   50.0
-450.0   60.0   50.0
-450.0   30.0   33.333333333333336
-500.0   60.0   33.333333333333336
-500.0   60.0   0.0
-450.0   60.0   0.0
-500.0   90.0   0.0
-500.0   60.0   16.666666666666668
-450.0   60.0   0.0
-450.0   90.0   0.0
-500.0   90.0   0.0
-450.0   90.0   16.666666666666668
-500.0   60.0   16.666666666666668
-500.0   90.0   16.666666666666668
-450.0   90.0   16.666666666666668
-500.0   90.0   0.0
-500.0   60.0   16.666666666666668
-450.0   90.0   16.666666666666668
-450.0   60.0   16.666666666666668
-450.0   60.0   0.0
-500.0   60.0   16.666666666666668
-450.0   90.0   16.666666666666668
-450.0   60.0   0.0
-500.0   90.0   0.0
-500.0   60.0   16.666666666666668
-450.0   60.0   16.666666666666668
-500.0   90.0   16.666666666666668
-500.0   60.0   33.333333333333336
-450.0   60.0   16.666666666666668
-450.0   90.0   16.666666666666668
-500.0   90.0   16.666666666666668
-450.0   90.0   33.333333333333336
-500.0   60.0   33.333333333333336
-500.0   90.0   33.333333333333336
-450.0   90.0   33.333333333333336
-500.0   90.0   16.666666666666668
-500.0   60.0   33.333333333333336
-450.0   90.0   33.333333333333336
-450.0   60.0   33.333333333333336
-450.0   60.0   16.666666666666668
-500.0   60.0   33.333333333333336
-450.0   90.0   33.333333333333336
-450.0   60.0   16.666666666666668
-500.0   90.0   16.666666666666668
-500.0   60.0   33.333333333333336
-450.0   60.0   33.333333333333336
-500.0   90.0   33.333333333333336
-500.0   60.0   50.0
-450.0   60.0   33.333333333333336
-450.0   90.0   33.333333333333336
-500.0   90.0   33.333333333333336
-450.0   90.0   50.0
-500.0   60.0   50.0
-500.0   90.0   50.0
-450.0   90.0   50.0
-500.0   90.0   33.333333333333336
-500.0   60.0   50.0
-450.0   90.0   50.0
-450.0   60.0   50.0
-450.0   60.0   33.333333333333336
-500.0   60.0   50.0
-450.0   90.0   50.0
-450.0   60.0   33.333333333333336
-500.0   90.0   33.333333333333336
-500.0   90.0   0.0
-450.0   90.0   0.0
-500.0   120.0   0.0
-500.0   90.0   16.666666666666668
-450.0   90.0   0.0
-450.0   120.0   0.0
-500.0   120.0   0.0
-450.0   120.0   16.666666666666668
-500.0   90.0   16.666666666666668
-500.0   120.0   16.666666666666668
-450.0   120.0   16.666666666666668
-500.0   120.0   0.0
-500.0   90.0   16.666666666666668
-450.0   120.0   16.666666666666668
-450.0   90.0   16.666666666666668
-450.0   90.0   0.0
-500.0   90.0   16.666666666666668
-450.0   120.0   16.666666666666668
-450.0   90.0   0.0
-500.0   120.0   0.0
-500.0   90.0   16.666666666666668
-450.0   90.0   16.666666666666668
-500.0   120.0   16.666666666666668
-500.0   90.0   33.333333333333336
-450.0   90.0   16.666666666666668
-450.0   120.0   16.666666666666668
-500.0   120.0   16.666666666666668
-450.0   120.0   33.333333333333336
-500.0   90.0   33.333333333333336
-500.0   120.0   33.333333333333336
-450.0   120.0   33.333333333333336
-500.0   120.0   16.666666666666668
-500.0   90.0   33.333333333333336
-450.0   120.0   33.333333333333336
-450.0   90.0   33.333333333333336
-450.0   90.0   16.666666666666668
-500.0   90.0   33.333333333333336
-450.0   120.0   33.333333333333336
-450.0   90.0   16.666666666666668
-500.0   120.0   16.666666666666668
-500.0   90.0   33.333333333333336
-450.0   90.0   33.333333333333336
-500.0   120.0   33.333333333333336
-500.0   90.0   50.0
-450.0   90.0   33.333333333333336
-450.0   120.0   33.333333333333336
-500.0   120.0   33.333333333333336
-450.0   120.0   50.0
-500.0   90.0   50.0
-500.0   120.0   50.0
-450.0   120.0   50.0
-500.0   120.0   33.333333333333336
-500.0   90.0   50.0
-450.0   120.0   50.0
-450.0   90.0   50.0
-450.0   90.0   33.333333333333336
-500.0   90.0   50.0
-450.0   120.0   50.0
-450.0   90.0   33.333333333333336
-500.0   120.0   33.333333333333336
-500.0   120.0   0.0
-450.0   120.0   0.0
-500.0   150.0   0.0
-500.0   120.0   16.666666666666668
-450.0   120.0   0.0
-450.0   150.0   0.0
-500.0   150.0   0.0
-450.0   150.0   16.666666666666668
-500.0   120.0   16.666666666666668
-500.0   150.0   16.666666666666668
-450.0   150.0   16.666666666666668
-500.0   150.0   0.0
-500.0   120.0   16.666666666666668
-450.0   150.0   16.666666666666668
-450.0   120.0   16.666666666666668
-450.0   120.0   0.0
-500.0   120.0   16.666666666666668
-450.0   150.0   16.666666666666668
-450.0   120.0   0.0
-500.0   150.0   0.0
-500.0   120.0   16.666666666666668
-450.0   120.0   16.666666666666668
-500.0   150.0   16.666666666666668
-500.0   120.0   33.333333333333336
-450.0   120.0   16.666666666666668
-450.0   150.0   16.666666666666668
-500.0   150.0   16.666666666666668
-450.0   150.0   33.333333333333336
-500.0   120.0   33.333333333333336
-500.0   150.0   33.333333333333336
-450.0   150.0   33.333333333333336
-500.0   150.0   16.666666666666668
-500.0   120.0   33.333333333333336
-450.0   150.0   33.333333333333336
-450.0   120.0   33.333333333333336
-450.0   120.0   16.666666666666668
-500.0   120.0   33.333333333333336
-450.0   150.0   33.333333333333336
-450.0   120.0   16.666666666666668
-500.0   150.0   16.666666666666668
-500.0   120.0   33.333333333333336
-450.0   120.0   33.333333333333336
-500.0   150.0   33.333333333333336
-500.0   120.0   50.0
-450.0   120.0   33.333333333333336
-450.0   150.0   33.333333333333336
-500.0   150.0   33.333333333333336
-450.0   150.0   50.0
-500.0   120.0   50.0
-500.0   150.0   50.0
-450.0   150.0   50.0
-500.0   150.0   33.333333333333336
-500.0   120.0   50.0
-450.0   150.0   50.0
-450.0   120.0   50.0
-450.0   120.0   33.333333333333336
-500.0   120.0   50.0
-450.0   150.0   50.0
-450.0   120.0   33.333333333333336
-500.0   150.0   33.333333333333336
-450.0   0.0   0.0
-400.0   0.0   0.0
-450.0   30.0   0.0
-450.0   0.0   16.666666666666668
-400.0   0.0   0.0
-400.0   30.0   0.0
-450.0   30.0   0.0
-400.0   30.0   16.666666666666668
-450.0   0.0   16.666666666666668
-450.0   30.0   16.666666666666668
-400.0   30.0   16.666666666666668
-450.0   30.0   0.0
-450.0   0.0   16.666666666666668
-400.0   30.0   16.666666666666668
-400.0   0.0   16.666666666666668
-400.0   0.0   0.0
-450.0   0.0   16.666666666666668
-400.0   30.0   16.666666666666668
-400.0   0.0   0.0
-450.0   30.0   0.0
-450.0   0.0   16.666666666666668
-400.0   0.0   16.666666666666668
-450.0   30.0   16.666666666666668
-450.0   0.0   33.333333333333336
-400.0   0.0   16.666666666666668
-400.0   30.0   16.666666666666668
-450.0   30.0   16.666666666666668
-400.0   30.0   33.333333333333336
-450.0   0.0   33.333333333333336
-450.0   30.0   33.333333333333336
-400.0   30.0   33.333333333333336
-450.0   30.0   16.666666666666668
-450.0   0.0   33.333333333333336
-400.0   30.0   33.333333333333336
-400.0   0.0   33.333333333333336
-400.0   0.0   16.666666666666668
-450.0   0.0   33.333333333333336
-400.0   30.0   33.333333333333336
-400.0   0.0   16.666666666666668
-450.0   30.0   16.666666666666668
-450.0   0.0   33.333333333333336
-400.0   0.0   33.333333333333336
-450.0   30.0   33.333333333333336
-450.0   0.0   50.0
-400.0   0.0   33.333333333333336
-400.0   30.0   33.333333333333336
-450.0   30.0   33.333333333333336
-400.0   30.0   50.0
-450.0   0.0   50.0
-450.0   30.0   50.0
-400.0   30.0   50.0
-450.0   30.0   33.333333333333336
-450.0   0.0   50.0
-400.0   30.0   50.0
-400.0   0.0   50.0
-400.0   0.0   33.333333333333336
-450.0   0.0   50.0
-400.0   30.0   50.0
-400.0   0.0   33.333333333333336
-450.0   30.0   33.333333333333336
-450.0   30.0   0.0
-400.0   30.0   0.0
-450.0   60.0   0.0
-450.0   30.0   16.666666666666668
-400.0   30.0   0.0
-400.0   60.0   0.0
-450.0   60.0   0.0
-400.0   60.0   16.666666666666668
-450.0   30.0   16.666666666666668
-450.0   60.0   16.666666666666668
-400.0   60.0   16.666666666666668
-450.0   60.0   0.0
-450.0   30.0   16.666666666666668
-400.0   60.0   16.666666666666668
-400.0   30.0   16.666666666666668
-400.0   30.0   0.0
-450.0   30.0   16.666666666666668
-400.0   60.0   16.666666666666668
-400.0   30.0   0.0
-450.0   60.0   0.0
-450.0   30.0   16.666666666666668
-400.0   30.0   16.666666666666668
-450.0   60.0   16.666666666666668
-450.0   30.0   33.333333333333336
-400.0   30.0   16.666666666666668
-400.0   60.0   16.666666666666668
-450.0   60.0   16.666666666666668
-400.0   60.0   33.333333333333336
-450.0   30.0   33.333333333333336
-450.0   60.0   33.333333333333336
-400.0   60.0   33.333333333333336
-450.0   60.0   16.666666666666668
-450.0   30.0   33.333333333333336
-400.0   60.0   33.333333333333336
-400.0   30.0   33.333333333333336
-400.0   30.0   16.666666666666668
-450.0   30.0   33.333333333333336
-400.0   60.0   33.333333333333336
-400.0   30.0   16.666666666666668
-450.0   60.0   16.666666666666668
-450.0   30.0   33.333333333333336
-400.0   30.0   33.333333333333336
-450.0   60.0   33.333333333333336
-450.0   30.0   50.0
-400.0   30.0   33.333333333333336
-400.0   60.0   33.333333333333336
-450.0   60.0   33.333333333333336
-400.0   60.0   50.0
-450.0   30.0   50.0
-450.0   60.0   50.0
-400.0   60.0   50.0
-450.0   60.0   33.333333333333336
-450.0   30.0   50.0
-400.0   60.0   50.0
-400.0   30.0   50.0
-400.0   30.0   33.333333333333336
-450.0   30.0   50.0
-400.0   60.0   50.0
-400.0   30.0   33.333333333333336
-450.0   60.0   33.333333333333336
-450.0   60.0   0.0
-400.0   60.0   0.0
-450.0   90.0   0.0
-450.0   60.0   16.666666666666668
-400.0   60.0   0.0
-400.0   90.0   0.0
-450.0   90.0   0.0
-400.0   90.0   16.666666666666668
-450.0   60.0   16.666666666666668
-450.0   90.0   16.666666666666668
-400.0   90.0   16.666666666666668
-450.0   90.0   0.0
-450.0   60.0   16.666666666666668
-400.0   90.0   16.666666666666668
-400.0   60.0   16.666666666666668
-400.0   60.0   0.0
-450.0   60.0   16.666666666666668
-400.0   90.0   16.666666666666668
-400.0   60.0   0.0
-450.0   90.0   0.0
-450.0   60.0   16.666666666666668
-400.0   60.0   16.666666666666668
-450.0   90.0   16.666666666666668
-450.0   60.0   33.333333333333336
-400.0   60.0   16.666666666666668
-400.0   90.0   16.666666666666668
-450.0   90.0   16.666666666666668
-400.0   90.0   33.333333333333336
-450.0   60.0   33.333333333333336
-450.0   90.0   33.333333333333336
-400.0   90.0   33.333333333333336
-450.0   90.0   16.666666666666668
-450.0   60.0   33.333333333333336
-400.0   90.0   33.333333333333336
-400.0   60.0   33.333333333333336
-400.0   60.0   16.666666666666668
-450.0   60.0   33.333333333333336
-400.0   90.0   33.333333333333336
-400.0   60.0   16.666666666666668
-450.0   90.0   16.666666666666668
-450.0   60.0   33.333333333333336
-400.0   60.0   33.333333333333336
-450.0   90.0   33.333333333333336
-450.0   60.0   50.0
-400.0   60.0   33.333333333333336
-400.0   90.0   33.333333333333336
-450.0   90.0   33.333333333333336
-400.0   90.0   50.0
-450.0   60.0   50.0
-450.0   90.0   50.0
-400.0   90.0   50.0
-450.0   90.0   33.333333333333336
-450.0   60.0   50.0
-400.0   90.0   50.0
-400.0   60.0   50.0
-400.0   60.0   33.333333333333336
-450.0   60.0   50.0
-400.0   90.0   50.0
-400.0   60.0   33.333333333333336
-450.0   90.0   33.333333333333336
-450.0   90.0   0.0
-400.0   90.0   0.0
-450.0   120.0   0.0
-450.0   90.0   16.666666666666668
-400.0   90.0   0.0
-400.0   120.0   0.0
-450.0   120.0   0.0
-400.0   120.0   16.666666666666668
-450.0   90.0   16.666666666666668
-450.0   120.0   16.666666666666668
-400.0   120.0   16.666666666666668
-450.0   120.0   0.0
-450.0   90.0   16.666666666666668
-400.0   120.0   16.666666666666668
-400.0   90.0   16.666666666666668
-400.0   90.0   0.0
-450.0   90.0   16.666666666666668
-400.0   120.0   16.666666666666668
-400.0   90.0   0.0
-450.0   120.0   0.0
-450.0   90.0   16.666666666666668
-400.0   90.0   16.666666666666668
-450.0   120.0   16.666666666666668
-450.0   90.0   33.333333333333336
-400.0   90.0   16.666666666666668
-400.0   120.0   16.666666666666668
-450.0   120.0   16.666666666666668
-400.0   120.0   33.333333333333336
-450.0   90.0   33.333333333333336
-450.0   120.0   33.333333333333336
-400.0   120.0   33.333333333333336
-450.0   120.0   16.666666666666668
-450.0   90.0   33.333333333333336
-400.0   120.0   33.333333333333336
-400.0   90.0   33.333333333333336
-400.0   90.0   16.666666666666668
-450.0   90.0   33.333333333333336
-400.0   120.0   33.333333333333336
-400.0   90.0   16.666666666666668
-450.0   120.0   16.666666666666668
-450.0   90.0   33.333333333333336
-400.0   90.0   33.333333333333336
-450.0   120.0   33.333333333333336
-450.0   90.0   50.0
-400.0   90.0   33.333333333333336
-400.0   120.0   33.333333333333336
-450.0   120.0   33.333333333333336
-400.0   120.0   50.0
-450.0   90.0   50.0
-450.0   120.0   50.0
-400.0   120.0   50.0
-450.0   120.0   33.333333333333336
-450.0   90.0   50.0
-400.0   120.0   50.0
-400.0   90.0   50.0
-400.0   90.0   33.333333333333336
-450.0   90.0   50.0
-400.0   120.0   50.0
-400.0   90.0   33.333333333333336
-450.0   120.0   33.333333333333336
-450.0   120.0   0.0
-400.0   120.0   0.0
-450.0   150.0   0.0
-450.0   120.0   16.666666666666668
-400.0   120.0   0.0
-400.0   150.0   0.0
-450.0   150.0   0.0
-400.0   150.0   16.666666666666668
-450.0   120.0   16.666666666666668
-450.0   150.0   16.666666666666668
-400.0   150.0   16.666666666666668
-450.0   150.0   0.0
-450.0   120.0   16.666666666666668
-400.0   150.0   16.666666666666668
-400.0   120.0   16.666666666666668
-400.0   120.0   0.0
-450.0   120.0   16.666666666666668
-400.0   150.0   16.666666666666668
-400.0   120.0   0.0
-450.0   150.0   0.0
-450.0   120.0   16.666666666666668
-400.0   120.0   16.666666666666668
-450.0   150.0   16.666666666666668
-450.0   120.0   33.333333333333336
-400.0   120.0   16.666666666666668
-400.0   150.0   16.666666666666668
-450.0   150.0   16.666666666666668
-400.0   150.0   33.333333333333336
-450.0   120.0   33.333333333333336
-450.0   150.0   33.333333333333336
-400.0   150.0   33.333333333333336
-450.0   150.0   16.666666666666668
-450.0   120.0   33.333333333333336
-400.0   150.0   33.333333333333336
-400.0   120.0   33.333333333333336
-400.0   120.0   16.666666666666668
-450.0   120.0   33.333333333333336
-400.0   150.0   33.333333333333336
-400.0   120.0   16.666666666666668
-450.0   150.0   16.666666666666668
-450.0   120.0   33.333333333333336
-400.0   120.0   33.333333333333336
-450.0   150.0   33.333333333333336
-450.0   120.0   50.0
-400.0   120.0   33.333333333333336
-400.0   150.0   33.333333333333336
-450.0   150.0   33.333333333333336
-400.0   150.0   50.0
-450.0   120.0   50.0
-450.0   150.0   50.0
-400.0   150.0   50.0
-450.0   150.0   33.333333333333336
-450.0   120.0   50.0
-400.0   150.0   50.0
-400.0   120.0   50.0
-400.0   120.0   33.333333333333336
-450.0   120.0   50.0
-400.0   150.0   50.0
-400.0   120.0   33.333333333333336
-450.0   150.0   33.333333333333336
-400.0   0.0   0.0
-350.0   0.0   0.0
-400.0   30.0   0.0
-400.0   0.0   16.666666666666668
-350.0   0.0   0.0
-350.0   30.0   0.0
-400.0   30.0   0.0
-350.0   30.0   16.666666666666668
-400.0   0.0   16.666666666666668
-400.0   30.0   16.666666666666668
-350.0   30.0   16.666666666666668
-400.0   30.0   0.0
-400.0   0.0   16.666666666666668
-350.0   30.0   16.666666666666668
-350.0   0.0   16.666666666666668
-350.0   0.0   0.0
-400.0   0.0   16.666666666666668
-350.0   30.0   16.666666666666668
-350.0   0.0   0.0
-400.0   30.0   0.0
-400.0   0.0   16.666666666666668
-350.0   0.0   16.666666666666668
-400.0   30.0   16.666666666666668
-400.0   0.0   33.333333333333336
-350.0   0.0   16.666666666666668
-350.0   30.0   16.666666666666668
-400.0   30.0   16.666666666666668
-350.0   30.0   33.333333333333336
-400.0   0.0   33.333333333333336
-400.0   30.0   33.333333333333336
-350.0   30.0   33.333333333333336
-400.0   30.0   16.666666666666668
-400.0   0.0   33.333333333333336
-350.0   30.0   33.333333333333336
-350.0   0.0   33.333333333333336
-350.0   0.0   16.666666666666668
-400.0   0.0   33.333333333333336
-350.0   30.0   33.333333333333336
-350.0   0.0   16.666666666666668
-400.0   30.0   16.666666666666668
-400.0   0.0   33.333333333333336
-350.0   0.0   33.333333333333336
-400.0   30.0   33.333333333333336
-400.0   0.0   50.0
-350.0   0.0   33.333333333333336
-350.0   30.0   33.333333333333336
-400.0   30.0   33.333333333333336
-350.0   30.0   50.0
-400.0   0.0   50.0
-400.0   30.0   50.0
-350.0   30.0   50.0
-400.0   30.0   33.333333333333336
-400.0   0.0   50.0
-350.0   30.0   50.0
-350.0   0.0   50.0
-350.0   0.0   33.333333333333336
-400.0   0.0   50.0
-350.0   30.0   50.0
-350.0   0.0   33.333333333333336
-400.0   30.0   33.333333333333336
-400.0   30.0   0.0
-350.0   30.0   0.0
-400.0   60.0   0.0
-400.0   30.0   16.666666666666668
-350.0   30.0   0.0
-350.0   60.0   0.0
-400.0   60.0   0.0
-350.0   60.0   16.666666666666668
-400.0   30.0   16.666666666666668
-400.0   60.0   16.666666666666668
-350.0   60.0   16.666666666666668
-400.0   60.0   0.0
-400.0   30.0   16.666666666666668
-350.0   60.0   16.666666666666668
-350.0   30.0   16.666666666666668
-350.0   30.0   0.0
-400.0   30.0   16.666666666666668
-350.0   60.0   16.666666666666668
-350.0   30.0   0.0
-400.0   60.0   0.0
-400.0   30.0   16.666666666666668
-350.0   30.0   16.666666666666668
-400.0   60.0   16.666666666666668
-400.0   30.0   33.333333333333336
-350.0   30.0   16.666666666666668
-350.0   60.0   16.666666666666668
-400.0   60.0   16.666666666666668
-350.0   60.0   33.333333333333336
-400.0   30.0   33.333333333333336
-400.0   60.0   33.333333333333336
-350.0   60.0   33.333333333333336
-400.0   60.0   16.666666666666668
-400.0   30.0   33.333333333333336
-350.0   60.0   33.333333333333336
-350.0   30.0   33.333333333333336
-350.0   30.0   16.666666666666668
-400.0   30.0   33.333333333333336
-350.0   60.0   33.333333333333336
-350.0   30.0   16.666666666666668
-400.0   60.0   16.666666666666668
-400.0   30.0   33.333333333333336
-350.0   30.0   33.333333333333336
-400.0   60.0   33.333333333333336
-400.0   30.0   50.0
-350.0   30.0   33.333333333333336
-350.0   60.0   33.333333333333336
-400.0   60.0   33.333333333333336
-350.0   60.0   50.0
-400.0   30.0   50.0
-400.0   60.0   50.0
-350.0   60.0   50.0
-400.0   60.0   33.333333333333336
-400.0   30.0   50.0
-350.0   60.0   50.0
-350.0   30.0   50.0
-350.0   30.0   33.333333333333336
-400.0   30.0   50.0
-350.0   60.0   50.0
-350.0   30.0   33.333333333333336
-400.0   60.0   33.333333333333336
-400.0   60.0   0.0
-350.0   60.0   0.0
-400.0   90.0   0.0
-400.0   60.0   16.666666666666668
-350.0   60.0   0.0
-350.0   90.0   0.0
-400.0   90.0   0.0
-350.0   90.0   16.666666666666668
-400.0   60.0   16.666666666666668
-400.0   90.0   16.666666666666668
-350.0   90.0   16.666666666666668
-400.0   90.0   0.0
-400.0   60.0   16.666666666666668
-350.0   90.0   16.666666666666668
-350.0   60.0   16.666666666666668
-350.0   60.0   0.0
-400.0   60.0   16.666666666666668
-350.0   90.0   16.666666666666668
-350.0   60.0   0.0
-400.0   90.0   0.0
-400.0   60.0   16.666666666666668
-350.0   60.0   16.666666666666668
-400.0   90.0   16.666666666666668
-400.0   60.0   33.333333333333336
-350.0   60.0   16.666666666666668
-350.0   90.0   16.666666666666668
-400.0   90.0   16.666666666666668
-350.0   90.0   33.333333333333336
-400.0   60.0   33.333333333333336
-400.0   90.0   33.333333333333336
-350.0   90.0   33.333333333333336
-400.0   90.0   16.666666666666668
-400.0   60.0   33.333333333333336
-350.0   90.0   33.333333333333336
-350.0   60.0   33.333333333333336
-350.0   60.0   16.666666666666668
-400.0   60.0   33.333333333333336
-350.0   90.0   33.333333333333336
-350.0   60.0   16.666666666666668
-400.0   90.0   16.666666666666668
-400.0   60.0   33.333333333333336
-350.0   60.0   33.333333333333336
-400.0   90.0   33.333333333333336
-400.0   60.0   50.0
-350.0   60.0   33.333333333333336
-350.0   90.0   33.333333333333336
-400.0   90.0   33.333333333333336
-350.0   90.0   50.0
-400.0   60.0   50.0
-400.0   90.0   50.0
-350.0   90.0   50.0
-400.0   90.0   33.333333333333336
-400.0   60.0   50.0
-350.0   90.0   50.0
-350.0   60.0   50.0
-350.0   60.0   33.333333333333336
-400.0   60.0   50.0
-350.0   90.0   50.0
-350.0   60.0   33.333333333333336
-400.0   90.0   33.333333333333336
-400.0   90.0   0.0
-350.0   90.0   0.0
-400.0   120.0   0.0
-400.0   90.0   16.666666666666668
-350.0   90.0   0.0
-350.0   120.0   0.0
-400.0   120.0   0.0
-350.0   120.0   16.666666666666668
-400.0   90.0   16.666666666666668
-400.0   120.0   16.666666666666668
-350.0   120.0   16.666666666666668
-400.0   120.0   0.0
-400.0   90.0   16.666666666666668
-350.0   120.0   16.666666666666668
-350.0   90.0   16.666666666666668
-350.0   90.0   0.0
-400.0   90.0   16.666666666666668
-350.0   120.0   16.666666666666668
-350.0   90.0   0.0
-400.0   120.0   0.0
-400.0   90.0   16.666666666666668
-350.0   90.0   16.666666666666668
-400.0   120.0   16.666666666666668
-400.0   90.0   33.333333333333336
-350.0   90.0   16.666666666666668
-350.0   120.0   16.666666666666668
-400.0   120.0   16.666666666666668
-350.0   120.0   33.333333333333336
-400.0   90.0   33.333333333333336
-400.0   120.0   33.333333333333336
-350.0   120.0   33.333333333333336
-400.0   120.0   16.666666666666668
-400.0   90.0   33.333333333333336
-350.0   120.0   33.333333333333336
-350.0   90.0   33.333333333333336
-350.0   90.0   16.666666666666668
-400.0   90.0   33.333333333333336
-350.0   120.0   33.333333333333336
-350.0   90.0   16.666666666666668
-400.0   120.0   16.666666666666668
-400.0   90.0   33.333333333333336
-350.0   90.0   33.333333333333336
-400.0   120.0   33.333333333333336
-400.0   90.0   50.0
-350.0   90.0   33.333333333333336
-350.0   120.0   33.333333333333336
-400.0   120.0   33.333333333333336
-350.0   120.0   50.0
-400.0   90.0   50.0
-400.0   120.0   50.0
-350.0   120.0   50.0
-400.0   120.0   33.333333333333336
-400.0   90.0   50.0
-350.0   120.0   50.0
-350.0   90.0   50.0
-350.0   90.0   33.333333333333336
-400.0   90.0   50.0
-350.0   120.0   50.0
-350.0   90.0   33.333333333333336
-400.0   120.0   33.333333333333336
-400.0   120.0   0.0
-350.0   120.0   0.0
-400.0   150.0   0.0
-400.0   120.0   16.666666666666668
-350.0   120.0   0.0
-350.0   150.0   0.0
-400.0   150.0   0.0
-350.0   150.0   16.666666666666668
-400.0   120.0   16.666666666666668
-400.0   150.0   16.666666666666668
-350.0   150.0   16.666666666666668
-400.0   150.0   0.0
-400.0   120.0   16.666666666666668
-350.0   150.0   16.666666666666668
-350.0   120.0   16.666666666666668
-350.0   120.0   0.0
-400.0   120.0   16.666666666666668
-350.0   150.0   16.666666666666668
-350.0   120.0   0.0
-400.0   150.0   0.0
-400.0   120.0   16.666666666666668
-350.0   120.0   16.666666666666668
-400.0   150.0   16.666666666666668
-400.0   120.0   33.333333333333336
-350.0   120.0   16.666666666666668
-350.0   150.0   16.666666666666668
-400.0   150.0   16.666666666666668
-350.0   150.0   33.333333333333336
-400.0   120.0   33.333333333333336
-400.0   150.0   33.333333333333336
-350.0   150.0   33.333333333333336
-400.0   150.0   16.666666666666668
-400.0   120.0   33.333333333333336
-350.0   150.0   33.333333333333336
-350.0   120.0   33.333333333333336
-350.0   120.0   16.666666666666668
-400.0   120.0   33.333333333333336
-350.0   150.0   33.333333333333336
-350.0   120.0   16.666666666666668
-400.0   150.0   16.666666666666668
-400.0   120.0   33.333333333333336
-350.0   120.0   33.333333333333336
-400.0   150.0   33.333333333333336
-400.0   120.0   50.0
-350.0   120.0   33.333333333333336
-350.0   150.0   33.333333333333336
-400.0   150.0   33.333333333333336
-350.0   150.0   50.0
-400.0   120.0   50.0
-400.0   150.0   50.0
-350.0   150.0   50.0
-400.0   150.0   33.333333333333336
-400.0   120.0   50.0
-350.0   150.0   50.0
-350.0   120.0   50.0
-350.0   120.0   33.333333333333336
-400.0   120.0   50.0
-350.0   150.0   50.0
-350.0   120.0   33.333333333333336
-400.0   150.0   33.333333333333336
-350.0   0.0   0.0
-300.0   0.0   0.0
-350.0   30.0   0.0
-350.0   0.0   16.666666666666668
-300.0   0.0   0.0
-300.0   30.0   0.0
-350.0   30.0   0.0
-300.0   30.0   16.666666666666668
-350.0   0.0   16.666666666666668
-350.0   30.0   16.666666666666668
-300.0   30.0   16.666666666666668
-350.0   30.0   0.0
-350.0   0.0   16.666666666666668
-300.0   30.0   16.666666666666668
-300.0   0.0   16.666666666666668
-300.0   0.0   0.0
-350.0   0.0   16.666666666666668
-300.0   30.0   16.666666666666668
-300.0   0.0   0.0
-350.0   30.0   0.0
-350.0   0.0   16.666666666666668
-300.0   0.0   16.666666666666668
-350.0   30.0   16.666666666666668
-350.0   0.0   33.333333333333336
-300.0   0.0   16.666666666666668
-300.0   30.0   16.666666666666668
-350.0   30.0   16.666666666666668
-300.0   30.0   33.333333333333336
-350.0   0.0   33.333333333333336
-350.0   30.0   33.333333333333336
-300.0   30.0   33.333333333333336
-350.0   30.0   16.666666666666668
-350.0   0.0   33.333333333333336
-300.0   30.0   33.333333333333336
-300.0   0.0   33.333333333333336
-300.0   0.0   16.666666666666668
-350.0   0.0   33.333333333333336
-300.0   30.0   33.333333333333336
-300.0   0.0   16.666666666666668
-350.0   30.0   16.666666666666668
-350.0   0.0   33.333333333333336
-300.0   0.0   33.333333333333336
-350.0   30.0   33.333333333333336
-350.0   0.0   50.0
-300.0   0.0   33.333333333333336
-300.0   30.0   33.333333333333336
-350.0   30.0   33.333333333333336
-300.0   30.0   50.0
-350.0   0.0   50.0
-350.0   30.0   50.0
-300.0   30.0   50.0
-350.0   30.0   33.333333333333336
-350.0   0.0   50.0
-300.0   30.0   50.0
-300.0   0.0   50.0
-300.0   0.0   33.333333333333336
-350.0   0.0   50.0
-300.0   30.0   50.0
-300.0   0.0   33.333333333333336
-350.0   30.0   33.333333333333336
-350.0   30.0   0.0
-300.0   30.0   0.0
-350.0   60.0   0.0
-350.0   30.0   16.666666666666668
-300.0   30.0   0.0
-300.0   60.0   0.0
-350.0   60.0   0.0
-300.0   60.0   16.666666666666668
-350.0   30.0   16.666666666666668
-350.0   60.0   16.666666666666668
-300.0   60.0   16.666666666666668
-350.0   60.0   0.0
-350.0   30.0   16.666666666666668
-300.0   60.0   16.666666666666668
-300.0   30.0   16.666666666666668
-300.0   30.0   0.0
-350.0   30.0   16.666666666666668
-300.0   60.0   16.666666666666668
-300.0   30.0   0.0
-350.0   60.0   0.0
-350.0   30.0   16.666666666666668
-300.0   30.0   16.666666666666668
-350.0   60.0   16.666666666666668
-350.0   30.0   33.333333333333336
-300.0   30.0   16.666666666666668
-300.0   60.0   16.666666666666668
-350.0   60.0   16.666666666666668
-300.0   60.0   33.333333333333336
-350.0   30.0   33.333333333333336
-350.0   60.0   33.333333333333336
-300.0   60.0   33.333333333333336
-350.0   60.0   16.666666666666668
-350.0   30.0   33.333333333333336
-300.0   60.0   33.333333333333336
-300.0   30.0   33.333333333333336
-300.0   30.0   16.666666666666668
-350.0   30.0   33.333333333333336
-300.0   60.0   33.333333333333336
-300.0   30.0   16.666666666666668
-350.0   60.0   16.666666666666668
-350.0   30.0   33.333333333333336
-300.0   30.0   33.333333333333336
-350.0   60.0   33.333333333333336
-350.0   30.0   50.0
-300.0   30.0   33.333333333333336
-300.0   60.0   33.333333333333336
-350.0   60.0   33.333333333333336
-300.0   60.0   50.0
-350.0   30.0   50.0
-350.0   60.0   50.0
-300.0   60.0   50.0
-350.0   60.0   33.333333333333336
-350.0   30.0   50.0
-300.0   60.0   50.0
-300.0   30.0   50.0
-300.0   30.0   33.333333333333336
-350.0   30.0   50.0
-300.0   60.0   50.0
-300.0   30.0   33.333333333333336
-350.0   60.0   33.333333333333336
-350.0   60.0   0.0
-300.0   60.0   0.0
-350.0   90.0   0.0
-350.0   60.0   16.666666666666668
-300.0   60.0   0.0
-300.0   90.0   0.0
-350.0   90.0   0.0
-300.0   90.0   16.666666666666668
-350.0   60.0   16.666666666666668
-350.0   90.0   16.666666666666668
-300.0   90.0   16.666666666666668
-350.0   90.0   0.0
-350.0   60.0   16.666666666666668
-300.0   90.0   16.666666666666668
-300.0   60.0   16.666666666666668
-300.0   60.0   0.0
-350.0   60.0   16.666666666666668
-300.0   90.0   16.666666666666668
-300.0   60.0   0.0
-350.0   90.0   0.0
-350.0   60.0   16.666666666666668
-300.0   60.0   16.666666666666668
-350.0   90.0   16.666666666666668
-350.0   60.0   33.333333333333336
-300.0   60.0   16.666666666666668
-300.0   90.0   16.666666666666668
-350.0   90.0   16.666666666666668
-300.0   90.0   33.333333333333336
-350.0   60.0   33.333333333333336
-350.0   90.0   33.333333333333336
-300.0   90.0   33.333333333333336
-350.0   90.0   16.666666666666668
-350.0   60.0   33.333333333333336
-300.0   90.0   33.333333333333336
-300.0   60.0   33.333333333333336
-300.0   60.0   16.666666666666668
-350.0   60.0   33.333333333333336
-300.0   90.0   33.333333333333336
-300.0   60.0   16.666666666666668
-350.0   90.0   16.666666666666668
-350.0   60.0   33.333333333333336
-300.0   60.0   33.333333333333336
-350.0   90.0   33.333333333333336
-350.0   60.0   50.0
-300.0   60.0   33.333333333333336
-300.0   90.0   33.333333333333336
-350.0   90.0   33.333333333333336
-300.0   90.0   50.0
-350.0   60.0   50.0
-350.0   90.0   50.0
-300.0   90.0   50.0
-350.0   90.0   33.333333333333336
-350.0   60.0   50.0
-300.0   90.0   50.0
-300.0   60.0   50.0
-300.0   60.0   33.333333333333336
-350.0   60.0   50.0
-300.0   90.0   50.0
-300.0   60.0   33.333333333333336
-350.0   90.0   33.333333333333336
-350.0   90.0   0.0
-300.0   90.0   0.0
-350.0   120.0   0.0
-350.0   90.0   16.666666666666668
-300.0   90.0   0.0
-300.0   120.0   0.0
-350.0   120.0   0.0
-300.0   120.0   16.666666666666668
-350.0   90.0   16.666666666666668
-350.0   120.0   16.666666666666668
-300.0   120.0   16.666666666666668
-350.0   120.0   0.0
-350.0   90.0   16.666666666666668
-300.0   120.0   16.666666666666668
-300.0   90.0   16.666666666666668
-300.0   90.0   0.0
-350.0   90.0   16.666666666666668
-300.0   120.0   16.666666666666668
-300.0   90.0   0.0
-350.0   120.0   0.0
-350.0   90.0   16.666666666666668
-300.0   90.0   16.666666666666668
-350.0   120.0   16.666666666666668
-350.0   90.0   33.333333333333336
-300.0   90.0   16.666666666666668
-300.0   120.0   16.666666666666668
-350.0   120.0   16.666666666666668
-300.0   120.0   33.333333333333336
-350.0   90.0   33.333333333333336
-350.0   120.0   33.333333333333336
-300.0   120.0   33.333333333333336
-350.0   120.0   16.666666666666668
-350.0   90.0   33.333333333333336
-300.0   120.0   33.333333333333336
-300.0   90.0   33.333333333333336
-300.0   90.0   16.666666666666668
-350.0   90.0   33.333333333333336
-300.0   120.0   33.333333333333336
-300.0   90.0   16.666666666666668
-350.0   120.0   16.666666666666668
-350.0   90.0   33.333333333333336
-300.0   90.0   33.333333333333336
-350.0   120.0   33.333333333333336
-350.0   90.0   50.0
-300.0   90.0   33.333333333333336
-300.0   120.0   33.333333333333336
-350.0   120.0   33.333333333333336
-300.0   120.0   50.0
-350.0   90.0   50.0
-350.0   120.0   50.0
-300.0   120.0   50.0
-350.0   120.0   33.333333333333336
-350.0   90.0   50.0
-300.0   120.0   50.0
-300.0   90.0   50.0
-300.0   90.0   33.333333333333336
-350.0   90.0   50.0
-300.0   120.0   50.0
-300.0   90.0   33.333333333333336
-350.0   120.0   33.333333333333336
-350.0   120.0   0.0
-300.0   120.0   0.0
-350.0   150.0   0.0
-350.0   120.0   16.666666666666668
-300.0   120.0   0.0
-300.0   150.0   0.0
-350.0   150.0   0.0
-300.0   150.0   16.666666666666668
-350.0   120.0   16.666666666666668
-350.0   150.0   16.666666666666668
-300.0   150.0   16.666666666666668
-350.0   150.0   0.0
-350.0   120.0   16.666666666666668
-300.0   150.0   16.666666666666668
-300.0   120.0   16.666666666666668
-300.0   120.0   0.0
-350.0   120.0   16.666666666666668
-300.0   150.0   16.666666666666668
-300.0   120.0   0.0
-350.0   150.0   0.0
-350.0   120.0   16.666666666666668
-300.0   120.0   16.666666666666668
-350.0   150.0   16.666666666666668
-350.0   120.0   33.333333333333336
-300.0   120.0   16.666666666666668
-300.0   150.0   16.666666666666668
-350.0   150.0   16.666666666666668
-300.0   150.0   33.333333333333336
-350.0   120.0   33.333333333333336
-350.0   150.0   33.333333333333336
-300.0   150.0   33.333333333333336
-350.0   150.0   16.666666666666668
-350.0   120.0   33.333333333333336
-300.0   150.0   33.333333333333336
-300.0   120.0   33.333333333333336
-300.0   120.0   16.666666666666668
-350.0   120.0   33.333333333333336
-300.0   150.0   33.333333333333336
-300.0   120.0   16.666666666666668
-350.0   150.0   16.666666666666668
-350.0   120.0   33.333333333333336
-300.0   120.0   33.333333333333336
-350.0   150.0   33.333333333333336
-350.0   120.0   50.0
-300.0   120.0   33.333333333333336
-300.0   150.0   33.333333333333336
-350.0   150.0   33.333333333333336
-300.0   150.0   50.0
-350.0   120.0   50.0
-350.0   150.0   50.0
-300.0   150.0   50.0
-350.0   150.0   33.333333333333336
-350.0   120.0   50.0
-300.0   150.0   50.0
-300.0   120.0   50.0
-300.0   120.0   33.333333333333336
-350.0   120.0   50.0
-300.0   150.0   50.0
-300.0   120.0   33.333333333333336
-350.0   150.0   33.333333333333336
-300.0   0.0   0.0
-250.0   0.0   0.0
-300.0   30.0   0.0
-300.0   0.0   16.666666666666668
-250.0   0.0   0.0
-250.0   30.0   0.0
-300.0   30.0   0.0
-250.0   30.0   16.666666666666668
-300.0   0.0   16.666666666666668
-300.0   30.0   16.666666666666668
-250.0   30.0   16.666666666666668
-300.0   30.0   0.0
-300.0   0.0   16.666666666666668
-250.0   30.0   16.666666666666668
-250.0   0.0   16.666666666666668
-250.0   0.0   0.0
-300.0   0.0   16.666666666666668
-250.0   30.0   16.666666666666668
-250.0   0.0   0.0
-300.0   30.0   0.0
-300.0   0.0   16.666666666666668
-250.0   0.0   16.666666666666668
-300.0   30.0   16.666666666666668
-300.0   0.0   33.333333333333336
-250.0   0.0   16.666666666666668
-250.0   30.0   16.666666666666668
-300.0   30.0   16.666666666666668
-250.0   30.0   33.333333333333336
-300.0   0.0   33.333333333333336
-300.0   30.0   33.333333333333336
-250.0   30.0   33.333333333333336
-300.0   30.0   16.666666666666668
-300.0   0.0   33.333333333333336
-250.0   30.0   33.333333333333336
-250.0   0.0   33.333333333333336
-250.0   0.0   16.666666666666668
-300.0   0.0   33.333333333333336
-250.0   30.0   33.333333333333336
-250.0   0.0   16.666666666666668
-300.0   30.0   16.666666666666668
-300.0   0.0   33.333333333333336
-250.0   0.0   33.333333333333336
-300.0   30.0   33.333333333333336
-300.0   0.0   50.0
-250.0   0.0   33.333333333333336
-250.0   30.0   33.333333333333336
-300.0   30.0   33.333333333333336
-250.0   30.0   50.0
-300.0   0.0   50.0
-300.0   30.0   50.0
-250.0   30.0   50.0
-300.0   30.0   33.333333333333336
-300.0   0.0   50.0
-250.0   30.0   50.0
-250.0   0.0   50.0
-250.0   0.0   33.333333333333336
-300.0   0.0   50.0
-250.0   30.0   50.0
-250.0   0.0   33.333333333333336
-300.0   30.0   33.333333333333336
-300.0   30.0   0.0
-250.0   30.0   0.0
-300.0   60.0   0.0
-300.0   30.0   16.666666666666668
-250.0   30.0   0.0
-250.0   60.0   0.0
-300.0   60.0   0.0
-250.0   60.0   16.666666666666668
-300.0   30.0   16.666666666666668
-300.0   60.0   16.666666666666668
-250.0   60.0   16.666666666666668
-300.0   60.0   0.0
-300.0   30.0   16.666666666666668
-250.0   60.0   16.666666666666668
-250.0   30.0   16.666666666666668
-250.0   30.0   0.0
-300.0   30.0   16.666666666666668
-250.0   60.0   16.666666666666668
-250.0   30.0   0.0
-300.0   60.0   0.0
-300.0   30.0   16.666666666666668
-250.0   30.0   16.666666666666668
-300.0   60.0   16.666666666666668
-300.0   30.0   33.333333333333336
-250.0   30.0   16.666666666666668
-250.0   60.0   16.666666666666668
-300.0   60.0   16.666666666666668
-250.0   60.0   33.333333333333336
-300.0   30.0   33.333333333333336
-300.0   60.0   33.333333333333336
-250.0   60.0   33.333333333333336
-300.0   60.0   16.666666666666668
-300.0   30.0   33.333333333333336
-250.0   60.0   33.333333333333336
-250.0   30.0   33.333333333333336
-250.0   30.0   16.666666666666668
-300.0   30.0   33.333333333333336
-250.0   60.0   33.333333333333336
-250.0   30.0   16.666666666666668
-300.0   60.0   16.666666666666668
-300.0   30.0   33.333333333333336
-250.0   30.0   33.333333333333336
-300.0   60.0   33.333333333333336
-300.0   30.0   50.0
-250.0   30.0   33.333333333333336
-250.0   60.0   33.333333333333336
-300.0   60.0   33.333333333333336
-250.0   60.0   50.0
-300.0   30.0   50.0
-300.0   60.0   50.0
-250.0   60.0   50.0
-300.0   60.0   33.333333333333336
-300.0   30.0   50.0
-250.0   60.0   50.0
-250.0   30.0   50.0
-250.0   30.0   33.333333333333336
-300.0   30.0   50.0
-250.0   60.0   50.0
-250.0   30.0   33.333333333333336
-300.0   60.0   33.333333333333336
-300.0   60.0   0.0
-250.0   60.0   0.0
-300.0   90.0   0.0
-300.0   60.0   16.666666666666668
-250.0   60.0   0.0
-250.0   90.0   0.0
-300.0   90.0   0.0
-250.0   90.0   16.666666666666668
-300.0   60.0   16.666666666666668
-300.0   90.0   16.666666666666668
-250.0   90.0   16.666666666666668
-300.0   90.0   0.0
-300.0   60.0   16.666666666666668
-250.0   90.0   16.666666666666668
-250.0   60.0   16.666666666666668
-250.0   60.0   0.0
-300.0   60.0   16.666666666666668
-250.0   90.0   16.666666666666668
-250.0   60.0   0.0
-300.0   90.0   0.0
-300.0   60.0   16.666666666666668
-250.0   60.0   16.666666666666668
-300.0   90.0   16.666666666666668
-300.0   60.0   33.333333333333336
-250.0   60.0   16.666666666666668
-250.0   90.0   16.666666666666668
-300.0   90.0   16.666666666666668
-250.0   90.0   33.333333333333336
-300.0   60.0   33.333333333333336
-300.0   90.0   33.333333333333336
-250.0   90.0   33.333333333333336
-300.0   90.0   16.666666666666668
-300.0   60.0   33.333333333333336
-250.0   90.0   33.333333333333336
-250.0   60.0   33.333333333333336
-250.0   60.0   16.666666666666668
-300.0   60.0   33.333333333333336
-250.0   90.0   33.333333333333336
-250.0   60.0   16.666666666666668
-300.0   90.0   16.666666666666668
-300.0   60.0   33.333333333333336
-250.0   60.0   33.333333333333336
-300.0   90.0   33.333333333333336
-300.0   60.0   50.0
-250.0   60.0   33.333333333333336
-250.0   90.0   33.333333333333336
-300.0   90.0   33.333333333333336
-250.0   90.0   50.0
-300.0   60.0   50.0
-300.0   90.0   50.0
-250.0   90.0   50.0
-300.0   90.0   33.333333333333336
-300.0   60.0   50.0
-250.0   90.0   50.0
-250.0   60.0   50.0
-250.0   60.0   33.333333333333336
-300.0   60.0   50.0
-250.0   90.0   50.0
-250.0   60.0   33.333333333333336
-300.0   90.0   33.333333333333336
-300.0   90.0   0.0
-250.0   90.0   0.0
-300.0   120.0   0.0
-300.0   90.0   16.666666666666668
-250.0   90.0   0.0
-250.0   120.0   0.0
-300.0   120.0   0.0
-250.0   120.0   16.666666666666668
-300.0   90.0   16.666666666666668
-300.0   120.0   16.666666666666668
-250.0   120.0   16.666666666666668
-300.0   120.0   0.0
-300.0   90.0   16.666666666666668
-250.0   120.0   16.666666666666668
-250.0   90.0   16.666666666666668
-250.0   90.0   0.0
-300.0   90.0   16.666666666666668
-250.0   120.0   16.666666666666668
-250.0   90.0   0.0
-300.0   120.0   0.0
-300.0   90.0   16.666666666666668
-250.0   90.0   16.666666666666668
-300.0   120.0   16.666666666666668
-300.0   90.0   33.333333333333336
-250.0   90.0   16.666666666666668
-250.0   120.0   16.666666666666668
-300.0   120.0   16.666666666666668
-250.0   120.0   33.333333333333336
-300.0   90.0   33.333333333333336
-300.0   120.0   33.333333333333336
-250.0   120.0   33.333333333333336
-300.0   120.0   16.666666666666668
-300.0   90.0   33.333333333333336
-250.0   120.0   33.333333333333336
-250.0   90.0   33.333333333333336
-250.0   90.0   16.666666666666668
-300.0   90.0   33.333333333333336
-250.0   120.0   33.333333333333336
-250.0   90.0   16.666666666666668
-300.0   120.0   16.666666666666668
-300.0   90.0   33.333333333333336
-250.0   90.0   33.333333333333336
-300.0   120.0   33.333333333333336
-300.0   90.0   50.0
-250.0   90.0   33.333333333333336
-250.0   120.0   33.333333333333336
-300.0   120.0   33.333333333333336
-250.0   120.0   50.0
-300.0   90.0   50.0
-300.0   120.0   50.0
-250.0   120.0   50.0
-300.0   120.0   33.333333333333336
-300.0   90.0   50.0
-250.0   120.0   50.0
-250.0   90.0   50.0
-250.0   90.0   33.333333333333336
-300.0   90.0   50.0
-250.0   120.0   50.0
-250.0   90.0   33.333333333333336
-300.0   120.0   33.333333333333336
-300.0   120.0   0.0
-250.0   120.0   0.0
-300.0   150.0   0.0
-300.0   120.0   16.666666666666668
-250.0   120.0   0.0
-250.0   150.0   0.0
-300.0   150.0   0.0
-250.0   150.0   16.666666666666668
-300.0   120.0   16.666666666666668
-300.0   150.0   16.666666666666668
-250.0   150.0   16.666666666666668
-300.0   150.0   0.0
-300.0   120.0   16.666666666666668
-250.0   150.0   16.666666666666668
-250.0   120.0   16.666666666666668
-250.0   120.0   0.0
-300.0   120.0   16.666666666666668
-250.0   150.0   16.666666666666668
-250.0   120.0   0.0
-300.0   150.0   0.0
-300.0   120.0   16.666666666666668
-250.0   120.0   16.666666666666668
-300.0   150.0   16.666666666666668
-300.0   120.0   33.333333333333336
-250.0   120.0   16.666666666666668
-250.0   150.0   16.666666666666668
-300.0   150.0   16.666666666666668
-250.0   150.0   33.333333333333336
-300.0   120.0   33.333333333333336
-300.0   150.0   33.333333333333336
-250.0   150.0   33.333333333333336
-300.0   150.0   16.666666666666668
-300.0   120.0   33.333333333333336
-250.0   150.0   33.333333333333336
-250.0   120.0   33.333333333333336
-250.0   120.0   16.666666666666668
-300.0   120.0   33.333333333333336
-250.0   150.0   33.333333333333336
-250.0   120.0   16.666666666666668
-300.0   150.0   16.666666666666668
-300.0   120.0   33.333333333333336
-250.0   120.0   33.333333333333336
-300.0   150.0   33.333333333333336
-300.0   120.0   50.0
-250.0   120.0   33.333333333333336
-250.0   150.0   33.333333333333336
-300.0   150.0   33.333333333333336
-250.0   150.0   50.0
-300.0   120.0   50.0
-300.0   150.0   50.0
-250.0   150.0   50.0
-300.0   150.0   33.333333333333336
-300.0   120.0   50.0
-250.0   150.0   50.0
-250.0   120.0   50.0
-250.0   120.0   33.333333333333336
-300.0   120.0   50.0
-250.0   150.0   50.0
-250.0   120.0   33.333333333333336
-300.0   150.0   33.333333333333336
-250.0   0.0   0.0
-200.0   0.0   0.0
-250.0   30.0   0.0
-250.0   0.0   16.666666666666668
-200.0   0.0   0.0
-200.0   30.0   0.0
-250.0   30.0   0.0
-200.0   30.0   16.666666666666668
-250.0   0.0   16.666666666666668
-250.0   30.0   16.666666666666668
-200.0   30.0   16.666666666666668
-250.0   30.0   0.0
-250.0   0.0   16.666666666666668
-200.0   30.0   16.666666666666668
-200.0   0.0   16.666666666666668
-200.0   0.0   0.0
-250.0   0.0   16.666666666666668
-200.0   30.0   16.666666666666668
-200.0   0.0   0.0
-250.0   30.0   0.0
-250.0   0.0   16.666666666666668
-200.0   0.0   16.666666666666668
-250.0   30.0   16.666666666666668
-250.0   0.0   33.333333333333336
-200.0   0.0   16.666666666666668
-200.0   30.0   16.666666666666668
-250.0   30.0   16.666666666666668
-200.0   30.0   33.333333333333336
-250.0   0.0   33.333333333333336
-250.0   30.0   33.333333333333336
-200.0   30.0   33.333333333333336
-250.0   30.0   16.666666666666668
-250.0   0.0   33.333333333333336
-200.0   30.0   33.333333333333336
-200.0   0.0   33.333333333333336
-200.0   0.0   16.666666666666668
-250.0   0.0   33.333333333333336
-200.0   30.0   33.333333333333336
-200.0   0.0   16.666666666666668
-250.0   30.0   16.666666666666668
-250.0   0.0   33.333333333333336
-200.0   0.0   33.333333333333336
-250.0   30.0   33.333333333333336
-250.0   0.0   50.0
-200.0   0.0   33.333333333333336
-200.0   30.0   33.333333333333336
-250.0   30.0   33.333333333333336
-200.0   30.0   50.0
-250.0   0.0   50.0
-250.0   30.0   50.0
-200.0   30.0   50.0
-250.0   30.0   33.333333333333336
-250.0   0.0   50.0
-200.0   30.0   50.0
-200.0   0.0   50.0
-200.0   0.0   33.333333333333336
-250.0   0.0   50.0
-200.0   30.0   50.0
-200.0   0.0   33.333333333333336
-250.0   30.0   33.333333333333336
-250.0   30.0   0.0
-200.0   30.0   0.0
-250.0   60.0   0.0
-250.0   30.0   16.666666666666668
-200.0   30.0   0.0
-200.0   60.0   0.0
-250.0   60.0   0.0
-200.0   60.0   16.666666666666668
-250.0   30.0   16.666666666666668
-250.0   60.0   16.666666666666668
-200.0   60.0   16.666666666666668
-250.0   60.0   0.0
-250.0   30.0   16.666666666666668
-200.0   60.0   16.666666666666668
-200.0   30.0   16.666666666666668
-200.0   30.0   0.0
-250.0   30.0   16.666666666666668
-200.0   60.0   16.666666666666668
-200.0   30.0   0.0
-250.0   60.0   0.0
-250.0   30.0   16.666666666666668
-200.0   30.0   16.666666666666668
-250.0   60.0   16.666666666666668
-250.0   30.0   33.333333333333336
-200.0   30.0   16.666666666666668
-200.0   60.0   16.666666666666668
-250.0   60.0   16.666666666666668
-200.0   60.0   33.333333333333336
-250.0   30.0   33.333333333333336
-250.0   60.0   33.333333333333336
-200.0   60.0   33.333333333333336
-250.0   60.0   16.666666666666668
-250.0   30.0   33.333333333333336
-200.0   60.0   33.333333333333336
-200.0   30.0   33.333333333333336
-200.0   30.0   16.666666666666668
-250.0   30.0   33.333333333333336
-200.0   60.0   33.333333333333336
-200.0   30.0   16.666666666666668
-250.0   60.0   16.666666666666668
-250.0   30.0   33.333333333333336
-200.0   30.0   33.333333333333336
-250.0   60.0   33.333333333333336
-250.0   30.0   50.0
-200.0   30.0   33.333333333333336
-200.0   60.0   33.333333333333336
-250.0   60.0   33.333333333333336
-200.0   60.0   50.0
-250.0   30.0   50.0
-250.0   60.0   50.0
-200.0   60.0   50.0
-250.0   60.0   33.333333333333336
-250.0   30.0   50.0
-200.0   60.0   50.0
-200.0   30.0   50.0
-200.0   30.0   33.333333333333336
-250.0   30.0   50.0
-200.0   60.0   50.0
-200.0   30.0   33.333333333333336
-250.0   60.0   33.333333333333336
-250.0   60.0   0.0
-200.0   60.0   0.0
-250.0   90.0   0.0
-250.0   60.0   16.666666666666668
-200.0   60.0   0.0
-200.0   90.0   0.0
-250.0   90.0   0.0
-200.0   90.0   16.666666666666668
-250.0   60.0   16.666666666666668
-250.0   90.0   16.666666666666668
-200.0   90.0   16.666666666666668
-250.0   90.0   0.0
-250.0   60.0   16.666666666666668
-200.0   90.0   16.666666666666668
-200.0   60.0   16.666666666666668
-200.0   60.0   0.0
-250.0   60.0   16.666666666666668
-200.0   90.0   16.666666666666668
-200.0   60.0   0.0
-250.0   90.0   0.0
-250.0   60.0   16.666666666666668
-200.0   60.0   16.666666666666668
-250.0   90.0   16.666666666666668
-250.0   60.0   33.333333333333336
-200.0   60.0   16.666666666666668
-200.0   90.0   16.666666666666668
-250.0   90.0   16.666666666666668
-200.0   90.0   33.333333333333336
-250.0   60.0   33.333333333333336
-250.0   90.0   33.333333333333336
-200.0   90.0   33.333333333333336
-250.0   90.0   16.666666666666668
-250.0   60.0   33.333333333333336
-200.0   90.0   33.333333333333336
-200.0   60.0   33.333333333333336
-200.0   60.0   16.666666666666668
-250.0   60.0   33.333333333333336
-200.0   90.0   33.333333333333336
-200.0   60.0   16.666666666666668
-250.0   90.0   16.666666666666668
-250.0   60.0   33.333333333333336
-200.0   60.0   33.333333333333336
-250.0   90.0   33.333333333333336
-250.0   60.0   50.0
-200.0   60.0   33.333333333333336
-200.0   90.0   33.333333333333336
-250.0   90.0   33.333333333333336
-200.0   90.0   50.0
-250.0   60.0   50.0
-250.0   90.0   50.0
-200.0   90.0   50.0
-250.0   90.0   33.333333333333336
-250.0   60.0   50.0
-200.0   90.0   50.0
-200.0   60.0   50.0
-200.0   60.0   33.333333333333336
-250.0   60.0   50.0
-200.0   90.0   50.0
-200.0   60.0   33.333333333333336
-250.0   90.0   33.333333333333336
-250.0   90.0   0.0
-200.0   90.0   0.0
-250.0   120.0   0.0
-250.0   90.0   16.666666666666668
-200.0   90.0   0.0
-200.0   120.0   0.0
-250.0   120.0   0.0
-200.0   120.0   16.666666666666668
-250.0   90.0   16.666666666666668
-250.0   120.0   16.666666666666668
-200.0   120.0   16.666666666666668
-250.0   120.0   0.0
-250.0   90.0   16.666666666666668
-200.0   120.0   16.666666666666668
-200.0   90.0   16.666666666666668
-200.0   90.0   0.0
-250.0   90.0   16.666666666666668
-200.0   120.0   16.666666666666668
-200.0   90.0   0.0
-250.0   120.0   0.0
-250.0   90.0   16.666666666666668
-200.0   90.0   16.666666666666668
-250.0   120.0   16.666666666666668
-250.0   90.0   33.333333333333336
-200.0   90.0   16.666666666666668
-200.0   120.0   16.666666666666668
-250.0   120.0   16.666666666666668
-200.0   120.0   33.333333333333336
-250.0   90.0   33.333333333333336
-250.0   120.0   33.333333333333336
-200.0   120.0   33.333333333333336
-250.0   120.0   16.666666666666668
-250.0   90.0   33.333333333333336
-200.0   120.0   33.333333333333336
-200.0   90.0   33.333333333333336
-200.0   90.0   16.666666666666668
-250.0   90.0   33.333333333333336
-200.0   120.0   33.333333333333336
-200.0   90.0   16.666666666666668
-250.0   120.0   16.666666666666668
-250.0   90.0   33.333333333333336
-200.0   90.0   33.333333333333336
-250.0   120.0   33.333333333333336
-250.0   90.0   50.0
-200.0   90.0   33.333333333333336
-200.0   120.0   33.333333333333336
-250.0   120.0   33.333333333333336
-200.0   120.0   50.0
-250.0   90.0   50.0
-250.0   120.0   50.0
-200.0   120.0   50.0
-250.0   120.0   33.333333333333336
-250.0   90.0   50.0
-200.0   120.0   50.0
-200.0   90.0   50.0
-200.0   90.0   33.333333333333336
-250.0   90.0   50.0
-200.0   120.0   50.0
-200.0   90.0   33.333333333333336
-250.0   120.0   33.333333333333336
-250.0   120.0   0.0
-200.0   120.0   0.0
-250.0   150.0   0.0
-250.0   120.0   16.666666666666668
-200.0   120.0   0.0
-200.0   150.0   0.0
-250.0   150.0   0.0
-200.0   150.0   16.666666666666668
-250.0   120.0   16.666666666666668
-250.0   150.0   16.666666666666668
-200.0   150.0   16.666666666666668
-250.0   150.0   0.0
-250.0   120.0   16.666666666666668
-200.0   150.0   16.666666666666668
-200.0   120.0   16.666666666666668
-200.0   120.0   0.0
-250.0   120.0   16.666666666666668
-200.0   150.0   16.666666666666668
-200.0   120.0   0.0
-250.0   150.0   0.0
-250.0   120.0   16.666666666666668
-200.0   120.0   16.666666666666668
-250.0   150.0   16.666666666666668
-250.0   120.0   33.333333333333336
-200.0   120.0   16.666666666666668
-200.0   150.0   16.666666666666668
-250.0   150.0   16.666666666666668
-200.0   150.0   33.333333333333336
-250.0   120.0   33.333333333333336
-250.0   150.0   33.333333333333336
-200.0   150.0   33.333333333333336
-250.0   150.0   16.666666666666668
-250.0   120.0   33.333333333333336
-200.0   150.0   33.333333333333336
-200.0   120.0   33.333333333333336
-200.0   120.0   16.666666666666668
-250.0   120.0   33.333333333333336
-200.0   150.0   33.333333333333336
-200.0   120.0   16.666666666666668
-250.0   150.0   16.666666666666668
-250.0   120.0   33.333333333333336
-200.0   120.0   33.333333333333336
-250.0   150.0   33.333333333333336
-250.0   120.0   50.0
-200.0   120.0   33.333333333333336
-200.0   150.0   33.333333333333336
-250.0   150.0   33.333333333333336
-200.0   150.0   50.0
-250.0   120.0   50.0
-250.0   150.0   50.0
-200.0   150.0   50.0
-250.0   150.0   33.333333333333336
-250.0   120.0   50.0
-200.0   150.0   50.0
-200.0   120.0   50.0
-200.0   120.0   33.333333333333336
-250.0   120.0   50.0
-200.0   150.0   50.0
-200.0   120.0   33.333333333333336
-250.0   150.0   33.333333333333336
-200.0   0.0   0.0
-150.0   0.0   0.0
-200.0   30.0   0.0
-200.0   0.0   16.666666666666668
-150.0   0.0   0.0
-150.0   30.0   0.0
-200.0   30.0   0.0
-150.0   30.0   16.666666666666668
-200.0   0.0   16.666666666666668
-200.0   30.0   16.666666666666668
-150.0   30.0   16.666666666666668
-200.0   30.0   0.0
-200.0   0.0   16.666666666666668
-150.0   30.0   16.666666666666668
-150.0   0.0   16.666666666666668
-150.0   0.0   0.0
-200.0   0.0   16.666666666666668
-150.0   30.0   16.666666666666668
-150.0   0.0   0.0
-200.0   30.0   0.0
-200.0   0.0   16.666666666666668
-150.0   0.0   16.666666666666668
-200.0   30.0   16.666666666666668
-200.0   0.0   33.333333333333336
-150.0   0.0   16.666666666666668
-150.0   30.0   16.666666666666668
-200.0   30.0   16.666666666666668
-150.0   30.0   33.333333333333336
-200.0   0.0   33.333333333333336
-200.0   30.0   33.333333333333336
-150.0   30.0   33.333333333333336
-200.0   30.0   16.666666666666668
-200.0   0.0   33.333333333333336
-150.0   30.0   33.333333333333336
-150.0   0.0   33.333333333333336
-150.0   0.0   16.666666666666668
-200.0   0.0   33.333333333333336
-150.0   30.0   33.333333333333336
-150.0   0.0   16.666666666666668
-200.0   30.0   16.666666666666668
-200.0   0.0   33.333333333333336
-150.0   0.0   33.333333333333336
-200.0   30.0   33.333333333333336
-200.0   0.0   50.0
-150.0   0.0   33.333333333333336
-150.0   30.0   33.333333333333336
-200.0   30.0   33.333333333333336
-150.0   30.0   50.0
-200.0   0.0   50.0
-200.0   30.0   50.0
-150.0   30.0   50.0
-200.0   30.0   33.333333333333336
-200.0   0.0   50.0
-150.0   30.0   50.0
-150.0   0.0   50.0
-150.0   0.0   33.333333333333336
-200.0   0.0   50.0
-150.0   30.0   50.0
-150.0   0.0   33.333333333333336
-200.0   30.0   33.333333333333336
-200.0   30.0   0.0
-150.0   30.0   0.0
-200.0   60.0   0.0
-200.0   30.0   16.666666666666668
-150.0   30.0   0.0
-150.0   60.0   0.0
-200.0   60.0   0.0
-150.0   60.0   16.666666666666668
-200.0   30.0   16.666666666666668
-200.0   60.0   16.666666666666668
-150.0   60.0   16.666666666666668
-200.0   60.0   0.0
-200.0   30.0   16.666666666666668
-150.0   60.0   16.666666666666668
-150.0   30.0   16.666666666666668
-150.0   30.0   0.0
-200.0   30.0   16.666666666666668
-150.0   60.0   16.666666666666668
-150.0   30.0   0.0
-200.0   60.0   0.0
-200.0   30.0   16.666666666666668
-150.0   30.0   16.666666666666668
-200.0   60.0   16.666666666666668
-200.0   30.0   33.333333333333336
-150.0   30.0   16.666666666666668
-150.0   60.0   16.666666666666668
-200.0   60.0   16.666666666666668
-150.0   60.0   33.333333333333336
-200.0   30.0   33.333333333333336
-200.0   60.0   33.333333333333336
-150.0   60.0   33.333333333333336
-200.0   60.0   16.666666666666668
-200.0   30.0   33.333333333333336
-150.0   60.0   33.333333333333336
-150.0   30.0   33.333333333333336
-150.0   30.0   16.666666666666668
-200.0   30.0   33.333333333333336
-150.0   60.0   33.333333333333336
-150.0   30.0   16.666666666666668
-200.0   60.0   16.666666666666668
-200.0   30.0   33.333333333333336
-150.0   30.0   33.333333333333336
-200.0   60.0   33.333333333333336
-200.0   30.0   50.0
-150.0   30.0   33.333333333333336
-150.0   60.0   33.333333333333336
-200.0   60.0   33.333333333333336
-150.0   60.0   50.0
-200.0   30.0   50.0
-200.0   60.0   50.0
-150.0   60.0   50.0
-200.0   60.0   33.333333333333336
-200.0   30.0   50.0
-150.0   60.0   50.0
-150.0   30.0   50.0
-150.0   30.0   33.333333333333336
-200.0   30.0   50.0
-150.0   60.0   50.0
-150.0   30.0   33.333333333333336
-200.0   60.0   33.333333333333336
-200.0   60.0   0.0
-150.0   60.0   0.0
-200.0   90.0   0.0
-200.0   60.0   16.666666666666668
-150.0   60.0   0.0
-150.0   90.0   0.0
-200.0   90.0   0.0
-150.0   90.0   16.666666666666668
-200.0   60.0   16.666666666666668
-200.0   90.0   16.666666666666668
-150.0   90.0   16.666666666666668
-200.0   90.0   0.0
-200.0   60.0   16.666666666666668
-150.0   90.0   16.666666666666668
-150.0   60.0   16.666666666666668
-150.0   60.0   0.0
-200.0   60.0   16.666666666666668
-150.0   90.0   16.666666666666668
-150.0   60.0   0.0
-200.0   90.0   0.0
-200.0   60.0   16.666666666666668
-150.0   60.0   16.666666666666668
-200.0   90.0   16.666666666666668
-200.0   60.0   33.333333333333336
-150.0   60.0   16.666666666666668
-150.0   90.0   16.666666666666668
-200.0   90.0   16.666666666666668
-150.0   90.0   33.333333333333336
-200.0   60.0   33.333333333333336
-200.0   90.0   33.333333333333336
-150.0   90.0   33.333333333333336
-200.0   90.0   16.666666666666668
-200.0   60.0   33.333333333333336
-150.0   90.0   33.333333333333336
-150.0   60.0   33.333333333333336
-150.0   60.0   16.666666666666668
-200.0   60.0   33.333333333333336
-150.0   90.0   33.333333333333336
-150.0   60.0   16.666666666666668
-200.0   90.0   16.666666666666668
-200.0   60.0   33.333333333333336
-150.0   60.0   33.333333333333336
-200.0   90.0   33.333333333333336
-200.0   60.0   50.0
-150.0   60.0   33.333333333333336
-150.0   90.0   33.333333333333336
-200.0   90.0   33.333333333333336
-150.0   90.0   50.0
-200.0   60.0   50.0
-200.0   90.0   50.0
-150.0   90.0   50.0
-200.0   90.0   33.333333333333336
-200.0   60.0   50.0
-150.0   90.0   50.0
-150.0   60.0   50.0
-150.0   60.0   33.333333333333336
-200.0   60.0   50.0
-150.0   90.0   50.0
-150.0   60.0   33.333333333333336
-200.0   90.0   33.333333333333336
-200.0   90.0   0.0
-150.0   90.0   0.0
-200.0   120.0   0.0
-200.0   90.0   16.666666666666668
-150.0   90.0   0.0
-150.0   120.0   0.0
-200.0   120.0   0.0
-150.0   120.0   16.666666666666668
-200.0   90.0   16.666666666666668
-200.0   120.0   16.666666666666668
-150.0   120.0   16.666666666666668
-200.0   120.0   0.0
-200.0   90.0   16.666666666666668
-150.0   120.0   16.666666666666668
-150.0   90.0   16.666666666666668
-150.0   90.0   0.0
-200.0   90.0   16.666666666666668
-150.0   120.0   16.666666666666668
-150.0   90.0   0.0
-200.0   120.0   0.0
-200.0   90.0   16.666666666666668
-150.0   90.0   16.666666666666668
-200.0   120.0   16.666666666666668
-200.0   90.0   33.333333333333336
-150.0   90.0   16.666666666666668
-150.0   120.0   16.666666666666668
-200.0   120.0   16.666666666666668
-150.0   120.0   33.333333333333336
-200.0   90.0   33.333333333333336
-200.0   120.0   33.333333333333336
-150.0   120.0   33.333333333333336
-200.0   120.0   16.666666666666668
-200.0   90.0   33.333333333333336
-150.0   120.0   33.333333333333336
-150.0   90.0   33.333333333333336
-150.0   90.0   16.666666666666668
-200.0   90.0   33.333333333333336
-150.0   120.0   33.333333333333336
-150.0   90.0   16.666666666666668
-200.0   120.0   16.666666666666668
-200.0   90.0   33.333333333333336
-150.0   90.0   33.333333333333336
-200.0   120.0   33.333333333333336
-200.0   90.0   50.0
-150.0   90.0   33.333333333333336
-150.0   120.0   33.333333333333336
-200.0   120.0   33.333333333333336
-150.0   120.0   50.0
-200.0   90.0   50.0
-200.0   120.0   50.0
-150.0   120.0   50.0
-200.0   120.0   33.333333333333336
-200.0   90.0   50.0
-150.0   120.0   50.0
-150.0   90.0   50.0
-150.0   90.0   33.333333333333336
-200.0   90.0   50.0
-150.0   120.0   50.0
-150.0   90.0   33.333333333333336
-200.0   120.0   33.333333333333336
-200.0   120.0   0.0
-150.0   120.0   0.0
-200.0   150.0   0.0
-200.0   120.0   16.666666666666668
-150.0   120.0   0.0
-150.0   150.0   0.0
-200.0   150.0   0.0
-150.0   150.0   16.666666666666668
-200.0   120.0   16.666666666666668
-200.0   150.0   16.666666666666668
-150.0   150.0   16.666666666666668
-200.0   150.0   0.0
-200.0   120.0   16.666666666666668
-150.0   150.0   16.666666666666668
-150.0   120.0   16.666666666666668
-150.0   120.0   0.0
-200.0   120.0   16.666666666666668
-150.0   150.0   16.666666666666668
-150.0   120.0   0.0
-200.0   150.0   0.0
-200.0   120.0   16.666666666666668
-150.0   120.0   16.666666666666668
-200.0   150.0   16.666666666666668
-200.0   120.0   33.333333333333336
-150.0   120.0   16.666666666666668
-150.0   150.0   16.666666666666668
-200.0   150.0   16.666666666666668
-150.0   150.0   33.333333333333336
-200.0   120.0   33.333333333333336
-200.0   150.0   33.333333333333336
-150.0   150.0   33.333333333333336
-200.0   150.0   16.666666666666668
-200.0   120.0   33.333333333333336
-150.0   150.0   33.333333333333336
-150.0   120.0   33.333333333333336
-150.0   120.0   16.666666666666668
-200.0   120.0   33.333333333333336
-150.0   150.0   33.333333333333336
-150.0   120.0   16.666666666666668
-200.0   150.0   16.666666666666668
-200.0   120.0   33.333333333333336
-150.0   120.0   33.333333333333336
-200.0   150.0   33.333333333333336
-200.0   120.0   50.0
-150.0   120.0   33.333333333333336
-150.0   150.0   33.333333333333336
-200.0   150.0   33.333333333333336
-150.0   150.0   50.0
-200.0   120.0   50.0
-200.0   150.0   50.0
-150.0   150.0   50.0
-200.0   150.0   33.333333333333336
-200.0   120.0   50.0
-150.0   150.0   50.0
-150.0   120.0   50.0
-150.0   120.0   33.333333333333336
-200.0   120.0   50.0
-150.0   150.0   50.0
-150.0   120.0   33.333333333333336
-200.0   150.0   33.333333333333336
-150.0   0.0   0.0
-100.0   0.0   0.0
-150.0   30.0   0.0
-150.0   0.0   16.666666666666668
-100.0   0.0   0.0
-100.0   30.0   0.0
-150.0   30.0   0.0
-100.0   30.0   16.666666666666668
-150.0   0.0   16.666666666666668
-150.0   30.0   16.666666666666668
-100.0   30.0   16.666666666666668
-150.0   30.0   0.0
-150.0   0.0   16.666666666666668
-100.0   30.0   16.666666666666668
-100.0   0.0   16.666666666666668
-100.0   0.0   0.0
-150.0   0.0   16.666666666666668
-100.0   30.0   16.666666666666668
-100.0   0.0   0.0
-150.0   30.0   0.0
-150.0   0.0   16.666666666666668
-100.0   0.0   16.666666666666668
-150.0   30.0   16.666666666666668
-150.0   0.0   33.333333333333336
-100.0   0.0   16.666666666666668
-100.0   30.0   16.666666666666668
-150.0   30.0   16.666666666666668
-100.0   30.0   33.333333333333336
-150.0   0.0   33.333333333333336
-150.0   30.0   33.333333333333336
-100.0   30.0   33.333333333333336
-150.0   30.0   16.666666666666668
-150.0   0.0   33.333333333333336
-100.0   30.0   33.333333333333336
-100.0   0.0   33.333333333333336
-100.0   0.0   16.666666666666668
-150.0   0.0   33.333333333333336
-100.0   30.0   33.333333333333336
-100.0   0.0   16.666666666666668
-150.0   30.0   16.666666666666668
-150.0   0.0   33.333333333333336
-100.0   0.0   33.333333333333336
-150.0   30.0   33.333333333333336
-150.0   0.0   50.0
-100.0   0.0   33.333333333333336
-100.0   30.0   33.333333333333336
-150.0   30.0   33.333333333333336
-100.0   30.0   50.0
-150.0   0.0   50.0
-150.0   30.0   50.0
-100.0   30.0   50.0
-150.0   30.0   33.333333333333336
-150.0   0.0   50.0
-100.0   30.0   50.0
-100.0   0.0   50.0
-100.0   0.0   33.333333333333336
-150.0   0.0   50.0
-100.0   30.0   50.0
-100.0   0.0   33.333333333333336
-150.0   30.0   33.333333333333336
-150.0   30.0   0.0
-100.0   30.0   0.0
-150.0   60.0   0.0
-150.0   30.0   16.666666666666668
-100.0   30.0   0.0
-100.0   60.0   0.0
-150.0   60.0   0.0
-100.0   60.0   16.666666666666668
-150.0   30.0   16.666666666666668
-150.0   60.0   16.666666666666668
-100.0   60.0   16.666666666666668
-150.0   60.0   0.0
-150.0   30.0   16.666666666666668
-100.0   60.0   16.666666666666668
-100.0   30.0   16.666666666666668
-100.0   30.0   0.0
-150.0   30.0   16.666666666666668
-100.0   60.0   16.666666666666668
-100.0   30.0   0.0
-150.0   60.0   0.0
-150.0   30.0   16.666666666666668
-100.0   30.0   16.666666666666668
-150.0   60.0   16.666666666666668
-150.0   30.0   33.333333333333336
-100.0   30.0   16.666666666666668
-100.0   60.0   16.666666666666668
-150.0   60.0   16.666666666666668
-100.0   60.0   33.333333333333336
-150.0   30.0   33.333333333333336
-150.0   60.0   33.333333333333336
-100.0   60.0   33.333333333333336
-150.0   60.0   16.666666666666668
-150.0   30.0   33.333333333333336
-100.0   60.0   33.333333333333336
-100.0   30.0   33.333333333333336
-100.0   30.0   16.666666666666668
-150.0   30.0   33.333333333333336
-100.0   60.0   33.333333333333336
-100.0   30.0   16.666666666666668
-150.0   60.0   16.666666666666668
-150.0   30.0   33.333333333333336
-100.0   30.0   33.333333333333336
-150.0   60.0   33.333333333333336
-150.0   30.0   50.0
-100.0   30.0   33.333333333333336
-100.0   60.0   33.333333333333336
-150.0   60.0   33.333333333333336
-100.0   60.0   50.0
-150.0   30.0   50.0
-150.0   60.0   50.0
-100.0   60.0   50.0
-150.0   60.0   33.333333333333336
-150.0   30.0   50.0
-100.0   60.0   50.0
-100.0   30.0   50.0
-100.0   30.0   33.333333333333336
-150.0   30.0   50.0
-100.0   60.0   50.0
-100.0   30.0   33.333333333333336
-150.0   60.0   33.333333333333336
-150.0   60.0   0.0
-100.0   60.0   0.0
-150.0   90.0   0.0
-150.0   60.0   16.666666666666668
-100.0   60.0   0.0
-100.0   90.0   0.0
-150.0   90.0   0.0
-100.0   90.0   16.666666666666668
-150.0   60.0   16.666666666666668
-150.0   90.0   16.666666666666668
-100.0   90.0   16.666666666666668
-150.0   90.0   0.0
-150.0   60.0   16.666666666666668
-100.0   90.0   16.666666666666668
-100.0   60.0   16.666666666666668
-100.0   60.0   0.0
-150.0   60.0   16.666666666666668
-100.0   90.0   16.666666666666668
-100.0   60.0   0.0
-150.0   90.0   0.0
-150.0   60.0   16.666666666666668
-100.0   60.0   16.666666666666668
-150.0   90.0   16.666666666666668
-150.0   60.0   33.333333333333336
-100.0   60.0   16.666666666666668
-100.0   90.0   16.666666666666668
-150.0   90.0   16.666666666666668
-100.0   90.0   33.333333333333336
-150.0   60.0   33.333333333333336
-150.0   90.0   33.333333333333336
-100.0   90.0   33.333333333333336
-150.0   90.0   16.666666666666668
-150.0   60.0   33.333333333333336
-100.0   90.0   33.333333333333336
-100.0   60.0   33.333333333333336
-100.0   60.0   16.666666666666668
-150.0   60.0   33.333333333333336
-100.0   90.0   33.333333333333336
-100.0   60.0   16.666666666666668
-150.0   90.0   16.666666666666668
-150.0   60.0   33.333333333333336
-100.0   60.0   33.333333333333336
-150.0   90.0   33.333333333333336
-150.0   60.0   50.0
-100.0   60.0   33.333333333333336
-100.0   90.0   33.333333333333336
-150.0   90.0   33.333333333333336
-100.0   90.0   50.0
-150.0   60.0   50.0
-150.0   90.0   50.0
-100.0   90.0   50.0
-150.0   90.0   33.333333333333336
-150.0   60.0   50.0
-100.0   90.0   50.0
-100.0   60.0   50.0
-100.0   60.0   33.333333333333336
-150.0   60.0   50.0
-100.0   90.0   50.0
-100.0   60.0   33.333333333333336
-150.0   90.0   33.333333333333336
-150.0   90.0   0.0
-100.0   90.0   0.0
-150.0   120.0   0.0
-150.0   90.0   16.666666666666668
-100.0   90.0   0.0
-100.0   120.0   0.0
-150.0   120.0   0.0
-100.0   120.0   16.666666666666668
-150.0   90.0   16.666666666666668
-150.0   120.0   16.666666666666668
-100.0   120.0   16.666666666666668
-150.0   120.0   0.0
-150.0   90.0   16.666666666666668
-100.0   120.0   16.666666666666668
-100.0   90.0   16.666666666666668
-100.0   90.0   0.0
-150.0   90.0   16.666666666666668
-100.0   120.0   16.666666666666668
-100.0   90.0   0.0
-150.0   120.0   0.0
-150.0   90.0   16.666666666666668
-100.0   90.0   16.666666666666668
-150.0   120.0   16.666666666666668
-150.0   90.0   33.333333333333336
-100.0   90.0   16.666666666666668
-100.0   120.0   16.666666666666668
-150.0   120.0   16.666666666666668
-100.0   120.0   33.333333333333336
-150.0   90.0   33.333333333333336
-150.0   120.0   33.333333333333336
-100.0   120.0   33.333333333333336
-150.0   120.0   16.666666666666668
-150.0   90.0   33.333333333333336
-100.0   120.0   33.333333333333336
-100.0   90.0   33.333333333333336
-100.0   90.0   16.666666666666668
-150.0   90.0   33.333333333333336
-100.0   120.0   33.333333333333336
-100.0   90.0   16.666666666666668
-150.0   120.0   16.666666666666668
-150.0   90.0   33.333333333333336
-100.0   90.0   33.333333333333336
-150.0   120.0   33.333333333333336
-150.0   90.0   50.0
-100.0   90.0   33.333333333333336
-100.0   120.0   33.333333333333336
-150.0   120.0   33.333333333333336
-100.0   120.0   50.0
-150.0   90.0   50.0
-150.0   120.0   50.0
-100.0   120.0   50.0
-150.0   120.0   33.333333333333336
-150.0   90.0   50.0
-100.0   120.0   50.0
-100.0   90.0   50.0
-100.0   90.0   33.333333333333336
-150.0   90.0   50.0
-100.0   120.0   50.0
-100.0   90.0   33.333333333333336
-150.0   120.0   33.333333333333336
-150.0   120.0   0.0
-100.0   120.0   0.0
-150.0   150.0   0.0
-150.0   120.0   16.666666666666668
-100.0   120.0   0.0
-100.0   150.0   0.0
-150.0   150.0   0.0
-100.0   150.0   16.666666666666668
-150.0   120.0   16.666666666666668
-150.0   150.0   16.666666666666668
-100.0   150.0   16.666666666666668
-150.0   150.0   0.0
-150.0   120.0   16.666666666666668
-100.0   150.0   16.666666666666668
-100.0   120.0   16.666666666666668
-100.0   120.0   0.0
-150.0   120.0   16.666666666666668
-100.0   150.0   16.666666666666668
-100.0   120.0   0.0
-150.0   150.0   0.0
-150.0   120.0   16.666666666666668
-100.0   120.0   16.666666666666668
-150.0   150.0   16.666666666666668
-150.0   120.0   33.333333333333336
-100.0   120.0   16.666666666666668
-100.0   150.0   16.666666666666668
-150.0   150.0   16.666666666666668
-100.0   150.0   33.333333333333336
-150.0   120.0   33.333333333333336
-150.0   150.0   33.333333333333336
-100.0   150.0   33.333333333333336
-150.0   150.0   16.666666666666668
-150.0   120.0   33.333333333333336
-100.0   150.0   33.333333333333336
-100.0   120.0   33.333333333333336
-100.0   120.0   16.666666666666668
-150.0   120.0   33.333333333333336
-100.0   150.0   33.333333333333336
-100.0   120.0   16.666666666666668
-150.0   150.0   16.666666666666668
-150.0   120.0   33.333333333333336
-100.0   120.0   33.333333333333336
-150.0   150.0   33.333333333333336
-150.0   120.0   50.0
-100.0   120.0   33.333333333333336
-100.0   150.0   33.333333333333336
-150.0   150.0   33.333333333333336
-100.0   150.0   50.0
-150.0   120.0   50.0
-150.0   150.0   50.0
-100.0   150.0   50.0
-150.0   150.0   33.333333333333336
-150.0   120.0   50.0
-100.0   150.0   50.0
-100.0   120.0   50.0
-100.0   120.0   33.333333333333336
-150.0   120.0   50.0
-100.0   150.0   50.0
-100.0   120.0   33.333333333333336
-150.0   150.0   33.333333333333336
-100.0   0.0   0.0
-50.0   0.0   0.0
-100.0   30.0   0.0
-100.0   0.0   16.666666666666668
-50.0   0.0   0.0
-50.0   30.0   0.0
-100.0   30.0   0.0
-50.0   30.0   16.666666666666668
-100.0   0.0   16.666666666666668
-100.0   30.0   16.666666666666668
-50.0   30.0   16.666666666666668
-100.0   30.0   0.0
-100.0   0.0   16.666666666666668
-50.0   30.0   16.666666666666668
-50.0   0.0   16.666666666666668
-50.0   0.0   0.0
-100.0   0.0   16.666666666666668
-50.0   30.0   16.666666666666668
-50.0   0.0   0.0
-100.0   30.0   0.0
-100.0   0.0   16.666666666666668
-50.0   0.0   16.666666666666668
-100.0   30.0   16.666666666666668
-100.0   0.0   33.333333333333336
-50.0   0.0   16.666666666666668
-50.0   30.0   16.666666666666668
-100.0   30.0   16.666666666666668
-50.0   30.0   33.333333333333336
-100.0   0.0   33.333333333333336
-100.0   30.0   33.333333333333336
-50.0   30.0   33.333333333333336
-100.0   30.0   16.666666666666668
-100.0   0.0   33.333333333333336
-50.0   30.0   33.333333333333336
-50.0   0.0   33.333333333333336
-50.0   0.0   16.666666666666668
-100.0   0.0   33.333333333333336
-50.0   30.0   33.333333333333336
-50.0   0.0   16.666666666666668
-100.0   30.0   16.666666666666668
-100.0   0.0   33.333333333333336
-50.0   0.0   33.333333333333336
-100.0   30.0   33.333333333333336
-100.0   0.0   50.0
-50.0   0.0   33.333333333333336
-50.0   30.0   33.333333333333336
-100.0   30.0   33.333333333333336
-50.0   30.0   50.0
-100.0   0.0   50.0
-100.0   30.0   50.0
-50.0   30.0   50.0
-100.0   30.0   33.333333333333336
-100.0   0.0   50.0
-50.0   30.0   50.0
-50.0   0.0   50.0
-50.0   0.0   33.333333333333336
-100.0   0.0   50.0
-50.0   30.0   50.0
-50.0   0.0   33.333333333333336
-100.0   30.0   33.333333333333336
-100.0   30.0   0.0
-50.0   30.0   0.0
-100.0   60.0   0.0
-100.0   30.0   16.666666666666668
-50.0   30.0   0.0
-50.0   60.0   0.0
-100.0   60.0   0.0
-50.0   60.0   16.666666666666668
-100.0   30.0   16.666666666666668
-100.0   60.0   16.666666666666668
-50.0   60.0   16.666666666666668
-100.0   60.0   0.0
-100.0   30.0   16.666666666666668
-50.0   60.0   16.666666666666668
-50.0   30.0   16.666666666666668
-50.0   30.0   0.0
-100.0   30.0   16.666666666666668
-50.0   60.0   16.666666666666668
-50.0   30.0   0.0
-100.0   60.0   0.0
-100.0   30.0   16.666666666666668
-50.0   30.0   16.666666666666668
-100.0   60.0   16.666666666666668
-100.0   30.0   33.333333333333336
-50.0   30.0   16.666666666666668
-50.0   60.0   16.666666666666668
-100.0   60.0   16.666666666666668
-50.0   60.0   33.333333333333336
-100.0   30.0   33.333333333333336
-100.0   60.0   33.333333333333336
-50.0   60.0   33.333333333333336
-100.0   60.0   16.666666666666668
-100.0   30.0   33.333333333333336
-50.0   60.0   33.333333333333336
-50.0   30.0   33.333333333333336
-50.0   30.0   16.666666666666668
-100.0   30.0   33.333333333333336
-50.0   60.0   33.333333333333336
-50.0   30.0   16.666666666666668
-100.0   60.0   16.666666666666668
-100.0   30.0   33.333333333333336
-50.0   30.0   33.333333333333336
-100.0   60.0   33.333333333333336
-100.0   30.0   50.0
-50.0   30.0   33.333333333333336
-50.0   60.0   33.333333333333336
-100.0   60.0   33.333333333333336
-50.0   60.0   50.0
-100.0   30.0   50.0
-100.0   60.0   50.0
-50.0   60.0   50.0
-100.0   60.0   33.333333333333336
-100.0   30.0   50.0
-50.0   60.0   50.0
-50.0   30.0   50.0
-50.0   30.0   33.333333333333336
-100.0   30.0   50.0
-50.0   60.0   50.0
-50.0   30.0   33.333333333333336
-100.0   60.0   33.333333333333336
-100.0   60.0   0.0
-50.0   60.0   0.0
-100.0   90.0   0.0
-100.0   60.0   16.666666666666668
-50.0   60.0   0.0
-50.0   90.0   0.0
-100.0   90.0   0.0
-50.0   90.0   16.666666666666668
-100.0   60.0   16.666666666666668
-100.0   90.0   16.666666666666668
-50.0   90.0   16.666666666666668
-100.0   90.0   0.0
-100.0   60.0   16.666666666666668
-50.0   90.0   16.666666666666668
-50.0   60.0   16.666666666666668
-50.0   60.0   0.0
-100.0   60.0   16.666666666666668
-50.0   90.0   16.666666666666668
-50.0   60.0   0.0
-100.0   90.0   0.0
-100.0   60.0   16.666666666666668
-50.0   60.0   16.666666666666668
-100.0   90.0   16.666666666666668
-100.0   60.0   33.333333333333336
-50.0   60.0   16.666666666666668
-50.0   90.0   16.666666666666668
-100.0   90.0   16.666666666666668
-50.0   90.0   33.333333333333336
-100.0   60.0   33.333333333333336
-100.0   90.0   33.333333333333336
-50.0   90.0   33.333333333333336
-100.0   90.0   16.666666666666668
-100.0   60.0   33.333333333333336
-50.0   90.0   33.333333333333336
-50.0   60.0   33.333333333333336
-50.0   60.0   16.666666666666668
-100.0   60.0   33.333333333333336
-50.0   90.0   33.333333333333336
-50.0   60.0   16.666666666666668
-100.0   90.0   16.666666666666668
-100.0   60.0   33.333333333333336
-50.0   60.0   33.333333333333336
-100.0   90.0   33.333333333333336
-100.0   60.0   50.0
-50.0   60.0   33.333333333333336
-50.0   90.0   33.333333333333336
-100.0   90.0   33.333333333333336
-50.0   90.0   50.0
-100.0   60.0   50.0
-100.0   90.0   50.0
-50.0   90.0   50.0
-100.0   90.0   33.333333333333336
-100.0   60.0   50.0
-50.0   90.0   50.0
-50.0   60.0   50.0
-50.0   60.0   33.333333333333336
-100.0   60.0   50.0
-50.0   90.0   50.0
-50.0   60.0   33.333333333333336
-100.0   90.0   33.333333333333336
-100.0   90.0   0.0
-50.0   90.0   0.0
-100.0   120.0   0.0
-100.0   90.0   16.666666666666668
-50.0   90.0   0.0
-50.0   120.0   0.0
-100.0   120.0   0.0
-50.0   120.0   16.666666666666668
-100.0   90.0   16.666666666666668
-100.0   120.0   16.666666666666668
-50.0   120.0   16.666666666666668
-100.0   120.0   0.0
-100.0   90.0   16.666666666666668
-50.0   120.0   16.666666666666668
-50.0   90.0   16.666666666666668
-50.0   90.0   0.0
-100.0   90.0   16.666666666666668
-50.0   120.0   16.666666666666668
-50.0   90.0   0.0
-100.0   120.0   0.0
-100.0   90.0   16.666666666666668
-50.0   90.0   16.666666666666668
-100.0   120.0   16.666666666666668
-100.0   90.0   33.333333333333336
-50.0   90.0   16.666666666666668
-50.0   120.0   16.666666666666668
-100.0   120.0   16.666666666666668
-50.0   120.0   33.333333333333336
-100.0   90.0   33.333333333333336
-100.0   120.0   33.333333333333336
-50.0   120.0   33.333333333333336
-100.0   120.0   16.666666666666668
-100.0   90.0   33.333333333333336
-50.0   120.0   33.333333333333336
-50.0   90.0   33.333333333333336
-50.0   90.0   16.666666666666668
-100.0   90.0   33.333333333333336
-50.0   120.0   33.333333333333336
-50.0   90.0   16.666666666666668
-100.0   120.0   16.666666666666668
-100.0   90.0   33.333333333333336
-50.0   90.0   33.333333333333336
-100.0   120.0   33.333333333333336
-100.0   90.0   50.0
-50.0   90.0   33.333333333333336
-50.0   120.0   33.333333333333336
-100.0   120.0   33.333333333333336
-50.0   120.0   50.0
-100.0   90.0   50.0
-100.0   120.0   50.0
-50.0   120.0   50.0
-100.0   120.0   33.333333333333336
-100.0   90.0   50.0
-50.0   120.0   50.0
-50.0   90.0   50.0
-50.0   90.0   33.333333333333336
-100.0   90.0   50.0
-50.0   120.0   50.0
-50.0   90.0   33.333333333333336
-100.0   120.0   33.333333333333336
-100.0   120.0   0.0
-50.0   120.0   0.0
-100.0   150.0   0.0
-100.0   120.0   16.666666666666668
-50.0   120.0   0.0
-50.0   150.0   0.0
-100.0   150.0   0.0
-50.0   150.0   16.666666666666668
-100.0   120.0   16.666666666666668
-100.0   150.0   16.666666666666668
-50.0   150.0   16.666666666666668
-100.0   150.0   0.0
-100.0   120.0   16.666666666666668
-50.0   150.0   16.666666666666668
-50.0   120.0   16.666666666666668
-50.0   120.0   0.0
-100.0   120.0   16.666666666666668
-50.0   150.0   16.666666666666668
-50.0   120.0   0.0
-100.0   150.0   0.0
-100.0   120.0   16.666666666666668
-50.0   120.0   16.666666666666668
-100.0   150.0   16.666666666666668
-100.0   120.0   33.333333333333336
-50.0   120.0   16.666666666666668
-50.0   150.0   16.666666666666668
-100.0   150.0   16.666666666666668
-50.0   150.0   33.333333333333336
-100.0   120.0   33.333333333333336
-100.0   150.0   33.333333333333336
-50.0   150.0   33.333333333333336
-100.0   150.0   16.666666666666668
-100.0   120.0   33.333333333333336
-50.0   150.0   33.333333333333336
-50.0   120.0   33.333333333333336
-50.0   120.0   16.666666666666668
-100.0   120.0   33.333333333333336
-50.0   150.0   33.333333333333336
-50.0   120.0   16.666666666666668
-100.0   150.0   16.666666666666668
-100.0   120.0   33.333333333333336
-50.0   120.0   33.333333333333336
-100.0   150.0   33.333333333333336
-100.0   120.0   50.0
-50.0   120.0   33.333333333333336
-50.0   150.0   33.333333333333336
-100.0   150.0   33.333333333333336
-50.0   150.0   50.0
-100.0   120.0   50.0
-100.0   150.0   50.0
-50.0   150.0   50.0
-100.0   150.0   33.333333333333336
-100.0   120.0   50.0
-50.0   150.0   50.0
-50.0   120.0   50.0
-50.0   120.0   33.333333333333336
-100.0   120.0   50.0
-50.0   150.0   50.0
-50.0   120.0   33.333333333333336
-100.0   150.0   33.333333333333336
-50.0   0.0   0.0
0.0   0.0   0.0
-50.0   30.0   0.0
-50.0   0.0   16.666666666666668
0.0   0.0   0.0
0.0   30.0   0.0
-50.0   30.0   0.0
0.0   30.0   16.666666666666668
-50.0   0.0   16.666666666666668
-50.0   30.0   16.666666666666668
0.0   30.0   16.666666666666668
-50.0   30.0   0.0
-50.0   0.0   16.666666666666668
0.0   30.0   16.666666666666668
0.0   0.0   16.666666666666668
0.0   0.0   0.0
-50.0   0.0   16.666666666666668
0.0   30.0   16.666666666666668
0.0   0.0   0.0
-50.0   30.0   0.0
-50.0   0.0   16.666666666666668
0.0   0.0   16.666666666666668
-50.0   30.0   16.666666666666668
-50.0   0.0   33.333333333333336
0.0   0.0   16.666666666666668
0.0   30.0   16.666666666666668
-50.0   30.0   16.666666666666668
0.0   30.0   33.333333333333336
-50.0   0.0   33.333333333333336
-50.0   30.0   33.333333333333336
0.0   30.0   33.333333333333336
-50.0   30.0   16.666666666666668
-50.0   0.0   33.333333333333336
0.0   30.0   33.333333333333336
0.0   0.0   33.333333333333336
0.0   0.0   16.666666666666668
-50.0   0.0   33.333333333333336
0.0   30.0   33.333333333333336
0.0   0.0   16.666666666666668
-50.0   30.0   16.666666666666668
-50.0   0.0   33.333333333333336
0.0   0.0   33.333333333333336
-50.0   30.0   33.333333333333336
-50.0   0.0   50.0
0.0   0.0   33.333333333333336
0.0   30.0   33.333333333333336
-50.0   30.0   33.333333333333336
0.0   30.0   50.0
-50.0   0.0   50.0
-50.0   30.0   50.0
0.0   30.0   50.0
-50.0   30.0   33.333333333333336
-50.0   0.0   50.0
0.0   30.0   50.0
0.0   0.0   50.0
0.0   0.0   33.333333333333336
-50.0   0.0   50.0
0.0   30.0   50.0
0.0   0.0   33.333333333333336
-50.0   30.0   33.333333333333336
-50.0   30.0   0.0
0.0   30.0   0.0
-50.0   60.0   0.0
-50.0   30.0   16.666666666666668
0.0   30.0   0.0
0.0   60.0   0.0
-50.0   60.0   0.0
0.0   60.0   16.666666666666668
-50.0   30.0   16.666666666666668
-50.0   60.0   16.666666666666668
0.0   60.0   16.666666666666668
-50.0   60.0   0.0
-50.0   30.0   16.666666666666668
0.0   60.0   16.666666666666668
0.0   30.0   16.666666666666668
0.0   30.0   0.0
-50.0   30.0   16.666666666666668
0.0   60.0   16.666666666666668
0.0   30.0   0.0
-50.0   60.0   0.0
-50.0   30.0   16.666666666666668
0.0   30.0   16.666666666666668
-50.0   60.0   16.666666666666668
-50.0   30.0   33.333333333333336
0.0   30.0   16.666666666666668
0.0   60.0   16.666666666666668
-50.0   60.0   16.666666666666668
0.0   60.0   33.333333333333336
-50.0   30.0   33.333333333333336
-50.0   60.0   33.333333333333336
0.0   60.0   33.333333333333336
-50.0   60.0   16.666666666666668
-50.0   30.0   33.333333333333336
0.0   60.0   33.333333333333336
0.0   30.0   33.333333333333336
0.0   30.0   16.666666666666668
-50.0   30.0   33.333333333333336
0.0   60.0   33.333333333333336
0.0   30.0   16.666666666666668
-50.0   60.0   16.666666666666668
-50.0   30.0   33.333333333333336
0.0   30.0   33.333333333333336
-50.0   60.0   33.333333333333336
-50.0   30.0   50.0
0.0   30.0   33.333333333333336
0.0   60.0   33.333333333333336
-50.0   60.0   33.333333333333336
0.0   60.0   50.0
-50.0   30.0   50.0
-50.0   60.0   50.0
0.0   60.0   50.0
-50.0   60.0   33.333333333333336
-50.0   30.0   50.0
0.0   60.0   50.0
0.0   30.0   50.0
0.0   30.0   33.333333333333336
-50.0   30.0   50.0
0.0   60.0   50.0
0.0   30.0   33.333333333333336
-50.0   60.0   33.333333333333336
-50.0   60.0   0.0
0.0   60.0   0.0
-50.0   90.0   0.0
-50.0   60.0   16.666666666666668
0.0   60.0   0.0
0.0   90.0   0.0
-50.0   90.0   0.0
0.0   90.0   16.666666666666668
-50.0   60.0   16.666666666666668
-50.0   90.0   16.666666666666668
0.0   90.0   16.666666666666668
-50.0   90.0   0.0
-50.0   60.0   16.666666666666668
0.0   90.0   16.666666666666668
0.0   60.0   16.666666666666668
0.0   60.0   0.0
-50.0   60.0   16.666666666666668
0.0   90.0   16.666666666666668
0.0   60.0   0.0
-50.0   90.0   0.0
-50.0   60.0   16.666666666666668
0.0   60.0   16.666666666666668
-50.0   90.0   16.666666666666668
-50.0   60.0   33.333333333333336
0.0   60.0   16.666666666666668
0.0   90.0   16.666666666666668
-50.0   90.0   16.666666666666668
0.0   90.0   33.333333333333336
-50.0   60.0   33.333333333333336
-50.0   90.0   33.333333333333336
0.0   90.0   33.333333333333336
-50.0   90.0   16.666666666666668
-50.0   60.0   33.333333333333336
0.0   90.0   33.333333333333336
0.0   60.0   33.333333333333336
0.0   60.0   16.666666666666668
-50.0   60.0   33.333333333333336
0.0   90.0   33.333333333333336
0.0   60.0   16.666666666666668
-50.0   90.0   16.666666666666668
-50.0   60.0   33.333333333333336
0.0   60.0   33.333333333333336
-50.0   90.0   33.333333333333336
-50.0   60.0   50.0
0.0   60.0   33.333333333333336
0.0   90.0   33.333333333333336
-50.0   90.0   33.333333333333336
0.0   90.0   50.0
-50.0   60.0   50.0
-50.0   90.0   50.0
0.0   90.0   50.0
-50.0   90.0   33.333333333333336
-50.0   60.0   50.0
0.0   90.0   50.0
0.0   60.0   50.0
0.0   60.0   33.333333333333336
-50.0   60.0   50.0
0.0   90.0   50.0
0.0   60.0   33.333333333333336
-50.0   90.0   33.333333333333336
-50.0   90.0   0.0
0.0   90.0   0.0
-50.0   120.0   0.0
-50.0   90.0   16.666666666666668
0.0   90.0   0.0
0.0   120.0   0.0
-50.0   120.0   0.0
0.0   120.0   16.666666666666668
-50.0   90.0   16.666666666666668
-50.0   120.0   16.666666666666668
0.0   120.0   16.666666666666668
-50.0   120.0   0.0
-50.0   90.0   16.666666666666668
0.0   120.0   16.666666666666668
0.0   90.0   16.666666666666668
0.0   90.0   0.0
-50.0   90.0   16.666666666666668
0.0   120.0   16.666666666666668
0.0   90.0   0.0
-50.0   120.0   0.0
-50.0   90.0   16.666666666666668
0.0   90.0   16.666666666666668
-50.0   120.0   16.666666666666668
-50.0   90.0   33.333333333333336
0.0   90.0   16.666666666666668
0.0   120.0   16.666666666666668
-50.0   120.0   16.666666666666668
0.0   120.0   33.333333333333336
-50.0   90.0   33.333333333333336
-50.0   120.0   33.333333333333336
0.0   120.0   33.333333333333336
-50.0   120.0   16.666666666666668
-50.0   90.0   33.333333333333336
0.0   120.0   33.333333333333336
0.0   90.0   33.333333333333336
0.0   90.0   16.666666666666668
-50.0   90.0   33.333333333333336
0.0   120.0   33.333333333333336
0.0   90.0   16.666666666666668
-50.0   120.0   16.666666666666668
-50.0   90.0   33.333333333333336
0.0   90.0   33.333333333333336
-50.0   120.0   33.333333333333336
-50.0   90.0   50.0
0.0   90.0   33.333333333333336
0.0   120.0   33.333333333333336
-50.0   120.0   33.333333333333336
0.0   120.0   50.0
-50.0   90.0   50.0
-50.0   120.0   50.0
0.0   120.0   50.0
-50.0   120.0   33.333333333333336
-50.0   90.0   50.0
0.0   120.0   50.0
0.0   90.0   50.0
0.0   90.0   33.333333333333336
-50.0   90.0   50.0
0.0   120.0   50.0
0.0   90.0   33.333333333333336
-50.0   120.0   33.333333333333336
-50.0   120.0   0.0
0.0   120.0   0.0
-50.0   150.0   0.0
-50.0   120.0   16.666666666666668
0.0   120.0   0.0
0.0   150.0   0.0
-50.0   150.0   0.0
0.0   150.0   16.666666666666668
-50.0   120.0   16.666666666666668
-50.0   150.0   16.666666666666668
0.0   150.0   16.666666666666668
-50.0   150.0   0.0
-50.0   120.0   16.666666666666668
0.0   150.0   16.666666666666668
0.0   120.0   16.666666666666668
0.0   120.0   0.0
-50.0   120.0   16.666666666666668
0.0   150.0   16.666666666666668
0.0   120.0   0.0
-50.0   150.0   0.0
-50.0   120.0   16.666666666666668
0.0   120.0   16.666666666666668
-50.0   150.0   16.666666666666668
-50.0   120.0   33.333333333333336
0.0   120.0   16.666666666666668
0.0   150.0   16.666666666666668
-50.0   150.0   16.666666666666668
0.0   150.0   33.333333333333336
-50.0   120.0   33.333333333333336
-50.0   150.0   33.333333333333336
0.0   150.0   33.333333333333336
-50.0   150.0   16.666666666666668
-50.0   120.0   33.333333333333336
0.0   150.0   33.333333333333336
0.0   120.0   33.333333333333336
0.0   120.0   16.666666666666668
-50.0   120.0   33.333333333333336
0.0   150.0   33.333333333333336
0.0   120.0   16.666666666666668
-50.0   150.0   16.666666666666668
-50.0   120.0   33.333333333333336
0.0   120.0   33.333333333333336
-50.0   150.0   33.333333333333336
-50.0   120.0   50.0
0.0   120.0   33.333333333333336
0.0   150.0   33.333333333333336
-50.0   150.0   33.333333333333336
0.0   150.0   50.0
-50.0   120.0   50.0
-50.0   150.0   50.0
0.0   150.0   50.0
-50.0   150.0   33.333333333333336
-50.0   120.0   50.0
0.0   150.0   50.0
0.0   120.0   50.0
0.0   120.0   33.333333333333336
-50.0   120.0   50.0
0.0   150.0   50.0
0.0   120.0   33.333333333333336
-50.0   150.0   33.333333333333336
0.0   0.0   0.0
50.0   0.0   0.0
0.0   30.0   0.0
0.0   0.0   16.666666666666668
50.0   0.0   0.0
50.0   30.0   0.0
0.0   30.0   0.0
50.0   30.0   16.666666666666668
0.0   0.0   16.666666666666668
0.0   30.0   16.666666666666668
50.0   30.0   16.666666666666668
0.0   30.0   0.0
0.0   0.0   16.666666666666668
50.0   30.0   16.666666666666668
50.0   0.0   16.666666666666668
50.0   0.0   0.0
0.0   0.0   16.666666666666668
50.0   30.0   16.666666666666668
50.0   0.0   0.0
0.0   30.0   0.0
0.0   0.0   16.666666666666668
50.0   0.0   16.666666666666668
0.0   30.0   16.666666666666668
0.0   0.0   33.333333333333336
50.0   0.0   16.666666666666668
50.0   30.0   16.666666666666668
0.0   30.0   16.666666666666668
50.0   30.0   33.333333333333336
0.0   0.0   33.333333333333336
0.0   30.0   33.333333333333336
50.0   30.0   33.333333333333336
0.0   30.0   16.666666666666668
0.0   0.0   33.333333333333336
50.0   30.0   33.333333333333336
50.0   0.0   33.333333333333336
50.0   0.0   16.666666666666668
0.0   0.0   33.333333333333336
50.0   30.0   33.333333333333336
50.0   0.0   16.666666666666668
0.0   30.0   16.666666666666668
0.0   0.0   33.333333333333336
50.0   0.0   33.333333333333336
0.0   30.0   33.333333333333336
0.0   0.0   50.0
50.0   0.0   33.333333333333336
50.0   30.0   33.333333333333336
0.0   30.0   33.333333333333336
50.0   30.0   50.0
0.0   0.0   50.0
0.0   30.0   50.0
50.0   30.0   50.0
0.0   30.0   33.333333333333336
0.0   0.0   50.0
50.0   30.0   50.0
50.0   0.0   50.0
50.0   0.0   33.333333333333336
0.0   0.0   50.0
50.0   30.0   50.0
50.0   0.0   33.333333333333336
0.0   30.0   33.333333333333336
0.0   30.0   0.0
50.0   30.0   0.0
0.0   60.0   0.0
0.0   30.0   16.666666666666668
50.0   30.0   0.0
50.0   60.0   0.0
0.0   60.0   0.0
50.0   60.0   16.666666666666668
0.0   30.0   16.666666666666668
0.0   60.0   16.666666666666668
50.0   60.0   16.666666666666668
0.0   60.0   0.0
0.0   30.0   16.666666666666668
50.0   60.0   16.666666666666668
50.0   30.0   16.666666666666668
50.0   30.0   0.0
0.0   30.0   16.666666666666668
50.0   60.0   16.666666666666668
50.0   30.0   0.0
0.0   60.0   0.0
0.0   30.0   16.666666666666668
50.0   30.0   16.666666666666668
0.0   60.0   16.666666666666668
0.0   30.0   33.333333333333336
50.0   30.0   16.666666666666668
50.0   60.0   16.666666666666668
0.0   60.0   16.666666666666668
50.0   60.0   33.333333333333336
0.0   30.0   33.333333333333336
0.0   60.0   33.333333333333336
50.0   60.0   33.333333333333336
0.0   60.0   16.666666666666668
0.0   30.0   33.333333333333336
50.0   60.0   33.333333333333336
50.0   30.0   33.333333333333336
50.0   30.0   16.666666666666668
0.0   30.0   33.333333333333336
50.0   60.0   33.333333333333336
50.0   30.0   16.666666666666668
0.0   60.0   16.666666666666668
0.0   30.0   33.333333333333336
50.0   30.0   33.333333333333336
0.0   60.0   33.333333333333336
0.0   30.0   50.0
50.0   30.0   33.333333333333336
50.0   60.0   33.333333333333336
0.0   60.0   33.333333333333336
50.0   60.0   50.0
0.0   30.0   50.0
0.0   60.0   50.0
50.0   60.0   50.0
0.0   60.0   33.333333333333336
0.0   30.0   50.0
50.0   60.0   50.0
50.0   30.0   50.0
50.0   30.0   33.333333333333336
0.0   30.0   50.0
50.0   60.0   50.0
50.0   30.0   33.333333333333336
0.0   60.0   33.333333333333336
0.0   60.0   0.0
50.0   60.0   0.0
0.0   90.0   0.0
0.0   60.0   16.666666666666668
50.0   60.0   0.0
50.0   90.0   0.0
0.0   90.0   0.0
50.0   90.0   16.666666666666668
0.0   60.0   16.666666666666668
0.0   90.0   16.666666666666668
50.0   90.0   16.666666666666668
0.0   90.0   0.0
0.0   60.0   16.666666666666668
50.0   90.0   16.666666666666668
50.0   60.0   16.666666666666668
50.0   60.0   0.0
0.0   60.0   16.666666666666668
50.0   90.0   16.666666666666668
50.0   60.0   0.0
0.0   90.0   0.0
0.0   60.0   16.666666666666668
50.0   60.0   16.666666666666668
0.0   90.0   16.666666666666668
0.0   60.0   33.333333333333336
50.0   60.0   16.666666666666668
50.0   90.0   16.666666666666668
0.0   90.0   16.666666666666668
50.0   90.0   33.333333333333336
0.0   60.0   33.333333333333336
0.0   90.0   33.333333333333336
50.0   90.0   33.333333333333336
0.0   90.0   16.666666666666668
0.0   60.0   33.333333333333336
50.0   90.0   33.333333333333336
50.0   60.0   33.333333333333336
50.0   60.0   16.666666666666668
0.0   60.0   33.333333333333336
50.0   90.0   33.333333333333336
50.0   60.0   16.666666666666668
0.0   90.0   16.666666666666668
0.0   60.0   33.333333333333336
50.0   60.0   33.333333333333336
0.0   90.0   33.333333333333336
0.0   60.0   50.0
50.0   60.0   33.333333333333336
50.0   90.0   33.333333333333336
0.0   90.0   33.333333333333336
50.0   90.0   50.0
0.0   60.0   50.0
0.0   90.0   50.0
50.0   90.0   50.0
0.0   90.0   33.333333333333336
0.0   60.0   50.0
50.0   90.0   50.0
50.0   60.0   50.0
50.0   60.0   33.333333333333336
0.0   60.0   50.0
50.0   90.0   50.0
50.0   60.0   33.333333333333336
0.0   90.0   33.333333333333336
0.0   90.0   0.0
50.0   90.0   0.0
0.0   120.0   0.0
0.0   90.0   16.666666666666668
50.0   90.0   0.0
50.0   120.0   0.0
0.0   120.0   0.0
50.0   120.0   16.666666666666668
0.0   90.0   16.666666666666668
0.0   120.0   16.666666666666668
50.0   120.0   16.666666666666668
0.0   120.0   0.0
0.0   90.0   16.666666666666668
50.0   120.0   16.666666666666668
50.0   90.0   16.666666666666668
50.0   90.0   0.0
0.0   90.0   16.666666666666668
50.0   120.0   16.666666666666668
50.0   90.0   0.0
0.0   120.0   0.0
0.0   90.0   16.666666666666668
50.0   90.0   16.666666666666668
0.0   120.0   16.666666666666668
0.0   90.0   33.333333333333336
50.0   90.0   16.666666666666668
50.0   120.0   16.666666666666668
0.0   120.0   16.666666666666668
50.0   120.0   33.333333333333336
0.0   90.0   33.333333333333336
0.0   120.0   33.333333333333336
50.0   120.0   33.333333333333336
0.0   120.0   16.666666666666668
0.0   90.0   33.333333333333336
50.0   120.0   33.333333333333336
50.0   90.0   33.333333333333336
50.0   90.0   16.666666666666668
0.0   90.0   33.333333333333336
50.0   120.0   33.333333333333336
50.0   90.0   16.666666666666668
0.0   120.0   16.666666666666668
0.0   90.0   33.333333333333336
50.0   90.0   33.333333333333336
0.0   120.0   33.333333333333336
0.0   90.0   50.0
50.0   90.0   33.333333333333336
50.0   120.0   33.333333333333336
0.0   120.0   33.333333333333336
50.0   120.0   50.0
0.0   90.0   50.0
0.0   120.0   50.0
50.0   120.0   50.0
0.0   120.0   33.333333333333336
0.0   90.0   50.0
50.0   120.0   50.0
50.0   90.0   50.0
50.0   90.0   33.333333333333336
0.0   90.0   50.0
50.0   120.0   50.0
50.0   90.0   33.333333333333336
0.0   120.0   33.333333333333336
0.0   120.0   0.0
50.0   120.0   0.0
0.0   150.0   0.0
0.0   120.0   16.666666666666668
50.0   120.0   0.0
50.0   150.0   0.0
0.0   150.0   0.0
50.0   150.0   16.666666666666668
0.0   120.0   16.666666666666668
0.0   150.0   16.666666666666668
50.0   150.0   16.666666666666668
0.0   150.0   0.0
0.0   120.0   16.666666666666668
50.0   150.0   16.666666666666668
50.0   120.0   16.666666666666668
50.0   120.0   0.0
0.0   120.0   16.666666666666668
50.0   150.0   16.666666666666668
50.0   120.0   0.0
0.0   150.0   0.0
0.0   120.0   16.666666666666668
50.0   120.0   16.666666666666668
0.0   150.0   16.666666666666668
0.0   120.0   33.333333333333336
50.0   120.0   16.666666666666668
50.0   150.0   16.666666666666668
0.0   150.0   16.666666666666668
50.0   150.0   33.333333333333336
0.0   120.0   33.333333333333336
0.0   150.0   33.333333333333336
50.0   150.0   33.333333333333336
0.0   150.0   16.666666666666668
0.0   120.0   33.333333333333336
50.0   150.0   33.333333333333336
50.0   120.0   33.333333333333336
50.0   120.0   16.666666666666668
0.0   120.0   33.333333333333336
50.0   150.0   33.333333333333336
50.0   120.0   16.666666666666668
0.0   150.0   16.666666666666668
0.0   120.0   33.333333333333336
50.0   120.0   33.333333333333336
0.0   150.0   33.333333333333336
0.0   120.0   50.0
50.0   120.0   33.333333333333336
50.0   150.0   33.333333333333336
0.0   150.0   33.333333333333336
50.0   150.0   50.0
0.0   120.0   50.0
0.0   150.0   50.0
50.0   150.0   50.0
0.0   150.0   33.333333333333336
0.0   120.0   50.0
50.0   150.0   50.0
50.0   120.0   50.0
50.0   120.0   33.333333333333336
0.0   120.0   50.0
50.0   150.0   50.0
50.0   120.0   33.333333333333336
0.0   150.0   33.333333333333336
50.0   0.0   0.0
100.0   0.0   0.0
50.0   30.0   0.0
50.0   0.0   16.666666666666668
100.0   0.0   0.0
100.0   30.0   0.0
50.0   30.0   0.0
100.0   30.0   16.666666666666668
50.0   0.0   16.666666666666668
50.0   30.0   16.666666666666668
100.0   30.0   16.666666666666668
50.0   30.0   0.0
50.0   0.0   16.666666666666668
100.0   30.0   16.666666666666668
100.0   0.0   16.666666666666668
100.0   0.0   0.0
50.0   0.0   16.666666666666668
100.0   30.0   16.666666666666668
100.0   0.0   0.0
50.0   30.0   0.0
50.0   0.0   16.666666666666668
100.0   0.0   16.666666666666668
50.0   30.0   16.666666666666668
50.0   0.0   33.333333333333336
100.0   0.0   16.666666666666668
100.0   30.0   16.666666666666668
50.0   30.0   16.666666666666668
100.0   30.0   33.333333333333336
50.0   0.0   33.333333333333336
50.0   30.0   33.333333333333336
100.0   30.0   33.333333333333336
50.0   30.0   16.666666666666668
50.0   0.0   33.333333333333336
100.0   30.0   33.333333333333336
100.0   0.0   33.333333333333336
100.0   0.0   16.666666666666668
50.0   0.0   33.333333333333336
100.0   30.0   33.333333333333336
100.0   0.0   16.666666666666668
50.0   30.0   16.666666666666668
50.0   0.0   33.333333333333336
100.0   0.0   33.333333333333336
50.0   30.0   33.333333333333336
50.0   0.0   50.0
100.0   0.0   33.333333333333336
100.0   30.0   33.333333333333336
50.0   30.0   33.333333333333336
100.0   30.0   50.0
50.0   0.0   50.0
50.0   30.0   50.0
100.0   30.0   50.0
50.0   30.0   33.333333333333336
50.0   0.0   50.0
100.0   30.0   50.0
100.0   0.0   50.0
100.0   0.0   33.333333333333336
50.0   0.0   50.0
100.0   30.0   50.0
100.0   0.0   33.333333333333336
50.0   30.0   33.333333333333336
50.0   30.0   0.0
100.0   30.0   0.0
50.0   60.0   0.0
50.0   30.0   16.666666666666668
100.0   30.0   0.0
100.0   60.0   0.0
50.0   60.0   0.0
100.0   60.0   16.666666666666668
50.0   30.0   16.666666666666668
50.0   60.0   16.666666666666668
100.0   60.0   16.666666666666668
50.0   60.0   0.0
50.0   30.0   16.666666666666668
100.0   60.0   16.666666666666668
100.0   30.0   16.666666666666668
100.0   30.0   0.0
50.0   30.0   16.666666666666668
100.0   60.0   16.666666666666668
100.0   30.0   0.0
50.0   60.0   0.0
50.0   30.0   16.666666666666668
100.0   30.0   16.666666666666668
50.0   60.0   16.666666666666668
50.0   30.0   33.333333333333336
100.0   30.0   16.666666666666668
100.0   60.0   16.666666666666668
50.0   60.0   16.666666666666668
100.0   60.0   33.333333333333336
50.0   30.0   33.333333333333336
50.0   60.0   33.333333333333336
100.0   60.0   33.333333333333336
50.0   60.0   16.666666666666668
50.0   30.0   33.333333333333336
100.0   60.0   33.333333333333336
100.0   30.0   33.333333333333336
100.0   30.0   16.666666666666668
50.0   30.0   33.333333333333336
100.0   60.0   33.333333333333336
100.0   30.0   16.666666666666668
50.0   60.0   16.666666666666668
50.0   30.0   33.333333333333336
100.0   30.0   33.333333333333336
50.0   60.0   33.333333333333336
50.0   30.0   50.0
100.0   30.0   33.333333333333336
100.0   60.0   33.333333333333336
50.0   60.0   33.333333333333336
100.0   60.0   50.0
50.0   30.0   50.0
50.0   60.0   50.0
100.0   60.0   50.0
50.0   60.0   33.333333333333336
50.0   30.0   50.0
100.0   60.0   50.0
100.0   30.0   50.0
100.0   30.0   33.333333333333336
50.0   30.0   50.0
100.0   60.0   50.0
100.0   30.0   33.333333333333336
50.0   60.0   33.333333333333336
50.0   60.0   0.0
100.0   60.0   0.0
50.0   90.0   0.0
50.0   60.0   16.666666666666668
100.0   60.0   0.0
100.0   90.0   0.0
50.0   90.0   0.0
100.0   90.0   16.666666666666668
50.0   60.0   16.666666666666668
50.0   90.0   16.666666666666668
100.0   90.0   16.666666666666668
50.0   90.0   0.0
50.0   60.0   16.666666666666668
100.0   90.0   16.666666666666668
100.0   60.0   16.666666666666668
100.0   60.0   0.0
50.0   60.0   16.666666666666668
100.0   90.0   16.666666666666668
100.0   60.0   0.0
50.0   90.0   0.0
50.0   60.0   16.666666666666668
100.0   60.0   16.666666666666668
50.0   90.0   16.666666666666668
50.0   60.0   33.333333333333336
100.0   60.0   16.666666666666668
100.0   90.0   16.666666666666668
50.0   90.0   16.666666666666668
100.0   90.0   33.333333333333336
50.0   60.0   33.333333333333336
50.0   90.0   33.333333333333336
100.0   90.0   33.333333333333336
50.0   90.0   16.666666666666668
50.0   60.0   33.333333333333336
100.0   90.0   33.333333333333336
100.0   60.0   33.333333333333336
100.0   60.0   16.666666666666668
50.0   60.0   33.333333333333336
100.0   90.0   33.333333333333336
100.0   60.0   16.666666666666668
50.0   90.0   16.666666666666668
50.0   60.0   33.333333333333336
100.0   60.0   33.333333333333336
50.0   90.0   33.333333333333336
50.0   60.0   50.0
100.0   60.0   33.333333333333336
100.0   90.0   33.333333333333336
50.0   90.0   33.333333333333336
100.0   90.0   50.0
50.0   60.0   50.0
50.0   90.0   50.0
100.0   90.0   50.0
50.0   90.0   33.333333333333336
50.0   60.0   50.0
100.0   90.0   50.0
100.0   60.0   50.0
100.0   60.0   33.333333333333336
50.0   60.0   50.0
100.0   90.0   50.0
100.0   60.0   33.333333333333336
50.0   90.0   33.333333333333336
50.0   90.0   0.0
100.0   90.0   0.0
50.0   120.0   0.0
50.0   90.0   16.666666666666668
100.0   90.0   0.0
100.0   120.0   0.0
50.0   120.0   0.0
100.0   120.0   16.666666666666668
50.0   90.0   16.666666666666668
50.0   120.0   16.666666666666668
100.0   120.0   16.666666666666668
50.0   120.0   0.0
50.0   90.0   16.666666666666668
100.0   120.0   16.666666666666668
100.0   90.0   16.666666666666668
100.0   90.0   0.0
50.0   90.0   16.666666666666668
100.0   120.0   16.666666666666668
100.0   90.0   0.0
50.0   120.0   0.0
50.0   90.0   16.666666666666668
100.0   90.0   16.666666666666668
50.0   120.0   16.666666666666668
50.0   90.0   33.333333333333336
100.0   90.0   16.666666666666668
100.0   120.0   16.666666666666668
50.0   120.0   16.666666666666668
100.0   120.0   33.333333333333336
50.0   90.0   33.333333333333336
50.0   120.0   33.333333333333336
100.0   120.0   33.333333333333336
50.0   120.0   16.666666666666668
50.0   90.0   33.333333333333336
100.0   120.0   33.333333333333336
100.0   90.0   33.333333333333336
100.0   90.0   16.666666666666668
50.0   90.0   33.333333333333336
100.0   120.0   33.333333333333336
100.0   90.0   16.666666666666668
50.0   120.0   16.666666666666668
50.0   90.0   33.333333333333336
100.0   90.0   33.333333333333336
50.0   120.0   33.333333333333336
50.0   90.0   50.0
100.0   90.0   33.333333333333336
100.0   120.0   33.333333333333336
50.0   120.0   33.333333333333336
100.0   120.0   50.0
50.0   90.0   50.0
50.0   120.0   50.0
100.0   120.0   50.0
50.0   120.0   33.333333333333336
50.0   90.0   50.0
100.0   120.0   50.0
100.0   90.0   50.0
100.0   90.0   33.333333333333336
50.0   90.0   50.0
100.0   120.0   50.0
100.0   90.0   33.333333333333336
50.0   120.0   33.333333333333336
50.0   120.0   0.0
100.0   120.0   0.0
50.0   150.0   0.0
50.0   120.0   16.666666666666668
100.0   120.0   0.0
100.0   150.0   0.0
50.0   150.0   0.0
100.0   150.0   16.666666666666668
50.0   120.0   16.666666666666668
50.0   150.0   16.666666666666668
100.0   150.0   16.666666666666668
50.0   150.0   0.0
50.0   120.0   16.666666666666668
100.0   150.0   16.666666666666668
100.0   120.0   16.666666666666668
100.0   120.0   0.0
50.0   120.0   16.666666666666668
100.0   150.0   16.666666666666668
100.0   120.0   0.0
50.0   150.0   0.0
50.0   120.0   16.666666666666668
100.0   120.0   16.666666666666668
50.0   150.0   16.666666666666668
50.0   120.0   33.333333333333336
100.0   120.0   16.666666666666668
100.0   150.0   16.666666666666668
50.0   150.0   16.666666666666668
100.0   150.0   33.333333333333336
50.0   120.0   33.333333333333336
50.0   150.0   33.333333333333336
100.0   150.0   33.333333333333336
50.0   150.0   16.666666666666668
50.0   120.0   33.333333333333336
100.0   150.0   33.333333333333336
100.0   120.0   33.333333333333336
100.0   120.0   16.666666666666668
50.0   120.0   33.333333333333336
100.0   150.0   33.333333333333336
100.0   120.0   16.666666666666668
50.0   150.0   16.666666666666668
50.0   120.0   33.333333333333336
100.0   120.0   33.333333333333336
50.0   150.0   33.333333333333336
50.0   120.0   50.0
100.0   120.0   33.333333333333336
100.0   150.0   33.333333333333336
50.0   150.0   33.333333333333336
100.0   150.0   50.0
50.0   120.0   50.0
50.0   150.0   50.0
100.0   150.0   50.0
50.0   150.0   33.333333333333336
50.0   120.0   50.0
100.0   150.0   50.0
100.0   120.0   50.0
100.0   120.0   33.333333333333336
50.0   120.0   50.0
100.0   150.0   50.0
100.0   120.0   33.333333333333336
50.0   150.0   33.333333333333336
100.0   0.0   0.0
150.0   0.0   0.0
100.0   30.0   0.0
100.0   0.0   16.666666666666668
150.0   0.0   0.0
150.0   30.0   0.0
100.0   30.0   0.0
150.0   30.0   16.666666666666668
100.0   0.0   16.666666666666668
100.0   30.0   16.666666666666668
150.0   30.0   16.666666666666668
100.0   30.0   0.0
100.0   0.0   16.666666666666668
150.0   30.0   16.666666666666668
150.0   0.0   16.666666666666668
150.0   0.0   0.0
100.0   0.0   16.666666666666668
150.0   30.0   16.666666666666668
150.0   0.0   0.0
100.0   30.0   0.0
100.0   0.0   16.666666666666668
150.0   0.0   16.666666666666668
100.0   30.0   16.666666666666668
100.0   0.0   33.333333333333336
150.0   0.0   16.666666666666668
150.0   30.0   16.666666666666668
100.0   30.0   16.666666666666668
150.0   30.0   33.333333333333336
100.0   0.0   33.333333333333336
100.0   30.0   33.333333333333336
150.0   30.0   33.333333333333336
100.0   30.0   16.666666666666668
100.0   0.0   33.333333333333336
150.0   30.0   33.333333333333336
150.0   0.0   33.333333333333336
150.0   0.0   16.666666666666668
100.0   0.0   33.333333333333336
150.0   30.0   33.333333333333336
150.0   0.0   16.666666666666668
100.0   30.0   16.666666666666668
100.0   0.0   33.333333333333336
150.0   0.0   33.333333333333336
100.0   30.0   33.333333333333336
100.0   0.0   50.0
150.0   0.0   33.333333333333336
150.0   30.0   33.333333333333336
100.0   30.0   33.333333333333336
150.0   30.0   50.0
100.0   0.0   50.0
100.0   30.0   50.0
150.0   30.0   50.0
100.0   30.0   33.333333333333336
100.0   0.0   50.0
150.0   30.0   50.0
150.0   0.0   50.0
150.0   0.0   33.333333333333336
100.0   0.0   50.0
150.0   30.0   50.0
150.0   0.0   33.333333333333336
100.0   30.0   33.333333333333336
100.0   30.0   0.0
150.0   30.0   0.0
100.0   60.0   0.0
100.0   30.0   16.666666666666668
150.0   30.0   0.0
150.0   60.0   0.0
100.0   60.0   0.0
150.0   60.0   16.666666666666668
100.0   30.0   16.666666666666668
100.0   60.0   16.666666666666668
150.0   60.0   16.666666666666668
100.0   60.0   0.0
100.0   30.0   16.666666666666668
150.0   60.0   16.666666666666668
150.0   30.0   16.666666666666668
150.0   30.0   0.0
100.0   30.0   16.666666666666668
150.0   60.0   16.666666666666668
150.0   30.0   0.0
100.0   60.0   0.0
100.0   30.0   16.666666666666668
150.0   30.0   16.666666666666668
100.0   60.0   16.666666666666668
100.0   30.0   33.333333333333336
150.0   30.0   16.666666666666668
150.0   60.0   16.666666666666668
100.0   60.0   16.666666666666668
150.0   60.0   33.333333333333336
100.0   30.0   33.333333333333336
100.0   60.0   33.333333333333336
150.0   60.0   33.333333333333336
100.0   60.0   16.666666666666668
100.0   30.0   33.333333333333336
150.0   60.0   33.333333333333336
150.0   30.0   33.333333333333336
150.0   30.0   16.666666666666668
100.0   30.0   33.333333333333336
150.0   60.0   33.333333333333336
150.0   30.0   16.666666666666668
100.0   60.0   16.666666666666668
100.0   30.0   33.333333333333336
150.0   30.0   33.333333333333336
100.0   60.0   33.333333333333336
100.0   30.0   50.0
150.0   30.0   33.333333333333336
150.0   60.0   33.333333333333336
100.0   60.0   33.333333333333336
150.0   60.0   50.0
100.0   30.0   50.0
100.0   60.0   50.0
150.0   60.0   50.0
100.0   60.0   33.333333333333336
100.0   30.0   50.0
150.0   60.0   50.0
150.0   30.0   50.0
150.0   30.0   33.333333333333336
100.0   30.0   50.0
150.0   60.0   50.0
150.0   30.0   33.333333333333336
100.0   60.0   33.333333333333336
100.0   60.0   0.0
150.0   60.0   0.0
100.0   90.0   0.0
100.0   60.0   16.666666666666668
150.0   60.0   0.0
150.0   90.0   0.0
100.0   90.0   0.0
150.0   90.0   16.666666666666668
100.0   60.0   16.666666666666668
100.0   90.0   16.666666666666668
150.0   90.0   16.666666666666668
100.0   90.0   0.0
100.0   60.0   16.666666666666668
150.0   90.0   16.666666666666668
150.0   60.0   16.666666666666668
150.0   60.0   0.0
100.0   60.0   16.666666666666668
150.0   90.0   16.666666666666668
150.0   60.0   0.0
100.0   90.0   0.0
100.0   60.0   16.666666666666668
150.0   60.0   16.666666666666668
100.0   90.0   16.666666666666668
100.0   60.0   33.333333333333336
150.0   60.0   16.666666666666668
150.0   90.0   16.666666666666668
100.0   90.0   16.666666666666668
150.0   90.0   33.333333333333336
100.0   60.0   33.333333333333336
100.0   90.0   33.333333333333336
150.0   90.0   33.333333333333336
100.0   90.0   16.666666666666668
100.0   60.0   33.333333333333336
150.0   90.0   33.333333333333336
150.0   60.0   33.333333333333336
150.0   60.0   16.666666666666668
100.0   60.0   33.333333333333336
150.0   90.0   33.333333333333336
150.0   60.0   16.666666666666668
100.0   90.0   16.666666666666668
100.0   60.0   33.333333333333336
150.0   60.0   33.333333333333336
100.0   90.0   33.333333333333336
100.0   60.0   50.0
150.0   60.0   33.333333333333336
150.0   90.0   33.333333333333336
100.0   90.0   33.333333333333336
150.0   90.0   50.0
100.0   60.0   50.0
100.0   90.0   50.0
150.0   90.0   50.0
100.0   90.0   33.333333333333336
100.0   60.0   50.0
150.0   90.0   50.0
150.0   60.0   50.0
150.0   60.0   33.333333333333336
100.0   60.0   50.0
150.0   90.0   50.0
150.0   60.0   33.333333333333336
100.0   90.0   33.333333333333336
100.0   90.0   0.0
150.0   90.0   0.0
100.0   120.0   0.0
100.0   90.0   16.666666666666668
150.0   90.0   0.0
150.0   120.0   0.0
100.0   120.0   0.0
150.0   120.0   16.666666666666668
100.0   90.0   16.666666666666668
100.0   120.0   16.666666666666668
150.0   120.0   16.666666666666668
100.0   120.0   0.0
100.0   90.0   16.666666666666668
150.0   120.0   16.666666666666668
150.0   90.0   16.666666666666668
150.0   90.0   0.0
100.0   90.0   16.666666666666668
150.0   120.0   16.666666666666668
150.0   90.0   0.0
100.0   120.0   0.0
100.0   90.0   16.666666666666668
150.0   90.0   16.666666666666668
100.0   120.0   16.666666666666668
100.0   90.0   33.333333333333336
150.0   90.0   16.666666666666668
150.0   120.0   16.666666666666668
100.0   120.0   16.666666666666668
150.0   120.0   33.333333333333336
100.0   90.0   33.333333333333336
100.0   120.0   33.333333333333336
150.0   120.0   33.333333333333336
100.0   120.0   16.666666666666668
100.0   90.0   33.333333333333336
150.0   120.0   33.333333333333336
150.0   90.0   33.333333333333336
150.0   90.0   16.666666666666668
100.0   90.0   33.333333333333336
150.0   120.0   33.333333333333336
150.0   90.0   16.666666666666668
100.0   120.0   16.666666666666668
100.0   90.0   33.333333333333336
150.0   90.0   33.333333333333336
100.0   120.0   33.333333333333336
100.0   90.0   50.0
150.0   90.0   33.333333333333336
150.0   120.0   33.333333333333336
100.0   120.0   33.333333333333336
150.0   120.0   50.0
100.0   90.0   50.0
100.0   120.0   50.0
150.0   120.0   50.0
100.0   120.0   33.333333333333336
100.0   90.0   50.0
150.0   120.0   50.0
150.0   90.0   50.0
150.0   90.0   33.333333333333336
100.0   90.0   50.0
150.0   120.0   50.0
150.0   90.0   33.333333333333336
100.0   120.0   33.333333333333336
100.0   120.0   0.0
150.0   120.0   0.0
100.0   150.0   0.0
100.0   120.0   16.666666666666668
150.0   120.0   0.0
150.0   150.0   0.0
100.0   150.0   0.0
150.0   150.0   16.666666666666668
100.0   120.0   16.666666666666668
100.0   150.0   16.666666666666668
150.0   150.0   16.666666666666668
100.0   150.0   0.0
100.0   120.0   16.666666666666668
150.0   150.0   16.666666666666668
150.0   120.0   16.666666666666668
150.0   120.0   0.0
100.0   120.0   16.666666666666668
150.0   150.0   16.666666666666668
150.0   120.0   0.0
100.0   150.0   0.0
100.0   120.0   16.666666666666668
150.0   120.0   16.666666666666668
100.0   150.0   16.666666666666668
100.0   120.0   33.333333333333336
150.0   120.0   16.666666666666668
150.0   150.0   16.666666666666668
100.0   150.0   16.666666666666668
150.0   150.0   33.333333333333336
100.0   120.0   33.333333333333336
100.0   150.0   33.333333333333336
150.0   150.0   33.333333333333336
100.0   150.0   16.666666666666668
100.0   120.0   33.333333333333336
150.0   150.0   33.333333333333336
150.0   120.0   33.333333333333336
150.0   120.0   16.666666666666668
100.0   120.0   33.333333333333336
150.0   150.0   33.333333333333336
150.0   120.0   16.666666666666668
100.0   150.0   16.666666666666668
100.0   120.0   33.333333333333336
150.0   120.0   33.333333333333336
100.0   150.0   33.333333333333336
100.0   120.0   50.0
150.0   120.0   33.333333333333336
150.0   150.0   33.333333333333336
100.0   150.0   33.333333333333336
150.0   150.0   50.0
100.0   120.0   50.0
100.0   150.0   50.0
150.0   150.0   50.0
100.0   150.0   33.333333333333336
100.0   120.0   50.0
150.0   150.0   50.0
150.0   120.0   50.0
150.0   120.0   33.333333333333336
100.0   120.0   50.0
150.0   150.0   50.0
150.0   120.0   33.333333333333336
100.0   150.0   33.333333333333336
150.0   0.0   0.0
200.0   0.0   0.0
150.0   30.0   0.0
150.0   0.0   16.666666666666668
200.0   0.0   0.0
200.0   30.0   0.0
150.0   30.0   0.0
200.0   30.0   16.666666666666668
150.0   0.0   16.666666666666668
150.0   30.0   16.666666666666668
200.0   30.0   16.666666666666668
150.0   30.0   0.0
150.0   0.0   16.666666666666668
200.0   30.0   16.666666666666668
200.0   0.0   16.666666666666668
200.0   0.0   0.0
150.0   0.0   16.666666666666668
200.0   30.0   16.666666666666668
200.0   0.0   0.0
150.0   30.0   0.0
150.0   0.0   16.666666666666668
200.0   0.0   16.666666666666668
150.0   30.0   16.666666666666668
150.0   0.0   33.333333333333336
200.0   0.0   16.666666666666668
200.0   30.0   16.666666666666668
150.0   30.0   16.666666666666668
200.0   30.0   33.333333333333336
150.0   0.0   33.333333333333336
150.0   30.0   33.333333333333336
200.0   30.0   33.333333333333336
150.0   30.0   16.666666666666668
150.0   0.0   33.333333333333336
200.0   30.0   33.333333333333336
200.0   0.0   33.333333333333336
200.0   0.0   16.666666666666668
150.0   0.0   33.333333333333336
200.0   30.0   33.333333333333336
200.0   0.0   16.666666666666668
150.0   30.0   16.666666666666668
150.0   0.0   33.333333333333336
200.0   0.0   33.333333333333336
150.0   30.0   33.333333333333336
150.0   0.0   50.0
200.0   0.0   33.333333333333336
200.0   30.0   33.333333333333336
150.0   30.0   33.333333333333336
200.0   30.0   50.0
150.0   0.0   50.0
150.0   30.0   50.0
200.0   30.0   50.0
150.0   30.0   33.333333333333336
150.0   0.0   50.0
200.0   30.0   50.0
200.0   0.0   50.0
200.0   0.0   33.333333333333336
150.0   0.0   50.0
200.0   30.0   50.0
200.0   0.0   33.333333333333336
150.0   30.0   33.333333333333336
150.0   30.0   0.0
200.0   30.0   0.0
150.0   60.0   0.0
150.0   30.0   16.666666666666668
200.0   30.0   0.0
200.0   60.0   0.0
150.0   60.0   0.0
200.0   60.0   16.666666666666668
150.0   30.0   16.666666666666668
150.0   60.0   16.666666666666668
200.0   60.0   16.666666666666668
150.0   60.0   0.0
150.0   30.0   16.666666666666668
200.0   60.0   16.666666666666668
200.0   30.0   16.666666666666668
200.0   30.0   0.0
150.0   30.0   16.666666666666668
200.0   60.0   16.666666666666668
200.0   30.0   0.0
150.0   60.0   0.0
150.0   30.0   16.666666666666668
200.0   30.0   16.666666666666668
150.0   60.0   16.666666666666668
150.0   30.0   33.333333333333336
200.0   30.0   16.666666666666668
200.0   60.0   16.666666666666668
150.0   60.0   16.666666666666668
200.0   60.0   33.333333333333336
150.0   30.0   33.333333333333336
150.0   60.0   33.333333333333336
200.0   60.0   33.333333333333336
150.0   60.0   16.666666666666668
150.0   30.0   33.333333333333336
200.0   60.0   33.333333333333336
200.0   30.0   33.333333333333336
200.0   30.0   16.666666666666668
150.0   30.0   33.333333333333336
200.0   60.0   33.333333333333336
200.0   30.0   16.666666666666668
150.0   60.0   16.666666666666668
150.0   30.0   33.333333333333336
200.0   30.0   33.333333333333336
150.0   60.0   33.333333333333336
150.0   30.0   50.0
200.0   30.0   33.333333333333336
200.0   60.0   33.333333333333336
150.0   60.0   33.333333333333336
200.0   60.0   50.0
150.0   30.0   50.0
150.0   60.0   50.0
200.0   60.0   50.0
150.0   60.0   33.333333333333336
150.0   30.0   50.0
200.0   60.0   50.0
200.0   30.0   50.0
200.0   30.0   33.333333333333336
150.0   30.0   50.0
200.0   60.0   50.0
200.0   30.0   33.333333333333336
150.0   60.0   33.333333333333336
150.0   60.0   0.0
200.0   60.0   0.0
150.0   90.0   0.0
150.0   60.0   16.666666666666668
200.0   60.0   0.0
200.0   90.0   0.0
150.0   90.0   0.0
200.0   90.0   16.666666666666668
150.0   60.0   16.666666666666668
150.0   90.0   16.666666666666668
200.0   90.0   16.666666666666668
150.0   90.0   0.0
150.0   60.0   16.666666666666668
200.0   90.0   16.666666666666668
200.0   60.0   16.666666666666668
200.0   60.0   0.0
150.0   60.0   16.666666666666668
200.0   90.0   16.666666666666668
200.0   60.0   0.0
150.0   90.0   0.0
150.0   60.0   16.666666666666668
200.0   60.0   16.666666666666668
150.0   90.0   16.666666666666668
150.0   60.0   33.333333333333336
200.0   60.0   16.666666666666668
200.0   90.0   16.666666666666668
150.0   90.0   16.666666666666668
200.0   90.0   33.333333333333336
150.0   60.0   33.333333333333336
150.0   90.0   33.333333333333336
200.0   90.0   33.333333333333336
150.0   90.0   16.666666666666668
150.0   60.0   33.333333333333336
200.0   90.0   33.333333333333336
200.0   60.0   33.333333333333336
200.0   60.0   16.666666666666668
150.0   60.0   33.333333333333336
200.0   90.0   33.333333333333336
200.0   60.0   16.666666666666668
150.0   90.0   16.666666666666668
150.0   60.0   33.333333333333336
200.0   60.0   33.333333333333336
150.0   90.0   33.333333333333336
150.0   60.0   50.0
200.0   60.0   33.333333333333336
200.0   90.0   33.333333333333336
150.0   90.0   33.333333333333336
200.0   90.0   50.0
150.0   60.0   50.0
150.0   90.0   50.0
200.0   90.0   50.0
150.0   90.0   33.333333333333336
150.0   60.0   50.0
200.0   90.0   50.0
200.0   60.0   50.0
200.0   60.0   33.333333333333336
150.0   60.0   50.0
200.0   90.0   50.0
200.0   60.0   33.333333333333336
150.0   90.0   33.333333333333336
150.0   90.0   0.0
200.0   90.0   0.0
150.0   120.0   0.0
150.0   90.0   16.666666666666668
200.0   90.0   0.0
200.0   120.0   0.0
150.0   120.0   0.0
200.0   120.0   16.666666666666668
150.0   90.0   16.666666666666668
150.0   120.0   16.666666666666668
200.0   120.0   16.666666666666668
150.0   120.0   0.0
150.0   90.0   16.666666666666668
200.0   120.0   16.666666666666668
200.0   90.0   16.666666666666668
200.0   90.0   0.0
150.0   90.0   16.666666666666668
200.0   120.0   16.666666666666668
200.0   90.0   0.0
150.0   120.0   0.0
150.0   90.0   16.666666666666668
200.0   90.0   16.666666666666668
150.0   120.0   16.666666666666668
150.0   90.0   33.333333333333336
200.0   90.0   16.666666666666668
200.0   120.0   16.666666666666668
150.0   120.0   16.666666666666668
200.0   120.0   33.333333333333336
150.0   90.0   33.333333333333336
150.0   120.0   33.333333333333336
200.0   120.0   33.333333333333336
150.0   120.0   16.666666666666668
150.0   90.0   33.333333333333336
200.0   120.0   33.333333333333336
200.0   90.0   33.333333333333336
200.0   90.0   16.666666666666668
150.0   90.0   33.333333333333336
200.0   120.0   33.333333333333336
200.0   90.0   16.666666666666668
150.0   120.0   16.666666666666668
150.0   90.0   33.333333333333336
200.0   90.0   33.333333333333336
150.0   120.0   33.333333333333336
150.0   90.0   50.0
200.0   90.0   33.333333333333336
200.0   120.0   33.333333333333336
150.0   120.0   33.333333333333336
200.0   120.0   50.0
150.0   90.0   50.0
150.0   120.0   50.0
200.0   120.0   50.0
150.0   120.0   33.333333333333336
150.0   90.0   50.0
200.0   120.0   50.0
200.0   90.0   50.0
200.0   90.0   33.333333333333336
150.0   90.0   50.0
200.0   120.0   50.0
200.0   90.0   33.333333333333336
150.0   120.0   33.333333333333336
150.0   120.0   0.0
200.0   120.0   0.0
150.0   150.0   0.0
150.0   120.0   16.666666666666668
200.0   120.0   0.0
200.0   150.0   0.0
150.0   150.0   0.0
200.0   150.0   16.666666666666668
150.0   120.0   16.666666666666668
150.0   150.0   16.666666666666668
200.0   150.0   16.666666666666668
150.0   150.0   0.0
150.0   120.0   16.666666666666668
200.0   150.0   16.666666666666668
200.0   120.0   16.666666666666668
200.0   120.0   0.0
150.0   120.0   16.666666666666668
200.0   150.0   16.666666666666668
200.0   120.0   0.0
150.0   150.0   0.0
150.0   120.0   16.666666666666668
200.0   120.0   16.666666666666668
150.0   150.0   16.666666666666668
150.0   120.0   33.333333333333336
200.0   120.0   16.666666666666668
200.0   150.0   16.666666666666668
150.0   150.0   16.666666666666668
200.0   150.0   33.333333333333336
150.0   120.0   33.333333333333336
150.0   150.0   33.333333333333336
200.0   150.0   33.333333333333336
150.0   150.0   16.666666666666668
150.0   120.0   33.333333333333336
200.0   150.0   33.333333333333336
200.0   120.0   33.333333333333336
200.0   120.0   16.666666666666668
150.0   120.0   33.333333333333336
200.0   150.0   33.333333333333336
200.0   120.0   16.666666666666668
150.0   150.0   16.666666666666668
150.0   120.0   33.333333333333336
200.0   120.0   33.333333333333336
150.0   150.0   33.333333333333336
150.0   120.0   50.0
200.0   120.0   33.333333333333336
200.0   150.0   33.333333333333336
150.0   150.0   33.333333333333336
200.0   150.0   50.0
150.0   120.0   50.0
150.0   150.0   50.0
200.0   150.0   50.0
150.0   150.0   33.333333333333336
150.0   120.0   50.0
200.0   150.0   50.0
200.0   120.0   50.0
200.0   120.0   33.333333333333336
150.0   120.0   50.0
200.0   150.0   50.0
200.0   120.0   33.333333333333336
150.0   150.0   33.333333333333336
200.0   0.0   0.0
250.0   0.0   0.0
200.0   30.0   0.0
200.0   0.0   16.666666666666668
250.0   0.0   0.0
250.0   30.0   0.0
200.0   30.0   0.0
250.0   30.0   16.666666666666668
200.0   0.0   16.666666666666668
200.0   30.0   16.666666666666668
250.0   30.0   16.666666666666668
200.0   30.0   0.0
200.0   0.0   16.666666666666668
250.0   30.0   16.666666666666668
250.0   0.0   16.666666666666668
250.0   0.0   0.0
200.0   0.0   16.666666666666668
250.0   30.0   16.666666666666668
250.0   0.0   0.0
200.0   30.0   0.0
200.0   0.0   16.666666666666668
250.0   0.0   16.666666666666668
200.0   30.0   16.666666666666668
200.0   0.0   33.333333333333336
250.0   0.0   16.666666666666668
250.0   30.0   16.666666666666668
200.0   30.0   16.666666666666668
250.0   30.0   33.333333333333336
200.0   0.0   33.333333333333336
200.0   30.0   33.333333333333336
250.0   30.0   33.333333333333336
200.0   30.0   16.666666666666668
200.0   0.0   33.333333333333336
250.0   30.0   33.333333333333336
250.0   0.0   33.333333333333336
250.0   0.0   16.666666666666668
200.0   0.0   33.333333333333336
250.0   30.0   33.333333333333336
250.0   0.0   16.666666666666668
200.0   30.0   16.666666666666668
200.0   0.0   33.333333333333336
250.0   0.0   33.333333333333336
200.0   30.0   33.333333333333336
200.0   0.0   50.0
250.0   0.0   33.333333333333336
250.0   30.0   33.333333333333336
200.0   30.0   33.333333333333336
250.0   30.0   50.0
200.0   0.0   50.0
200.0   30.0   50.0
250.0   30.0   50.0
200.0   30.0   33.333333333333336
200.0   0.0   50.0
250.0   30.0   50.0
250.0   0.0   50.0
250.0   0.0   33.333333333333336
200.0   0.0   50.0
250.0   30.0   50.0
250.0   0.0   33.333333333333336
200.0   30.0   33.333333333333336
200.0   30.0   0.0
250.0   30.0   0.0
200.0   60.0   0.0
200.0   30.0   16.666666666666668
250.0   30.0   0.0
250.0   60.0   0.0
200.0   60.0   0.0
250.0   60.0   16.666666666666668
200.0   30.0   16.666666666666668
200.0   60.0   16.666666666666668
250.0   60.0   16.666666666666668
200.0   60.0   0.0
200.0   30.0   16.666666666666668
250.0   60.0   16.666666666666668
250.0   30.0   16.666666666666668
250.0   30.0   0.0
200.0   30.0   16.666666666666668
250.0   60.0   16.666666666666668
250.0   30.0   0.0
200.0   60.0   0.0
200.0   30.0   16.666666666666668
250.0   30.0   16.666666666666668
200.0   60.0   16.666666666666668
200.0   30.0   33.333333333333336
250.0   30.0   16.666666666666668
250.0   60.0   16.666666666666668
200.0   60.0   16.666666666666668
250.0   60.0   33.333333333333336
200.0   30.0   33.333333333333336
200.0   60.0   33.333333333333336
250.0   60.0   33.333333333333336
200.0   60.0   16.666666666666668
200.0   30.0   33.333333333333336
250.0   60.0   33.333333333333336
250.0   30.0   33.333333333333336
250.0   30.0   16.666666666666668
200.0   30.0   33.333333333333336
250.0   60.0   33.333333333333336
250.0   30.0   16.666666666666668
200.0   60.0   16.666666666666668
200.0   30.0   33.333333333333336
250.0   30.0   33.333333333333336
200.0   60.0   33.333333333333336
200.0   30.0   50.0
250.0   30.0   33.333333333333336
250.0   60.0   33.333333333333336
200.0   60.0   33.333333333333336
250.0   60.0   50.0
200.0   30.0   50.0
200.0   60.0   50.0
250.0   60.0   50.0
200.0   60.0   33.333333333333336
200.0   30.0   50.0
250.0   60.0   50.0
250.0   30.0   50.0
250.0   30.0   33.333333333333336
200.0   30.0   50.0
250.0   60.0   50.0
250.0   30.0   33.333333333333336
200.0   60.0   33.333333333333336
200.0   60.0   0.0
250.0   60.0   0.0
200.0   90.0   0.0
200.0   60.0   16.666666666666668
250.0   60.0   0.0
250.0   90.0   0.0
200.0   90.0   0.0
250.0   90.0   16.666666666666668
200.0   60.0   16.666666666666668
200.0   90.0   16.666666666666668
250.0   90.0   16.666666666666668
200.0   90.0   0.0
200.0   60.0   16.666666666666668
250.0   90.0   16.666666666666668
250.0   60.0   16.666666666666668
250.0   60.0   0.0
200.0   60.0   16.666666666666668
250.0   90.0   16.666666666666668
250.0   60.0   0.0
200.0   90.0   0.0
200.0   60.0   16.666666666666668
250.0   60.0   16.666666666666668
200.0   90.0   16.666666666666668
200.0   60.0   33.333333333333336
250.0   60.0   16.666666666666668
250.0   90.0   16.666666666666668
200.0   90.0   16.666666666666668
250.0   90.0   33.333333333333336
200.0   60.0   33.333333333333336
200.0   90.0   33.333333333333336
250.0   90.0   33.333333333333336
200.0   90.0   16.666666666666668
200.0   60.0   33.333333333333336
250.0   90.0   33.333333333333336
250.0   60.0   33.333333333333336
250.0   60.0   16.666666666666668
200.0   60.0   33.333333333333336
250.0   90.0   33.333333333333336
250.0   60.0   16.666666666666668
200.0   90.0   16.666666666666668
200.0   60.0   33.333333333333336
250.0   60.0   33.333333333333336
200.0   90.0   33.333333333333336
200.0   60.0   50.0
250.0   60.0   33.333333333333336
250.0   90.0   33.333333333333336
200.0   90.0   33.333333333333336
250.0   90.0   50.0
200.0   60.0   50.0
200.0   90.0   50.0
250.0   90.0   50.0
200.0   90.0   33.333333333333336
200.0   60.0   50.0
250.0   90.0   50.0
250.0   60.0   50.0
250.0   60.0   33.333333333333336
200.0   60.0   50.0
250.0   90.0   50.0
250.0   60.0   33.333333333333336
200.0   90.0   33.333333333333336
200.0   90.0   0.0
250.0   90.0   0.0
200.0   120.0   0.0
200.0   90.0   16.666666666666668
250.0   90.0   0.0
250.0   120.0   0.0
200.0   120.0   0.0
250.0   120.0   16.666666666666668
200.0   90.0   16.666666666666668
200.0   120.0   16.666666666666668
250.0   120.0   16.666666666666668
200.0   120.0   0.0
200.0   90.0   16.666666666666668
250.0   120.0   16.666666666666668
250.0   90.0   16.666666666666668
250.0   90.0   0.0
200.0   90.0   16.666666666666668
250.0   120.0   16.666666666666668
250.0   90.0   0.0
200.0   120.0   0.0
200.0   90.0   16.666666666666668
250.0   90.0   16.666666666666668
200.0   120.0   16.666666666666668
200.0   90.0   33.333333333333336
250.0   90.0   16.666666666666668
250.0   120.0   16.666666666666668
200.0   120.0   16.666666666666668
250.0   120.0   33.333333333333336
200.0   90.0   33.333333333333336
200.0   120.0   33.333333333333336
250.0   120.0   33.333333333333336
200.0   120.0   16.666666666666668
200.0   90.0   33.333333333333336
250.0   120.0   33.333333333333336
250.0   90.0   33.333333333333336
250.0   90.0   16.666666666666668
200.0   90.0   33.333333333333336
250.0   120.0   33.333333333333336
250.0   90.0   16.666666666666668
200.0   120.0   16.666666666666668
200.0   90.0   33.333333333333336
250.0   90.0   33.333333333333336
200.0   120.0   33.333333333333336
200.0   90.0   50.0
250.0   90.0   33.333333333333336
250.0   120.0   33.333333333333336
200.0   120.0   33.333333333333336
250.0   120.0   50.0
200.0   90.0   50.0
200.0   120.0   50.0
250.0   120.0   50.0
200.0   120.0   33.333333333333336
200.0   90.0   50.0
250.0   120.0   50.0
250.0   90.0   50.0
250.0   90.0   33.333333333333336
200.0   90.0   50.0
250.0   120.0   50.0
250.0   90.0   33.333333333333336
200.0   120.0   33.333333333333336
200.0   120.0   0.0
250.0   120.0   0.0
200.0   150.0   0.0
200.0   120.0   16.666666666666668
250.0   120.0   0.0
250.0   150.0   0.0
200.0   150.0   0.0
250.0   150.0   16.666666666666668
200.0   120.0   16.666666666666668
200.0   150.0   16.666666666666668
250.0   150.0   16.666666666666668
200.0   150.0   0.0
200.0   120.0   16.666666666666668
250.0   150.0   16.666666666666668
250.0   120.0   16.666666666666668
250.0   120.0   0.0
200.0   120.0   16.666666666666668
250.0   150.0   16.666666666666668
250.0   120.0   0.0
200.0   150.0   0.0
200.0   120.0   16.666666666666668
250.0   120.0   16.666666666666668
200.0   150.0   16.666666666666668
200.0   120.0   33.333333333333336
250.0   120.0   16.666666666666668
250.0   150.0   16.666666666666668
200.0   150.0   16.666666666666668
250.0   150.0   33.333333333333336
200.0   120.0   33.333333333333336
200.0   150.0   33.333333333333336
250.0   150.0   33.333333333333336
200.0   150.0   16.666666666666668
200.0   120.0   33.333333333333336
250.0   150.0   33.333333333333336
250.0   120.0   33.333333333333336
250.0   120.0   16.666666666666668
200.0   120.0   33.333333333333336
250.0   150.0   33.333333333333336
250.0   120.0   16.666666666666668
200.0   150.0   16.666666666666668
200.0   120.0   33.333333333333336
250.0   120.0   33.333333333333336
200.0   150.0   33.333333333333336
200.0   120.0   50.0
250.0   120.0   33.333333333333336
250.0   150.0   33.333333333333336
200.0   150.0   33.333333333333336
250.0   150.0   50.0
200.0   120.0   50.0
200.0   150.0   50.0
250.0   150.0   50.0
200.0   150.0   33.333333333333336
200.0   120.0   50.0
250.0   150.0   50.0
250.0   120.0   50.0
250.0   120.0   33.333333333333336
200.0   120.0   50.0
250.0   150.0   50.0
250.0   120.0   33.333333333333336
200.0   150.0   33.333333333333336
250.0   0.0   0.0
300.0   0.0   0.0
250.0   30.0   0.0
250.0   0.0   16.666666666666668
300.0   0.0   0.0
300.0   30.0   0.0
250.0   30.0   0.0
300.0   30.0   16.666666666666668
250.0   0.0   16.666666666666668
250.0   30.0   16.666666666666668
300.0   30.0   16.666666666666668
250.0   30.0   0.0
250.0   0.0   16.666666666666668
300.0   30.0   16.666666666666668
300.0   0.0   16.666666666666668
300.0   0.0   0.0
250.0   0.0   16.666666666666668
300.0   30.0   16.666666666666668
300.0   0.0   0.0
250.0   30.0   0.0
250.0   0.0   16.666666666666668
300.0   0.0   16.666666666666668
250.0   30.0   16.666666666666668
250.0   0.0   33.333333333333336
300.0   0.0   16.666666666666668
300.0   30.0   16.666666666666668
250.0   30.0   16.666666666666668
300.0   30.0   33.333333333333336
250.0   0.0   33.333333333333336
250.0   30.0   33.333333333333336
300.0   30.0   33.333333333333336
250.0   30.0   16.666666666666668
250.0   0.0   33.333333333333336
300.0   30.0   33.333333333333336
300.0   0.0   33.333333333333336
300.0   0.0   16.666666666666668
250.0   0.0   33.333333333333336
300.0   30.0   33.333333333333336
300.0   0.0   16.666666666666668
250.0   30.0   16.666666666666668
250.0   0.0   33.333333333333336
300.0   0.0   33.333333333333336
250.0   30.0   33.333333333333336
250.0   0.0   50.0
300.0   0.0   33.333333333333336
300.0   30.0   33.333333333333336
250.0   30.0   33.333333333333336
300.0   30.0   50.0
250.0   0.0   50.0
250.0   30.0   50.0
300.0   30.0   50.0
250.0   30.0   33.333333333333336
250.0   0.0   50.0
300.0   30.0   50.0
300.0   0.0   50.0
300.0   0.0   33.333333333333336
250.0   0.0   50.0
300.0   30.0   50.0
300.0   0.0   33.333333333333336
250.0   30.0   33.333333333333336
250.0   30.0   0.0
300.0   30.0   0.0
250.0   60.0   0.0
250.0   30.0   16.666666666666668
300.0   30.0   0.0
300.0   60.0   0.0
250.0   60.0   0.0
300.0   60.0   16.666666666666668
250.0   30.0   16.666666666666668
250.0   60.0   16.666666666666668
300.0   60.0   16.666666666666668
250.0   60.0   0.0
250.0   30.0   16.666666666666668
300.0   60.0   16.666666666666668
300.0   30.0   16.666666666666668
300.0   30.0   0.0
250.0   30.0   16.666666666666668
300.0   60.0   16.666666666666668
300.0   30.0   0.0
250.0   60.0   0.0
250.0   30.0   16.666666666666668
300.0   30.0   16.666666666666668
250.0   60.0   16.666666666666668
250.0   30.0   33.333333333333336
300.0   30.0   16.666666666666668
300.0   60.0   16.666666666666668
250.0   60.0   16.666666666666668
300.0   60.0   33.333333333333336
250.0   30.0   33.333333333333336
250.0   60.0   33.333333333333336
300.0   60.0   33.333333333333336
250.0   60.0   16.666666666666668
250.0   30.0   33.333333333333336
300.0   60.0   33.333333333333336
300.0   30.0   33.333333333333336
300.0   30.0   16.666666666666668
250.0   30.0   33.333333333333336
300.0   60.0   33.333333333333336
300.0   30.0   16.666666666666668
250.0   60.0   16.666666666666668
250.0   30.0   33.333333333333336
300.0   30.0   33.333333333333336
250.0   60.0   33.333333333333336
250.0   30.0   50.0
300.0   30.0   33.333333333333336
300.0   60.0   33.333333333333336
250.0   60.0   33.333333333333336
300.0   60.0   50.0
250.0   30.0   50.0
250.0   60.0   50.0
300.0   60.0   50.0
250.0   60.0   33.333333333333336
250.0   30.0   50.0
300.0   60.0   50.0
300.0   30.0   50.0
300.0   30.0   33.333333333333336
250.0   30.0   50.0
300.0   60.0   50.0
300.0   30.0   33.333333333333336
250.0   60.0   33.333333333333336
250.0   60.0   0.0
300.0   60.0   0.0
250.0   90.0   0.0
250.0   60.0   16.666666666666668
300.0   60.0   0.0
300.0   90.0   0.0
250.0   90.0   0.0
300.0   90.0   16.666666666666668
250.0   60.0   16.666666666666668
250.0   90.0   16.666666666666668
300.0   90.0   16.666666666666668
250.0   90.0   0.0
250.0   60.0   16.666666666666668
300.0   90.0   16.666666666666668
300.0   60.0   16.666666666666668
300.0   60.0   0.0
250.0   60.0   16.666666666666668
300.0   90.0   16.666666666666668
300.0   60.0   0.0
250.0   90.0   0.0
250.0   60.0   16.666666666666668
300.0   60.0   16.666666666666668
250.0   90.0   16.666666666666668
250.0   60.0   33.333333333333336
300.0   60.0   16.666666666666668
300.0   90.0   16.666666666666668
250.0   90.0   16.666666666666668
300.0   90.0   33.333333333333336
250.0   60.0   33.333333333333336
250.0   90.0   33.333333333333336
300.0   90.0   33.333333333333336
250.0   90.0   16.666666666666668
250.0   60.0   33.333333333333336
300.0   90.0   33.333333333333336
300.0   60.0   33.333333333333336
300.0   60.0   16.666666666666668
250.0   60.0   33.333333333333336
300.0   90.0   33.333333333333336
300.0   60.0   16.666666666666668
250.0   90.0   16.666666666666668
250.0   60.0   33.333333333333336
300.0   60.0   33.333333333333336
250.0   90.0   33.333333333333336
250.0   60.0   50.0
300.0   60.0   33.333333333333336
300.0   90.0   33.333333333333336
250.0   90.0   33.333333333333336
300.0   90.0   50.0
250.0   60.0   50.0
250.0   90.0   50.0
300.0   90.0   50.0
250.0   90.0   33.333333333333336
250.0   60.0   50.0
300.0   90.0   50.0
300.0   60.0   50.0
300.0   60.0   33.333333333333336
250.0   60.0   50.0
300.0   90.0   50.0
300.0   60.0   33.333333333333336
250.0   90.0   33.333333333333336
250.0   90.0   0.0
300.0   90.0   0.0
250.0   120.0   0.0
250.0   90.0   16.666666666666668
300.0   90.0   0.0
300.0   120.0   0.0
250.0   120.0   0.0
300.0   120.0   16.666666666666668
250.0   90.0   16.666666666666668
250.0   120.0   16.666666666666668
300.0   120.0   16.666666666666668
250.0   120.0   0.0
250.0   90.0   16.666666666666668
300.0   120.0   16.666666666666668
300.0   90.0   16.666666666666668
300.0   90.0   0.0
250.0   90.0   16.666666666666668
300.0   120.0   16.666666666666668
300.0   90.0   0.0
250.0   120.0   0.0
250.0   90.0   16.666666666666668
300.0   90.0   16.666666666666668
250.0   120.0   16.666666666666668
250.0   90.0   33.333333333333336
300.0   90.0   16.666666666666668
300.0   120.0   16.666666666666668
250.0   120.0   16.666666666666668
300.0   120.0   33.333333333333336
250.0   90.0   33.333333333333336
250.0   120.0   33.333333333333336
300.0   120.0   33.333333333333336
250.0   120.0   16.666666666666668
250.0   90.0   33.333333333333336
300.0   120.0   33.333333333333336
300.0   90.0   33.333333333333336
300.0   90.0   16.666666666666668
250.0   90.0   33.333333333333336
300.0   120.0   33.333333333333336
300.0   90.0   16.666666666666668
250.0   120.0   16.666666666666668
250.0   90.0   33.333333333333336
300.0   90.0   33.333333333333336
250.0   120.0   33.333333333333336
250.0   90.0   50.0
300.0   90.0   33.333333333333336
300.0   120.0   33.333333333333336
250.0   120.0   33.333333333333336
300.0   120.0   50.0
250.0   90.0   50.0
250.0   120.0   50.0
300.0   120.0   50.0
250.0   120.0   33.333333333333336
250.0   90.0   50.0
300.0   120.0   50.0
300.0   90.0   50.0
300.0   90.0   33.333333333333336
250.0   90.0   50.0
300.0   120.0   50.0
300.0   90.0   33.333333333333336
250.0   120.0   33.333333333333336
250.0   120.0   0.0
300.0   120.0   0.0
250.0   150.0   0.0
250.0   120.0   16.666666666666668
300.0   120.0   0.0
300.0   150.0   0.0
250.0   150.0   0.0
300.0   150.0   16.666666666666668
250.0   120.0   16.666666666666668
250.0   150.0   16.666666666666668
300.0   150.0   16.666666666666668
250.0   150.0   0.0
250.0   120.0   16.666666666666668
300.0   150.0   16.666666666666668
300.0   120.0   16.666666666666668
300.0   120.0   0.0
250.0   120.0   16.666666666666668
300.0   150.0   16.666666666666668
300.0   120.0   0.0
250.0   150.0   0.0
250.0   120.0   16.666666666666668
300.0   120.0   16.666666666666668
250.0   150.0   16.666666666666668
250.0   120.0   33.333333333333336
300.0   120.0   16.666666666666668
300.0   150.0   16.666666666666668
250.0   150.0   16.666666666666668
300.0   150.0   33.333333333333336
250.0   120.0   33.333333333333336
250.0   150.0   33.333333333333336
300.0   150.0   33.333333333333336
250.0   150.0   16.666666666666668
250.0   120.0   33.333333333333336
300.0   150.0   33.333333333333336
300.0   120.0   33.333333333333336
300.0   120.0   16.666666666666668
250.0   120.0   33.333333333333336
300.0   150.0   33.333333333333336
300.0   120.0   16.666666666666668
250.0   150.0   16.666666666666668
250.0   120.0   33.333333333333336
300.0   120.0   33.333333333333336
250.0   150.0   33.333333333333336
250.0   120.0   50.0
300.0   120.0   33.333333333333336
300.0   150.0   33.333333333333336
250.0   150.0   33.333333333333336
300.0   150.0   50.0
250.0   120.0   50.0
250.0   150.0   50.0
300.0   150.0   50.0
250.0   150.0   33.333333333333336
250.0   120.0   50.0
300.0   150.0   50.0
300.0   120.0   50.0
300.0   120.0   33.333333333333336
250.0   120.0   50.0
300.0   150.0   50.0
300.0   120.0   33.333333333333336
250.0   150.0   33.333333333333336
300.0   0.0   0.0
350.0   0.0   0.0
300.0   30.0   0.0
300.0   0.0   16.666666666666668
350.0   0.0   0.0
350.0   30.0   0.0
300.0   30.0   0.0
350.0   30.0   16.666666666666668
300.0   0.0   16.666666666666668
300.0   30.0   16.666666666666668
350.0   30.0   16.666666666666668
300.0   30.0   0.0
300.0   0.0   16.666666666666668
350.0   30.0   16.666666666666668
350.0   0.0   16.666666666666668
350.0   0.0   0.0
300.0   0.0   16.666666666666668
350.0   30.0   16.666666666666668
350.0   0.0   0.0
300.0   30.0   0.0
300.0   0.0   16.666666666666668
350.0   0.0   16.666666666666668
300.0   30.0   16.666666666666668
300.0   0.0   33.333333333333336
350.0   0.0   16.666666666666668
350.0   30.0   16.666666666666668
300.0   30.0   16.666666666666668
350.0   30.0   33.333333333333336
300.0   0.0   33.333333333333336
300.0   30.0   33.333333333333336
350.0   30.0   33.333333333333336
300.0   30.0   16.666666666666668
300.0   0.0   33.333333333333336
350.0   30.0   33.333333333333336
350.0   0.0   33.333333333333336
350.0   0.0   16.666666666666668
300.0   0.0   33.333333333333336
350.0   30.0   33.333333333333336
350.0   0.0   16.666666666666668
300.0   30.0   16.666666666666668
300.0   0.0   33.333333333333336
350.0   0.0   33.333333333333336
300.0   30.0   33.333333333333336
300.0   0.0   50.0
350.0   0.0   33.333333333333336
350.0   30.0   33.333333333333336
300.0   30.0   33.333333333333336
350.0   30.0   50.0
300.0   0.0   50.0
300.0   30.0   50.0
350.0   30.0   50.0
300.0   30.0   33.333333333333336
300.0   0.0   50.0
350.0   30.0   50.0
350.0   0.0   50.0
350.0   0.0   33.333333333333336
300.0   0.0   50.0
350.0   30.0   50.0
350.0   0.0   33.333333333333336
300.0   30.0   33.333333333333336
300.0   30.0   0.0
350.0   30.0   0.0
300.0   60.0   0.0
300.0   30.0   16.666666666666668
350.0   30.0   0.0
350.0   60.0   0.0
300.0   60.0   0.0
350.0   60.0   16.666666666666668
300.0   30.0   16.666666666666668
300.0   60.0   16.666666666666668
350.0   60.0   16.666666666666668
300.0   60.0   0.0
300.0   30.0   16.666666666666668
350.0   60.0   16.666666666666668
350.0   30.0   16.666666666666668
350.0   30.0   0.0
300.0   30.0   16.666666666666668
350.0   60.0   16.666666666666668
350.0   30.0   0.0
300.0   60.0   0.0
300.0   30.0   16.666666666666668
350.0   30.0   16.666666666666668
300.0   60.0   16.666666666666668
300.0   30.0   33.333333333333336
350.0   30.0   16.666666666666668
350.0   60.0   16.666666666666668
300.0   60.0   16.666666666666668
350.0   60.0   33.333333333333336
300.0   30.0   33.333333333333336
300.0   60.0   33.333333333333336
350.0   60.0   33.333333333333336
300.0   60.0   16.666666666666668
300.0   30.0   33.333333333333336
350.0   60.0   33.333333333333336
350.0   30.0   33.333333333333336
350.0   30.0   16.666666666666668
300.0   30.0   33.333333333333336
350.0   60.0   33.333333333333336
350.0   30.0   16.666666666666668
300.0   60.0   16.666666666666668
300.0   30.0   33.333333333333336
350.0   30.0   33.333333333333336
300.0   60.0   33.333333333333336
300.0   30.0   50.0
350.0   30.0   33.333333333333336
350.0   60.0   33.333333333333336
300.0   60.0   33.333333333333336
350.0   60.0   50.0
300.0   30.0   50.0
300.0   60.0   50.0
350.0   60.0   50.0
300.0   60.0   33.333333333333336
300.0   30.0   50.0
350.0   60.0   50.0
350.0   30.0   50.0
350.0   30.0   33.333333333333336
300.0   30.0   50.0
350.0   60.0   50.0
350.0   30.0   33.333333333333336
300.0   60.0   33.333333333333336
300.0   60.0   0.0
350.0   60.0   0.0
300.0   90.0   0.0
300.0   60.0   16.666666666666668
350.0   60.0   0.0
350.0   90.0   0.0
300.0   90.0   0.0
350.0   90.0   16.666666666666668
300.0   60.0   16.666666666666668
300.0   90.0   16.666666666666668
350.0   90.0   16.666666666666668
300.0   90.0   0.0
300.0   60.0   16.666666666666668
350.0   90.0   16.666666666666668
350.0   60.0   16.666666666666668
350.0   60.0   0.0
300.0   60.0   16.666666666666668
350.0   90.0   16.666666666666668
350.0   60.0   0.0
300.0   90.0   0.0
300.0   60.0   16.666666666666668
350.0   60.0   16.666666666666668
300.0   90.0   16.666666666666668
300.0   60.0   33.333333333333336
350.0   60.0   16.666666666666668
350.0   90.0   16.666666666666668
300.0   90.0   16.666666666666668
350.0   90.0   33.333333333333336
300.0   60.0   33.333333333333336
300.0   90.0   33.333333333333336
350.0   90.0   33.333333333333336
300.0   90.0   16.666666666666668
300.0   60.0   33.333333333333336
350.0   90.0   33.333333333333336
350.0   60.0   33.333333333333336
350.0   60.0   16.666666666666668
300.0   60.0   33.333333333333336
350.0   90.0   33.333333333333336
350.0   60.0   16.666666666666668
300.0   90.0   16.666666666666668
300.0   60.0   33.333333333333336
350.0   60.0   33.333333333333336
300.0   90.0   33.333333333333336
300.0   60.0   50.0
350.0   60.0   33.333333333333336
350.0   90.0   33.333333333333336
300.0   90.0   33.333333333333336
350.0   90.0   50.0
300.0   60.0   50.0
300.0   90.0   50.0
350.0   90.0   50.0
300.0   90.0   33.333333333333336
300.0   60.0   50.0
350.0   90.0   50.0
350.0   60.0   50.0
350.0   60.0   33.333333333333336
300.0   60.0   50.0
350.0   90.0   50.0
350.0   60.0   33.333333333333336
300.0   90.0   33.333333333333336
300.0   90.0   0.0
350.0   90.0   0.0
300.0   120.0   0.0
300.0   90.0   16.666666666666668
350.0   90.0   0.0
350.0   120.0   0.0
300.0   120.0   0.0
350.0   120.0   16.666666666666668
300.0   90.0   16.666666666666668
300.0   120.0   16.666666666666668
350.0   120.0   16.666666666666668
300.0   120.0   0.0
300.0   90.0   16.666666666666668
350.0   120.0   16.666666666666668
350.0   90.0   16.666666666666668
350.0   90.0   0.0
300.0   90.0   16.666666666666668
350.0   120.0   16.666666666666668
350.0   90.0   0.0
300.0   120.0   0.0
300.0   90.0   16.666666666666668
350.0   90.0   16.666666666666668
300.0   120.0   16.666666666666668
300.0   90.0   33.333333333333336
350.0   90.0   16.666666666666668
350.0   120.0   16.666666666666668
300.0   120.0   16.666666666666668
350.0   120.0   33.333333333333336
300.0   90.0   33.333333333333336
300.0   120.0   33.333333333333336
350.0   120.0   33.333333333333336
300.0   120.0   16.666666666666668
300.0   90.0   33.333333333333336
350.0   120.0   33.333333333333336
350.0   90.0   33.333333333333336
350.0   90.0   16.666666666666668
300.0   90.0   33.333333333333336
350.0   120.0   33.333333333333336
350.0   90.0   16.666666666666668
300.0   120.0   16.666666666666668
300.0   90.0   33.333333333333336
350.0   90.0   33.333333333333336
300.0   120.0   33.333333333333336
300.0   90.0   50.0
350.0   90.0   33.333333333333336
350.0   120.0   33.333333333333336
300.0   120.0   33.333333333333336
350.0   120.0   50.0
300.0   90.0   50.0
300.0   120.0   50.0
350.0   120.0   50.0
300.0   120.0   33.333333333333336
300.0   90.0   50.0
350.0   120.0   50.0
350.0   90.0   50.0
350.0   90.0   33.333333333333336
300.0   90.0   50.0
350.0   120.0   50.0
350.0   90.0   33.333333333333336
300.0   120.0   33.333333333333336
300.0   120.0   0.0
350.0   120.0   0.0
300.0   150.0   0.0
300.0   120.0   16.666666666666668
350.0   120.0   0.0
350.0   150.0   0.0
300.0   150.0   0.0
350.0   150.0   16.666666666666668
300.0   120.0   16.666666666666668
300.0   150.0   16.666666666666668
350.0   150.0   16.666666666666668
300.0   150.0   0.0
300.0   120.0   16.666666666666668
350.0   150.0   16.666666666666668
350.0   120.0   16.666666666666668
350.0   120.0   0.0
300.0   120.0   16.666666666666668
350.0   150.0   16.666666666666668
350.0   120.0   0.0
300.0   150.0   0.0
300.0   120.0   16.666666666666668
350.0   120.0   16.666666666666668
300.0   150.0   16.666666666666668
300.0   120.0   33.333333333333336
350.0   120.0   16.666666666666668
350.0   150.0   16.666666666666668
300.0   150.0   16.666666666666668
350.0   150.0   33.333333333333336
300.0   120.0   33.333333333333336
300.0   150.0   33.333333333333336
350.0   150.0   33.333333333333336
300.0   150.0   16.666666666666668
300.0   120.0   33.333333333333336
350.0   150.0   33.333333333333336
350.0   120.0   33.333333333333336
350.0   120.0   16.666666666666668
300.0   120.0   33.333333333333336
350.0   150.0   33.333333333333336
350.0   120.0   16.666666666666668
300.0   150.0   16.666666666666668
300.0   120.0   33.333333333333336
350.0   120.0   33.333333333333336
300.0   150.0   33.333333333333336
300.0   120.0   50.0
350.0   120.0   33.333333333333336
350.0   150.0   33.333333333333336
300.0   150.0   33.333333333333336
350.0   150.0   50.0
300.0   120.0   50.0
300.0   150.0   50.0
350.0   150.0   50.0
300.0   150.0   33.333333333333336
300.0   120.0   50.0
350.0   150.0   50.0
350.0   120.0   50.0
350.0   120.0   33.333333333333336
300.0   120.0   50.0
350.0   150.0   50.0
350.0   120.0   33.333333333333336
300.0   150.0   33.333333333333336
350.0   0.0   0.0
400.0   0.0   0.0
350.0   30.0   0.0
350.0   0.0   16.666666666666668
400.0   0.0   0.0
400.0   30.0   0.0
350.0   30.0   0.0
400.0   30.0   16.666666666666668
350.0   0.0   16.666666666666668
350.0   30.0   16.666666666666668
400.0   30.0   16.666666666666668
350.0   30.0   0.0
350.0   0.0   16.666666666666668
400.0   30.0   16.666666666666668
400.0   0.0   16.666666666666668
400.0   0.0   0.0
350.0   0.0   16.666666666666668
400.0   30.0   16.666666666666668
400.0   0.0   0.0
350.0   30.0   0.0
350.0   0.0   16.666666666666668
400.0   0.0   16.666666666666668
350.0   30.0   16.666666666666668
350.0   0.0   33.333333333333336
400.0   0.0   16.666666666666668
400.0   30.0   16.666666666666668
350.0   30.0   16.666666666666668
400.0   30.0   33.333333333333336
350.0   0.0   33.333333333333336
350.0   30.0   33.333333333333336
400.0   30.0   33.333333333333336
350.0   30.0   16.666666666666668
350.0   0.0   33.333333333333336
400.0   30.0   33.333333333333336
400.0   0.0   33.333333333333336
400.0   0.0   16.666666666666668
350.0   0.0   33.333333333333336
400.0   30.0   33.333333333333336
400.0   0.0   16.666666666666668
350.0   30.0   16.666666666666668
350.0   0.0   33.333333333333336
400.0   0.0   33.333333333333336
350.0   30.0   33.333333333333336
350.0   0.0   50.0
400.0   0.0   33.333333333333336
400.0   30.0   33.333333333333336
350.0   30.0   33.333333333333336
400.0   30.0   50.0
350.0   0.0   50.0
350.0   30.0   50.0
400.0   30.0   50.0
350.0   30.0   33.333333333333336
350.0   0.0   50.0
400.0   30.0   50.0
400.0   0.0   50.0
400.0   0.0   33.333333333333336
350.0   0.0   50.0
400.0   30.0   50.0
400.0   0.0   33.333333333333336
350.0   30.0   33.333333333333336
350.0   30.0   0.0
400.0   30.0   0.0
350.0   60.0   0.0
350.0   30.0   16.666666666666668
400.0   30.0   0.0
400.0   60.0   0.0
350.0   60.0   0.0
400.0   60.0   16.666666666666668
350.0   30.0   16.666666666666668
350.0   60.0   16.666666666666668
400.0   60.0   16.666666666666668
350.0   60.0   0.0
350.0   30.0   16.666666666666668
400.0   60.0   16.666666666666668
400.0   30.0   16.666666666666668
400.0   30.0   0.0
350.0   30.0   16.666666666666668
400.0   60.0   16.666666666666668
400.0   30.0   0.0
350.0   60.0   0.0
350.0   30.0   16.666666666666668
400.0   30.0   16.666666666666668
350.0   60.0   16.666666666666668
350.0   30.0   33.333333333333336
400.0   30.0   16.666666666666668
400.0   60.0   16.666666666666668
350.0   60.0   16.666666666666668
400.0   60.0   33.333333333333336
350.0   30.0   33.333333333333336
350.0   60.0   33.333333333333336
400.0   60.0   33.333333333333336
350.0   60.0   16.666666666666668
350.0   30.0   33.333333333333336
400.0   60.0   33.333333333333336
400.0   30.0   33.333333333333336
400.0   30.0   16.666666666666668
350.0   30.0   33.333333333333336
400.0   60.0   33.333333333333336
400.0   30.0   16.666666666666668
350.0   60.0   16.666666666666668
350.0   30.0   33.333333333333336
400.0   30.0   33.333333333333336
350.0   60.0   33.333333333333336
350.0   30.0   50.0
400.0   30.0   33.333333333333336
400.0   60.0   33.333333333333336
350.0   60.0   33.333333333333336
400.0   60.0   50.0
350.0   30.0   50.0
350.0   60.0   50.0
400.0   60.0   50.0
350.0   60.0   33.333333333333336
350.0   30.0   50.0
400.0   60.0   50.0
400.0   30.0   50.0
400.0   30.0   33.333333333333336
350.0   30.0   50.0
400.0   60.0   50.0
400.0   30.0   33.333333333333336
350.0   60.0   33.333333333333336
350.0   60.0   0.0
400.0   60.0   0.0
350.0   90.0   0.0
350.0   60.0   16.666666666666668
400.0   60.0   0.0
400.0   90.0   0.0
350.0   90.0   0.0
400.0   90.0   16.666666666666668
350.0   60.0   16.666666666666668
350.0   90.0   16.666666666666668
400.0   90.0   16.666666666666668
350.0   90.0   0.0
350.0   60.0   16.666666666666668
400.0   90.0   16.666666666666668
400.0   60.0   16.666666666666668
400.0   60.0   0.0
350.0   60.0   16.666666666666668
400.0   90.0   16.666666666666668
400.0   60.0   0.0
350.0   90.0   0.0
350.0   60.0   16.666666666666668
400.0   60.0   16.666666666666668
350.0   90.0   16.666666666666668
350.0   60.0   33.333333333333336
400.0   60.0   16.666666666666668
400.0   90.0   16.666666666666668
350.0   90.0   16.666666666666668
400.0   90.0   33.333333333333336
350.0   60.0   33.333333333333336
350.0   90.0   33.333333333333336
400.0   90.0   33.333333333333336
350.0   90.0   16.666666666666668
350.0   60.0   33.333333333333336
400.0   90.0   33.333333333333336
400.0   60.0   33.333333333333336
400.0   60.0   16.666666666666668
350.0   60.0   33.333333333333336
400.0   90.0   33.333333333333336
400.0   60.0   16.666666666666668
350.0   90.0   16.666666666666668
350.0   60.0   33.333333333333336
400.0   60.0   33.333333333333336
350.0   90.0   33.333333333333336
350.0   60.0   50.0
400.0   60.0   33.333333333333336
400.0   90.0   33.333333333333336
350.0   90.0   33.333333333333336
400.0   90.0   50.0
350.0   60.0   50.0
350.0   90.0   50.0
400.0   90.0   50.0
350.0   90.0   33.333333333333336
350.0   60.0   50.0
400.0   90.0   50.0
400.0   60.0   50.0
400.0   60.0   33.333333333333336
350.0   60.0   50.0
400.0   90.0   50.0
400.0   60.0   33.333333333333336
350.0   90.0   33.333333333333336
350.0   90.0   0.0
400.0   90.0   0.0
350.0   120.0   0.0
350.0   90.0   16.666666666666668
400.0   90.0   0.0
400.0   120.0   0.0
350.0   120.0   0.0
400.0   120.0   16.666666666666668
350.0   90.0   16.666666666666668
350.0   120.0   16.666666666666668
400.0   120.0   16.666666666666668
350.0   120.0   0.0
350.0   90.0   16.666666666666668
400.0   120.0   16.666666666666668
400.0   90.0   16.666666666666668
400.0   90.0   0.0
350.0   90.0   16.666666666666668
400.0   120.0   16.666666666666668
400.0   90.0   0.0
350.0   120.0   0.0
350.0   90.0   16.666666666666668
400.0   90.0   16.666666666666668
350.0   120.0   16.666666666666668
350.0   90.0   33.333333333333336
400.0   90.0   16.666666666666668
400.0   120.0   16.666666666666668
350.0   120.0   16.666666666666668
400.0   120.0   33.333333333333336
350.0   90.0   33.333333333333336
350.0   120.0   33.333333333333336
400.0   120.0   33.333333333333336
350.0   120.0   16.666666666666668
350.0   90.0   33.333333333333336
400.0   120.0   33.333333333333336
400.0   90.0   33.333333333333336
400.0   90.0   16.666666666666668
350.0   90.0   33.333333333333336
400.0   120.0   33.333333333333336
400.0   90.0   16.666666666666668
350.0   120.0   16.666666666666668
350.0   90.0   33.333333333333336
400.0   90.0   33.333333333333336
350.0   120.0   33.333333333333336
350.0   90.0   50.0
400.0   90.0   33.333333333333336
400.0   120.0   33.333333333333336
350.0   120.0   33.333333333333336
400.0   120.0   50.0
350.0   90.0   50.0
350.0   120.0   50.0
400.0   120.0   50.0
350.0   120.0   33.333333333333336
350.0   90.0   50.0
400.0   120.0   50.0
400.0   90.0   50.0
400.0   90.0   33.333333333333336
350.0   90.0   50.0
400.0   120.0   50.0
400.0   90.0   33.333333333333336
350.0   120.0   33.333333333333336
350.0   120.0   0.0
400.0   120.0   0.0
350.0   150.0   0.0
350.0   120.0   16.666666666666668
400.0   120.0   0.0
400.0   150.0   0.0
350.0   150.0   0.0
400.0   150.0   16.666666666666668
350.0   120.0   16.666666666666668
350.0   150.0   16.666666666666668
400.0   150.0   16.666666666666668
350.0   150.0   0.0
350.0   120.0   16.666666666666668
400.0   150.0   16.666666666666668
400.0   120.0   16.666666666666668
400.0   120.0   0.0
350.0   120.0   16.666666666666668
400.0   150.0   16.666666666666668
400.0   120.0   0.0
350.0   150.0   0.0
350.0   120.0   16.666666666666668
400.0   120.0   16.666666666666668
350.0   150.0   16.666666666666668
350.0   120.0   33.333333333333336
400.0   120.0   16.666666666666668
400.0   150.0   16.666666666666668
350.0   150.0   16.666666666666668
400.0   150.0   33.333333333333336
350.0   120.0   33.333333333333336
350.0   150.0   33.333333333333336
400.0   150.0   33.333333333333336
350.0   150.0   16.666666666666668
350.0   120.0   33.333333333333336
400.0   150.0   33.333333333333336
400.0   120.0   33.333333333333336
400.0   120.0   16.666666666666668
350.0   120.0   33.333333333333336
400.0   150.0   33.333333333333336
400.0   120.0   16.666666666666668
350.0   150.0   16.666666666666668
350.0   120.0   33.333333333333336
400.0   120.0   33.333333333333336
350.0   150.0   33.333333333333336
350.0   120.0   50.0
400.0   120.0   33.333333333333336
400.0   150.0   33.333333333333336
350.0   150.0   33.333333333333336
400.0   150.0   50.0
350.0   120.0   50.0
350.0   150.0   50.0
400.0   150.0   50.0
350.0   150.0   33.333333333333336
350.0   120.0   50.0
400.0   150.0   50.0
400.0   120.0   50.0
400.0   120.0   33.333333333333336
350.0   120.0   50.0
400.0   150.0   50.0
400.0   120.0   33.333333333333336
350.0   150.0   33.333333333333336
400.0   0.0   0.0
450.0   0.0   0.0
400.0   30.0   0.0
400.0   0.0   16.666666666666668
450.0   0.0   0.0
450.0   30.0   0.0
400.0   30.0   0.0
450.0   30.0   16.666666666666668
400.0   0.0   16.666666666666668
400.0   30.0   16.666666666666668
450.0   30.0   16.666666666666668
400.0   30.0   0.0
400.0   0.0   16.666666666666668
450.0   30.0   16.666666666666668
450.0   0.0   16.666666666666668
450.0   0.0   0.0
400.0   0.0   16.666666666666668
450.0   30.0   16.666666666666668
450.0   0.0   0.0
400.0   30.0   0.0
400.0   0.0   16.666666666666668
450.0   0.0   16.666666666666668
400.0   30.0   16.666666666666668
400.0   0.0   33.333333333333336
450.0   0.0   16.666666666666668
450.0   30.0   16.666666666666668
400.0   30.0   16.666666666666668
450.0   30.0   33.333333333333336
400.0   0.0   33.333333333333336
400.0   30.0   33.333333333333336
450.0   30.0   33.333333333333336
400.0   30.0   16.666666666666668
400.0   0.0   33.333333333333336
450.0   30.0   33.333333333333336
450.0   0.0   33.333333333333336
450.0   0.0   16.666666666666668
400.0   0.0   33.333333333333336
450.0   30.0   33.333333333333336
450.0   0.0   16.666666666666668
400.0   30.0   16.666666666666668
400.0   0.0   33.333333333333336
450.0   0.0   33.333333333333336
400.0   30.0   33.333333333333336
400.0   0.0   50.0
450.0   0.0   33.333333333333336
450.0   30.0   33.333333333333336
400.0   30.0   33.333333333333336
450.0   30.0   50.0
400.0   0.0   50.0
400.0   30.0   50.0
450.0   30.0   50.0
400.0   30.0   33.333333333333336
400.0   0.0   50.0
450.0   30.0   50.0
450.0   0.0   50.0
450.0   0.0   33.333333333333336
400.0   0.0   50.0
450.0   30.0   50.0
450.0   0.0   33.333333333333336
400.0   30.0   33.333333333333336
400.0   30.0   0.0
450.0   30.0   0.0
400.0   60.0   0.0
400.0   30.0   16.666666666666668
450.0   30.0   0.0
450.0   60.0   0.0
400.0   60.0   0.0
450.0   60.0   16.666666666666668
400.0   30.0   16.666666666666668
400.0   60.0   16.666666666666668
450.0   60.0   16.666666666666668
400.0   60.0   0.0
400.0   30.0   16.666666666666668
450.0   60.0   16.666666666666668
450.0   30.0   16.666666666666668
450.0   30.0   0.0
400.0   30.0   16.666666666666668
450.0   60.0   16.666666666666668
450.0   30.0   0.0
400.0   60.0   0.0
400.0   30.0   16.666666666666668
450.0   30.0   16.666666666666668
400.0   60.0   16.666666666666668
400.0   30.0   33.333333333333336
450.0   30.0   16.666666666666668
450.0   60.0   16.666666666666668
400.0   60.0   16.666666666666668
450.0   60.0   33.333333333333336
400.0   30.0   33.333333333333336
400.0   60.0   33.333333333333336
450.0   60.0   33.333333333333336
400.0   60.0   16.666666666666668
400.0   30.0   33.333333333333336
450.0   60.0   33.333333333333336
450.0   30.0   33.333333333333336
450.0   30.0   16.666666666666668
400.0   30.0   33.333333333333336
450.0   60.0   33.333333333333336
450.0   30.0   16.666666666666668
400.0   60.0   16.666666666666668
400.0   30.0   33.333333333333336
450.0   30.0   33.333333333333336
400.0   60.0   33.333333333333336
400.0   30.0   50.0
450.0   30.0   33.333333333333336
450.0   60.0   33.333333333333336
400.0   60.0   33.333333333333336
450.0   60.0   50.0
400.0   30.0   50.0
400.0   60.0   50.0
450.0   60.0   50.0
400.0   60.0   33.333333333333336
400.0   30.0   50.0
450.0   60.0   50.0
450.0   30.0   50.0
450.0   30.0   33.333333333333336
400.0   30.0   50.0
450.0   60.0   50.0
450.0   30.0   33.333333333333336
400.0   60.0   33.333333333333336
400.0   60.0   0.0
450.0   60.0   0.0
400.0   90.0   0.0
400.0   60.0   16.666666666666668
450.0   60.0   0.0
450.0   90.0   0.0
400.0   90.0   0.0
450.0   90.0   16.666666666666668
400.0   60.0   16.666666666666668
400.0   90.0   16.666666666666668
450.0   90.0   16.666666666666668
400.0   90.0   0.0
400.0   60.0   16.666666666666668
450.0   90.0   16.666666666666668
450.0   60.0   16.666666666666668
450.0   60.0   0.0
400.0   60.0   16.666666666666668
450.0   90.0   16.666666666666668
450.0   60.0   0.0
400.0   90.0   0.0
400.0   60.0   16.666666666666668
450.0   60.0   16.666666666666668
400.0   90.0   16.666666666666668
400.0   60.0   33.333333333333336
450.0   60.0   16.666666666666668
450.0   90.0   16.666666666666668
400.0   90.0   16.666666666666668
450.0   90.0   33.333333333333336
400.0   60.0   33.333333333333336
400.0   90.0   33.333333333333336
450.0   90.0   33.333333333333336
400.0   90.0   16.666666666666668
400.0   60.0   33.333333333333336
450.0   90.0   33.333333333333336
450.0   60.0   33.333333333333336
450.0   60.0   16.666666666666668
400.0   60.0   33.333333333333336
450.0   90.0   33.333333333333336
450.0   60.0   16.666666666666668
400.0   90.0   16.666666666666668
400.0   60.0   33.333333333333336
450.0   60.0   33.333333333333336
400.0   90.0   33.333333333333336
400.0   60.0   50.0
450.0   60.0   33.333333333333336
450.0   90.0   33.333333333333336
400.0   90.0   33.333333333333336
450.0   90.0   50.0
400.0   60.0   50.0
400.0   90.0   50.0
450.0   90.0   50.0
400.0   90.0   33.333333333333336
400.0   60.0   50.0
450.0   90.0   50.0
450.0   60.0   50.0
450.0   60.0   33.333333333333336
400.0   60.0   50.0
450.0   90.0   50.0
450.0   60.0   33.333333333333336
400.0   90.0   33.333333333333336
400.0   90.0   0.0
450.0   90.0   0.0
400.0   120.0   0.0
400.0   90.0   16.666666666666668
450.0   90.0   0.0
450.0   120.0   0.0
400.0   120.0   0.0
450.0   120.0   16.666666666666668
400.0   90.0   16.666666666666668
400.0   120.0   16.666666666666668
450.0   120.0   16.666666666666668
400.0   120.0   0.0
400.0   90.0   16.666666666666668
450.0   120.0   16.666666666666668
450.0   90.0   16.666666666666668
450.0   90.0   0.0
400.0   90.0   16.666666666666668
450.0   120.0   16.666666666666668
450.0   90.0   0.0
400.0   120.0   0.0
400.0   90.0   16.666666666666668
450.0   90.0   16.666666666666668
400.0   120.0   16.666666666666668
400.0   90.0   33.333333333333336
450.0   90.0   16.666666666666668
450.0   120.0   16.666666666666668
400.0   120.0   16.666666666666668
450.0   120.0   33.333333333333336
400.0   90.0   33.333333333333336
400.0   120.0   33.333333333333336
450.0   120.0   33.333333333333336
400.0   120.0   16.666666666666668
400.0   90.0   33.333333333333336
450.0   120.0   33.333333333333336
450.0   90.0   33.333333333333336
450.0   90.0   16.666666666666668
400.0   90.0   33.333333333333336
450.0   120.0   33.333333333333336
450.0   90.0   16.666666666666668
400.0   120.0   16.666666666666668
400.0   90.0   33.333333333333336
450.0   90.0   33.333333333333336
400.0   120.0   33.333333333333336
400.0   90.0   50.0
450.0   90.0   33.333333333333336
450.0   120.0   33.333333333333336
400.0   120.0   33.333333333333336
450.0   120.0   50.0
400.0   90.0   50.0
400.0   120.0   50.0
450.0   120.0   50.0
400.0   120.0   33.333333333333336
400.0   90.0   50.0
450.0   120.0   50.0
450.0   90.0   50.0
450.0   90.0   33.333333333333336
400.0   90.0   50.0
450.0   120.0   50.0
450.0   90.0   33.333333333333336
400.0   120.0   33.333333333333336
400.0   120.0   0.0
450.0   120.0   0.0
400.0   150.0   0.0
400.0   120.0   16.666666666666668
450.0   120.0   0.0
450.0   150.0   0.0
400.0   150.0   0.0
450.0   150.0   16.666666666666668
400.0   120.0   16.666666666666668
400.0   150.0   16.666666666666668
450.0   150.0   16.666666666666668
400.0   150.0   0.0
400.0   120.0   16.666666666666668
450.0   150.0   16.666666666666668
450.0   120.0   16.666666666666668
450.0   120.0   0.0
400.0   120.0   16.666666666666668
450.0   150.0   16.666666666666668
450.0   120.0   0.0
400.0   150.0   0.0
400.0   120.0   16.666666666666668
450.0   120.0   16.666666666666668
400.0   150.0   16.666666666666668
400.0   120.0   33.333333333333336
450.0   120.0   16.666666666666668
450.0   150.0   16.666666666666668
400.0   150.0   16.666666666666668
450.0   150.0   33.333333333333336
400.0   120.0   33.333333333333336
400.0   150.0   33.333333333333336
450.0   150.0   33.333333333333336
400.0   150.0   16.666666666666668
400.0   120.0   33.333333333333336
450.0   150.0   33.333333333333336
450.0   120.0   33.333333333333336
450.0   120.0   16.666666666666668
400.0   120.0   33.333333333333336
450.0   150.0   33.333333333333336
450.0   120.0   16.666666666666668
400.0   150.0   16.666666666666668
400.0   120.0   33.333333333333336
450.0   120.0   33.333333333333336
400.0   150.0   33.333333333333336
400.0   120.0   50.0
450.0   120.0   33.333333333333336
450.0   150.0   33.333333333333336
400.0   150.0   33.333333333333336
450.0   150.0   50.0
400.0   120.0   50.0
400.0   150.0   50.0
450.0   150.0   50.0
400.0   150.0   33.333333333333336
400.0   120.0   50.0
450.0   150.0   50.0
450.0   120.0   50.0
450.0   120.0   33.333333333333336
400.0   120.0   50.0
450.0   150.0   50.0
450.0   120.0   33.333333333333336
400.0   150.0   33.333333333333336
450.0   0.0   0.0
500.0   0.0   0.0
450.0   30.0   0.0
450.0   0.0   16.666666666666668
500.0   0.0   0.0
500.0   30.0   0.0
450.0   30.0   0.0
500.0   30.0   16.666666666666668
450.0   0.0   16.666666666666668
450.0   30.0   16.666666666666668
500.0   30.0   16.666666666666668
450.0   30.0   0.0
450.0   0.0   16.666666666666668
500.0   30.0   16.666666666666668
500.0   0.0   16.666666666666668
500.0   0.0   0.0
450.0   0.0   16.666666666666668
500.0   30.0   16.666666666666668
500.0   0.0   0.0
450.0   30.0   0.0
450.0   0.0   16.666666666666668
500.0   0.0   16.666666666666668
450.0   30.0   16.666666666666668
450.0   0.0   33.333333333333336
500.0   0.0   16.666666666666668
500.0   30.0   16.666666666666668
450.0   30.0   16.666666666666668
500.0   30.0   33.333333333333336
450.0   0.0   33.333333333333336
450.0   30.0   33.333333333333336
500.0   30.0   33.333333333333336
450.0   30.0   16.666666666666668
450.0   0.0   33.333333333333336
500.0   30.0   33.333333333333336
500.0   0.0   33.333333333333336
500.0   0.0   16.666666666666668
450.0   0.0   33.333333333333336
500.0   30.0   33.333333333333336
500.0   0.0   16.666666666666668
450.0   30.0   16.666666666666668
450.0   0.0   33.333333333333336
500.0   0.0   33.333333333333336
450.0   30.0   33.333333333333336
450.0   0.0   50.0
500.0   0.0   33.333333333333336
500.0   30.0   33.333333333333336
450.0   30.0   33.333333333333336
500.0   30.0   50.0
450.0   0.0   50.0
450.0   30.0   50.0
500.0   30.0   50.0
450.0   30.0   33.333333333333336
450.0   0.0   50.0
500.0   30.0   50.0
500.0   0.0   50.0
500.0   0.0   33.333333333333336
450.0   0.0   50.0
500.0   30.0   50.0
500.0   0.0   33.333333333333336
450.0   30.0   33.333333333333336
450.0   30.0   0.0
500.0   30.0   0.0
450.0   60.0   0.0
450.0   30.0   16.666666666666668
500.0   30.0   0.0
500.0   60.0   0.0
450.0   60.0   0.0
500.0   60.0   16.666666666666668
450.0   30.0   16.666666666666668
450.0   60.0   16.666666666666668
500.0   60.0   16.666666666666668
450.0   60.0   0.0
450.0   30.0   16.666666666666668
500.0   60.0   16.666666666666668
500.0   30.0   16.666666666666668
500.0   30.0   0.0
450.0   30.0   16.666666666666668
500.0   60.0   16.666666666666668
500.0   30.0   0.0
450.0   60.0   0.0
450.0   30.0   16.666666666666668
500.0   30.0   16.666666666666668
450.0   60.0   16.666666666666668
450.0   30.0   33.333333333333336
500.0   30.0   16.666666666666668
500.0   60.0   16.666666666666668
450.0   60.0   16.666666666666668
500.0   60.0   33.333333333333336
450.0   30.0   33.333333333333336
450.0   60.0   33.333333333333336
500.0   60.0   33.333333333333336
450.0   60.0   16.666666666666668
450.0   30.0   33.333333333333336
500.0   60.0   33.333333333333336
500.0   30.0   33.333333333333336
500.0   30.0   16.666666666666668
450.0   30.0   33.333333333333336
500.0   60.0   33.333333333333336
500.0   30.0   16.666666666666668
450.0   60.0   16.666666666666668
450.0   30.0   33.333333333333336
500.0   30.0   33.333333333333336
450.0   60.0   33.333333333333336
450.0   30.0   50.0
500.0   30.0   33.333333333333336
500.0   60.0   33.333333333333336
450.0   60.0   33.333333333333336
500.0   60.0   50.0
450.0   30.0   50.0
450.0   60.0   50.0
500.0   60.0   50.0
450.0   60.0   33.333333333333336
450.0   30.0   50.0
500.0   60.0   50.0
500.0   30.0   50.0
500.0   30.0   33.333333333333336
450.0   30.0   50.0
500.0   60.0   50.0
500.0   30.0   33.333333333333336
450.0   60.0   33.333333333333336
450.0   60.0   0.0
500.0   60.0   0.0
450.0   90.0   0.0
450.0   60.0   16.666666666666668
500.0   60.0   0.0
500.0   90.0   0.0
450.0   90.0   0.0
500.0   90.0   16.666666666666668
450.0   60.0   16.666666666666668
450.0   90.0   16.666666666666668
500.0   90.0   16.666666666666668
450.0   90.0   0.0
450.0   60.0   16.666666666666668
500.0   90.0   16.666666666666668
500.0   60.0   16.666666666666668
500.0   60.0   0.0
450.0   60.0   16.666666666666668
500.0   90.0   16.666666666666668
500.0   60.0   0.0
450.0   90.0   0.0
450.0   60.0   16.666666666666668
500.0   60.0   16.666666666666668
450.0   90.0   16.666666666666668
450.0   60.0   33.333333333333336
500.0   60.0   16.666666666666668
500.0   90.0   16.666666666666668
450.0   90.0   16.666666666666668
500.0   90.0   33.333333333333336
450.0   60.0   33.333333333333336
450.0   90.0   33.333333333333336
500.0   90.0   33.333333333333336
450.0   90.0   16.666666666666668
450.0   60.0   33.333333333333336
500.0   90.0   33.333333333333336
500.0   60.0   33.333333333333336
500.0   60.0   16.666666666666668
450.0   60.0   33.333333333333336
500.0   90.0   33.333333333333336
500.0   60.0   16.666666666666668
450.0   90.0   16.666666666666668
450.0   60.0   33.333333333333336
500.0   60.0   33.333333333333336
450.0   90.0   33.333333333333336
450.0   60.0   50.0
500.0   60.0   33.333333333333336
500.0   90.0   33.333333333333336
450.0   90.0   33.333333333333336
500.0   90.0   50.0
450.0   60.0   50.0
450.0   90.0   50.0
500.0   90.0   50.0
450.0   90.0   33.333333333333336
450.0   60.0   50.0
500.0   90.0   50.0
500.0   60.0   50.0
500.0   60.0   33.333333333333336
450.0   60.0   50.0
500.0   90.0   50.0
500.0   60.0   33.333333333333336
450.0   90.0   33.333333333333336
450.0   90.0   0.0
500.0   90.0   0.0
450.0   120.0   0.0
450.0   90.0   16.666666666666668
500.0   90.0   0.0
500.0   120.0   0.0
450.0   120.0   0.0
500.0   120.0   16.666666666666668
450.0   90.0   16.666666666666668
450.0   120.0   16.666666666666668
500.0   120.0   16.666666666666668
450.0   120.0   0.0
450.0   90.0   16.666666666666668
500.0   120.0   16.666666666666668
500.0   90.0   16.666666666666668
500.0   90.0   0.0
450.0   90.0   16.666666666666668
500.0   120.0   16.666666666666668
500.0   90.0   0.0
450.0   120.0   0.0
450.0   90.0   16.666666666666668
500.0   90.0   16.666666666666668
450.0   120.0   16.666666666666668
450.0   90.0   33.333333333333336
500.0   90.0   16.666666666666668
500.0   120.0   16.666666666666668
450.0   120.0   16.666666666666668
500.0   120.0   33.333333333333336
450.0   90.0   33.333333333333336
450.0   120.0   33.333333333333336
500.0   120.0   33.333333333333336
450.0   120.0   16.666666666666668
450.0   90.0   33.333333333333336
500.0   120.0   33.333333333333336
500.0   90.0   33.333333333333336
500.0   90.0   16.666666666666668
450.0   90.0   33.333333333333336
500.0   120.0   33.333333333333336
500.0   90.0   16.666666666666668
450.0   120.0   16.666666666666668
450.0   90.0   33.333333333333336
500.0   90.0   33.333333333333336
450.0   120.0   33.333333333333336
450.0   90.0   50.0
500.0   90.0   33.333333333333336
500.0   120.0   33.333333333333336
450.0   120.0   33.333333333333336
500.0   120.0   50.0
450.0   90.0   50.0
450.0   120.0   50.0
500.0   120.0   50.0
450.0   120.0   33.333333333333336
450.0   90.0   50.0
500.0   120.0   50.0
500.0   90.0   50.0
500.0   90.0   33.333333333333336
450.0   90.0   50.0
500.0   120.0   50.0
500.0   90.0   33.333333333333336
450.0   120.0   33.333333333333336
450.0   120.0   0.0
500.0   120.0   0.0
450.0   150.0   0.0
450.0   120.0   16.666666666666668
500.0   120.0   0.0
500.0   150.0   0.0
450.0   150.0   0.0
500.0   150.0   16.666666666666668
450.0   120.0   16.666666666666668
450.0   150.0   16.666666666666668
500.0   150.0   16.666666666666668
450.0   150.0   0.0
450.0   120.0   16.666666666666668
500.0   150.0   16.666666666666668
500.0   120.0   16.666666666666668
500.0   120.0   0.0
450.0   120.0   16.666666666666668
500.0   150.0   16.666666666666668
500.0   120.0   0.0
450.0   150.0   0.0
450.0   120.0   16.666666666666668
500.0   120.0   16.666666666666668
450.0   150.0   16.666666666666668
450.0   120.0   33.333333333333336
500.0   120.0   16.666666666666668
500.0   150.0   16.666666666666668
450.0   150.0   16.666666666666668
500.0   150.0   33.333333333333336
450.0   120.0   33.333333333333336
450.0   150.0   33.333333333333336
500.0   150.0   33.333333333333336
450.0   150.0   16.666666666666668
450.0   120.0   33.333333333333336
500.0   150.0   33.333333333333336
500.0   120.0   33.333333333333336
500.0   120.0   16.666666666666668
450.0   120.0   33.333333333333336
500.0   150.0   33.333333333333336
500.0   120.0   16.666666666666668
450.0   150.0   16.666666666666668
450.0   120.0   33.333333333333336
500.0   120.0   33.333333333333336
450.0   150.0   33.333333333333336
450.0   120.0   50.0
500.0   120.0   33.333333333333336
500.0   150.0   33.333333333333336
450.0   150.0   33.333333333333336
500.0   150.0   50.0
450.0   120.0   50.0
450.0   150.0   50.0
500.0   150.0   50.0
450.0   150.0   33.333333333333336
450.0   120.0   50.0
500.0   150.0   50.0
500.0   120.0   50.0
500.0   120.0   33.333333333333336
450.0   120.0   50.0
500.0   150.0   50.0
500.0   120.0   33.333333333333336
450.0   150.0   33.333333333333336
             </DataArray>   
          </Points>  
          <Cells>  
             <DataArray type="Int32" Name="connectivity" format="ascii">   
0   1   2   3
4   5   6   7
8   9   10   11
12   13   14   15
16   17   18   19
20   21   22   23
24   25   26   27
28   29   30   31
32   33   34   35
36   37   38   39
40   41   42   43
44   45   46   47
48   49   50   51
52   53   54   55
56   57   58   59
60   61   62   63
64   65   66   67
68   69   70   71
72   73   74   75
76   77   78   79
80   81   82   83
84   85   86   87
88   89   90   91
92   93   94   95
96   97   98   99
100   101   102   103
104   105   106   107
108   109   110   111
112   113   114   115
116   117   118   119
120   121   122   123
124   125   126   127
128   129   130   131
132   133   134   135
136   137   138   139
140   141   142   143
144   145   146   147
148   149   150   151
152   153   154   155
156   157   158   159
160   161   162   163
164   165   166   167
168   169   170   171
172   173   174   175
176   177   178   179
180   181   182   183
184   185   186   187
188   189   190   191
192   193   194   195
196   197   198   199
200   201   202   203
204   205   206   207
208   209   210   211
212   213   214   215
216   217   218   219
220   221   222   223
224   225   226   227
228   229   230   231
232   233   234   235
236   237   238   239
240   241   242   243
244   245   246   247
248   249   250   251
252   253   254   255
256   257   258   259
260   261   262   263
264   265   266   267
268   269   270   271
272   273   274   275
276   277   278   279
280   281   282   283
284   285   286   287
288   289   290   291
292   293   294   295
296   297   298   299
300   301   302   303
304   305   306   307
308   309   310   311
312   313   314   315
316   317   318   319
320   321   322   323
324   325   326   327
328   329   330   331
332   333   334   335
336   337   338   339
340   341   342   343
344   345   346   347
348   349   350   351
352   353   354   355
356   357   358   359
360   361   362   363
364   365   366   367
368   369   370   371
372   373   374   375
376   377   378   379
380   381   382   383
384   385   386   387
388   389   390   391
392   393   394   395
396   397   398   399
400   401   402   403
404   405   406   407
408   409   410   411
412   413   414   415
416   417   418   419
420   421   422   423
424   425   426   427
428   429   430   431
432   433   434   435
436   437   438   439
440   441   442   443
444   445   446   447
448   449   450   451
452   453   454   455
456   457   458   459
460   461   462   463
464   465   466   467
468   469   470   471
472   473   474   475
476   477   478   479
480   481   482   483
484   485   486   487
488   489   490   491
492   493   494   495
496   497   498   499
500   501   502   503
504   505   506   507
508   509   510   511
512   513   514   515
516   517   518   519
520   521   522   523
524   525   526   527
528   529   530   531
532   533   534   535
536   537   538   539
540   541   542   543
544   545   546   547
548   549   550   551
552   553   554   555
556   557   558   559
560   561   562   563
564   565   566   567
568   569   570   571
572   573   574   575
576   577   578   579
580   581   582   583
584   585   586   587
588   589   590   591
592   593   594   595
596   597   598   599
600   601   602   603
604   605   606   607
608   609   610   611
612   613   614   615
616   617   618   619
620   621   622   623
624   625   626   627
628   629   630   631
632   633   634   635
636   637   638   639
640   641   642   643
644   645   646   647
648   649   650   651
652   653   654   655
656   657   658   659
660   661   662   663
664   665   666   667
668   669   670   671
672   673   674   675
676   677   678   679
680   681   682   683
684   685   686   687
688   689   690   691
692   693   694   695
696   697   698   699
700   701   702   703
704   705   706   707
708   709   710   711
712   713   714   715
716   717   718   719
720   721   722   723
724   725   726   727
728   729   730   731
732   733   734   735
736   737   738   739
740   741   742   743
744   745   746   747
748   749   750   751
752   753   754   755
756   757   758   759
760   761   762   763
764   765   766   767
768   769   770   771
772   773   774   775
776   777   778   779
780   781   782   783
784   785   786   787
788   789   790   791
792   793   794   795
796   797   798   799
800   801   802   803
804   805   806   807
808   809   810   811
812   813   814   815
816   817   818   819
820   821   822   823
824   825   826   827
828   829   830   831
832   833   834   835
836   837   838   839
840   841   842   843
844   845   846   847
848   849   850   851
852   853   854   855
856   857   858   859
860   861   862   863
864   865   866   867
868   869   870   871
872   873   874   875
876   877   878   879
880   881   882   883
884   885   886   887
888   889   890   891
892   893   894   895
896   897   898   899
900   901   902   903
904   905   906   907
908   909   910   911
912   913   914   915
916   917   918   919
920   921   922   923
924   925   926   927
928   929   930   931
932   933   934   935
936   937   938   939
940   941   942   943
944   945   946   947
948   949   950   951
952   953   954   955
956   957   958   959
960   961   962   963
964   965   966   967
968   969   970   971
972   973   974   975
976   977   978   979
980   981   982   983
984   985   986   987
988   989   990   991
992   993   994   995
996   997   998   999
1000   1001   1002   1003
1004   1005   1006   1007
1008   1009   1010   1011
1012   1013   1014   1015
1016   1017   1018   1019
1020   1021   1022   1023
1024   1025   1026   1027
1028   1029   1030   1031
1032   1033   1034   1035
1036   1037   1038   1039
1040   1041   1042   1043
1044   1045   1046   1047
1048   1049   1050   1051
1052   1053   1054   1055
1056   1057   1058   1059
1060   1061   1062   1063
1064   1065   1066   1067
1068   1069   1070   1071
1072   1073   1074   1075
1076   1077   1078   1079
1080   1081   1082   1083
1084   1085   1086   1087
1088   1089   1090   1091
1092   1093   1094   1095
1096   1097   1098   1099
1100   1101   1102   1103
1104   1105   1106   1107
1108   1109   1110   1111
1112   1113   1114   1115
1116   1117   1118   1119
1120   1121   1122   1123
1124   1125   1126   1127
1128   1129   1130   1131
1132   1133   1134   1135
1136   1137   1138   1139
1140   1141   1142   1143
1144   1145   1146   1147
1148   1149   1150   1151
1152   1153   1154   1155
1156   1157   1158   1159
1160   1161   1162   1163
1164   1165   1166   1167
1168   1169   1170   1171
1172   1173   1174   1175
1176   1177   1178   1179
1180   1181   1182   1183
1184   1185   1186   1187
1188   1189   1190   1191
1192   1193   1194   1195
1196   1197   1198   1199
1200   1201   1202   1203
1204   1205   1206   1207
1208   1209   1210   1211
1212   1213   1214   1215
1216   1217   1218   1219
1220   1221   1222   1223
1224   1225   1226   1227
1228   1229   1230   1231
1232   1233   1234   1235
1236   1237   1238   1239
1240   1241   1242   1243
1244   1245   1246   1247
1248   1249   1250   1251
1252   1253   1254   1255
1256   1257   1258   1259
1260   1261   1262   1263
1264   1265   1266   1267
1268   1269   1270   1271
1272   1273   1274   1275
1276   1277   1278   1279
1280   1281   1282   1283
1284   1285   1286   1287
1288   1289   1290   1291
1292   1293   1294   1295
1296   1297   1298   1299
1300   1301   1302   1303
1304   1305   1306   1307
1308   1309   1310   1311
1312   1313   1314   1315
1316   1317   1318   1319
1320   1321   1322   1323
1324   1325   1326   1327
1328   1329   1330   1331
1332   1333   1334   1335
1336   1337   1338   1339
1340   1341   1342   1343
1344   1345   1346   1347
1348   1349   1350   1351
1352   1353   1354   1355
1356   1357   1358   1359
1360   1361   1362   1363
1364   1365   1366   1367
1368   1369   1370   1371
1372   1373   1374   1375
1376   1377   1378   1379
1380   1381   1382   1383
1384   1385   1386   1387
1388   1389   1390   1391
1392   1393   1394   1395
1396   1397   1398   1399
1400   1401   1402   1403
1404   1405   1406   1407
1408   1409   1410   1411
1412   1413   1414   1415
1416   1417   1418   1419
1420   1421   1422   1423
1424   1425   1426   1427
1428   1429   1430   1431
1432   1433   1434   1435
1436   1437   1438   1439
1440   1441   1442   1443
1444   1445   1446   1447
1448   1449   1450   1451
1452   1453   1454   1455
1456   1457   1458   1459
1460   1461   1462   1463
1464   1465   1466   1467
1468   1469   1470   1471
1472   1473   1474   1475
1476   1477   1478   1479
1480   1481   1482   1483
1484   1485   1486   1487
1488   1489   1490   1491
1492   1493   1494   1495
1496   1497   1498   1499
1500   1501   1502   1503
1504   1505   1506   1507
1508   1509   1510   1511
1512   1513   1514   1515
1516   1517   1518   1519
1520   1521   1522   1523
1524   1525   1526   1527
1528   1529   1530   1531
1532   1533   1534   1535
1536   1537   1538   1539
1540   1541   1542   1543
1544   1545   1546   1547
1548   1549   1550   1551
1552   1553   1554   1555
1556   1557   1558   1559
1560   1561   1562   1563
1564   1565   1566   1567
1568   1569   1570   1571
1572   1573   1574   1575
1576   1577   1578   1579
1580   1581   1582   1583
1584   1585   1586   1587
1588   1589   1590   1591
1592   1593   1594   1595
1596   1597   1598   1599
1600   1601   1602   1603
1604   1605   1606   1607
1608   1609   1610   1611
1612   1613   1614   1615
1616   1617   1618   1619
1620   1621   1622   1623
1624   1625   1626   1627
1628   1629   1630   1631
1632   1633   1634   1635
1636   1637   1638   1639
1640   1641   1642   1643
1644   1645   1646   1647
1648   1649   1650   1651
1652   1653   1654   1655
1656   1657   1658   1659
1660   1661   1662   1663
1664   1665   1666   1667
1668   1669   1670   1671
1672   1673   1674   1675
1676   1677   1678   1679
1680   1681   1682   1683
1684   1685   1686   1687
1688   1689   1690   1691
1692   1693   1694   1695
1696   1697   1698   1699
1700   1701   1702   1703
1704   1705   1706   1707
1708   1709   1710   1711
1712   1713   1714   1715
1716   1717   1718   1719
1720   1721   1722   1723
1724   1725   1726   1727
1728   1729   1730   1731
1732   1733   1734   1735
1736   1737   1738   1739
1740   1741   1742   1743
1744   1745   1746   1747
1748   1749   1750   1751
1752   1753   1754   1755
1756   1757   1758   1759
1760   1761   1762   1763
1764   1765   1766   1767
1768   1769   1770   1771
1772   1773   1774   1775
1776   1777   1778   1779
1780   1781   1782   1783
1784   1785   1786   1787
1788   1789   1790   1791
1792   1793   1794   1795
1796   1797   1798   1799
1800   1801   1802   1803
1804   1805   1806   1807
1808   1809   1810   1811
1812   1813   1814   1815
1816   1817   1818   1819
1820   1821   1822   1823
1824   1825   1826   1827
1828   1829   1830   1831
1832   1833   1834   1835
1836   1837   1838   1839
1840   1841   1842   1843
1844   1845   1846   1847
1848   1849   1850   1851
1852   1853   1854   1855
1856   1857   1858   1859
1860   1861   1862   1863
1864   1865   1866   1867
1868   1869   1870   1871
1872   1873   1874   1875
1876   1877   1878   1879
1880   1881   1882   1883
1884   1885   1886   1887
1888   1889   1890   1891
1892   1893   1894   1895
1896   1897   1898   1899
1900   1901   1902   1903
1904   1905   1906   1907
1908   1909   1910   1911
1912   1913   1914   1915
1916   1917   1918   1919
1920   1921   1922   1923
1924   1925   1926   1927
1928   1929   1930   1931
1932   1933   1934   1935
1936   1937   1938   1939
1940   1941   1942   1943
1944   1945   1946   1947
1948   1949   1950   1951
1952   1953   1954   1955
1956   1957   1958   1959
1960   1961   1962   1963
1964   1965   1966   1967
1968   1969   1970   1971
1972   1973   1974   1975
1976   1977   1978   1979
1980   1981   1982   1983
1984   1985   1986   1987
1988   1989   1990   1991
1992   1993   1994   1995
1996   1997   1998   1999
2000   2001   2002   2003
2004   2005   2006   2007
2008   2009   2010   2011
2012   2013   2014   2015
2016   2017   2018   2019
2020   2021   2022   2023
2024   2025   2026   2027
2028   2029   2030   2031
2032   2033   2034   2035
2036   2037   2038   2039
2040   2041   2042   2043
2044   2045   2046   2047
2048   2049   2050   2051
2052   2053   2054   2055
2056   2057   2058   2059
2060   2061   2062   2063
2064   2065   2066   2067
2068   2069   2070   2071
2072   2073   2074   2075
2076   2077   2078   2079
2080   2081   2082   2083
2084   2085   2086   2087
2088   2089   2090   2091
2092   2093   2094   2095
2096   2097   2098   2099
2100   2101   2102   2103
2104   2105   2106   2107
2108   2109   2110   2111
2112   2113   2114   2115
2116   2117   2118   2119
2120   2121   2122   2123
2124   2125   2126   2127
2128   2129   2130   2131
2132   2133   2134   2135
2136   2137   2138   2139
2140   2141   2142   2143
2144   2145   2146   2147
2148   2149   2150   2151
2152   2153   2154   2155
2156   2157   2158   2159
2160   2161   2162   2163
2164   2165   2166   2167
2168   2169   2170   2171
2172   2173   2174   2175
2176   2177   2178   2179
2180   2181   2182   2183
2184   2185   2186   2187
2188   2189   2190   2191
2192   2193   2194   2195
2196   2197   2198   2199
2200   2201   2202   2203
2204   2205   2206   2207
2208   2209   2210   2211
2212   2213   2214   2215
2216   2217   2218   2219
2220   2221   2222   2223
2224   2225   2226   2227
2228   2229   2230   2231
2232   2233   2234   2235
2236   2237   2238   2239
2240   2241   2242   2243
2244   2245   2246   2247
2248   2249   2250   2251
2252   2253   2254   2255
2256   2257   2258   2259
2260   2261   2262   2263
2264   2265   2266   2267
2268   2269   2270   2271
2272   2273   2274   2275
2276   2277   2278   2279
2280   2281   2282   2283
2284   2285   2286   2287
2288   2289   2290   2291
2292   2293   2294   2295
2296   2297   2298   2299
2300   2301   2302   2303
2304   2305   2306   2307
2308   2309   2310   2311
2312   2313   2314   2315
2316   2317   2318   2319
2320   2321   2322   2323
2324   2325   2326   2327
2328   2329   2330   2331
2332   2333   2334   2335
2336   2337   2338   2339
2340   2341   2342   2343
2344   2345   2346   2347
2348   2349   2350   2351
2352   2353   2354   2355
2356   2357   2358   2359
2360   2361   2362   2363
2364   2365   2366   2367
2368   2369   2370   2371
2372   2373   2374   2375
2376   2377   2378   2379
2380   2381   2382   2383
2384   2385   2386   2387
2388   2389   2390   2391
2392   2393   2394   2395
2396   2397   2398   2399
2400   2401   2402   2403
2404   2405   2406   2407
2408   2409   2410   2411
2412   2413   2414   2415
2416   2417   2418   2419
2420   2421   2422   2423
2424   2425   2426   2427
2428   2429   2430   2431
2432   2433   2434   2435
2436   2437   2438   2439
2440   2441   2442   2443
2444   2445   2446   2447
2448   2449   2450   2451
2452   2453   2454   2455
2456   2457   2458   2459
2460   2461   2462   2463
2464   2465   2466   2467
2468   2469   2470   2471
2472   2473   2474   2475
2476   2477   2478   2479
2480   2481   2482   2483
2484   2485   2486   2487
2488   2489   2490   2491
2492   2493   2494   2495
2496   2497   2498   2499
2500   2501   2502   2503
2504   2505   2506   2507
2508   2509   2510   2511
2512   2513   2514   2515
2516   2517   2518   2519
2520   2521   2522   2523
2524   2525   2526   2527
2528   2529   2530   2531
2532   2533   2534   2535
2536   2537   2538   2539
2540   2541   2542   2543
2544   2545   2546   2547
2548   2549   2550   2551
2552   2553   2554   2555
2556   2557   2558   2559
2560   2561   2562   2563
2564   2565   2566   2567
2568   2569   2570   2571
2572   2573   2574   2575
2576   2577   2578   2579
2580   2581   2582   2583
2584   2585   2586   2587
2588   2589   2590   2591
2592   2593   2594   2595
2596   2597   2598   2599
2600   2601   2602   2603
2604   2605   2606   2607
2608   2609   2610   2611
2612   2613   2614   2615
2616   2617   2618   2619
2620   2621   2622   2623
2624   2625   2626   2627
2628   2629   2630   2631
2632   2633   2634   2635
2636   2637   2638   2639
2640   2641   2642   2643
2644   2645   2646   2647
2648   2649   2650   2651
2652   2653   2654   2655
2656   2657   2658   2659
2660   2661   2662   2663
2664   2665   2666   2667
2668   2669   2670   2671
2672   2673   2674   2675
2676   2677   2678   2679
2680   2681   2682   2683
2684   2685   2686   2687
2688   2689   2690   2691
2692   2693   2694   2695
2696   2697   2698   2699
2700   2701   2702   2703
2704   2705   2706   2707
2708   2709   2710   2711
2712   2713   2714   2715
2716   2717   2718   2719
2720   2721   2722   2723
2724   2725   2726   2727
2728   2729   2730   2731
2732   2733   2734   2735
2736   2737   2738   2739
2740   2741   2742   2743
2744   2745   2746   2747
2748   2749   2750   2751
2752   2753   2754   2755
2756   2757   2758   2759
2760   2761   2762   2763
2764   2765   2766   2767
2768   2769   2770   2771
2772   2773   2774   2775
2776   2777   2778   2779
2780   2781   2782   2783
2784   2785   2786   2787
2788   2789   2790   2791
2792   2793   2794   2795
2796   2797   2798   2799
2800   2801   2802   2803
2804   2805   2806   2807
2808   2809   2810   2811
2812   2813   2814   2815
2816   2817   2818   2819
2820   2821   2822   2823
2824   2825   2826   2827
2828   2829   2830   2831
2832   2833   2834   2835
2836   2837   2838   2839
2840   2841   2842   2843
2844   2845   2846   2847
2848   2849   2850   2851
2852   2853   2854   2855
2856   2857   2858   2859
2860   2861   2862   2863
2864   2865   2866   2867
2868   2869   2870   2871
2872   2873   2874   2875
2876   2877   2878   2879
2880   2881   2882   2883
2884   2885   2886   2887
2888   2889   2890   2891
2892   2893   2894   2895
2896   2897   2898   2899
2900   2901   2902   2903
2904   2905   2906   2907
2908   2909   2910   2911
2912   2913   2914   2915
2916   2917   2918   2919
2920   2921   2922   2923
2924   2925   2926   2927
2928   2929   2930   2931
2932   2933   2934   2935
2936   2937   2938   2939
2940   2941   2942   2943
2944   2945   2946   2947
2948   2949   2950   2951
2952   2953   2954   2955
2956   2957   2958   2959
2960   2961   2962   2963
2964   2965   2966   2967
2968   2969   2970   2971
2972   2973   2974   2975
2976   2977   2978   2979
2980   2981   2982   2983
2984   2985   2986   2987
2988   2989   2990   2991
2992   2993   2994   2995
2996   2997   2998   2999
3000   3001   3002   3003
3004   3005   3006   3007
3008   3009   3010   3011
3012   3013   3014   3015
3016   3017   3018   3019
3020   3021   3022   3023
3024   3025   3026   3027
3028   3029   3030   3031
3032   3033   3034   3035
3036   3037   3038   3039
3040   3041   3042   3043
3044   3045   3046   3047
3048   3049   3050   3051
3052   3053   3054   3055
3056   3057   3058   3059
3060   3061   3062   3063
3064   3065   3066   3067
3068   3069   3070   3071
3072   3073   3074   3075
3076   3077   3078   3079
3080   3081   3082   3083
3084   3085   3086   3087
3088   3089   3090   3091
3092   3093   3094   3095
3096   3097   3098   3099
3100   3101   3102   3103
3104   3105   3106   3107
3108   3109   3110   3111
3112   3113   3114   3115
3116   3117   3118   3119
3120   3121   3122   3123
3124   3125   3126   3127
3128   3129   3130   3131
3132   3133   3134   3135
3136   3137   3138   3139
3140   3141   3142   3143
3144   3145   3146   3147
3148   3149   3150   3151
3152   3153   3154   3155
3156   3157   3158   3159
3160   3161   3162   3163
3164   3165   3166   3167
3168   3169   3170   3171
3172   3173   3174   3175
3176   3177   3178   3179
3180   3181   3182   3183
3184   3185   3186   3187
3188   3189   3190   3191
3192   3193   3194   3195
3196   3197   3198   3199
3200   3201   3202   3203
3204   3205   3206   3207
3208   3209   3210   3211
3212   3213   3214   3215
3216   3217   3218   3219
3220   3221   3222   3223
3224   3225   3226   3227
3228   3229   3230   3231
3232   3233   3234   3235
3236   3237   3238   3239
3240   3241   3242   3243
3244   3245   3246   3247
3248   3249   3250   3251
3252   3253   3254   3255
3256   3257   3258   3259
3260   3261   3262   3263
3264   3265   3266   3267
3268   3269   3270   3271
3272   3273   3274   3275
3276   3277   3278   3279
3280   3281   3282   3283
3284   3285   3286   3287
3288   3289   3290   3291
3292   3293   3294   3295
3296   3297   3298   3299
3300   3301   3302   3303
3304   3305   3306   3307
3308   3309   3310   3311
3312   3313   3314   3315
3316   3317   3318   3319
3320   3321   3322   3323
3324   3325   3326   3327
3328   3329   3330   3331
3332   3333   3334   3335
3336   3337   3338   3339
3340   3341   3342   3343
3344   3345   3346   3347
3348   3349   3350   3351
3352   3353   3354   3355
3356   3357   3358   3359
3360   3361   3362   3363
3364   3365   3366   3367
3368   3369   3370   3371
3372   3373   3374   3375
3376   3377   3378   3379
3380   3381   3382   3383
3384   3385   3386   3387
3388   3389   3390   3391
3392   3393   3394   3395
3396   3397   3398   3399
3400   3401   3402   3403
3404   3405   3406   3407
3408   3409   3410   3411
3412   3413   3414   3415
3416   3417   3418   3419
3420   3421   3422   3423
3424   3425   3426   3427
3428   3429   3430   3431
3432   3433   3434   3435
3436   3437   3438   3439
3440   3441   3442   3443
3444   3445   3446   3447
3448   3449   3450   3451
3452   3453   3454   3455
3456   3457   3458   3459
3460   3461   3462   3463
3464   3465   3466   3467
3468   3469   3470   3471
3472   3473   3474   3475
3476   3477   3478   3479
3480   3481   3482   3483
3484   3485   3486   3487
3488   3489   3490   3491
3492   3493   3494   3495
3496   3497   3498   3499
3500   3501   3502   3503
3504   3505   3506   3507
3508   3509   3510   3511
3512   3513   3514   3515
3516   3517   3518   3519
3520   3521   3522   3523
3524   3525   3526   3527
3528   3529   3530   3531
3532   3533   3534   3535
3536   3537   3538   3539
3540   3541   3542   3543
3544   3545   3546   3547
3548   3549   3550   3551
3552   3553   3554   3555
3556   3557   3558   3559
3560   3561   3562   3563
3564   3565   3566   3567
3568   3569   3570   3571
3572   3573   3574   3575
3576   3577   3578   3579
3580   3581   3582   3583
3584   3585   3586   3587
3588   3589   3590   3591
3592   3593   3594   3595
3596   3597   3598   3599
3600   3601   3602   3603
3604   3605   3606   3607
3608   3609   3610   3611
3612   3613   3614   3615
3616   3617   3618   3619
3620   3621   3622   3623
3624   3625   3626   3627
3628   3629   3630   3631
3632   3633   3634   3635
3636   3637   3638   3639
3640   3641   3642   3643
3644   3645   3646   3647
3648   3649   3650   3651
3652   3653   3654   3655
3656   3657   3658   3659
3660   3661   3662   3663
3664   3665   3666   3667
3668   3669   3670   3671
3672   3673   3674   3675
3676   3677   3678   3679
3680   3681   3682   3683
3684   3685   3686   3687
3688   3689   3690   3691
3692   3693   3694   3695
3696   3697   3698   3699
3700   3701   3702   3703
3704   3705   3706   3707
3708   3709   3710   3711
3712   3713   3714   3715
3716   3717   3718   3719
3720   3721   3722   3723
3724   3725   3726   3727
3728   3729   3730   3731
3732   3733   3734   3735
3736   3737   3738   3739
3740   3741   3742   3743
3744   3745   3746   3747
3748   3749   3750   3751
3752   3753   3754   3755
3756   3757   3758   3759
3760   3761   3762   3763
3764   3765   3766   3767
3768   3769   3770   3771
3772   3773   3774   3775
3776   3777   3778   3779
3780   3781   3782   3783
3784   3785   3786   3787
3788   3789   3790   3791
3792   3793   3794   3795
3796   3797   3798   3799
3800   3801   3802   3803
3804   3805   3806   3807
3808   3809   3810   3811
3812   3813   3814   3815
3816   3817   3818   3819
3820   3821   3822   3823
3824   3825   3826   3827
3828   3829   3830   3831
3832   3833   3834   3835
3836   3837   3838   3839
3840   3841   3842   3843
3844   3845   3846   3847
3848   3849   3850   3851
3852   3853   3854   3855
3856   3857   3858   3859
3860   3861   3862   3863
3864   3865   3866   3867
3868   3869   3870   3871
3872   3873   3874   3875
3876   3877   3878   3879
3880   3881   3882   3883
3884   3885   3886   3887
3888   3889   3890   3891
3892   3893   3894   3895
3896   3897   3898   3899
3900   3901   3902   3903
3904   3905   3906   3907
3908   3909   3910   3911
3912   3913   3914   3915
3916   3917   3918   3919
3920   3921   3922   3923
3924   3925   3926   3927
3928   3929   3930   3931
3932   3933   3934   3935
3936   3937   3938   3939
3940   3941   3942   3943
3944   3945   3946   3947
3948   3949   3950   3951
3952   3953   3954   3955
3956   3957   3958   3959
3960   3961   3962   3963
3964   3965   3966   3967
3968   3969   3970   3971
3972   3973   3974   3975
3976   3977   3978   3979
3980   3981   3982   3983
3984   3985   3986   3987
3988   3989   3990   3991
3992   3993   3994   3995
3996   3997   3998   3999
4000   4001   4002   4003
4004   4005   4006   4007
4008   4009   4010   4011
4012   4013   4014   4015
4016   4017   4018   4019
4020   4021   4022   4023
4024   4025   4026   4027
4028   4029   4030   4031
4032   4033   4034   4035
4036   4037   4038   4039
4040   4041   4042   4043
4044   4045   4046   4047
4048   4049   4050   4051
4052   4053   4054   4055
4056   4057   4058   4059
4060   4061   4062   4063
4064   4065   4066   4067
4068   4069   4070   4071
4072   4073   4074   4075
4076   4077   4078   4079
4080   4081   4082   4083
4084   4085   4086   4087
4088   4089   4090   4091
4092   4093   4094   4095
4096   4097   4098   4099
4100   4101   4102   4103
4104   4105   4106   4107
4108   4109   4110   4111
4112   4113   4114   4115
4116   4117   4118   4119
4120   4121   4122   4123
4124   4125   4126   4127
4128   4129   4130   4131
4132   4133   4134   4135
4136   4137   4138   4139
4140   4141   4142   4143
4144   4145   4146   4147
4148   4149   4150   4151
4152   4153   4154   4155
4156   4157   4158   4159
4160   4161   4162   4163
4164   4165   4166   4167
4168   4169   4170   4171
4172   4173   4174   4175
4176   4177   4178   4179
4180   4181   4182   4183
4184   4185   4186   4187
4188   4189   4190   4191
4192   4193   4194   4195
4196   4197   4198   4199
4200   4201   4202   4203
4204   4205   4206   4207
4208   4209   4210   4211
4212   4213   4214   4215
4216   4217   4218   4219
4220   4221   4222   4223
4224   4225   4226   4227
4228   4229   4230   4231
4232   4233   4234   4235
4236   4237   4238   4239
4240   4241   4242   4243
4244   4245   4246   4247
4248   4249   4250   4251
4252   4253   4254   4255
4256   4257   4258   4259
4260   4261   4262   4263
4264   4265   4266   4267
4268   4269   4270   4271
4272   4273   4274   4275
4276   4277   4278   4279
4280   4281   4282   4283
4284   4285   4286   4287
4288   4289   4290   4291
4292   4293   4294   4295
4296   4297   4298   4299
4300   4301   4302   4303
4304   4305   4306   4307
4308   4309   4310   4311
4312   4313   4314   4315
4316   4317   4318   4319
4320   4321   4322   4323
4324   4325   4326   4327
4328   4329   4330   4331
4332   4333   4334   4335
4336   4337   4338   4339
4340   4341   4342   4343
4344   4345   4346   4347
4348   4349   4350   4351
4352   4353   4354   4355
4356   4357   4358   4359
4360   4361   4362   4363
4364   4365   4366   4367
4368   4369   4370   4371
4372   4373   4374   4375
4376   4377   4378   4379
4380   4381   4382   4383
4384   4385   4386   4387
4388   4389   4390   4391
4392   4393   4394   4395
4396   4397   4398   4399
4400   4401   4402   4403
4404   4405   4406   4407
4408   4409   4410   4411
4412   4413   4414   4415
4416   4417   4418   4419
4420   4421   4422   4423
4424   4425   4426   4427
4428   4429   4430   4431
4432   4433   4434   4435
4436   4437   4438   4439
4440   4441   4442   4443
4444   4445   4446   4447
4448   4449   4450   4451
4452   4453   4454   4455
4456   4457   4458   4459
4460   4461   4462   4463
4464   4465   4466   4467
4468   4469   4470   4471
4472   4473   4474   4475
4476   4477   4478   4479
4480   4481   4482   4483
4484   4485   4486   4487
4488   4489   4490   4491
4492   4493   4494   4495
4496   4497   4498   4499
4500   4501   4502   4503
4504   4505   4506   4507
4508   4509   4510   4511
4512   4513   4514   4515
4516   4517   4518   4519
4520   4521   4522   4523
4524   4525   4526   4527
4528   4529   4530   4531
4532   4533   4534   4535
4536   4537   4538   4539
4540   4541   4542   4543
4544   4545   4546   4547
4548   4549   4550   4551
4552   4553   4554   4555
4556   4557   4558   4559
4560   4561   4562   4563
4564   4565   4566   4567
4568   4569   4570   4571
4572   4573   4574   4575
4576   4577   4578   4579
4580   4581   4582   4583
4584   4585   4586   4587
4588   4589   4590   4591
4592   4593   4594   4595
4596   4597   4598   4599
4600   4601   4602   4603
4604   4605   4606   4607
4608   4609   4610   4611
4612   4613   4614   4615
4616   4617   4618   4619
4620   4621   4622   4623
4624   4625   4626   4627
4628   4629   4630   4631
4632   4633   4634   4635
4636   4637   4638   4639
4640   4641   4642   4643
4644   4645   4646   4647
4648   4649   4650   4651
4652   4653   4654   4655
4656   4657   4658   4659
4660   4661   4662   4663
4664   4665   4666   4667
4668   4669   4670   4671
4672   4673   4674   4675
4676   4677   4678   4679
4680   4681   4682   4683
4684   4685   4686   4687
4688   4689   4690   4691
4692   4693   4694   4695
4696   4697   4698   4699
4700   4701   4702   4703
4704   4705   4706   4707
4708   4709   4710   4711
4712   4713   4714   4715
4716   4717   4718   4719
4720   4721   4722   4723
4724   4725   4726   4727
4728   4729   4730   4731
4732   4733   4734   4735
4736   4737   4738   4739
4740   4741   4742   4743
4744   4745   4746   4747
4748   4749   4750   4751
4752   4753   4754   4755
4756   4757   4758   4759
4760   4761   4762   4763
4764   4765   4766   4767
4768   4769   4770   4771
4772   4773   4774   4775
4776   4777   4778   4779
4780   4781   4782   4783
4784   4785   4786   4787
4788   4789   4790   4791
4792   4793   4794   4795
4796   4797   4798   4799
4800   4801   4802   4803
4804   4805   4806   4807
4808   4809   4810   4811
4812   4813   4814   4815
4816   4817   4818   4819
4820   4821   4822   4823
4824   4825   4826   4827
4828   4829   4830   4831
4832   4833   4834   4835
4836   4837   4838   4839
4840   4841   4842   4843
4844   4845   4846   4847
4848   4849   4850   4851
4852   4853   4854   4855
4856   4857   4858   4859
4860   4861   4862   4863
4864   4865   4866   4867
4868   4869   4870   4871
4872   4873   4874   4875
4876   4877   4878   4879
4880   4881   4882   4883
4884   4885   4886   4887
4888   4889   4890   4891
4892   4893   4894   4895
4896   4897   4898   4899
4900   4901   4902   4903
4904   4905   4906   4907
4908   4909   4910   4911
4912   4913   4914   4915
4916   4917   4918   4919
4920   4921   4922   4923
4924   4925   4926   4927
4928   4929   4930   4931
4932   4933   4934   4935
4936   4937   4938   4939
4940   4941   4942   4943
4944   4945   4946   4947
4948   4949   4950   4951
4952   4953   4954   4955
4956   4957   4958   4959
4960   4961   4962   4963
4964   4965   4966   4967
4968   4969   4970   4971
4972   4973   4974   4975
4976   4977   4978   4979
4980   4981   4982   4983
4984   4985   4986   4987
4988   4989   4990   4991
4992   4993   4994   4995
4996   4997   4998   4999
5000   5001   5002   5003
5004   5005   5006   5007
5008   5009   5010   5011
5012   5013   5014   5015
5016   5017   5018   5019
5020   5021   5022   5023
5024   5025   5026   5027
5028   5029   5030   5031
5032   5033   5034   5035
5036   5037   5038   5039
5040   5041   5042   5043
5044   5045   5046   5047
5048   5049   5050   5051
5052   5053   5054   5055
5056   5057   5058   5059
5060   5061   5062   5063
5064   5065   5066   5067
5068   5069   5070   5071
5072   5073   5074   5075
5076   5077   5078   5079
5080   5081   5082   5083
5084   5085   5086   5087
5088   5089   5090   5091
5092   5093   5094   5095
5096   5097   5098   5099
5100   5101   5102   5103
5104   5105   5106   5107
5108   5109   5110   5111
5112   5113   5114   5115
5116   5117   5118   5119
5120   5121   5122   5123
5124   5125   5126   5127
5128   5129   5130   5131
5132   5133   5134   5135
5136   5137   5138   5139
5140   5141   5142   5143
5144   5145   5146   5147
5148   5149   5150   5151
5152   5153   5154   5155
5156   5157   5158   5159
5160   5161   5162   5163
5164   5165   5166   5167
5168   5169   5170   5171
5172   5173   5174   5175
5176   5177   5178   5179
5180   5181   5182   5183
5184   5185   5186   5187
5188   5189   5190   5191
5192   5193   5194   5195
5196   5197   5198   5199
5200   5201   5202   5203
5204   5205   5206   5207
5208   5209   5210   5211
5212   5213   5214   5215
5216   5217   5218   5219
5220   5221   5222   5223
5224   5225   5226   5227
5228   5229   5230   5231
5232   5233   5234   5235
5236   5237   5238   5239
5240   5241   5242   5243
5244   5245   5246   5247
5248   5249   5250   5251
5252   5253   5254   5255
5256   5257   5258   5259
5260   5261   5262   5263
5264   5265   5266   5267
5268   5269   5270   5271
5272   5273   5274   5275
5276   5277   5278   5279
5280   5281   5282   5283
5284   5285   5286   5287
5288   5289   5290   5291
5292   5293   5294   5295
5296   5297   5298   5299
5300   5301   5302   5303
5304   5305   5306   5307
5308   5309   5310   5311
5312   5313   5314   5315
5316   5317   5318   5319
5320   5321   5322   5323
5324   5325   5326   5327
5328   5329   5330   5331
5332   5333   5334   5335
5336   5337   5338   5339
5340   5341   5342   5343
5344   5345   5346   5347
5348   5349   5350   5351
5352   5353   5354   5355
5356   5357   5358   5359
5360   5361   5362   5363
5364   5365   5366   5367
5368   5369   5370   5371
5372   5373   5374   5375
5376   5377   5378   5379
5380   5381   5382   5383
5384   5385   5386   5387
5388   5389   5390   5391
5392   5393   5394   5395
5396   5397   5398   5399
5400   5401   5402   5403
5404   5405   5406   5407
5408   5409   5410   5411
5412   5413   5414   5415
5416   5417   5418   5419
5420   5421   5422   5423
5424   5425   5426   5427
5428   5429   5430   5431
5432   5433   5434   5435
5436   5437   5438   5439
5440   5441   5442   5443
5444   5445   5446   5447
5448   5449   5450   5451
5452   5453   5454   5455
5456   5457   5458   5459
5460   5461   5462   5463
5464   5465   5466   5467
5468   5469   5470   5471
5472   5473   5474   5475
5476   5477   5478   5479
5480   5481   5482   5483
5484   5485   5486   5487
5488   5489   5490   5491
5492   5493   5494   5495
5496   5497   5498   5499
5500   5501   5502   5503
5504   5505   5506   5507
5508   5509   5510   5511
5512   5513   5514   5515
5516   5517   5518   5519
5520   5521   5522   5523
5524   5525   5526   5527
5528   5529   5530   5531
5532   5533   5534   5535
5536   5537   5538   5539
5540   5541   5542   5543
5544   5545   5546   5547
5548   5549   5550   5551
5552   5553   5554   5555
5556   5557   5558   5559
5560   5561   5562   5563
5564   5565   5566   5567
5568   5569   5570   5571
5572   5573   5574   5575
5576   5577   5578   5579
5580   5581   5582   5583
5584   5585   5586   5587
5588   5589   5590   5591
5592   5593   5594   5595
5596   5597   5598   5599
5600   5601   5602   5603
5604   5605   5606   5607
5608   5609   5610   5611
5612   5613   5614   5615
5616   5617   5618   5619
5620   5621   5622   5623
5624   5625   5626   5627
5628   5629   5630   5631
5632   5633   5634   5635
5636   5637   5638   5639
5640   5641   5642   5643
5644   5645   5646   5647
5648   5649   5650   5651
5652   5653   5654   5655
5656   5657   5658   5659
5660   5661   5662   5663
5664   5665   5666   5667
5668   5669   5670   5671
5672   5673   5674   5675
5676   5677   5678   5679
5680   5681   5682   5683
5684   5685   5686   5687
5688   5689   5690   5691
5692   5693   5694   5695
5696   5697   5698   5699
5700   5701   5702   5703
5704   5705   5706   5707
5708   5709   5710   5711
5712   5713   5714   5715
5716   5717   5718   5719
5720   5721   5722   5723
5724   5725   5726   5727
5728   5729   5730   5731
5732   5733   5734   5735
5736   5737   5738   5739
5740   5741   5742   5743
5744   5745   5746   5747
5748   5749   5750   5751
5752   5753   5754   5755
5756   5757   5758   5759
5760   5761   5762   5763
5764   5765   5766   5767
5768   5769   5770   5771
5772   5773   5774   5775
5776   5777   5778   5779
5780   5781   5782   5783
5784   5785   5786   5787
5788   5789   5790   5791
5792   5793   5794   5795
5796   5797   5798   5799
5800   5801   5802   5803
5804   5805   5806   5807
5808   5809   5810   5811
5812   5813   5814   5815
5816   5817   5818   5819
5820   5821   5822   5823
5824   5825   5826   5827
5828   5829   5830   5831
5832   5833   5834   5835
5836   5837   5838   5839
5840   5841   5842   5843
5844   5845   5846   5847
5848   5849   5850   5851
5852   5853   5854   5855
5856   5857   5858   5859
5860   5861   5862   5863
5864   5865   5866   5867
5868   5869   5870   5871
5872   5873   5874   5875
5876   5877   5878   5879
5880   5881   5882   5883
5884   5885   5886   5887
5888   5889   5890   5891
5892   5893   5894   5895
5896   5897   5898   5899
5900   5901   5902   5903
5904   5905   5906   5907
5908   5909   5910   5911
5912   5913   5914   5915
5916   5917   5918   5919
5920   5921   5922   5923
5924   5925   5926   5927
5928   5929   5930   5931
5932   5933   5934   5935
5936   5937   5938   5939
5940   5941   5942   5943
5944   5945   5946   5947
5948   5949   5950   5951
5952   5953   5954   5955
5956   5957   5958   5959
5960   5961   5962   5963
5964   5965   5966   5967
5968   5969   5970   5971
5972   5973   5974   5975
5976   5977   5978   5979
5980   5981   5982   5983
5984   5985   5986   5987
5988   5989   5990   5991
5992   5993   5994   5995
5996   5997   5998   5999
              </DataArray>   
              <DataArray type="Int32" Name="offsets" format="ascii">   
4
8
12
16
20
24
28
32
36
40
44
48
52
56
60
64
68
72
76
80
84
88
92
96
100
104
108
112
116
120
124
128
132
136
140
144
148
152
156
160
164
168
172
176
180
184
188
192
196
200
204
208
212
216
220
224
228
232
236
240
244
248
252
256
260
264
268
272
276
280
284
288
292
296
300
304
308
312
316
320
324
328
332
336
340
344
348
352
356
360
364
368
372
376
380
384
388
392
396
400
404
408
412
416
420
424
428
432
436
440
444
448
452
456
460
464
468
472
476
480
484
488
492
496
500
504
508
512
516
520
524
528
532
536
540
544
548
552
556
560
564
568
572
576
580
584
588
592
596
600
604
608
612
616
620
624
628
632
636
640
644
648
652
656
660
664
668
672
676
680
684
688
692
696
700
704
708
712
716
720
724
728
732
736
740
744
748
752
756
760
764
768
772
776
780
784
788
792
796
800
804
808
812
816
820
824
828
832
836
840
844
848
852
856
860
864
868
872
876
880
884
888
892
896
900
904
908
912
916
920
924
928
932
936
940
944
948
952
956
960
964
968
972
976
980
984
988
992
996
1000
1004
1008
1012
1016
1020
1024
1028
1032
1036
1040
1044
1048
1052
1056
1060
1064
1068
1072
1076
1080
1084
1088
1092
1096
1100
1104
1108
1112
1116
1120
1124
1128
1132
1136
1140
1144
1148
1152
1156
1160
1164
1168
1172
1176
1180
1184
1188
1192
1196
1200
1204
1208
1212
1216
1220
1224
1228
1232
1236
1240
1244
1248
1252
1256
1260
1264
1268
1272
1276
1280
1284
1288
1292
1296
1300
1304
1308
1312
1316
1320
1324
1328
1332
1336
1340
1344
1348
1352
1356
1360
1364
1368
1372
1376
1380
1384
1388
1392
1396
1400
1404
1408
1412
1416
1420
1424
1428
1432
1436
1440
1444
1448
1452
1456
1460
1464
1468
1472
1476
1480
1484
1488
1492
1496
1500
1504
1508
1512
1516
1520
1524
1528
1532
1536
1540
1544
1548
1552
1556
1560
1564
1568
1572
1576
1580
1584
1588
1592
1596
1600
1604
1608
1612
1616
1620
1624
1628
1632
1636
1640
1644
1648
1652
1656
1660
1664
1668
1672
1676
1680
1684
1688
1692
1696
1700
1704
1708
1712
1716
1720
1724
1728
1732
1736
1740
1744
1748
1752
1756
1760
1764
1768
1772
1776
1780
1784
1788
1792
1796
1800
1804
1808
1812
1816
1820
1824
1828
1832
1836
1840
1844
1848
1852
1856
1860
1864
1868
1872
1876
1880
1884
1888
1892
1896
1900
1904
1908
1912
1916
1920
1924
1928
1932
1936
1940
1944
1948
1952
1956
1960
1964
1968
1972
1976
1980
1984
1988
1992
1996
2000
2004
2008
2012
2016
2020
2024
2028
2032
2036
2040
2044
2048
2052
2056
2060
2064
2068
2072
2076
2080
2084
2088
2092
2096
2100
2104
2108
2112
2116
2120
2124
2128
2132
2136
2140
2144
2148
2152
2156
2160
2164
2168
2172
2176
2180
2184
2188
2192
2196
2200
2204
2208
2212
2216
2220
2224
2228
2232
2236
2240
2244
2248
2252
2256
2260
2264
2268
2272
2276
2280
2284
2288
2292
2296
2300
2304
2308
2312
2316
2320
2324
2328
2332
2336
2340
2344
2348
2352
2356
2360
2364
2368
2372
2376
2380
2384
2388
2392
2396
2400
2404
2408
2412
2416
2420
2424
2428
2432
2436
2440
2444
2448
2452
2456
2460
2464
2468
2472
2476
2480
2484
2488
2492
2496
2500
2504
2508
2512
2516
2520
2524
2528
2532
2536
2540
2544
2548
2552
2556
2560
2564
2568
2572
2576
2580
2584
2588
2592
2596
2600
2604
2608
2612
2616
2620
2624
2628
2632
2636
2640
2644
2648
2652
2656
2660
2664
2668
2672
2676
2680
2684
2688
2692
2696
2700
2704
2708
2712
2716
2720
2724
2728
2732
2736
2740
2744
2748
2752
2756
2760
2764
2768
2772
2776
2780
2784
2788
2792
2796
2800
2804
2808
2812
2816
2820
2824
2828
2832
2836
2840
2844
2848
2852
2856
2860
2864
2868
2872
2876
2880
2884
2888
2892
2896
2900
2904
2908
2912
2916
2920
2924
2928
2932
2936
2940
2944
2948
2952
2956
2960
2964
2968
2972
2976
2980
2984
2988
2992
2996
3000
3004
3008
3012
3016
3020
3024
3028
3032
3036
3040
3044
3048
3052
3056
3060
3064
3068
3072
3076
3080
3084
3088
3092
3096
3100
3104
3108
3112
3116
3120
3124
3128
3132
3136
3140
3144
3148
3152
3156
3160
3164
3168
3172
3176
3180
3184
3188
3192
3196
3200
3204
3208
3212
3216
3220
3224
3228
3232
3236
3240
3244
3248
3252
3256
3260
3264
3268
3272
3276
3280
3284
3288
3292
3296
3300
3304
3308
3312
3316
3320
3324
3328
3332
3336
3340
3344
3348
3352
3356
3360
3364
3368
3372
3376
3380
3384
3388
3392
3396
3400
3404
3408
3412
3416
3420
3424
3428
3432
3436
3440
3444
3448
3452
3456
3460
3464
3468
3472
3476
3480
3484
3488
3492
3496
3500
3504
3508
3512
3516
3520
3524
3528
3532
3536
3540
3544
3548
3552
3556
3560
3564
3568
3572
3576
3580
3584
3588
3592
3596
3600
3604
3608
3612
3616
3620
3624
3628
3632
3636
3640
3644
3648
3652
3656
3660
3664
3668
3672
3676
3680
3684
3688
3692
3696
3700
3704
3708
3712
3716
3720
3724
3728
3732
3736
3740
3744
3748
3752
3756
3760
3764
3768
3772
3776
3780
3784
3788
3792
3796
3800
3804
3808
3812
3816
3820
3824
3828
3832
3836
3840
3844
3848
3852
3856
3860
3864
3868
3872
3876
3880
3884
3888
3892
3896
3900
3904
3908
3912
3916
3920
3924
3928
3932
3936
3940
3944
3948
3952
3956
3960
3964
3968
3972
3976
3980
3984
3988
3992
3996
4000
4004
4008
4012
4016
4020
4024
4028
4032
4036
4040
4044
4048
4052
4056
4060
4064
4068
4072
4076
4080
4084
4088
4092
4096
4100
4104
4108
4112
4116
4120
4124
4128
4132
4136
4140
4144
4148
4152
4156
4160
4164
4168
4172
4176
4180
4184
4188
4192
4196
4200
4204
4208
4212
4216
4220
4224
4228
4232
4236
4240
4244
4248
4252
4256
4260
4264
4268
4272
4276
4280
4284
4288
4292
4296
4300
4304
4308
4312
4316
4320
4324
4328
4332
4336
4340
4344
4348
4352
4356
4360
4364
4368
4372
4376
4380
4384
4388
4392
4396
4400
4404
4408
4412
4416
4420
4424
4428
4432
4436
4440
4444
4448
4452
4456
4460
4464
4468
4472
4476
4480
4484
4488
4492
4496
4500
4504
4508
4512
4516
4520
4524
4528
4532
4536
4540
4544
4548
4552
4556
4560
4564
4568
4572
4576
4580
4584
4588
4592
4596
4600
4604
4608
4612
4616
4620
4624
4628
4632
4636
4640
4644
4648
4652
4656
4660
4664
4668
4672
4676
4680
4684
4688
4692
4696
4700
4704
4708
4712
4716
4720
4724
4728
4732
4736
4740
4744
4748
4752
4756
4760
4764
4768
4772
4776
4780
4784
4788
4792
4796
4800
4804
4808
4812
4816
4820
4824
4828
4832
4836
4840
4844
4848
4852
4856
4860
4864
4868
4872
4876
4880
4884
4888
4892
4896
4900
4904
4908
4912
4916
4920
4924
4928
4932
4936
4940
4944
4948
4952
4956
4960
4964
4968
4972
4976
4980
4984
4988
4992
4996
5000
5004
5008
5012
5016
5020
5024
5028
5032
5036
5040
5044
5048
5052
5056
5060
5064
5068
5072
5076
5080
5084
5088
5092
5096
5100
5104
5108
5112
5116
5120
5124
5128
5132
5136
5140
5144
5148
5152
5156
5160
5164
5168
5172
5176
5180
5184
5188
5192
5196
5200
5204
5208
5212
5216
5220
5224
5228
5232
5236
5240
5244
5248
5252
5256
5260
5264
5268
5272
5276
5280
5284
5288
5292
5296
5300
5304
5308
5312
5316
5320
5324
5328
5332
5336
5340
5344
5348
5352
5356
5360
5364
5368
5372
5376
5380
5384
5388
5392
5396
5400
5404
5408
5412
5416
5420
5424
5428
5432
5436
5440
5444
5448
5452
5456
5460
5464
5468
5472
5476
5480
5484
5488
5492
5496
5500
5504
5508
5512
5516
5520
5524
5528
5532
5536
5540
5544
5548
5552
5556
5560
5564
5568
5572
5576
5580
5584
5588
5592
5596
5600
5604
5608
5612
5616
5620
5624
5628
5632
5636
5640
5644
5648
5652
5656
5660
5664
5668
5672
5676
5680
5684
5688
5692
5696
5700
5704
5708
5712
5716
5720
5724
5728
5732
5736
5740
5744
5748
5752
5756
5760
5764
5768
5772
5776
5780
5784
5788
5792
5796
5800
5804
5808
5812
5816
5820
5824
5828
5832
5836
5840
5844
5848
5852
5856
5860
5864
5868
5872
5876
5880
5884
5888
5892
5896
5900
5904
5908
5912
5916
5920
5924
5928
5932
5936
5940
5944
5948
5952
5956
5960
5964
5968
5972
5976
5980
5984
5988
5992
5996
6000
              </DataArray>   
              <DataArray type="UInt8" Name="types" format="ascii">   
10
10
10
10
10
10
10
10
10
10
10
10
10
10
10
10
10
10
10
10
10
10
10
10
10
10
10
10
10
10
10
10
10
10
10
10
10
10
10
10
10
10
10
10
10
10
10
10
10
10
10
10
10
10
10
10
10
10
10
10
10
10
10
10
10
10
10
10
10
10
10
10
10
10
10
10
10
10
10
10
10
10
10
10
10
10
10
10
10
10
10
10
10
10
10
10
10
10
10
10
10
10
10
10
10
10
10
10
10
10
10
10
10
10
10
10
10
10
10
10
10
10
10
10
10
10
10
10
10
10
10
10
10
10
10
10
10
10
10
10
10
10
10
10
10
10
10
10
10
10
10
10
10
10
10
10
10
10
10
10
10
10
10
10
10
10
10
10
10
10
10
10
10
10
10
10
10
10
10
10
10
10
10
10
10
10
10
10
10
10
10
10
10
10
10
10
10
10
10
10
10
10
10
10
10
10
10
10
10
10
10
10
10
10
10
10
10
10
10
10
10
10
10
10
10
10
10
10
10
10
10
10
10
10
10
10
10
10
10
10
10
10
10
10
10
10
10
10
10
10
10
10
10
10
10
10
10
10
10
10
10
10
10
10
10
10
10
10
10
10
10
10
10
10
10
10
10
10
10
10
10
10
10
10
10
10
10
10
10
10
10
10
10
10
10
10
10
10
10
10
10
10
10
10
10
10
10
10
10
10
10
10
10
10
10
10
10
10
10
10
10
10
10
10
10
10
10
10
10
10
10
10
10
10
10
10
10
10
10
10
10
10
10
10
10
10
10
10
10
10
10
10
10
10
10
10
10
10
10
10
10
10
10
10
10
10
10
10
10
10
10
10
10
10
10
10
10
10
10
10
10
10
10
10
10
10
10
10
10
10
10
10
10
10
10
10
10
10
10
10
10
10
10
10
10
10
10
10
10
10
10
10
10
10
10
10
10
10
10
10
10
10
10
10
10
10
10
10
10
10
10
10
10
10
10
10
10
10
10
10
10
10
10
10
10
10
10
10
10
10
10
10
10
10
10
10
10
10
10
10
10
10
10
10
10
10
10
10
10
10
10
10
10
10
10
10
10
10
10
10
10
10
10
10
10
10
10
10
10
10
10
10
10
10
10
10
10
10
10
10
10
10
10
10
10
10
10
10
10
10
10
10
10
10
10
10
10
10
10
10
10
10
10
10
10
10
10
10
10
10
10
10
10
10
10
10
10
10
10
10
10
10
10
10
10
10
10
10
10
10
10
10
10
10
10
10
10
10
10
10
10
10
10
10
10
10
10
10
10
10
10
10
10
10
10
10
10
10
10
10
10
10
10
10
10
10
10
10
10
10
10
10
10
10
10
10
10
10
10
10
10
10
10
10
10
10
10
10
10
10
10
10
10
10
10
10
10
10
10
10
10
10
10
10
10
10
10
10
10
10
10
10
10
10
10
10
10
10
10
10
10
10
10
10
10
10
10
10
10
10
10
10
10
10
10
10
10
10
10
10
10
10
10
10
10
10
10
10
10
10
10
10
10
10
10
10
10
10
10
10
10
10
10
10
10
10
10
10
10
10
10
10
10
10
10
10
10
10
10
10
10
10
10
10
10
10
10
10
10
10
10
10
10
10
10
10
10
10
10
10
10
10
10
10
10
10
10
10
10
10
10
10
10
10
10
10
10
10
10
10
10
10
10
10
10
10
10
10
10
10
10
10
10
10
10
10
10
10
10
10
10
10
10
10
10
10
10
10
10
10
10
10
10
10
10
10
10
10
10
10
10
10
10
10
10
10
10
10
10
10
10
10
10
10
10
10
10
10
10
10
10
10
10
10
10
10
10
10
10
10
10
10
10
10
10
10
10
10
10
10
10
10
10
10
10
10
10
10
10
10
10
10
10
10
10
10
10
10
10
10
10
10
10
10
10
10
10
10
10
10
10
10
10
10
10
10
10
10
10
10
10
10
10
10
10
10
10
10
10
10
10
10
10
10
10
10
10
10
10
10
10
10
10
10
10
10
10
10
10
10
10
10
10
10
10
10
10
10
10
10
10
10
10
10
10
10
10
10
10
10
10
10
10
10
10
10
10
10
10
10
10
10
10
10
10
10
10
10
10
10
10
10
10
10
10
10
10
10
10
10
10
10
10
10
10
10
10
10
10
10
10
10
10
10
10
10
10
10
10
10
10
10
10
10
10
10
10
10
10
10
10
10
10
10
10
10
10
10
10
10
10
10
10
10
10
10
10
10
10
10
10
10
10
10
10
10
10
10
10
10
10
10
10
10
10
10
10
10
10
10
10
10
10
10
10
10
10
10
10
10
10
10
10
10
10
10
10
10
10
10
10
10
10
10
10
10
10
10
10
10
10
10
10
10
10
10
10
10
10
10
10
10
10
10
10
10
10
10
10
10
10
10
10
10
10
10
10
10
10
10
10
10
10
10
10
10
10
10
10
10
10
10
10
10
10
10
10
10
10
10
10
10
10
10
10
10
10
10
10
10
10
10
10
10
10
10
10
10
10
10
10
10
10
10
10
10
10
10
10
10
10
10
10
10
10
10
10
10
10
10
10
10
10
10
10
10
10
10
10
10
10
10
10
10
10
10
10
10
10
10
10
10
10
10
10
10
10
10
10
10
10
10
10
10
10
10
10
10
10
10
10
10
10
10
10
10
10
10
10
10
10
10
10
10
10
10
10
10
10
10
10
10
10
10
10
10
10
10
10
10
10
10
10
10
10
10
10
10
10
10
10
10
10
10
10
10
10
10
10
10
10
10
10
10
10
10
10
10
10
10
10
10
10
10
10
10
10
10
10
10
10
10
10
10
10
10
10
10
10
10
10
10
10
10
10
10
10
10
10
10
10
10
10
10
10
10
10
10
10
10
10
10
10
10
10
10
10
10
10
10
10
10
10
10
10
10
10
10
10
10
10
10
10
10
10
10
10
10
10
10
10
10
10
10
10
10
10
10
10
10
10
10
10
10
10
10
10
10
10
10
10
10
10
10
10
10
10
10
10
10
10
10
10
10
10
10
10
10
10
10
10
10
10
10
10
10
10
10
10
10
10
10
10
10
10
10
10
10
10
10
10
10
10
10
10
10
10
10
10
10
10
10
10
10
10
10
10
10
10
10
10
10
10
10
10
10
10
10
10
10
10
10
10
10
10
10
10
10
10
10
10
10
10
10
10
10
10
10
10
10
10
10
10
10
10
10
10
10
10
10
10
10
10
10
10
10
10
10
10
10
10
10
10
10
10
10
10
10
10
10
10
10
10
10
10
10
10
10
10
10
10
10
10
10
10
10
10
10
10
10
10
10
10
10
10
10
10
10
10
10
10
10
10
10
10
10
10
10
10
10
10
10
10
10
10
10
10
10
10
10
10
10
10
10
10
10
10
10
10
10
              </DataArray>   
          </Cells>  
          <PointData>  
             <DataArray type="Float64" NumberOfComponents="3" Name="Strains" format="ascii">   
-0.0005637679211931577   0.0   -0.00036870167682272203
-0.0005637679211931577   0.0   -0.00036870167682272203
-0.0005637679211931577   0.0   -0.00036870167682272203
-0.0005637679211931577   0.0   -0.00036870167682272203
-0.0003588650669587093   6.262719887295477e-05   1.0379399558464253e-05
-0.0003588650669587093   6.262719887295477e-05   1.0379399558464253e-05
-0.0003588650669587093   6.262719887295477e-05   1.0379399558464253e-05
-0.0003588650669587093   6.262719887295477e-05   1.0379399558464253e-05
-0.0003518578865274677   0.0   -0.0003478104037397521
-0.0003518578865274677   0.0   -0.0003478104037397521
-0.0003518578865274677   0.0   -0.0003478104037397521
-0.0003518578865274677   0.0   -0.0003478104037397521
-0.0005901211164790351   7.507351436074631e-05   4.250870896413926e-06
-0.0005901211164790351   7.507351436074631e-05   4.250870896413926e-06
-0.0005901211164790351   7.507351436074631e-05   4.250870896413926e-06
-0.0005901211164790351   7.507351436074631e-05   4.250870896413926e-06
-0.00045781290386031194   1.7409394235808247e-05   -0.00018166434472649485
-0.00045781290386031194   1.7409394235808247e-05   -0.00018166434472649485
-0.00045781290386031194   1.7409394235808247e-05   -0.00018166434472649485
-0.00045781290386031194   1.7409394235808247e-05   -0.00018166434472649485
-0.000590121116479036   0.0   -0.0003928545123562
-0.000590121116479036   0.0   -0.0003928545123562
-0.000590121116479036   0.0   -0.0003928545123562
-0.000590121116479036   0.0   -0.0003928545123562
-0.0003518578865274677   7.507351436074642e-05   4.929497951286174e-05
-0.0003518578865274677   7.507351436074642e-05   4.929497951286174e-05
-0.0003518578865274677   7.507351436074642e-05   4.929497951286174e-05
-0.0003518578865274677   7.507351436074642e-05   4.929497951286174e-05
-0.00035294751756964214   0.0   -0.000356349777707918
-0.00035294751756964214   0.0   -0.000356349777707918
-0.00035294751756964214   0.0   -0.000356349777707918
-0.00035294751756964214   0.0   -0.000356349777707918
-0.0006086733893699477   8.040753181941631e-05   2.16154895342764e-05
-0.0006086733893699477   8.040753181941631e-05   2.16154895342764e-05
-0.0006086733893699477   8.040753181941631e-05   2.16154895342764e-05
-0.0006086733893699477   8.040753181941631e-05   2.16154895342764e-05
-0.00047153431702433833   3.0420612206901625e-05   -0.00017695747927423027
-0.00047153431702433833   3.0420612206901625e-05   -0.00017695747927423027
-0.00047153431702433833   3.0420612206901625e-05   -0.00017695747927423027
-0.00047153431702433833   3.0420612206901625e-05   -0.00017695747927423027
-0.0006086733893699488   0.0   -0.00040459429679956787
-0.0006086733893699488   0.0   -0.00040459429679956787
-0.0006086733893699488   0.0   -0.00040459429679956787
-0.0006086733893699488   0.0   -0.00040459429679956787
-0.00035294751756964214   8.040753181941642e-05   6.98600086259264e-05
-0.00035294751756964214   8.040753181941642e-05   6.98600086259264e-05
-0.00035294751756964214   8.040753181941642e-05   6.98600086259264e-05
-0.00035294751756964214   8.040753181941642e-05   6.98600086259264e-05
-0.000352871718133412   0.0   -0.0003585287083967983
-0.000352871718133412   0.0   -0.0003585287083967983
-0.000352871718133412   0.0   -0.0003585287083967983
-0.000352871718133412   0.0   -0.0003585287083967983
-0.0006485435072581236   9.1530635307554e-05   7.933922562652364e-05
-0.0006485435072581236   9.1530635307554e-05   7.933922562652364e-05
-0.0006485435072581236   9.1530635307554e-05   7.933922562652364e-05
-0.0006485435072581236   9.1530635307554e-05   7.933922562652364e-05
-0.00048077255375167957   3.838799033564126e-05   -0.00016839344323440206
-0.00048077255375167957   3.838799033564126e-05   -0.00016839344323440206
-0.00048077255375167957   3.838799033564126e-05   -0.00016839344323440206
-0.00048077255375167957   3.838799033564126e-05   -0.00016839344323440206
-0.00035886506695870994   0.0   -0.00033112535749894916
-0.00035886506695870994   0.0   -0.00033112535749894916
-0.00035886506695870994   0.0   -0.00033112535749894916
-0.00035886506695870994   0.0   -0.00033112535749894916
-0.00016331653756977062   2.3002481330748202e-05   8.590346947731772e-06
-0.00016331653756977062   2.3002481330748202e-05   8.590346947731772e-06
-0.00016331653756977062   2.3002481330748202e-05   8.590346947731772e-06
-0.00016331653756977062   2.3002481330748202e-05   8.590346947731772e-06
-0.00015717039645542588   0.0   -0.00032819545935956426
-0.00015717039645542588   0.0   -0.00032819545935956426
-0.00015717039645542588   0.0   -0.00032819545935956426
-0.00015717039645542588   0.0   -0.00032819545935956426
-0.0003518578865274677   3.2691573966979796e-05   -2.3331253619682463e-05
-0.0003518578865274677   3.2691573966979796e-05   -2.3331253619682463e-05
-0.0003518578865274677   3.2691573966979796e-05   -2.3331253619682463e-05
-0.0003518578865274677   3.2691573966979796e-05   -2.3331253619682463e-05
-0.0002580177317070675   2.4415817828207028e-06   -0.0001615815163431863
-0.0002580177317070675   2.4415817828207028e-06   -0.0001615815163431863
-0.0002580177317070675   2.4415817828207028e-06   -0.0001615815163431863
-0.0002580177317070675   2.4415817828207028e-06   -0.0001615815163431863
-0.0003518578865274674   0.0   -0.0003478104037397518
-0.0003518578865274674   0.0   -0.0003478104037397518
-0.0003518578865274674   0.0   -0.0003478104037397518
-0.0003518578865274674   0.0   -0.0003478104037397518
-0.00015717039645542588   3.2691573966979796e-05   -3.7163092394945966e-06
-0.00015717039645542588   3.2691573966979796e-05   -3.7163092394945966e-06
-0.00015717039645542588   3.2691573966979796e-05   -3.7163092394945966e-06
-0.00015717039645542588   3.2691573966979796e-05   -3.7163092394945966e-06
-0.00015375832023584385   0.0   -0.00033233532569772
-0.00015375832023584385   0.0   -0.00033233532569772
-0.00015375832023584385   0.0   -0.00033233532569772
-0.00015375832023584385   0.0   -0.00033233532569772
-0.00035294751756964214   4.0024086683663226e-05   -2.4367782151587603e-05
-0.00035294751756964214   4.0024086683663226e-05   -2.4367782151587603e-05
-0.00035294751756964214   4.0024086683663226e-05   -2.4367782151587603e-05
-0.00035294751756964214   4.0024086683663226e-05   -2.4367782151587603e-05
-0.00025280810338165527   1.2895898368360027e-05   -0.00017498989280904898
-0.00025280810338165527   1.2895898368360027e-05   -0.00017498989280904898
-0.00025280810338165527   1.2895898368360027e-05   -0.00017498989280904898
-0.00025280810338165527   1.2895898368360027e-05   -0.00017498989280904898
-0.00035294751756964214   0.0   -0.000356349777707918
-0.00035294751756964214   0.0   -0.000356349777707918
-0.00035294751756964214   0.0   -0.000356349777707918
-0.00035294751756964214   0.0   -0.000356349777707918
-0.00015375832023584385   4.0024086683663226e-05   -3.5333014138962376e-07
-0.00015375832023584385   4.0024086683663226e-05   -3.5333014138962376e-07
-0.00015375832023584385   4.0024086683663226e-05   -3.5333014138962376e-07
-0.00015375832023584385   4.0024086683663226e-05   -3.5333014138962376e-07
-0.00015066743586865052   0.0   -0.00033059894261522376
-0.00015066743586865052   0.0   -0.00033059894261522376
-0.00015066743586865052   0.0   -0.00033059894261522376
-0.00015066743586865052   0.0   -0.00033059894261522376
-0.00035287171813341107   4.6549609635957064e-05   -2.1521571288862394e-05
-0.00035287171813341107   4.6549609635957064e-05   -2.1521571288862394e-05
-0.00035287171813341107   4.6549609635957064e-05   -2.1521571288862394e-05
-0.00035287171813341107   4.6549609635957064e-05   -2.1521571288862394e-05
-0.00025180747671914625   2.145902924391164e-05   -0.00017490762541074448
-0.00025180747671914625   2.145902924391164e-05   -0.00017490762541074448
-0.00025180747671914625   2.145902924391164e-05   -0.00017490762541074448
-0.00025180747671914625   2.145902924391164e-05   -0.00017490762541074448
-0.0001633165375697709   0.0   -0.00031732386870050015
-0.0001633165375697709   0.0   -0.00031732386870050015
-0.0001633165375697709   0.0   -0.00031732386870050015
-0.0001633165375697709   0.0   -0.00031732386870050015
2.152326886069681e-05   -2.9219021021433325e-06   -1.1010665911006395e-05
2.152326886069681e-05   -2.9219021021433325e-06   -1.1010665911006395e-05
2.152326886069681e-05   -2.9219021021433325e-06   -1.1010665911006395e-05
2.152326886069681e-05   -2.9219021021433325e-06   -1.1010665911006395e-05
2.540122291381315e-05   0.0   -0.00032472460773647625
2.540122291381315e-05   0.0   -0.00032472460773647625
2.540122291381315e-05   0.0   -0.00032472460773647625
2.540122291381315e-05   0.0   -0.00032472460773647625
-0.0001571703964554256   5.784752705144847e-06   -2.390942707749909e-05
-0.0001571703964554256   5.784752705144847e-06   -2.390942707749909e-05
-0.0001571703964554256   5.784752705144847e-06   -2.390942707749909e-05
-0.0001571703964554256   5.784752705144847e-06   -2.390942707749909e-05
-6.895765732797859e-05   -6.167282529980975e-06   -0.00016375943781550133
-6.895765732797859e-05   -6.167282529980975e-06   -0.00016375943781550133
-6.895765732797859e-05   -6.167282529980975e-06   -0.00016375943781550133
-6.895765732797859e-05   -6.167282529980975e-06   -0.00016375943781550133
-0.00015717039645542588   0.0   -0.00032819545935956426
-0.00015717039645542588   0.0   -0.00032819545935956426
-0.00015717039645542588   0.0   -0.00032819545935956426
-0.00015717039645542588   0.0   -0.00032819545935956426
2.5401222913813194e-05   5.784752705144847e-06   -2.0438575454412166e-05
2.5401222913813194e-05   5.784752705144847e-06   -2.0438575454412166e-05
2.5401222913813194e-05   5.784752705144847e-06   -2.0438575454412166e-05
2.5401222913813194e-05   5.784752705144847e-06   -2.0438575454412166e-05
2.8449085598982927e-05   0.0   -0.0003242675144640823
2.8449085598982927e-05   0.0   -0.0003242675144640823
2.8449085598982927e-05   0.0   -0.0003242675144640823
2.8449085598982927e-05   0.0   -0.0003242675144640823
-0.00015375832023584334   1.3446352056061895e-05   -2.8656315973008613e-05
-0.00015375832023584334   1.3446352056061895e-05   -2.8656315973008613e-05
-0.00015375832023584334   1.3446352056061895e-05   -2.8656315973008613e-05
-0.00015375832023584334   1.3446352056061895e-05   -2.8656315973008613e-05
-6.436065542822134e-05   3.2732874129011848e-06   -0.00017154858519981576
-6.436065542822134e-05   3.2732874129011848e-06   -0.00017154858519981576
-6.436065542822134e-05   3.2732874129011848e-06   -0.00017154858519981576
-6.436065542822134e-05   3.2732874129011848e-06   -0.00017154858519981576
-0.00015375832023584385   0.0   -0.00033233532569772
-0.00015375832023584385   0.0   -0.00033233532569772
-0.00015375832023584385   0.0   -0.00033233532569772
-0.00015375832023584385   0.0   -0.00033233532569772
2.8449085598982978e-05   1.3446352056062003e-05   -2.058850473937152e-05
2.8449085598982978e-05   1.3446352056062003e-05   -2.058850473937152e-05
2.8449085598982978e-05   1.3446352056062003e-05   -2.058850473937152e-05
2.8449085598982978e-05   1.3446352056062003e-05   -2.058850473937152e-05
3.2582308538571225e-05   0.0   -0.00031720320844787203
3.2582308538571225e-05   0.0   -0.00031720320844787203
3.2582308538571225e-05   0.0   -0.00031720320844787203
3.2582308538571225e-05   0.0   -0.00031720320844787203
-0.00015066743586865015   2.2326223612252334e-05   -2.5182701936520794e-05
-0.00015066743586865015   2.2326223612252334e-05   -2.5182701936520794e-05
-0.00015066743586865015   2.2326223612252334e-05   -2.5182701936520794e-05
-0.00015066743586865015   2.2326223612252334e-05   -2.5182701936520794e-05
-6.0588005848636174e-05   1.2610097708206194e-05   -0.00016948540976078328
-6.0588005848636174e-05   1.2610097708206194e-05   -0.00016948540976078328
-6.0588005848636174e-05   1.2610097708206194e-05   -0.00016948540976078328
-6.0588005848636174e-05   1.2610097708206194e-05   -0.00016948540976078328
2.1523268860696846e-05   0.0   -0.0003190770099617862
2.1523268860696846e-05   0.0   -0.0003190770099617862
2.1523268860696846e-05   0.0   -0.0003190770099617862
2.1523268860696846e-05   0.0   -0.0003190770099617862
0.00022208127640899173   -2.6047352537757196e-05   -4.420755706154868e-07
0.00022208127640899173   -2.6047352537757196e-05   -4.420755706154868e-07
0.00022208127640899173   -2.6047352537757196e-05   -4.420755706154868e-07
0.00022208127640899173   -2.6047352537757196e-05   -4.420755706154868e-07
0.00022235051585567543   0.0   -0.0003365228225056671
0.00022235051585567543   0.0   -0.0003365228225056671
0.00022235051585567543   0.0   -0.0003365228225056671
0.00022235051585567543   0.0   -0.0003365228225056671
2.540122291381324e-05   -1.9663691281982887e-05   3.524213833292919e-06
2.540122291381324e-05   -1.9663691281982887e-05   3.524213833292919e-06
2.540122291381324e-05   -1.9663691281982887e-05   3.524213833292919e-06
2.540122291381324e-05   -1.9663691281982887e-05   3.524213833292919e-06
0.00012193689235818614   -1.4538177119900807e-05   -0.00016044387707124438
0.00012193689235818614   -1.4538177119900807e-05   -0.00016044387707124438
0.00012193689235818614   -1.4538177119900807e-05   -0.00016044387707124438
0.00012193689235818614   -1.4538177119900807e-05   -0.00016044387707124438
2.540122291381324e-05   0.0   -0.00032472460773647733
2.540122291381324e-05   0.0   -0.00032472460773647733
2.540122291381324e-05   0.0   -0.00032472460773647733
2.540122291381324e-05   0.0   -0.00032472460773647733
0.00022235051585567543   -1.9663691281982887e-05   -8.274000935896823e-06
0.00022235051585567543   -1.9663691281982887e-05   -8.274000935896823e-06
0.00022235051585567543   -1.9663691281982887e-05   -8.274000935896823e-06
0.00022235051585567543   -1.9663691281982887e-05   -8.274000935896823e-06
0.00022128993079839648   0.0   -0.0003317165034258159
0.00022128993079839648   0.0   -0.0003317165034258159
0.00022128993079839648   0.0   -0.0003317165034258159
0.00022128993079839648   0.0   -0.0003317165034258159
2.8449085598982978e-05   -1.241498160288847e-05   -2.8661057983937234e-06
2.8449085598982978e-05   -1.241498160288847e-05   -2.8661057983937234e-06
2.8449085598982978e-05   -1.241498160288847e-05   -2.8661057983937234e-06
2.8449085598982978e-05   -1.241498160288847e-05   -2.8661057983937234e-06
0.00012334557685610487   -5.826579741115474e-06   -0.00016497996567732716
0.00012334557685610487   -5.826579741115474e-06   -0.00016497996567732716
0.00012334557685610487   -5.826579741115474e-06   -0.00016497996567732716
0.00012334557685610487   -5.826579741115474e-06   -0.00016497996567732716
2.844908559898295e-05   0.0   -0.0003242675144640826
2.844908559898295e-05   0.0   -0.0003242675144640826
2.844908559898295e-05   0.0   -0.0003242675144640826
2.844908559898295e-05   0.0   -0.0003242675144640826
0.00022128993079839648   -1.241498160288847e-05   -1.0315094760126773e-05
0.00022128993079839648   -1.241498160288847e-05   -1.0315094760126773e-05
0.00022128993079839648   -1.241498160288847e-05   -1.0315094760126773e-05
0.00022128993079839648   -1.241498160288847e-05   -1.0315094760126773e-05
0.00022547159853414551   0.0   -0.00031880384961042286
0.00022547159853414551   0.0   -0.00031880384961042286
0.00022547159853414551   0.0   -0.00031880384961042286
0.00022547159853414551   0.0   -0.00031880384961042286
3.2582308538571286e-05   -2.667735270917102e-06   4.278941544751089e-06
3.2582308538571286e-05   -2.667735270917102e-06   4.278941544751089e-06
3.2582308538571286e-05   -2.667735270917102e-06   4.278941544751089e-06
3.2582308538571286e-05   -2.667735270917102e-06   4.278941544751089e-06
0.00012696034206656417   4.553054044716695e-06   -0.00015735025459128385
0.00012696034206656417   4.553054044716695e-06   -0.00015735025459128385
0.00012696034206656417   4.553054044716695e-06   -0.00015735025459128385
0.00012696034206656417   4.553054044716695e-06   -0.00015735025459128385
0.00022208127640899173   0.0   -0.0003347054214844405
0.00022208127640899173   0.0   -0.0003347054214844405
0.00022208127640899173   0.0   -0.0003347054214844405
0.00022208127640899173   0.0   -0.0003347054214844405
0.0005007157892869071   -6.594538320619083e-05   9.011820338837334e-05
0.0005007157892869071   -6.594538320619083e-05   9.011820338837334e-05
0.0005007157892869071   -6.594538320619083e-05   9.011820338837334e-05
0.0005007157892869071   -6.594538320619083e-05   9.011820338837334e-05
0.0004700897097621496   0.0   -0.0003702280606661093
0.0004700897097621496   0.0   -0.0003702280606661093
0.0004700897097621496   0.0   -0.0003702280606661093
0.0004700897097621496   0.0   -0.0003702280606661093
0.00022235051585567543   -5.617539693407035e-05   7.63758340051231e-05
0.00022235051585567543   -5.617539693407035e-05   7.63758340051231e-05
0.00022235051585567543   -5.617539693407035e-05   7.63758340051231e-05
0.00022235051585567543   -5.617539693407035e-05   7.63758340051231e-05
0.00034608549308557063   -2.960219931805733e-05   -0.00014579304661430987
0.00034608549308557063   -2.960219931805733e-05   -0.00014579304661430987
0.00034608549308557063   -2.960219931805733e-05   -0.00014579304661430987
0.00034608549308557063   -2.960219931805733e-05   -0.00014579304661430987
0.00022235051585567524   0.0   -0.00033652282250566683
0.00022235051585567524   0.0   -0.00033652282250566683
0.00022235051585567524   0.0   -0.00033652282250566683
0.00022235051585567524   0.0   -0.00033652282250566683
0.00047008970976214796   -5.617539693407003e-05   4.267059584468075e-05
0.00047008970976214796   -5.617539693407003e-05   4.267059584468075e-05
0.00047008970976214796   -5.617539693407003e-05   4.267059584468075e-05
0.00047008970976214796   -5.617539693407003e-05   4.267059584468075e-05
0.00045591788640505235   0.0   -0.0003625296295977893
0.00045591788640505235   0.0   -0.0003625296295977893
0.00045591788640505235   0.0   -0.0003625296295977893
0.00045591788640505235   0.0   -0.0003625296295977893
0.00022128993079839648   -5.1355210286622315e-05   5.93300892519438e-05
0.00022128993079839648   -5.1355210286622315e-05   5.93300892519438e-05
0.00022128993079839648   -5.1355210286622315e-05   5.93300892519438e-05
0.00022128993079839648   -5.1355210286622315e-05   5.93300892519438e-05
0.0003391342011303637   -2.1672339243435188e-05   -0.0001548867505939138
0.0003391342011303637   -2.1672339243435188e-05   -0.0001548867505939138
0.0003391342011303637   -2.1672339243435188e-05   -0.0001548867505939138
0.0003391342011303637   -2.1672339243435188e-05   -0.0001548867505939138
0.00022128993079839648   0.0   -0.0003317165034258159
0.00022128993079839648   0.0   -0.0003317165034258159
0.00022128993079839648   0.0   -0.0003317165034258159
0.00022128993079839648   0.0   -0.0003317165034258159
0.0004559178864050508   -5.13552102866221e-05   2.851696307997029e-05
0.0004559178864050508   -5.13552102866221e-05   2.851696307997029e-05
0.0004559178864050508   -5.13552102866221e-05   2.851696307997029e-05
0.0004559178864050508   -5.13552102866221e-05   2.851696307997029e-05
0.0004348957163071388   0.0   -0.0003427993602470854
0.0004348957163071388   0.0   -0.0003427993602470854
0.0004348957163071388   0.0   -0.0003427993602470854
0.0004348957163071388   0.0   -0.0003427993602470854
0.00022547159853414551   -3.9992517727771874e-05   3.0236346677900525e-05
0.00022547159853414551   -3.9992517727771874e-05   3.0236346677900525e-05
0.00022547159853414551   -3.9992517727771874e-05   3.0236346677900525e-05
0.00022547159853414551   -3.9992517727771874e-05   3.0236346677900525e-05
0.000328092823552768   -9.235714017725115e-06   -0.0001592531105791649
0.000328092823552768   -9.235714017725115e-06   -0.0001592531105791649
0.000328092823552768   -9.235714017725115e-06   -0.0001592531105791649
0.000328092823552768   -9.235714017725115e-06   -0.0001592531105791649
-0.0004901113460948898   6.262719887295467e-05   -0.00032071166177613584
-0.0004901113460948898   6.262719887295467e-05   -0.00032071166177613584
-0.0004901113460948898   6.262719887295467e-05   -0.00032071166177613584
-0.0004901113460948898   6.262719887295467e-05   -0.00032071166177613584
-0.000313825766243739   5.637784285787467e-05   -3.06519756332655e-05
-0.000313825766243739   5.637784285787467e-05   -3.06519756332655e-05
-0.000313825766243739   5.637784285787467e-05   -3.06519756332655e-05
-0.000313825766243739   5.637784285787467e-05   -3.06519756332655e-05
-0.00032177549725285245   7.507351436074631e-05   -0.00026926421746395826
-0.00032177549725285245   7.507351436074631e-05   -0.00026926421746395826
-0.00032177549725285245   7.507351436074631e-05   -0.00026926421746395826
-0.00032177549725285245   7.507351436074631e-05   -0.00026926421746395826
-0.000495529404188311   6.761319851319482e-05   2.480181693700445e-05
-0.000495529404188311   6.761319851319482e-05   2.480181693700445e-05
-0.000495529404188311   6.761319851319482e-05   2.480181693700445e-05
-0.000495529404188311   6.761319851319482e-05   2.480181693700445e-05
-0.00038926323381531167   6.538937171433109e-05   -0.0001509741709386787
-0.00038926323381531167   6.538937171433109e-05   -0.0001509741709386787
-0.00038926323381531167   6.538937171433109e-05   -0.0001509741709386787
-0.00038926323381531167   6.538937171433109e-05   -0.0001509741709386787
-0.000495529404188311   7.507351436074631e-05   -0.0002647880279554275
-0.000495529404188311   7.507351436074631e-05   -0.0002647880279554275
-0.000495529404188311   7.507351436074631e-05   -0.0002647880279554275
-0.000495529404188311   7.507351436074631e-05   -0.0002647880279554275
-0.0003217754972528536   6.761319851319525e-05   2.0325627428473617e-05
-0.0003217754972528536   6.761319851319525e-05   2.0325627428473617e-05
-0.0003217754972528536   6.761319851319525e-05   2.0325627428473617e-05
-0.0003217754972528536   6.761319851319525e-05   2.0325627428473617e-05
-0.00032349776100791436   8.04075318194162e-05   -0.00024202428619133493
-0.00032349776100791436   8.04075318194162e-05   -0.00024202428619133493
-0.00032349776100791436   8.04075318194162e-05   -0.00024202428619133493
-0.00032349776100791436   8.04075318194162e-05   -0.00024202428619133493
-0.0004991139250232806   7.268197142150682e-05   5.5304656739686014e-05
-0.0004991139250232806   7.268197142150682e-05   5.5304656739686014e-05
-0.0004991139250232806   7.268197142150682e-05   5.5304656739686014e-05
-0.0004991139250232806   7.268197142150682e-05   5.5304656739686014e-05
-0.00040078226167374433   7.245663865913365e-05   -0.00010844624918544907
-0.00040078226167374433   7.245663865913365e-05   -0.00010844624918544907
-0.00040078226167374433   7.245663865913365e-05   -0.00010844624918544907
-0.00040078226167374433   7.245663865913365e-05   -0.00010844624918544907
-0.0004991139250232797   8.04075318194162e-05   -0.0002373889499525893
-0.0004991139250232797   8.04075318194162e-05   -0.0002373889499525893
-0.0004991139250232797   8.04075318194162e-05   -0.0002373889499525893
-0.0004991139250232797   8.04075318194162e-05   -0.0002373889499525893
-0.0003234977610079149   7.268197142150682e-05   5.066932050094039e-05
-0.0003234977610079149   7.268197142150682e-05   5.066932050094039e-05
-0.0003234977610079149   7.268197142150682e-05   5.066932050094039e-05
-0.0003234977610079149   7.268197142150682e-05   5.066932050094039e-05
-0.00032172303127423586   9.1530635307554e-05   -0.0001786452853890228
-0.00032172303127423586   9.1530635307554e-05   -0.0001786452853890228
-0.00032172303127423586   9.1530635307554e-05   -0.0001786452853890228
-0.00032172303127423586   9.1530635307554e-05   -0.0001786452853890228
-0.0004854153887692309   7.66840553008438e-05   0.00010308325843999327
-0.0004854153887692309   7.66840553008438e-05   0.00010308325843999327
-0.0004854153887692309   7.66840553008438e-05   0.00010308325843999327
-0.0004854153887692309   7.66840553008438e-05   0.00010308325843999327
-0.00039044551948655545   7.944169663811544e-05   -5.6854441833494983e-05
-0.00039044551948655545   7.944169663811544e-05   -5.6854441833494983e-05
-0.00039044551948655545   7.944169663811544e-05   -5.6854441833494983e-05
-0.00039044551948655545   7.944169663811544e-05   -5.6854441833494983e-05
-0.000313825766243739   2.3002481330748202e-05   -0.0003400518167943651
-0.000313825766243739   2.3002481330748202e-05   -0.0003400518167943651
-0.000313825766243739   2.3002481330748202e-05   -0.0003400518167943651
-0.000313825766243739   2.3002481330748202e-05   -0.0003400518167943651
-0.00014855398230371696   2.6231649781531573e-05   -6.266134249052456e-05
-0.00014855398230371696   2.6231649781531573e-05   -6.266134249052456e-05
-0.00014855398230371696   2.6231649781531573e-05   -6.266134249052456e-05
-0.00014855398230371696   2.6231649781531573e-05   -6.266134249052456e-05
-0.00015216046707448904   3.269157396697958e-05   -0.0003395666731119156
-0.00015216046707448904   3.269157396697958e-05   -0.0003395666731119156
-0.00015216046707448904   3.269157396697958e-05   -0.0003395666731119156
-0.00015216046707448904   3.269157396697958e-05   -0.0003395666731119156
-0.00032177549725285245   3.6564536441291125e-05   -5.9198733632562575e-05
-0.00032177549725285245   3.6564536441291125e-05   -5.9198733632562575e-05
-0.00032177549725285245   3.6564536441291125e-05   -5.9198733632562575e-05
-0.00032177549725285245   3.6564536441291125e-05   -5.9198733632562575e-05
-0.00023342363631756306   2.9447201991039933e-05   -0.00020218143452122971
-0.00023342363631756306   2.9447201991039933e-05   -0.00020218143452122971
-0.00023342363631756306   2.9447201991039933e-05   -0.00020218143452122971
-0.00023342363631756306   2.9447201991039933e-05   -0.00020218143452122971
-0.0003217754972528522   3.269157396697958e-05   -0.00034189045059650186
-0.0003217754972528522   3.269157396697958e-05   -0.00034189045059650186
-0.0003217754972528522   3.269157396697958e-05   -0.00034189045059650186
-0.0003217754972528522   3.269157396697958e-05   -0.00034189045059650186
-0.0001521604670744893   3.6564536441291125e-05   -5.687495614797595e-05
-0.0001521604670744893   3.6564536441291125e-05   -5.687495614797595e-05
-0.0001521604670744893   3.6564536441291125e-05   -5.687495614797595e-05
-0.0001521604670744893   3.6564536441291125e-05   -5.687495614797595e-05
-0.00015333900131800487   4.002408668366312e-05   -0.00033320001182445317
-0.00015333900131800487   4.002408668366312e-05   -0.00033320001182445317
-0.00015333900131800487   4.002408668366312e-05   -0.00033320001182445317
-0.00015333900131800487   4.002408668366312e-05   -0.00033320001182445317
-0.00032349776100791436   4.511086192432196e-05   -5.265414415233315e-05
-0.00032349776100791436   4.511086192432196e-05   -5.265414415233315e-05
-0.00032349776100791436   4.511086192432196e-05   -5.265414415233315e-05
-0.00032349776100791436   4.511086192432196e-05   -5.265414415233315e-05
-0.00023530639565455072   3.734749143847896e-05   -0.00019498173078309929
-0.00023530639565455072   3.734749143847896e-05   -0.00019498173078309929
-0.00023530639565455072   3.734749143847896e-05   -0.00019498173078309929
-0.00023530639565455072   3.734749143847896e-05   -0.00019498173078309929
-0.00032349776100791436   4.002408668366312e-05   -0.00033625207696884844
-0.00032349776100791436   4.002408668366312e-05   -0.00033625207696884844
-0.00032349776100791436   4.002408668366312e-05   -0.00033625207696884844
-0.00032349776100791436   4.002408668366312e-05   -0.00033625207696884844
-0.00015333900131800544   4.511086192432218e-05   -4.960207900793801e-05
-0.00015333900131800544   4.511086192432218e-05   -4.960207900793801e-05
-0.00015333900131800544   4.511086192432218e-05   -4.960207900793801e-05
-0.00015333900131800544   4.511086192432218e-05   -4.960207900793801e-05
-0.00015302635006531596   4.6549609635956955e-05   -0.00032977373223099546
-0.00015302635006531596   4.6549609635956955e-05   -0.00032977373223099546
-0.00015302635006531596   4.6549609635956955e-05   -0.00032977373223099546
-0.00015302635006531596   4.6549609635956955e-05   -0.00032977373223099546
-0.00032172303127423564   5.430082839919968e-05   -5.3263328140741584e-05
-0.00032172303127423564   5.430082839919968e-05   -5.3263328140741584e-05
-0.00032172303127423564   5.430082839919968e-05   -5.3263328140741584e-05
-0.00032172303127423564   5.430082839919968e-05   -5.3263328140741584e-05
-0.0002367545130711339   4.4497850815016426e-05   -0.00018899573859540214
-0.0002367545130711339   4.4497850815016426e-05   -0.00018899573859540214
-0.0002367545130711339   4.4497850815016426e-05   -0.00018899573859540214
-0.0002367545130711339   4.4497850815016426e-05   -0.00018899573859540214
-0.00014855398230371672   -2.9219021021433325e-06   -0.0003559621873213472
-0.00014855398230371672   -2.9219021021433325e-06   -0.0003559621873213472
-0.00014855398230371672   -2.9219021021433325e-06   -0.0003559621873213472
-0.00014855398230371672   -2.9219021021433325e-06   -0.0003559621873213472
1.4642821800093592e-05   -7.659233623622756e-07   -8.267392657112794e-05
1.4642821800093592e-05   -7.659233623622756e-07   -8.267392657112794e-05
1.4642821800093592e-05   -7.659233623622756e-07   -8.267392657112794e-05
1.4642821800093592e-05   -7.659233623622756e-07   -8.267392657112794e-05
1.3912714856805527e-05   5.784752705144847e-06   -0.00035797982644938193
1.3912714856805527e-05   5.784752705144847e-06   -0.00035797982644938193
1.3912714856805527e-05   5.784752705144847e-06   -0.00035797982644938193
1.3912714856805527e-05   5.784752705144847e-06   -0.00035797982644938193
-0.00015216046707448904   8.751360206042712e-06   -8.297115439776176e-05
-0.00015216046707448904   8.751360206042712e-06   -8.297115439776176e-05
-0.00015216046707448904   8.751360206042712e-06   -8.297115439776176e-05
-0.00015216046707448904   8.751360206042712e-06   -8.297115439776176e-05
-6.845472725406992e-05   2.9003191687341015e-06   -0.00021897009614274256
-6.845472725406992e-05   2.9003191687341015e-06   -0.00021897009614274256
-6.845472725406992e-05   2.9003191687341015e-06   -0.00021897009614274256
-6.845472725406992e-05   2.9003191687341015e-06   -0.00021897009614274256
-0.00015216046707448904   5.784752705144847e-06   -0.00035975979094992006
-0.00015216046707448904   5.784752705144847e-06   -0.00035975979094992006
-0.00015216046707448904   5.784752705144847e-06   -0.00035975979094992006
-0.00015216046707448904   5.784752705144847e-06   -0.00035975979094992006
1.3912714856805527e-05   8.751360206042929e-06   -8.119118989722304e-05
1.3912714856805527e-05   8.751360206042929e-06   -8.119118989722304e-05
1.3912714856805527e-05   8.751360206042929e-06   -8.119118989722304e-05
1.3912714856805527e-05   8.751360206042929e-06   -8.119118989722304e-05
1.2934960652479011e-05   1.3446352056061895e-05   -0.00035874172131382766
1.2934960652479011e-05   1.3446352056061895e-05   -0.00035874172131382766
1.2934960652479011e-05   1.3446352056061895e-05   -0.00035874172131382766
1.2934960652479011e-05   1.3446352056061895e-05   -0.00035874172131382766
-0.00015333900131800487   1.8048479293136105e-05   -8.437972770526593e-05
-0.00015333900131800487   1.8048479293136105e-05   -8.437972770526593e-05
-0.00015333900131800487   1.8048479293136105e-05   -8.437972770526593e-05
-0.00015333900131800487   1.8048479293136105e-05   -8.437972770526593e-05
-6.979485997821115e-05   1.0969795875142479e-05   -0.00021937275322079185
-6.979485997821115e-05   1.0969795875142479e-05   -0.00021937275322079185
-6.979485997821115e-05   1.0969795875142479e-05   -0.00021937275322079185
-6.979485997821115e-05   1.0969795875142479e-05   -0.00021937275322079185
-0.00015333900131800487   1.3446352056061895e-05   -0.00036150299765607227
-0.00015333900131800487   1.3446352056061895e-05   -0.00036150299765607227
-0.00015333900131800487   1.3446352056061895e-05   -0.00036150299765607227
-0.00015333900131800487   1.3446352056061895e-05   -0.00036150299765607227
1.2934960652479038e-05   1.8048479293136105e-05   -8.161845136302155e-05
1.2934960652479038e-05   1.8048479293136105e-05   -8.161845136302155e-05
1.2934960652479038e-05   1.8048479293136105e-05   -8.161845136302155e-05
1.2934960652479038e-05   1.8048479293136105e-05   -8.161845136302155e-05
1.1033905060012572e-05   2.2326223612252334e-05   -0.000358117859195241
1.1033905060012572e-05   2.2326223612252334e-05   -0.000358117859195241
1.1033905060012572e-05   2.2326223612252334e-05   -0.000358117859195241
1.1033905060012572e-05   2.2326223612252334e-05   -0.000358117859195241
-0.0001530263500653161   2.7737506053897472e-05   -8.793087011801394e-05
-0.0001530263500653161   2.7737506053897472e-05   -8.793087011801394e-05
-0.0001530263500653161   2.7737506053897472e-05   -8.793087011801394e-05
-0.0001530263500653161   2.7737506053897472e-05   -8.793087011801394e-05
-7.06313788427986e-05   1.925954408985649e-05   -0.00022016904497711837
-7.06313788427986e-05   1.925954408985649e-05   -0.00022016904497711837
-7.06313788427986e-05   1.925954408985649e-05   -0.00022016904497711837
-7.06313788427986e-05   1.925954408985649e-05   -0.00022016904497711837
1.4642821800093592e-05   -2.6047352537757087e-05   -0.00032847159821443344
1.4642821800093592e-05   -2.6047352537757087e-05   -0.00032847159821443344
1.4642821800093592e-05   -2.6047352537757087e-05   -0.00032847159821443344
1.4642821800093592e-05   -2.6047352537757087e-05   -0.00032847159821443344
0.00018282236540369205   -2.6784084612471943e-05   -4.8614398119931545e-05
0.00018282236540369205   -2.6784084612471943e-05   -4.8614398119931545e-05
0.00018282236540369205   -2.6784084612471943e-05   -4.8614398119931545e-05
0.00018282236540369205   -2.6784084612471943e-05   -4.8614398119931545e-05
0.00018425009459327552   -1.9663691281982887e-05   -0.0003331071635059639
0.00018425009459327552   -1.9663691281982887e-05   -0.0003331071635059639
0.00018425009459327552   -1.9663691281982887e-05   -0.0003331071635059639
0.00018425009459327552   -1.9663691281982887e-05   -0.0003331071635059639
1.3912714856805527e-05   -1.814723518913015e-05   -5.012140426755833e-05
1.3912714856805527e-05   -1.814723518913015e-05   -5.012140426755833e-05
1.3912714856805527e-05   -1.814723518913015e-05   -5.012140426755833e-05
1.3912714856805527e-05   -1.814723518913015e-05   -5.012140426755833e-05
9.76421008934684e-05   -2.1706389366100802e-05   -0.00018753488848914792
9.76421008934684e-05   -2.1706389366100802e-05   -0.00018753488848914792
9.76421008934684e-05   -2.1706389366100802e-05   -0.00018753488848914792
9.76421008934684e-05   -2.1706389366100802e-05   -0.00018753488848914792
1.3912714856805503e-05   -1.966369128198278e-05   -0.0003340170371616762
1.3912714856805503e-05   -1.966369128198278e-05   -0.0003340170371616762
1.3912714856805503e-05   -1.966369128198278e-05   -0.0003340170371616762
1.3912714856805503e-05   -1.966369128198278e-05   -0.0003340170371616762
0.00018425009459327585   -1.814723518912993e-05   -4.921153061184652e-05
0.00018425009459327585   -1.814723518912993e-05   -4.921153061184652e-05
0.00018425009459327585   -1.814723518912993e-05   -4.921153061184652e-05
0.00018425009459327585   -1.814723518912993e-05   -4.921153061184652e-05
0.0001832648790936536   -1.2414981602888362e-05   -0.00033937858696646614
0.0001832648790936536   -1.2414981602888362e-05   -0.00033937858696646614
0.0001832648790936536   -1.2414981602888362e-05   -0.00033937858696646614
0.0001832648790936536   -1.2414981602888362e-05   -0.00033937858696646614
1.2934960652479011e-05   -9.680422592249797e-06   -5.713612497089217e-05
1.2934960652479011e-05   -9.680422592249797e-06   -5.713612497089217e-05
1.2934960652479011e-05   -9.680422592249797e-06   -5.713612497089217e-05
1.2934960652479011e-05   -9.680422592249797e-06   -5.713612497089217e-05
9.653457310400537e-05   -1.4801117193026384e-05   -0.00019339639562963623
9.653457310400537e-05   -1.4801117193026384e-05   -0.00019339639562963623
9.653457310400537e-05   -1.4801117193026384e-05   -0.00019339639562963623
9.653457310400537e-05   -1.4801117193026384e-05   -0.00019339639562963623
1.2934960652479005e-05   -1.2414981602888362e-05   -0.0003410193223728493
1.2934960652479005e-05   -1.2414981602888362e-05   -0.0003410193223728493
1.2934960652479005e-05   -1.2414981602888362e-05   -0.0003410193223728493
1.2934960652479005e-05   -1.2414981602888362e-05   -0.0003410193223728493
0.00018326487909365425   -9.680422592249797e-06   -5.549538956450893e-05
0.00018326487909365425   -9.680422592249797e-06   -5.549538956450893e-05
0.00018326487909365425   -9.680422592249797e-06   -5.549538956450893e-05
0.00018326487909365425   -9.680422592249797e-06   -5.549538956450893e-05
0.00017785030138567183   -2.667735270917102e-06   -0.0003399711807000878
0.00017785030138567183   -2.667735270917102e-06   -0.0003399711807000878
0.00017785030138567183   -2.667735270917102e-06   -0.0003399711807000878
0.00017785030138567183   -2.667735270917102e-06   -0.0003399711807000878
1.1033905060012572e-05   8.002133644697748e-07   -6.402462267188838e-05
1.1033905060012572e-05   8.002133644697748e-07   -6.402462267188838e-05
1.1033905060012572e-05   8.002133644697748e-07   -6.402462267188838e-05
1.1033905060012572e-05   8.002133644697748e-07   -6.402462267188838e-05
9.541685341715595e-05   -6.735191482046916e-06   -0.00020014162702588342
9.541685341715595e-05   -6.735191482046916e-06   -0.00020014162702588342
9.541685341715595e-05   -6.735191482046916e-06   -0.00020014162702588342
9.541685341715595e-05   -6.735191482046916e-06   -0.00020014162702588342
0.00018282236540369205   -6.594538320619083e-05   -0.00019878612857655896
0.00018282236540369205   -6.594538320619083e-05   -0.00019878612857655896
0.00018282236540369205   -6.594538320619083e-05   -0.00019878612857655896
0.00018282236540369205   -6.594538320619083e-05   -0.00019878612857655896
0.00034893247775687956   -4.9834140751279675e-05   8.773080415169993e-05
0.00034893247775687956   -4.9834140751279675e-05   8.773080415169993e-05
0.00034893247775687956   -4.9834140751279675e-05   8.773080415169993e-05
0.00034893247775687956   -4.9834140751279675e-05   8.773080415169993e-05
0.00036202817112391796   -5.6175396934070245e-05   -0.00024190859108491866
0.00036202817112391796   -5.6175396934070245e-05   -0.00024190859108491866
0.00036202817112391796   -5.6175396934070245e-05   -0.00024190859108491866
0.00036202817112391796   -5.6175396934070245e-05   -0.00024190859108491866
0.00018425009459327617   -4.5260834467359236e-05   4.7839465652791866e-05
0.00018425009459327617   -4.5260834467359236e-05   4.7839465652791866e-05
0.00018425009459327617   -4.5260834467359236e-05   4.7839465652791866e-05
0.00018425009459327617   -4.5260834467359236e-05   4.7839465652791866e-05
0.0002569776087780837   -5.408561025564847e-05   -6.807819251558112e-05
0.0002569776087780837   -5.408561025564847e-05   -6.807819251558112e-05
0.0002569776087780837   -5.408561025564847e-05   -6.807819251558112e-05
0.0002569776087780837   -5.408561025564847e-05   -6.807819251558112e-05
0.00018425009459327566   -5.6175396934070136e-05   -0.0002484573285649442
0.00018425009459327566   -5.6175396934070136e-05   -0.0002484573285649442
0.00018425009459327566   -5.6175396934070136e-05   -0.0002484573285649442
0.00018425009459327566   -5.6175396934070136e-05   -0.0002484573285649442
0.00036202817112391796   -4.5260834467359236e-05   5.438820313281856e-05
0.00036202817112391796   -4.5260834467359236e-05   5.438820313281856e-05
0.00036202817112391796   -4.5260834467359236e-05   5.438820313281856e-05
0.00036202817112391796   -4.5260834467359236e-05   5.438820313281856e-05
0.0003605542674093458   -5.1355210286622315e-05   -0.0002631524717371469
0.0003605542674093458   -5.1355210286622315e-05   -0.0002631524717371469
0.0003605542674093458   -5.1355210286622315e-05   -0.0002631524717371469
0.0003605542674093458   -5.1355210286622315e-05   -0.0002631524717371469
0.00018326487909365425   -4.038699159120574e-05   2.5748910905088796e-05
0.00018326487909365425   -4.038699159120574e-05   2.5748910905088796e-05
0.00018326487909365425   -4.038699159120574e-05   2.5748910905088796e-05
0.00018326487909365425   -4.038699159120574e-05   2.5748910905088796e-05
0.00026584656185140153   -4.780120305965534e-05   -0.0001074387001434203
0.00026584656185140153   -4.780120305965534e-05   -0.0001074387001434203
0.00026584656185140153   -4.780120305965534e-05   -0.0001074387001434203
0.00026584656185140153   -4.780120305965534e-05   -0.0001074387001434203
0.00018326487909365392   -5.135521028662221e-05   -0.0002697334029543964
0.00018326487909365392   -5.135521028662221e-05   -0.0002697334029543964
0.00018326487909365392   -5.135521028662221e-05   -0.0002697334029543964
0.00018326487909365392   -5.135521028662221e-05   -0.0002697334029543964
0.0003605542674093458   -4.038699159120574e-05   3.2329842122338654e-05
0.0003605542674093458   -4.038699159120574e-05   3.2329842122338654e-05
0.0003605542674093458   -4.038699159120574e-05   3.2329842122338654e-05
0.0003605542674093458   -4.038699159120574e-05   3.2329842122338654e-05
0.0003582359284376564   -3.9992517727771874e-05   -0.0003063540184144138
0.0003582359284376564   -3.9992517727771874e-05   -0.0003063540184144138
0.0003582359284376564   -3.9992517727771874e-05   -0.0003063540184144138
0.0003582359284376564   -3.9992517727771874e-05   -0.0003063540184144138
0.00017785030138567245   -2.9893991077812503e-05   -1.1770422651083108e-05
0.00017785030138567245   -2.9893991077812503e-05   -1.1770422651083108e-05
0.00017785030138567245   -2.9893991077812503e-05   -1.1770422651083108e-05
0.00017785030138567245   -2.9893991077812503e-05   -1.1770422651083108e-05
0.00025814848484882443   -4.118571323268104e-05   -0.00013882569513008172
0.00025814848484882443   -4.118571323268104e-05   -0.00013882569513008172
0.00025814848484882443   -4.118571323268104e-05   -0.00013882569513008172
0.00025814848484882443   -4.118571323268104e-05   -0.00013882569513008172
-0.00039120986101845684   5.637784285787467e-05   -0.00026943449394304926
-0.00039120986101845684   5.637784285787467e-05   -0.00026943449394304926
-0.00039120986101845684   5.637784285787467e-05   -0.00026943449394304926
-0.00039120986101845684   5.637784285787467e-05   -0.00026943449394304926
-0.0002562825953478388   4.314696709391275e-05   -5.249424328372947e-05
-0.0002562825953478388   4.314696709391275e-05   -5.249424328372947e-05
-0.0002562825953478388   4.314696709391275e-05   -5.249424328372947e-05
-0.0002562825953478388   4.314696709391275e-05   -5.249424328372947e-05
-0.00025755499514045085   6.761319851319482e-05   -0.00022367665723509785
-0.00025755499514045085   6.761319851319482e-05   -0.00022367665723509785
-0.00025755499514045085   6.761319851319482e-05   -0.00022367665723509785
-0.00025755499514045085   6.761319851319482e-05   -0.00022367665723509785
-0.00038537985144838634   5.2158309272398555e-05   -1.3622965107269736e-06
-0.00038537985144838634   5.2158309272398555e-05   -1.3622965107269736e-06
-0.00038537985144838634   5.2158309272398555e-05   -1.3622965107269736e-06
-0.00038537985144838634   5.2158309272398555e-05   -1.3622965107269736e-06
-0.0003089680766787403   5.730940849573351e-05   -0.0001318059139941393
-0.0003089680766787403   5.730940849573351e-05   -0.0001318059139941393
-0.0003089680766787403   5.730940849573351e-05   -0.0001318059139941393
-0.0003089680766787403   5.730940849573351e-05   -0.0001318059139941393
-0.00038537985144838634   6.761319851319482e-05   -0.00021440372369061996
-0.00038537985144838634   6.761319851319482e-05   -0.00021440372369061996
-0.00038537985144838634   6.761319851319482e-05   -0.00021440372369061996
-0.00038537985144838634   6.761319851319482e-05   -0.00021440372369061996
-0.00025755499514045085   5.2158309272398555e-05   -1.063523005520432e-05
-0.00025755499514045085   5.2158309272398555e-05   -1.063523005520432e-05
-0.00025755499514045085   5.2158309272398555e-05   -1.063523005520432e-05
-0.00025755499514045085   5.2158309272398555e-05   -1.063523005520432e-05
-0.00025732965604873415   7.268197142150682e-05   -0.00019133195449073633
-0.00025732965604873415   7.268197142150682e-05   -0.00019133195449073633
-0.00025732965604873415   7.268197142150682e-05   -0.00019133195449073633
-0.00025732965604873415   7.268197142150682e-05   -0.00019133195449073633
-0.0003796784552775928   5.611106922090523e-05   2.2525252211054794e-05
-0.0003796784552775928   5.611106922090523e-05   2.2525252211054794e-05
-0.0003796784552775928   5.611106922090523e-05   2.2525252211054794e-05
-0.0003796784552775928   5.611106922090523e-05   2.2525252211054794e-05
-0.00031169230428423775   6.253392189969247e-05   -9.463871105180616e-05
-0.00031169230428423775   6.253392189969247e-05   -9.463871105180616e-05
-0.00031169230428423775   6.253392189969247e-05   -9.463871105180616e-05
-0.00031169230428423775   6.253392189969247e-05   -9.463871105180616e-05
-0.0003796784552775928   7.268197142150682e-05   -0.00018138941317037542
-0.0003796784552775928   7.268197142150682e-05   -0.00018138941317037542
-0.0003796784552775928   7.268197142150682e-05   -0.00018138941317037542
-0.0003796784552775928   7.268197142150682e-05   -0.00018138941317037542
-0.0002573296560487346   5.611106922090523e-05   1.2582710890695291e-05
-0.0002573296560487346   5.611106922090523e-05   1.2582710890695291e-05
-0.0002573296560487346   5.611106922090523e-05   1.2582710890695291e-05
-0.0002573296560487346   5.611106922090523e-05   1.2582710890695291e-05
-0.0002576181726529009   7.66840553008438e-05   -0.0001459859302587736
-0.0002576181726529009   7.66840553008438e-05   -0.0001459859302587736
-0.0002576181726529009   7.66840553008438e-05   -0.0001459859302587736
-0.0002576181726529009   7.66840553008438e-05   -0.0001459859302587736
-0.00037220716638263385   5.99806108503762e-05   5.501779262772656e-05
-0.00037220716638263385   5.99806108503762e-05   5.501779262772656e-05
-0.00037220716638263385   5.99806108503762e-05   5.501779262772656e-05
-0.00037220716638263385   5.99806108503762e-05   5.501779262772656e-05
-0.00030463725856322944   6.526631744857483e-05   -6.0770144363528865e-05
-0.00030463725856322944   6.526631744857483e-05   -6.0770144363528865e-05
-0.00030463725856322944   6.526631744857483e-05   -6.0770144363528865e-05
-0.00030463725856322944   6.526631744857483e-05   -6.0770144363528865e-05
-0.0002562825953478388   2.6231649781531573e-05   -0.00031131988732915525
-0.0002562825953478388   2.6231649781531573e-05   -0.00031131988732915525
-0.0002562825953478388   2.6231649781531573e-05   -0.00031131988732915525
-0.0002562825953478388   2.6231649781531573e-05   -0.00031131988732915525
-0.0001302308226960621   2.148848699064232e-05   -0.00010407949725072771
-0.0001302308226960621   2.148848699064232e-05   -0.00010407949725072771
-0.0001302308226960621   2.148848699064232e-05   -0.00010407949725072771
-0.0001302308226960621   2.148848699064232e-05   -0.00010407949725072771
-0.00013184049253774414   3.6564536441291125e-05   -0.00030693241098335737
-0.00013184049253774414   3.6564536441291125e-05   -0.00030693241098335737
-0.00013184049253774414   3.6564536441291125e-05   -0.00030693241098335737
-0.00013184049253774414   3.6564536441291125e-05   -0.00030693241098335737
-0.0002575549951404504   3.034554862925117e-05   -9.36768472916225e-05
-0.0002575549951404504   3.034554862925117e-05   -9.36768472916225e-05
-0.0002575549951404504   3.034554862925117e-05   -9.36768472916225e-05
-0.0002575549951404504   3.034554862925117e-05   -9.36768472916225e-05
-0.0001923204404820695   3.0217924897570775e-05   -0.000202324530816583
-0.0001923204404820695   3.0217924897570775e-05   -0.000202324530816583
-0.0001923204404820695   3.0217924897570775e-05   -0.000202324530816583
-0.0001923204404820695   3.0217924897570775e-05   -0.000202324530816583
-0.00025755499514045074   3.6564536441291125e-05   -0.00030320101829613296
-0.00025755499514045074   3.6564536441291125e-05   -0.00030320101829613296
-0.00025755499514045074   3.6564536441291125e-05   -0.00030320101829613296
-0.00025755499514045074   3.6564536441291125e-05   -0.00030320101829613296
-0.00013184049253774435   3.034554862925117e-05   -9.74082399788456e-05
-0.00013184049253774435   3.034554862925117e-05   -9.74082399788456e-05
-0.00013184049253774435   3.034554862925117e-05   -9.74082399788456e-05
-0.00013184049253774435   3.034554862925117e-05   -9.74082399788456e-05
-0.00013289396026051312   4.511086192432196e-05   -0.00029879823856029247
-0.00013289396026051312   4.511086192432196e-05   -0.00029879823856029247
-0.00013289396026051312   4.511086192432196e-05   -0.00029879823856029247
-0.00013289396026051312   4.511086192432196e-05   -0.00029879823856029247
-0.00025732965604873415   3.820616289718342e-05   -8.726259283030964e-05
-0.00025732965604873415   3.820616289718342e-05   -8.726259283030964e-05
-0.00025732965604873415   3.820616289718342e-05   -8.726259283030964e-05
-0.00025732965604873415   3.820616289718342e-05   -8.726259283030964e-05
-0.00019270175931383065   3.749913122197716e-05   -0.00019455153505002127
-0.00019270175931383065   3.749913122197716e-05   -0.00019455153505002127
-0.00019270175931383065   3.749913122197716e-05   -0.00019455153505002127
-0.00019270175931383065   3.749913122197716e-05   -0.00019455153505002127
-0.00025732965604873415   4.511086192432218e-05   -0.00029465541914400987
-0.00025732965604873415   4.511086192432218e-05   -0.00029465541914400987
-0.00025732965604873415   4.511086192432218e-05   -0.00029465541914400987
-0.00025732965604873415   4.511086192432218e-05   -0.00029465541914400987
-0.0001328939602605136   3.820616289718385e-05   -9.140541224659127e-05
-0.0001328939602605136   3.820616289718385e-05   -9.140541224659127e-05
-0.0001328939602605136   3.820616289718385e-05   -9.140541224659127e-05
-0.0001328939602605136   3.820616289718385e-05   -9.140541224659127e-05
-0.00013424677720404475   5.4300828399199896e-05   -0.00029806950101000755
-0.00013424677720404475   5.4300828399199896e-05   -0.00029806950101000755
-0.00013424677720404475   5.4300828399199896e-05   -0.00029806950101000755
-0.00013424677720404475   5.4300828399199896e-05   -0.00029806950101000755
-0.0002576181726529008   4.655927477499166e-05   -8.78055764207224e-05
-0.0002576181726529008   4.655927477499166e-05   -8.78055764207224e-05
-0.0002576181726529008   4.655927477499166e-05   -8.78055764207224e-05
-0.0002576181726529008   4.655927477499166e-05   -8.78055764207224e-05
-0.00019501171340140247   4.4703823537357336e-05   -0.00019103640443063623
-0.00019501171340140247   4.4703823537357336e-05   -0.00019103640443063623
-0.00019501171340140247   4.4703823537357336e-05   -0.00019103640443063623
-0.00019501171340140247   4.4703823537357336e-05   -0.00019103640443063623
-0.0001302308226960619   -7.659233623622756e-07   -0.0003354719563281609
-0.0001302308226960619   -7.659233623622756e-07   -0.0003354719563281609
-0.0001302308226960619   -7.659233623622756e-07   -0.0003354719563281609
-0.0001302308226960619   -7.659233623622756e-07   -0.0003354719563281609
-5.619088661404182e-06   1.1389655444494357e-06   -0.00012664279959297793
-5.619088661404182e-06   1.1389655444494357e-06   -0.00012664279959297793
-5.619088661404182e-06   1.1389655444494357e-06   -0.00012664279959297793
-5.619088661404182e-06   1.1389655444494357e-06   -0.00012664279959297793
-6.914162852689831e-06   8.751360206042929e-06   -0.0003323694249987117
-6.914162852689831e-06   8.751360206042929e-06   -0.0003323694249987117
-6.914162852689831e-06   8.751360206042929e-06   -0.0003323694249987117
-6.914162852689831e-06   8.751360206042929e-06   -0.0003323694249987117
-0.00013184049253774414   9.850000596760972e-06   -0.00012481805975805295
-0.00013184049253774414   9.850000596760972e-06   -0.00012481805975805295
-0.00013184049253774414   9.850000596760972e-06   -0.00012481805975805295
-0.00013184049253774414   9.850000596760972e-06   -0.00012481805975805295
-6.826839739124805e-05   5.7334517988036175e-06   -0.00022830162239010504
-6.826839739124805e-05   5.7334517988036175e-06   -0.00022830162239010504
-6.826839739124805e-05   5.7334517988036175e-06   -0.00022830162239010504
-6.826839739124805e-05   5.7334517988036175e-06   -0.00022830162239010504
-0.00013184049253774414   8.751360206042712e-06   -0.00033302860923314307
-0.00013184049253774414   8.751360206042712e-06   -0.00033302860923314307
-0.00013184049253774414   8.751360206042712e-06   -0.00033302860923314307
-0.00013184049253774414   8.751360206042712e-06   -0.00033302860923314307
-6.914162852689845e-06   9.850000596760972e-06   -0.00012415887552362113
-6.914162852689845e-06   9.850000596760972e-06   -0.00012415887552362113
-6.914162852689845e-06   9.850000596760972e-06   -0.00012415887552362113
-6.914162852689845e-06   9.850000596760972e-06   -0.00012415887552362113
-7.859679512892346e-06   1.8048479293136105e-05   -0.00033328438832692865
-7.859679512892346e-06   1.8048479293136105e-05   -0.00033328438832692865
-7.859679512892346e-06   1.8048479293136105e-05   -0.00033328438832692865
-7.859679512892346e-06   1.8048479293136105e-05   -0.00033328438832692865
-0.0001328939602605134   1.8534310844289716e-05   -0.00012518541934492032
-0.0001328939602605134   1.8534310844289716e-05   -0.00012518541934492032
-0.0001328939602605134   1.8534310844289716e-05   -0.00012518541934492032
-0.0001328939602605134   1.8534310844289716e-05   -0.00012518541934492032
-6.99318027729297e-05   1.3413761470357135e-05   -0.00022705001886653162
-6.99318027729297e-05   1.3413761470357135e-05   -0.00022705001886653162
-6.99318027729297e-05   1.3413761470357135e-05   -0.00022705001886653162
-6.99318027729297e-05   1.3413761470357135e-05   -0.00022705001886653162
-0.0001328939602605134   1.8048479293136105e-05   -0.00033357588725762134
-0.0001328939602605134   1.8048479293136105e-05   -0.00033357588725762134
-0.0001328939602605134   1.8048479293136105e-05   -0.00033357588725762134
-0.0001328939602605134   1.8048479293136105e-05   -0.00033357588725762134
-7.859679512892359e-06   1.853431084429015e-05   -0.00012489392041422666
-7.859679512892359e-06   1.853431084429015e-05   -0.00012489392041422666
-7.859679512892359e-06   1.853431084429015e-05   -0.00012489392041422666
-7.859679512892359e-06   1.853431084429015e-05   -0.00012489392041422666
-9.329364003260014e-06   2.7737506053897472e-05   -0.00033757748124383464
-9.329364003260014e-06   2.7737506053897472e-05   -0.00033757748124383464
-9.329364003260014e-06   2.7737506053897472e-05   -0.00033757748124383464
-9.329364003260014e-06   2.7737506053897472e-05   -0.00033757748124383464
-0.00013424677720404464   2.7421327722880647e-05   -0.00012919208557725143
-0.00013424677720404464   2.7421327722880647e-05   -0.00012919208557725143
-0.00013424677720404464   2.7421327722880647e-05   -0.00012919208557725143
-0.00013424677720404464   2.7421327722880647e-05   -0.00012919208557725143
-7.169734626826676e-05   2.118523139717351e-05   -0.00022969947934145518
-7.169734626826676e-05   2.118523139717351e-05   -0.00022969947934145518
-7.169734626826676e-05   2.118523139717351e-05   -0.00022969947934145518
-7.169734626826676e-05   2.118523139717351e-05   -0.00022969947934145518
-5.619088661404188e-06   -2.678408461247216e-05   -0.0002998274552880487
-5.619088661404188e-06   -2.678408461247216e-05   -0.0002998274552880487
-5.619088661404188e-06   -2.678408461247216e-05   -0.0002998274552880487
-5.619088661404188e-06   -2.678408461247216e-05   -0.0002998274552880487
0.00011841490119431916   -1.8003564490147277e-05   -8.783582678844877e-05
0.00011841490119431916   -1.8003564490147277e-05   -8.783582678844877e-05
0.00011841490119431916   -1.8003564490147277e-05   -8.783582678844877e-05
0.00011841490119431916   -1.8003564490147277e-05   -8.783582678844877e-05
0.00011829627337439543   -1.814723518913015e-05   -0.00029642887964101026
0.00011829627337439543   -1.814723518913015e-05   -0.00029642887964101026
0.00011829627337439543   -1.814723518913015e-05   -0.00029642887964101026
0.00011829627337439543   -1.814723518913015e-05   -0.00029642887964101026
-6.914162852689845e-06   -1.0029302309067043e-05   -9.261557899057252e-05
-6.914162852689845e-06   -1.0029302309067043e-05   -9.261557899057252e-05
-6.914162852689845e-06   -1.0029302309067043e-05   -9.261557899057252e-05
-6.914162852689845e-06   -1.0029302309067043e-05   -9.261557899057252e-05
5.561315311971516e-05   -1.761840453721195e-05   -0.00019227431094102725
5.561315311971516e-05   -1.761840453721195e-05   -0.00019227431094102725
5.561315311971516e-05   -1.761840453721195e-05   -0.00019227431094102725
5.561315311971516e-05   -1.761840453721195e-05   -0.00019227431094102725
-6.914162852689845e-06   -1.814723518912993e-05   -0.0003012996393690476
-6.914162852689845e-06   -1.814723518912993e-05   -0.0003012996393690476
-6.914162852689845e-06   -1.814723518912993e-05   -0.0003012996393690476
-6.914162852689845e-06   -1.814723518912993e-05   -0.0003012996393690476
0.00011829627337439543   -1.0029302309067043e-05   -8.774481926253396e-05
0.00011829627337439543   -1.0029302309067043e-05   -8.774481926253396e-05
0.00011829627337439543   -1.0029302309067043e-05   -8.774481926253396e-05
0.00011829627337439543   -1.0029302309067043e-05   -8.774481926253396e-05
0.00011881465100717343   -9.680422592249797e-06   -0.00030430456850783795
0.00011881465100717343   -9.680422592249797e-06   -0.00030430456850783795
0.00011881465100717343   -9.680422592249797e-06   -0.00030430456850783795
0.00011881465100717343   -9.680422592249797e-06   -0.00030430456850783795
-7.85967951289238e-06   -2.1846002139793395e-06   -9.767817773469157e-05
-7.85967951289238e-06   -2.1846002139793395e-06   -9.767817773469157e-05
-7.85967951289238e-06   -2.1846002139793395e-06   -9.767817773469157e-05
-7.85967951289238e-06   -2.1846002139793395e-06   -9.767817773469157e-05
5.3892289558369596e-05   -1.0701396176146256e-05   -0.0001954880486094928
5.3892289558369596e-05   -1.0701396176146256e-05   -0.0001954880486094928
5.3892289558369596e-05   -1.0701396176146256e-05   -0.0001954880486094928
5.3892289558369596e-05   -1.0701396176146256e-05   -0.0001954880486094928
-7.859679512892359e-06   -9.680422592249797e-06   -0.00030880206193479925
-7.859679512892359e-06   -9.680422592249797e-06   -0.00030880206193479925
-7.859679512892359e-06   -9.680422592249797e-06   -0.00030880206193479925
-7.859679512892359e-06   -9.680422592249797e-06   -0.00030880206193479925
0.00011881465100717343   -2.1846002139793395e-06   -9.318068430772767e-05
0.00011881465100717343   -2.1846002139793395e-06   -9.318068430772767e-05
0.00011881465100717343   -2.1846002139793395e-06   -9.318068430772767e-05
0.00011881465100717343   -2.1846002139793395e-06   -9.318068430772767e-05
0.00011787072500827304   8.002133644699917e-07   -0.00031319991207432005
0.00011787072500827304   8.002133644699917e-07   -0.00031319991207432005
0.00011787072500827304   8.002133644699917e-07   -0.00031319991207432005
0.00011787072500827304   8.002133644699917e-07   -0.00031319991207432005
-9.329364003260027e-06   6.9970320117651065e-06   -0.00010491785491014258
-9.329364003260027e-06   6.9970320117651065e-06   -0.00010491785491014258
-9.329364003260027e-06   6.9970320117651065e-06   -0.00010491785491014258
-9.329364003260027e-06   6.9970320117651065e-06   -0.00010491785491014258
5.327298408801281e-05   -3.2923723421621025e-06   -0.0002030814591165727
5.327298408801281e-05   -3.2923723421621025e-06   -0.0002030814591165727
5.327298408801281e-05   -3.2923723421621025e-06   -0.0002030814591165727
5.327298408801281e-05   -3.2923723421621025e-06   -0.0002030814591165727
0.000118414901194319   -4.983414075127946e-05   -0.00016788068641596923
0.000118414901194319   -4.983414075127946e-05   -0.00016788068641596923
0.000118414901194319   -4.983414075127946e-05   -0.00016788068641596923
0.000118414901194319   -4.983414075127946e-05   -0.00016788068641596923
0.0002347605835293276   -3.271917334514993e-05   3.6297764586056165e-05
0.0002347605835293276   -3.271917334514993e-05   3.6297764586056165e-05
0.0002347605835293276   -3.271917334514993e-05   3.6297764586056165e-05
0.0002347605835293276   -3.271917334514993e-05   3.6297764586056165e-05
0.00024257226045563116   -4.5260834467359236e-05   -0.00018910562337049575
0.00024257226045563116   -4.5260834467359236e-05   -0.00018910562337049575
0.00024257226045563116   -4.5260834467359236e-05   -0.00018910562337049575
0.00024257226045563116   -4.5260834467359236e-05   -0.00018910562337049575
0.00011829627337439527   -2.8140401124233938e-05   7.748761759022635e-06
0.00011829627337439527   -2.8140401124233938e-05   7.748761759022635e-06
0.00011829627337439527   -2.8140401124233938e-05   7.748761759022635e-06
0.00011829627337439527   -2.8140401124233938e-05   7.748761759022635e-06
0.00017087990342798078   -3.8530275635329826e-05   -7.365669695696291e-05
0.00017087990342798078   -3.8530275635329826e-05   -7.365669695696291e-05
0.00017087990342798078   -3.8530275635329826e-05   -7.365669695696291e-05
0.00017087990342798078   -3.8530275635329826e-05   -7.365669695696291e-05
0.00011829627337439522   -4.5260834467359236e-05   -0.00019937788337637046
0.00011829627337439522   -4.5260834467359236e-05   -0.00019937788337637046
0.00011829627337439522   -4.5260834467359236e-05   -0.00019937788337637046
0.00011829627337439522   -4.5260834467359236e-05   -0.00019937788337637046
0.00024257226045563116   -2.8140401124233938e-05   1.8021021764898486e-05
0.00024257226045563116   -2.8140401124233938e-05   1.8021021764898486e-05
0.00024257226045563116   -2.8140401124233938e-05   1.8021021764898486e-05
0.00024257226045563116   -2.8140401124233938e-05   1.8021021764898486e-05
0.0002485567687849212   -4.038699159120574e-05   -0.00021334484581400024
0.0002485567687849212   -4.038699159120574e-05   -0.00021334484581400024
0.0002485567687849212   -4.038699159120574e-05   -0.00021334484581400024
0.0002485567687849212   -4.038699159120574e-05   -0.00021334484581400024
0.00011881465100717299   -2.4194621217473247e-05   -6.823405075327541e-06
0.00011881465100717299   -2.4194621217473247e-05   -6.823405075327541e-06
0.00011881465100717299   -2.4194621217473247e-05   -6.823405075327541e-06
0.00011881465100717299   -2.4194621217473247e-05   -6.823405075327541e-06
0.00017662655782227344   -3.557426156790408e-05   -9.634879889023522e-05
0.00017662655782227344   -3.557426156790408e-05   -9.634879889023522e-05
0.00017662655782227344   -3.557426156790408e-05   -9.634879889023522e-05
0.00017662655782227344   -3.557426156790408e-05   -9.634879889023522e-05
0.00011881465100717315   -4.038699159120574e-05   -0.0002230602680382398
0.00011881465100717315   -4.038699159120574e-05   -0.0002230602680382398
0.00011881465100717315   -4.038699159120574e-05   -0.0002230602680382398
0.00011881465100717315   -4.038699159120574e-05   -0.0002230602680382398
0.00024855676878492064   -2.4194621217473247e-05   2.8920171489133645e-06
0.00024855676878492064   -2.4194621217473247e-05   2.8920171489133645e-06
0.00024855676878492064   -2.4194621217473247e-05   2.8920171489133645e-06
0.00024855676878492064   -2.4194621217473247e-05   2.8920171489133645e-06
0.00025491734454989264   -2.9893991077812503e-05   -0.000254540486210636
0.00025491734454989264   -2.9893991077812503e-05   -0.000254540486210636
0.00025491734454989264   -2.9893991077812503e-05   -0.000254540486210636
0.00025491734454989264   -2.9893991077812503e-05   -0.000254540486210636
0.00011787072500827272   -1.57506660376284e-05   -3.461544866538099e-05
0.00011787072500827272   -1.57506660376284e-05   -3.461544866538099e-05
0.00011787072500827272   -1.57506660376284e-05   -3.461544866538099e-05
0.00011787072500827272   -1.57506660376284e-05   -3.461544866538099e-05
0.0001758121982298482   -3.066900773182439e-05   -0.00012223356568482127
0.0001758121982298482   -3.066900773182439e-05   -0.00012223356568482127
0.0001758121982298482   -3.066900773182439e-05   -0.00012223356568482127
0.0001758121982298482   -3.066900773182439e-05   -0.00012223356568482127
-0.00028179455881996874   4.314696709391275e-05   -0.00021395632866538067
-0.00028179455881996874   4.314696709391275e-05   -0.00021395632866538067
-0.00028179455881996874   4.314696709391275e-05   -0.00021395632866538067
-0.00028179455881996874   4.314696709391275e-05   -0.00021395632866538067
-0.00019161603821269226   2.7510928937726775e-05   -7.304041721363177e-05
-0.00019161603821269226   2.7510928937726775e-05   -7.304041721363177e-05
-0.00019161603821269226   2.7510928937726775e-05   -7.304041721363177e-05
-0.00019161603821269226   2.7510928937726775e-05   -7.304041721363177e-05
-0.00019092360632893992   5.2158309272398555e-05   -0.00018175228536441383
-0.00019092360632893992   5.2158309272398555e-05   -0.00018175228536441383
-0.00019092360632893992   5.2158309272398555e-05   -0.00018175228536441383
-0.00019092360632893992   5.2158309272398555e-05   -0.00018175228536441383
-0.00027342749626713516   3.49843324806004e-05   -3.394141605901017e-05
-0.00027342749626713516   3.49843324806004e-05   -3.394141605901017e-05
-0.00027342749626713516   3.49843324806004e-05   -3.394141605901017e-05
-0.00027342749626713516   3.49843324806004e-05   -3.394141605901017e-05
-0.00022449593585508154   4.153615560237127e-05   -0.00011942511061882773
-0.00022449593585508154   4.153615560237127e-05   -0.00011942511061882773
-0.00022449593585508154   4.153615560237127e-05   -0.00011942511061882773
-0.00022449593585508154   4.153615560237127e-05   -0.00011942511061882773
-0.00027342749626713516   5.2158309272398555e-05   -0.0001714478992893352
-0.00027342749626713516   5.2158309272398555e-05   -0.0001714478992893352
-0.00027342749626713516   5.2158309272398555e-05   -0.0001714478992893352
-0.00027342749626713516   5.2158309272398555e-05   -0.0001714478992893352
-0.00019092360632894025   3.49843324806004e-05   -4.424580213408892e-05
-0.00019092360632894025   3.49843324806004e-05   -4.424580213408892e-05
-0.00019092360632894025   3.49843324806004e-05   -4.424580213408892e-05
-0.00019092360632894025   3.49843324806004e-05   -4.424580213408892e-05
-0.0001894791042712957   5.611106922090523e-05   -0.00015848270354090754
-0.0001894791042712957   5.611106922090523e-05   -0.00015848270354090754
-0.0001894791042712957   5.611106922090523e-05   -0.00015848270354090754
-0.0001894791042712957   5.611106922090523e-05   -0.00015848270354090754
-0.0002671621377094127   3.845771144156754e-05   -1.8418966476442793e-05
-0.0002671621377094127   3.845771144156754e-05   -1.8418966476442793e-05
-0.0002671621377094127   3.845771144156754e-05   -1.8418966476442793e-05
-0.0002671621377094127   3.845771144156754e-05   -1.8418966476442793e-05
-0.00022452887934443173   4.570451646816395e-05   -9.382248010070303e-05
-0.00022452887934443173   4.570451646816395e-05   -9.382248010070303e-05
-0.00022452887934443173   4.570451646816395e-05   -9.382248010070303e-05
-0.00022452887934443173   4.570451646816395e-05   -9.382248010070303e-05
-0.0002671621377094127   5.611106922090523e-05   -0.00014789068887330423
-0.0002671621377094127   5.611106922090523e-05   -0.00014789068887330423
-0.0002671621377094127   5.611106922090523e-05   -0.00014789068887330423
-0.0002671621377094127   5.611106922090523e-05   -0.00014789068887330423
-0.00018947910427129602   3.8457711441568405e-05   -2.9010981144044802e-05
-0.00018947910427129602   3.8457711441568405e-05   -2.9010981144044802e-05
-0.00018947910427129602   3.8457711441568405e-05   -2.9010981144044802e-05
-0.00018947910427129602   3.8457711441568405e-05   -2.9010981144044802e-05
-0.00018889384270162884   5.9980610850375767e-05   -0.000126239210530725
-0.00018889384270162884   5.9980610850375767e-05   -0.000126239210530725
-0.00018889384270162884   5.9980610850375767e-05   -0.000126239210530725
-0.00018889384270162884   5.9980610850375767e-05   -0.000126239210530725
-0.0002589519357309089   4.2812098338560964e-05   8.253853584988882e-07
-0.0002589519357309089   4.2812098338560964e-05   8.253853584988882e-07
-0.0002589519357309089   4.2812098338560964e-05   8.253853584988882e-07
-0.0002589519357309089   4.2812098338560964e-05   8.253853584988882e-07
-0.00021789683755306654   4.794664795319554e-05   -7.068050804001982e-05
-0.00021789683755306654   4.794664795319554e-05   -7.068050804001982e-05
-0.00021789683755306654   4.794664795319554e-05   -7.068050804001982e-05
-0.00021789683755306654   4.794664795319554e-05   -7.068050804001982e-05
-0.00019161603821269194   2.148848699064232e-05   -0.00027207730785155687
-0.00019161603821269194   2.148848699064232e-05   -0.00027207730785155687
-0.00019161603821269194   2.148848699064232e-05   -0.00027207730785155687
-0.00019161603821269194   2.148848699064232e-05   -0.00027207730785155687
-0.00010995746750145865   1.4181215828809081e-05   -0.00014036405269660145
-0.00010995746750145865   1.4181215828809081e-05   -0.00014036405269660145
-0.00010995746750145865   1.4181215828809081e-05   -0.00014036405269660145
-0.00010995746750145865   1.4181215828809081e-05   -0.00014036405269660145
-0.00011000840055182249   3.034554862925117e-05   -0.0002697621453041227
-0.00011000840055182249   3.034554862925117e-05   -0.0002697621453041227
-0.00011000840055182249   3.034554862925117e-05   -0.0002697621453041227
-0.00011000840055182249   3.034554862925117e-05   -0.0002697621453041227
-0.00019092360632893992   2.2065144123766672e-05   -0.00012993522630563642
-0.00019092360632893992   2.2065144123766672e-05   -0.00012993522630563642
-0.00019092360632893992   2.2065144123766672e-05   -0.00012993522630563642
-0.00019092360632893992   2.2065144123766672e-05   -0.00012993522630563642
-0.0001492397509460705   2.3478352054512666e-05   -0.00020025624336886608
-0.0001492397509460705   2.3478352054512666e-05   -0.00020025624336886608
-0.0001492397509460705   2.3478352054512666e-05   -0.00020025624336886608
-0.0001492397509460705   2.3478352054512666e-05   -0.00020025624336886608
-0.0001909236063289396   3.0345548629251602e-05   -0.0002647939026008308
-0.0001909236063289396   3.0345548629251602e-05   -0.0002647939026008308
-0.0001909236063289396   3.0345548629251602e-05   -0.0002647939026008308
-0.0001909236063289396   3.0345548629251602e-05   -0.0002647939026008308
-0.00011000840055182249   2.206514412376754e-05   -0.00013490346900892655
-0.00011000840055182249   2.206514412376754e-05   -0.00013490346900892655
-0.00011000840055182249   2.206514412376754e-05   -0.00013490346900892655
-0.00011000840055182249   2.206514412376754e-05   -0.00013490346900892655
-0.0001099232703319305   3.820616289718342e-05   -0.0002637135110325215
-0.0001099232703319305   3.820616289718342e-05   -0.0002637135110325215
-0.0001099232703319305   3.820616289718342e-05   -0.0002637135110325215
-0.0001099232703319305   3.820616289718342e-05   -0.0002637135110325215
-0.0001894791042712957   2.923032327949767e-05   -0.0001257349506963018
-0.0001894791042712957   2.923032327949767e-05   -0.0001257349506963018
-0.0001894791042712957   2.923032327949767e-05   -0.0001257349506963018
-0.0001894791042712957   2.923032327949767e-05   -0.0001257349506963018
-0.00014854012335102672   2.9944751571786207e-05   -0.00019439524253878808
-0.00014854012335102672   2.9944751571786207e-05   -0.00019439524253878808
-0.00014854012335102672   2.9944751571786207e-05   -0.00019439524253878808
-0.00014854012335102672   2.9944751571786207e-05   -0.00019439524253878808
-0.0001894791042712957   3.820616289718342e-05   -0.0002583280072619102
-0.0001894791042712957   3.820616289718342e-05   -0.0002583280072619102
-0.0001894791042712957   3.820616289718342e-05   -0.0002583280072619102
-0.0001894791042712957   3.820616289718342e-05   -0.0002583280072619102
-0.00010992327033193072   2.923032327949767e-05   -0.00013112045446691265
-0.00010992327033193072   2.923032327949767e-05   -0.00013112045446691265
-0.00010992327033193072   2.923032327949767e-05   -0.00013112045446691265
-0.00010992327033193072   2.923032327949767e-05   -0.00013112045446691265
-0.00011000559189207386   4.655927477499166e-05   -0.0002647734416877296
-0.00011000559189207386   4.655927477499166e-05   -0.0002647734416877296
-0.00011000559189207386   4.655927477499166e-05   -0.0002647734416877296
-0.00011000559189207386   4.655927477499166e-05   -0.0002647734416877296
-0.00018889384270162895   3.7004393476932664e-05   -0.00012756009489296835
-0.00018889384270162895   3.7004393476932664e-05   -0.00012756009489296835
-0.00018889384270162895   3.7004393476932664e-05   -0.00012756009489296835
-0.00018889384270162895   3.7004393476932664e-05   -0.00012756009489296835
-0.00014949799502637998   3.6332764994281494e-05   -0.00019281686392879195
-0.00014949799502637998   3.6332764994281494e-05   -0.00019281686392879195
-0.00014949799502637998   3.6332764994281494e-05   -0.00019281686392879195
-0.00014949799502637998   3.6332764994281494e-05   -0.00019281686392879195
-0.00010995746750145843   1.138965544449002e-06   -0.00030016790623499465
-0.00010995746750145843   1.138965544449002e-06   -0.00030016790623499465
-0.00010995746750145843   1.138965544449002e-06   -0.00030016790623499465
-0.00010995746750145843   1.138965544449002e-06   -0.00030016790623499465
-2.9472187670807732e-05   2.415321429678416e-06   -0.0001652599596527729
-2.9472187670807732e-05   2.415321429678416e-06   -0.0001652599596527729
-2.9472187670807732e-05   2.415321429678416e-06   -0.0001652599596527729
-2.9472187670807732e-05   2.415321429678416e-06   -0.0001652599596527729
-2.9523955878068584e-05   9.850000596760972e-06   -0.0002968821854961636
-2.9523955878068584e-05   9.850000596760972e-06   -0.0002968821854961636
-2.9523955878068584e-05   9.850000596760972e-06   -0.0002968821854961636
-2.9523955878068584e-05   9.850000596760972e-06   -0.0002968821854961636
-0.00011000840055182238   1.033296657537014e-05   -0.0001630312239604061
-0.00011000840055182238   1.033296657537014e-05   -0.0001630312239604061
-0.00011000840055182238   1.033296657537014e-05   -0.0001630312239604061
-0.00011000840055182238   1.033296657537014e-05   -0.0001630312239604061
-6.92793184814374e-05   6.950935885391245e-06   -0.00022888380899706057
-6.92793184814374e-05   6.950935885391245e-06   -0.00022888380899706057
-6.92793184814374e-05   6.950935885391245e-06   -0.00022888380899706057
-6.92793184814374e-05   6.950935885391245e-06   -0.00022888380899706057
-0.00011000840055182238   9.850000596760972e-06   -0.00029717196508332894
-0.00011000840055182238   9.850000596760972e-06   -0.00029717196508332894
-0.00011000840055182238   9.850000596760972e-06   -0.00029717196508332894
-0.00011000840055182238   9.850000596760972e-06   -0.00029717196508332894
-2.9523955878068584e-05   1.033296657537014e-05   -0.00016274144437324056
-2.9523955878068584e-05   1.033296657537014e-05   -0.00016274144437324056
-2.9523955878068584e-05   1.033296657537014e-05   -0.00016274144437324056
-2.9523955878068584e-05   1.033296657537014e-05   -0.00016274144437324056
-2.9415218717402468e-05   1.8534310844289716e-05   -0.00029764863623943155
-2.9415218717402468e-05   1.8534310844289716e-05   -0.00029764863623943155
-2.9415218717402468e-05   1.8534310844289716e-05   -0.00029764863623943155
-2.9415218717402468e-05   1.8534310844289716e-05   -0.00029764863623943155
-0.0001099232703319305   1.8275780663319467e-05   -0.00016331343210663617
-0.0001099232703319305   1.8275780663319467e-05   -0.00016331343210663617
-0.0001099232703319305   1.8275780663319467e-05   -0.00016331343210663617
-0.0001099232703319305   1.8275780663319467e-05   -0.00016331343210663617
-6.973955085094054e-05   1.387198869135138e-05   -0.00022764402272510537
-6.973955085094054e-05   1.387198869135138e-05   -0.00022764402272510537
-6.973955085094054e-05   1.387198869135138e-05   -0.00022764402272510537
-6.973955085094054e-05   1.387198869135138e-05   -0.00022764402272510537
-0.0001099232703319305   1.853431084429015e-05   -0.00029749351813084944
-0.0001099232703319305   1.853431084429015e-05   -0.00029749351813084944
-0.0001099232703319305   1.853431084429015e-05   -0.00029749351813084944
-0.0001099232703319305   1.853431084429015e-05   -0.00029749351813084944
-2.9415218717402522e-05   1.82757806633186e-05   -0.00016346855021521773
-2.9415218717402522e-05   1.82757806633186e-05   -0.00016346855021521773
-2.9415218717402522e-05   1.82757806633186e-05   -0.00016346855021521773
-2.9415218717402522e-05   1.82757806633186e-05   -0.00016346855021521773
-2.945990860187054e-05   2.7421327722880647e-05   -0.0003021533320361645
-2.945990860187054e-05   2.7421327722880647e-05   -0.0003021533320361645
-2.945990860187054e-05   2.7421327722880647e-05   -0.0003021533320361645
-2.945990860187054e-05   2.7421327722880647e-05   -0.0003021533320361645
-0.00011000559189207381   2.635747211216389e-05   -0.0001672722131860608
-0.00011000559189207381   2.635747211216389e-05   -0.0001672722131860608
-0.00011000559189207381   2.635747211216389e-05   -0.0001672722131860608
-0.00011000559189207381   2.635747211216389e-05   -0.0001672722131860608
-7.033570737669876e-05   2.0883857445263415e-05   -0.00023010451857821256
-7.033570737669876e-05   2.0883857445263415e-05   -0.00023010451857821256
-7.033570737669876e-05   2.0883857445263415e-05   -0.00023010451857821256
-7.033570737669876e-05   2.0883857445263415e-05   -0.00023010451857821256
-2.9472187670807688e-05   -1.8003564490146843e-05   -0.00026586343197272286
-2.9472187670807688e-05   -1.8003564490146843e-05   -0.00026586343197272286
-2.9472187670807688e-05   -1.8003564490146843e-05   -0.00026586343197272286
-2.9472187670807688e-05   -1.8003564490146843e-05   -0.00026586343197272286
4.9901171545133115e-05   -8.35246480663989e-06   -0.0001277838401360508
4.9901171545133115e-05   -8.35246480663989e-06   -0.0001277838401360508
4.9901171545133115e-05   -8.35246480663989e-06   -0.0001277838401360508
4.9901171545133115e-05   -8.35246480663989e-06   -0.0001277838401360508
5.0551382893069706e-05   -1.0029302309067043e-05   -0.0002598637117266953
5.0551382893069706e-05   -1.0029302309067043e-05   -0.0002598637117266953
5.0551382893069706e-05   -1.0029302309067043e-05   -0.0002598637117266953
5.0551382893069706e-05   -1.0029302309067043e-05   -0.0002598637117266953
-2.9523955878068584e-05   -9.040069150357405e-07   -0.00013187999101121705
-2.9523955878068584e-05   -9.040069150357405e-07   -0.00013187999101121705
-2.9523955878068584e-05   -9.040069150357405e-07   -0.00013187999101121705
-2.9523955878068584e-05   -9.040069150357405e-07   -0.00013187999101121705
1.0402381560031647e-05   -8.635510830419524e-06   -0.00019378498439215407
1.0402381560031647e-05   -8.635510830419524e-06   -0.00019378498439215407
1.0402381560031647e-05   -8.635510830419524e-06   -0.00019378498439215407
1.0402381560031647e-05   -8.635510830419524e-06   -0.00019378498439215407
-2.9523955878068584e-05   -1.0029302309067043e-05   -0.00026533888896311465
-2.9523955878068584e-05   -1.0029302309067043e-05   -0.00026533888896311465
-2.9523955878068584e-05   -1.0029302309067043e-05   -0.00026533888896311465
-2.9523955878068584e-05   -1.0029302309067043e-05   -0.00026533888896311465
5.055138289306992e-05   -9.040069150357405e-07   -0.00012640481377479851
5.055138289306992e-05   -9.040069150357405e-07   -0.00012640481377479851
5.055138289306992e-05   -9.040069150357405e-07   -0.00012640481377479851
5.055138289306992e-05   -9.040069150357405e-07   -0.00012640481377479851
5.206894276090076e-05   -2.1846002139793395e-06   -0.00026536003710485225
5.206894276090076e-05   -2.1846002139793395e-06   -0.00026536003710485225
5.206894276090076e-05   -2.1846002139793395e-06   -0.00026536003710485225
5.206894276090076e-05   -2.1846002139793395e-06   -0.00026536003710485225
-2.9415218717402522e-05   6.270160544424169e-06   -0.0001346259577627228
-2.9415218717402522e-05   6.270160544424169e-06   -0.0001346259577627228
-2.9415218717402522e-05   6.270160544424169e-06   -0.0001346259577627228
-2.9415218717402522e-05   6.270160544424169e-06   -0.0001346259577627228
9.946486069034278e-06   -2.4412209008008515e-06   -0.0001950019702063162
9.946486069034278e-06   -2.4412209008008515e-06   -0.0001950019702063162
9.946486069034278e-06   -2.4412209008008515e-06   -0.0001950019702063162
9.946486069034278e-06   -2.4412209008008515e-06   -0.0001950019702063162
-2.941521871740249e-05   -2.1846002139797732e-06   -0.00027043289355989397
-2.941521871740249e-05   -2.1846002139797732e-06   -0.00027043289355989397
-2.941521871740249e-05   -2.1846002139797732e-06   -0.00027043289355989397
-2.941521871740249e-05   -2.1846002139797732e-06   -0.00027043289355989397
5.206894276090087e-05   6.270160544424169e-06   -0.00012955310130768026
5.206894276090087e-05   6.270160544424169e-06   -0.00012955310130768026
5.206894276090087e-05   6.270160544424169e-06   -0.00012955310130768026
5.206894276090087e-05   6.270160544424169e-06   -0.00012955310130768026
5.280787781192925e-05   6.9970320117651065e-06   -0.0002731862575058124
5.280787781192925e-05   6.9970320117651065e-06   -0.0002731862575058124
5.280787781192925e-05   6.9970320117651065e-06   -0.0002731862575058124
5.280787781192925e-05   6.9970320117651065e-06   -0.0002731862575058124
-2.945990860187049e-05   1.4502260119485418e-05   -0.00014057641701411064
-2.945990860187049e-05   1.4502260119485418e-05   -0.00014057641701411064
-2.945990860187049e-05   1.4502260119485418e-05   -0.00014057641701411064
-2.945990860187049e-05   1.4502260119485418e-05   -0.00014057641701411064
1.0226670133319594e-05   4.194133204916614e-06   -0.00020053583875735204
1.0226670133319594e-05   4.194133204916614e-06   -0.00020053583875735204
1.0226670133319594e-05   4.194133204916614e-06   -0.00020053583875735204
1.0226670133319594e-05   4.194133204916614e-06   -0.00020053583875735204
4.99011715451329e-05   -3.2719173345150364e-05   -0.00014620816123179104
4.99011715451329e-05   -3.2719173345150364e-05   -0.00014620816123179104
4.99011715451329e-05   -3.2719173345150364e-05   -0.00014620816123179104
4.99011715451329e-05   -3.2719173345150364e-05   -0.00014620816123179104
0.00012061762222808888   -1.5400701532760318e-05   -1.7956327006097075e-05
0.00012061762222808888   -1.5400701532760318e-05   -1.7956327006097075e-05
0.00012061762222808888   -1.5400701532760318e-05   -1.7956327006097075e-05
0.00012061762222808888   -1.5400701532760318e-05   -1.7956327006097075e-05
0.00012893804702479453   -2.8140401124233938e-05   -0.0001537064317671049
0.00012893804702479453   -2.8140401124233938e-05   -0.0001537064317671049
0.00012893804702479453   -2.8140401124233938e-05   -0.0001537064317671049
0.00012893804702479453   -2.8140401124233938e-05   -0.0001537064317671049
5.0551382893069814e-05   -1.036756956084451e-05   -3.3725690485597484e-05
5.0551382893069814e-05   -1.036756956084451e-05   -3.3725690485597484e-05
5.0551382893069814e-05   -1.036756956084451e-05   -3.3725690485597484e-05
5.0551382893069814e-05   -1.036756956084451e-05   -3.3725690485597484e-05
8.377108426108298e-05   -2.0987998725563277e-05   -8.271960193345466e-05
8.377108426108298e-05   -2.0987998725563277e-05   -8.271960193345466e-05
8.377108426108298e-05   -2.0987998725563277e-05   -8.271960193345466e-05
8.377108426108298e-05   -2.0987998725563277e-05   -8.271960193345466e-05
5.0551382893069706e-05   -2.8140401124233938e-05   -0.00016437013070513752
5.0551382893069706e-05   -2.8140401124233938e-05   -0.00016437013070513752
5.0551382893069706e-05   -2.8140401124233938e-05   -0.00016437013070513752
5.0551382893069706e-05   -2.8140401124233938e-05   -0.00016437013070513752
0.0001289380470247941   -1.0367569560843642e-05   -2.306199154756411e-05
0.0001289380470247941   -1.0367569560843642e-05   -2.306199154756411e-05
0.0001289380470247941   -1.0367569560843642e-05   -2.306199154756411e-05
0.0001289380470247941   -1.0367569560843642e-05   -2.306199154756411e-05
0.0001353329609729136   -2.4194621217473247e-05   -0.00016861535136377791
0.0001353329609729136   -2.4194621217473247e-05   -0.00016861535136377791
0.0001353329609729136   -2.4194621217473247e-05   -0.00016861535136377791
0.0001353329609729136   -2.4194621217473247e-05   -0.00016861535136377791
5.206894276090087e-05   -6.882277036351046e-06   -4.0229394185764024e-05
5.206894276090087e-05   -6.882277036351046e-06   -4.0229394185764024e-05
5.206894276090087e-05   -6.882277036351046e-06   -4.0229394185764024e-05
5.206894276090087e-05   -6.882277036351046e-06   -4.0229394185764024e-05
8.88752740238625e-05   -1.8408256416585153e-05   -9.46576919958926e-05
8.88752740238625e-05   -1.8408256416585153e-05   -9.46576919958926e-05
8.88752740238625e-05   -1.8408256416585153e-05   -9.46576919958926e-05
8.88752740238625e-05   -1.8408256416585153e-05   -9.46576919958926e-05
5.206894276090087e-05   -2.4194621217473247e-05   -0.00017900275787245115
5.206894276090087e-05   -2.4194621217473247e-05   -0.00017900275787245115
5.206894276090087e-05   -2.4194621217473247e-05   -0.00017900275787245115
5.206894276090087e-05   -2.4194621217473247e-05   -0.00017900275787245115
0.00013533296097291295   -6.882277036351046e-06   -2.984198767708949e-05
0.00013533296097291295   -6.882277036351046e-06   -2.984198767708949e-05
0.00013533296097291295   -6.882277036351046e-06   -2.984198767708949e-05
0.00013533296097291295   -6.882277036351046e-06   -2.984198767708949e-05
0.00014381807060121605   -1.57506660376284e-05   -0.0001971579424944706
0.00014381807060121605   -1.57506660376284e-05   -0.0001971579424944706
0.00014381807060121605   -1.57506660376284e-05   -0.0001971579424944706
0.00014381807060121605   -1.57506660376284e-05   -0.0001971579424944706
5.280787781192936e-05   -1.0666112698794195e-08   -5.491828780061672e-05
5.280787781192936e-05   -1.0666112698794195e-08   -5.491828780061672e-05
5.280787781192936e-05   -1.0666112698794195e-08   -5.491828780061672e-05
5.280787781192936e-05   -1.0666112698794195e-08   -5.491828780061672e-05
9.054195801430967e-05   -1.4542106738265129e-05   -0.00010908955709591143
9.054195801430967e-05   -1.4542106738265129e-05   -0.00010908955709591143
9.054195801430967e-05   -1.4542106738265129e-05   -0.00010908955709591143
9.054195801430967e-05   -1.4542106738265129e-05   -0.00010908955709591143
-0.00017115512261606063   2.7510928937726775e-05   -0.00016001622854019482
-0.00017115512261606063   2.7510928937726775e-05   -0.00016001622854019482
-0.00017115512261606063   2.7510928937726775e-05   -0.00016001622854019482
-0.00017115512261606063   2.7510928937726775e-05   -0.00016001622854019482
-0.00012604800395771233   1.1263891418458218e-05   -9.458591995450917e-05
-0.00012604800395771233   1.1263891418458218e-05   -9.458591995450917e-05
-0.00012604800395771233   1.1263891418458218e-05   -9.458591995450917e-05
-0.00012604800395771233   1.1263891418458218e-05   -9.458591995450917e-05
-0.0001241758243619394   3.49843324806004e-05   -0.00014116111011161243
-0.0001241758243619394   3.49843324806004e-05   -0.00014116111011161243
-0.0001241758243619394   3.49843324806004e-05   -0.00014116111011161243
-0.0001241758243619394   3.49843324806004e-05   -0.00014116111011161243
-0.00016189567767001603   1.7494317800715274e-05   -6.78006791235506e-05
-0.00016189567767001603   1.7494317800715274e-05   -6.78006791235506e-05
-0.00016189567767001603   1.7494317800715274e-05   -6.78006791235506e-05
-0.00016189567767001603   1.7494317800715274e-05   -6.78006791235506e-05
-0.00013963964210416823   2.4666253330666785e-05   -0.00010919723305127587
-0.00013963964210416823   2.4666253330666785e-05   -0.00010919723305127587
-0.00013963964210416823   2.4666253330666785e-05   -0.00010919723305127587
-0.00013963964210416823   2.4666253330666785e-05   -0.00010919723305127587
-0.00016189567767001603   3.49843324806004e-05   -0.0001306671013036804
-0.00016189567767001603   3.49843324806004e-05   -0.0001306671013036804
-0.00016189567767001603   3.49843324806004e-05   -0.0001306671013036804
-0.00016189567767001603   3.49843324806004e-05   -0.0001306671013036804
-0.00012417582436193963   1.7494317800714407e-05   -7.829468793148296e-05
-0.00012417582436193963   1.7494317800714407e-05   -7.829468793148296e-05
-0.00012417582436193963   1.7494317800714407e-05   -7.829468793148296e-05
-0.00012417582436193963   1.7494317800714407e-05   -7.829468793148296e-05
-0.00012150939699187872   3.845771144156754e-05   -0.00012605692384794198
-0.00012150939699187872   3.845771144156754e-05   -0.00012605692384794198
-0.00012150939699187872   3.845771144156754e-05   -0.00012605692384794198
-0.00012150939699187872   3.845771144156754e-05   -0.00012605692384794198
-0.00015449338723524117   2.0632032324081374e-05   -6.038819930517889e-05
-0.00015449338723524117   2.0632032324081374e-05   -6.038819930517889e-05
-0.00015449338723524117   2.0632032324081374e-05   -6.038819930517889e-05
-0.00015449338723524117   2.0632032324081374e-05   -6.038819930517889e-05
-0.00013718854465620274   2.8023967966574366e-05   -9.366476498907277e-05
-0.00013718854465620274   2.8023967966574366e-05   -9.366476498907277e-05
-0.00013718854465620274   2.8023967966574366e-05   -9.366476498907277e-05
-0.00013718854465620274   2.8023967966574366e-05   -9.366476498907277e-05
-0.00015449338723524117   3.845771144156754e-05   -0.00011536151637745037
-0.00015449338723524117   3.845771144156754e-05   -0.00011536151637745037
-0.00015449338723524117   3.845771144156754e-05   -0.00011536151637745037
-0.00015449338723524117   3.845771144156754e-05   -0.00011536151637745037
-0.00012150939699187894   2.0632032324081374e-05   -7.108360677567029e-05
-0.00012150939699187894   2.0632032324081374e-05   -7.108360677567029e-05
-0.00012150939699187894   2.0632032324081374e-05   -7.108360677567029e-05
-0.00012150939699187894   2.0632032324081374e-05   -7.108360677567029e-05
-0.00011967809529108493   4.2812098338560096e-05   -0.00010665822722990756
-0.00011967809529108493   4.2812098338560096e-05   -0.00010665822722990756
-0.00011967809529108493   4.2812098338560096e-05   -0.00010665822722990756
-0.00011967809529108493   4.2812098338560096e-05   -0.00010665822722990756
-0.00014506363977606174   2.5597293462287056e-05   -5.402010349584742e-05
-0.00014506363977606174   2.5597293462287056e-05   -5.402010349584742e-05
-0.00014506363977606174   2.5597293462287056e-05   -5.402010349584742e-05
-0.00014506363977606174   2.5597293462287056e-05   -5.402010349584742e-05
-0.00013076705881512741   3.033575015735923e-05   -8.069081244778484e-05
-0.00013076705881512741   3.033575015735923e-05   -8.069081244778484e-05
-0.00013076705881512741   3.033575015735923e-05   -8.069081244778484e-05
-0.00013076705881512741   3.033575015735923e-05   -8.069081244778484e-05
-0.00012604800395771233   1.4181215828808214e-05   -0.00023270372383762603
-0.00012604800395771233   1.4181215828808214e-05   -0.00023270372383762603
-0.00012604800395771233   1.4181215828808214e-05   -0.00023270372383762603
-0.00012604800395771233   1.4181215828808214e-05   -0.00023270372383762603
-8.943806845572531e-05   6.4117038952593575e-06   -0.00017634887182777707
-8.943806845572531e-05   6.4117038952593575e-06   -0.00017634887182777707
-8.943806845572531e-05   6.4117038952593575e-06   -0.00017634887182777707
-8.943806845572531e-05   6.4117038952593575e-06   -0.00017634887182777707
-8.819968022895526e-05   2.2065144123766672e-05   -0.0002319594538579212
-8.819968022895526e-05   2.2065144123766672e-05   -0.0002319594538579212
-8.819968022895526e-05   2.2065144123766672e-05   -0.0002319594538579212
-8.819968022895526e-05   2.2065144123766672e-05   -0.0002319594538579212
-0.00012417582436193963   1.3550278165829974e-05   -0.00016689029406151672
-0.00012417582436193963   1.3550278165829974e-05   -0.00016689029406151672
-0.00012417582436193963   1.3550278165829974e-05   -0.00016689029406151672
-0.00012417582436193963   1.3550278165829974e-05   -0.00016689029406151672
-0.00010592305612420501   1.540788837845787e-05   -0.0001984261405853225
-0.00010592305612420501   1.540788837845787e-05   -0.0001984261405853225
-0.00010592305612420501   1.540788837845787e-05   -0.0001984261405853225
-0.00010592305612420501   1.540788837845787e-05   -0.0001984261405853225
-0.0001241758243619394   2.206514412376754e-05   -0.00022685053428315744
-0.0001241758243619394   2.206514412376754e-05   -0.00022685053428315744
-0.0001241758243619394   2.206514412376754e-05   -0.00022685053428315744
-0.0001241758243619394   2.206514412376754e-05   -0.00022685053428315744
-8.819968022895526e-05   1.3550278165830841e-05   -0.0001719992136362796
-8.819968022895526e-05   1.3550278165830841e-05   -0.0001719992136362796
-8.819968022895526e-05   1.3550278165830841e-05   -0.0001719992136362796
-8.819968022895526e-05   1.3550278165830841e-05   -0.0001719992136362796
-8.683370968142281e-05   2.9230323279498538e-05   -0.00022821141420876524
-8.683370968142281e-05   2.9230323279498538e-05   -0.00022821141420876524
-8.683370968142281e-05   2.9230323279498538e-05   -0.00022821141420876524
-8.683370968142281e-05   2.9230323279498538e-05   -0.00022821141420876524
-0.00012150939699187915   2.0179455265221732e-05   -0.00016498808121610418
-0.00012150939699187915   2.0179455265221732e-05   -0.00016498808121610418
-0.00012150939699187915   2.0179455265221732e-05   -0.00016498808121610418
-0.00012150939699187915   2.0179455265221732e-05   -0.00016498808121610418
-0.00010430113796114902   2.1170253039928463e-05   -0.00019426299159880974
-0.00010430113796114902   2.1170253039928463e-05   -0.00019426299159880974
-0.00010430113796114902   2.1170253039928463e-05   -0.00019426299159880974
-0.00010430113796114902   2.1170253039928463e-05   -0.00019426299159880974
-0.00012150939699187872   2.923032327949767e-05   -0.00022278089340019855
-0.00012150939699187872   2.923032327949767e-05   -0.00022278089340019855
-0.00012150939699187872   2.923032327949767e-05   -0.00022278089340019855
-0.00012150939699187872   2.923032327949767e-05   -0.00022278089340019855
-8.68337096814227e-05   2.0179455265221732e-05   -0.00017041860202466957
-8.68337096814227e-05   2.0179455265221732e-05   -0.00017041860202466957
-8.68337096814227e-05   2.0179455265221732e-05   -0.00017041860202466957
-8.68337096814227e-05   2.0179455265221732e-05   -0.00017041860202466957
-8.561403777266935e-05   3.7004393476932664e-05   -0.0002304229062533962
-8.561403777266935e-05   3.7004393476932664e-05   -0.0002304229062533962
-8.561403777266935e-05   3.7004393476932664e-05   -0.0002304229062533962
-8.561403777266935e-05   3.7004393476932664e-05   -0.0002304229062533962
-0.00011967809529108537   2.7537216345079225e-05   -0.000167969170776923
-0.00011967809529108537   2.7537216345079225e-05   -0.000167969170776923
-0.00011967809529108537   2.7537216345079225e-05   -0.000167969170776923
-0.00011967809529108537   2.7537216345079225e-05   -0.000167969170776923
-0.0001036511558918744   2.6997454638326944e-05   -0.00019435687941822544
-0.0001036511558918744   2.6997454638326944e-05   -0.00019435687941822544
-0.0001036511558918744   2.6997454638326944e-05   -0.00019435687941822544
-0.0001036511558918744   2.6997454638326944e-05   -0.00019435687941822544
-8.943806845572509e-05   2.415321429678416e-06   -0.0002630271514850635
-8.943806845572509e-05   2.415321429678416e-06   -0.0002630271514850635
-8.943806845572509e-05   2.415321429678416e-06   -0.0002630271514850635
-8.943806845572509e-05   2.415321429678416e-06   -0.0002630271514850635
-5.379759302102338e-05   3.6381562098656076e-06   -0.000202892658225783
-5.379759302102338e-05   3.6381562098656076e-06   -0.000202892658225783
-5.379759302102338e-05   3.6381562098656076e-06   -0.000202892658225783
-5.379759302102338e-05   3.6381562098656076e-06   -0.000202892658225783
-5.2587694998096233e-05   1.0332966575369272e-05   -0.0002597474096404386
-5.2587694998096233e-05   1.0332966575369272e-05   -0.0002597474096404386
-5.2587694998096233e-05   1.0332966575369272e-05   -0.0002597474096404386
-5.2587694998096233e-05   1.0332966575369272e-05   -0.0002597474096404386
-8.819968022895526e-05   1.0899298523640681e-05   -0.00020073390009130035
-8.819968022895526e-05   1.0899298523640681e-05   -0.00020073390009130035
-8.819968022895526e-05   1.0899298523640681e-05   -0.00020073390009130035
-8.819968022895526e-05   1.0899298523640681e-05   -0.00020073390009130035
-7.055190609703319e-05   7.826774345602236e-06   -0.00022830334247101987
-7.055190609703319e-05   7.826774345602236e-06   -0.00022830334247101987
-7.055190609703319e-05   7.826774345602236e-06   -0.00022830334247101987
-7.055190609703319e-05   7.826774345602236e-06   -0.00022830334247101987
-8.819968022895515e-05   1.0332966575369272e-05   -0.0002600872088094003
-8.819968022895515e-05   1.0332966575369272e-05   -0.0002600872088094003
-8.819968022895515e-05   1.0332966575369272e-05   -0.0002600872088094003
-8.819968022895515e-05   1.0332966575369272e-05   -0.0002600872088094003
-5.2587694998096233e-05   1.0899298523640681e-05   -0.00020039410092233907
-5.2587694998096233e-05   1.0899298523640681e-05   -0.00020039410092233907
-5.2587694998096233e-05   1.0899298523640681e-05   -0.00020039410092233907
-5.2587694998096233e-05   1.0899298523640681e-05   -0.00020039410092233907
-5.1231871133024404e-05   1.8275780663319467e-05   -0.0002604351648050197
-5.1231871133024404e-05   1.8275780663319467e-05   -0.0002604351648050197
-5.1231871133024404e-05   1.8275780663319467e-05   -0.0002604351648050197
-5.1231871133024404e-05   1.8275780663319467e-05   -0.0002604351648050197
-8.68337096814227e-05   1.8224492402431174e-05   -0.0002010679942678229
-8.68337096814227e-05   1.8224492402431174e-05   -0.0002010679942678229
-8.68337096814227e-05   1.8224492402431174e-05   -0.0002010679942678229
-8.68337096814227e-05   1.8224492402431174e-05   -0.0002010679942678229
-6.973171342693083e-05   1.405868180616443e-05   -0.0002270718350008826
-6.973171342693083e-05   1.405868180616443e-05   -0.0002270718350008826
-6.973171342693083e-05   1.405868180616443e-05   -0.0002270718350008826
-6.973171342693083e-05   1.405868180616443e-05   -0.0002270718350008826
-8.683370968142249e-05   1.8275780663319467e-05   -0.00026040439184848736
-8.683370968142249e-05   1.8275780663319467e-05   -0.00026040439184848736
-8.683370968142249e-05   1.8275780663319467e-05   -0.00026040439184848736
-8.683370968142249e-05   1.8275780663319467e-05   -0.00026040439184848736
-5.123187113302449e-05   1.822449240243204e-05   -0.00020109876722435548
-5.123187113302449e-05   1.822449240243204e-05   -0.00020109876722435548
-5.123187113302449e-05   1.822449240243204e-05   -0.00020109876722435548
-5.123187113302449e-05   1.822449240243204e-05   -0.00020109876722435548
-5.001220967807393e-05   2.6357472112163022e-05   -0.00026482074456794184
-5.001220967807393e-05   2.6357472112163022e-05   -0.00026482074456794184
-5.001220967807393e-05   2.6357472112163022e-05   -0.00026482074456794184
-5.001220967807393e-05   2.6357472112163022e-05   -0.00026482074456794184
-8.561403777266935e-05   2.5659724111683734e-05   -0.0002050657156099933
-8.561403777266935e-05   2.5659724111683734e-05   -0.0002050657156099933
-8.561403777266935e-05   2.5659724111683734e-05   -0.0002050657156099933
-8.561403777266935e-05   2.5659724111683734e-05   -0.0002050657156099933
-6.904826175170887e-05   2.037328265475178e-05   -0.00022950347743743685
-6.904826175170887e-05   2.037328265475178e-05   -0.00022950347743743685
-6.904826175170887e-05   2.037328265475178e-05   -0.00022950347743743685
-6.904826175170887e-05   2.037328265475178e-05   -0.00022950347743743685
-5.379759302102319e-05   -8.35246480663989e-06   -0.00023060799091033368
-5.379759302102319e-05   -8.35246480663989e-06   -0.00023060799091033368
-5.379759302102319e-05   -8.35246480663989e-06   -0.00023060799091033368
-5.379759302102319e-05   -8.35246480663989e-06   -0.00023060799091033368
-1.9166970702292675e-05   1.4894956082743896e-06   -0.00016698511079683495
-1.9166970702292675e-05   1.4894956082743896e-06   -0.00016698511079683495
-1.9166970702292675e-05   1.4894956082743896e-06   -0.00016698511079683495
-1.9166970702292675e-05   1.4894956082743896e-06   -0.00016698511079683495
-1.7372159184056218e-05   -9.040069150357405e-07   -0.0002232341589283914
-1.7372159184056218e-05   -9.040069150357405e-07   -0.0002232341589283914
-1.7372159184056218e-05   -9.040069150357405e-07   -0.0002232341589283914
-1.7372159184056218e-05   -9.040069150357405e-07   -0.0002232341589283914
-5.258769499809614e-05   8.515655335002148e-06   -0.00017019339658834605
-5.258769499809614e-05   8.515655335002148e-06   -0.00017019339658834605
-5.258769499809614e-05   8.515655335002148e-06   -0.00017019339658834605
-5.258769499809614e-05   8.515655335002148e-06   -0.00017019339658834605
-3.537110237604026e-05   9.228082171672258e-07   -0.00019433200935440806
-3.537110237604026e-05   9.228082171672258e-07   -0.00019433200935440806
-3.537110237604026e-05   9.228082171672258e-07   -0.00019433200935440806
-3.537110237604026e-05   9.228082171672258e-07   -0.00019433200935440806
-5.258769499809606e-05   -9.040069150357405e-07   -0.0002288859562784135
-5.258769499809606e-05   -9.040069150357405e-07   -0.0002288859562784135
-5.258769499809606e-05   -9.040069150357405e-07   -0.0002288859562784135
-5.258769499809606e-05   -9.040069150357405e-07   -0.0002288859562784135
-1.7372159184056326e-05   8.515655335003015e-06   -0.00016454159923832458
-1.7372159184056326e-05   8.515655335003015e-06   -0.00016454159923832458
-1.7372159184056326e-05   8.515655335003015e-06   -0.00016454159923832458
-1.7372159184056326e-05   8.515655335003015e-06   -0.00016454159923832458
-1.4728388190679022e-05   6.270160544423302e-06   -0.00022626818265968334
-1.4728388190679022e-05   6.270160544423302e-06   -0.00022626818265968334
-1.4728388190679022e-05   6.270160544423302e-06   -0.00022626818265968334
-1.4728388190679022e-05   6.270160544423302e-06   -0.00022626818265968334
-5.1231871133024404e-05   1.5144143365824342e-05   -0.00017075343411528056
-5.1231871133024404e-05   1.5144143365824342e-05   -0.00017075343411528056
-5.1231871133024404e-05   1.5144143365824342e-05   -0.00017075343411528056
-5.1231871133024404e-05   1.5144143365824342e-05   -0.00017075343411528056
-3.4279637613187e-05   6.591210438078657e-06   -0.00019387539689169663
-3.4279637613187e-05   6.591210438078657e-06   -0.00019387539689169663
-3.4279637613187e-05   6.591210438078657e-06   -0.00019387539689169663
-3.4279637613187e-05   6.591210438078657e-06   -0.00019387539689169663
-5.1231871133024275e-05   6.270160544423302e-06   -0.00023159257235252266
-5.1231871133024275e-05   6.270160544423302e-06   -0.00023159257235252266
-5.1231871133024275e-05   6.270160544423302e-06   -0.00023159257235252266
-5.1231871133024275e-05   6.270160544423302e-06   -0.00023159257235252266
-1.472838819067913e-05   1.5144143365824342e-05   -0.00016542904442244134
-1.472838819067913e-05   1.5144143365824342e-05   -0.00016542904442244134
-1.472838819067913e-05   1.5144143365824342e-05   -0.00016542904442244134
-1.472838819067913e-05   1.5144143365824342e-05   -0.00016542904442244134
-1.2878944858753867e-05   1.4502260119485418e-05   -0.00023259882305609603
-1.2878944858753867e-05   1.4502260119485418e-05   -0.00023259882305609603
-1.2878944858753867e-05   1.4502260119485418e-05   -0.00023259882305609603
-1.2878944858753867e-05   1.4502260119485418e-05   -0.00023259882305609603
-5.001220967807393e-05   2.2648613408593997e-05   -0.0001755978603306933
-5.001220967807393e-05   2.2648613408593997e-05   -0.0001755978603306933
-5.001220967807393e-05   2.2648613408593997e-05   -0.0001755978603306933
-5.001220967807393e-05   2.2648613408593997e-05   -0.0001755978603306933
-3.313325494208473e-05   1.2541687373962898e-05   -0.00019766529593656353
-3.313325494208473e-05   1.2541687373962898e-05   -0.00019766529593656353
-3.313325494208473e-05   1.2541687373962898e-05   -0.00019766529593656353
-3.313325494208473e-05   1.2541687373962898e-05   -0.00019766529593656353
-1.9166970702292458e-05   -1.5400701532760318e-05   -0.00012526638461886602
-1.9166970702292458e-05   -1.5400701532760318e-05   -0.00012526638461886602
-1.9166970702292458e-05   -1.5400701532760318e-05   -0.00012526638461886602
-1.9166970702292458e-05   -1.5400701532760318e-05   -0.00012526638461886602
6.717315256303102e-06   1.9921529046335387e-06   -7.169019535877008e-05
6.717315256303102e-06   1.9921529046335387e-06   -7.169019535877008e-05
6.717315256303102e-06   1.9921529046335387e-06   -7.169019535877008e-05
6.717315256303102e-06   1.9921529046335387e-06   -7.169019535877008e-05
1.6051376381604702e-05   -1.0367569560843642e-05   -0.00011981274465583305
1.6051376381604702e-05   -1.0367569560843642e-05   -0.00011981274465583305
1.6051376381604702e-05   -1.0367569560843642e-05   -0.00011981274465583305
1.6051376381604702e-05   -1.0367569560843642e-05   -0.00011981274465583305
-1.7372159184056218e-05   7.536248744752921e-06   -7.484914302975415e-05
-1.7372159184056218e-05   7.536248744752921e-06   -7.484914302975415e-05
-1.7372159184056218e-05   7.536248744752921e-06   -7.484914302975415e-05
-1.7372159184056218e-05   7.536248744752921e-06   -7.484914302975415e-05
-3.3712154598402417e-06   -3.3021625234566643e-06   -9.168100247585842e-05
-3.3712154598402417e-06   -3.3021625234566643e-06   -9.168100247585842e-05
-3.3712154598402417e-06   -3.3021625234566643e-06   -9.168100247585842e-05
-3.3712154598402417e-06   -3.3021625234566643e-06   -9.168100247585842e-05
-1.7372159184056218e-05   -1.0367569560843642e-05   -0.0001305550356391896
-1.7372159184056218e-05   -1.0367569560843642e-05   -0.0001305550356391896
-1.7372159184056218e-05   -1.0367569560843642e-05   -0.0001305550356391896
-1.7372159184056218e-05   -1.0367569560843642e-05   -0.0001305550356391896
1.6051376381604485e-05   7.536248744752054e-06   -6.410685204639738e-05
1.6051376381604485e-05   7.536248744752054e-06   -6.410685204639738e-05
1.6051376381604485e-05   7.536248744752054e-06   -6.410685204639738e-05
1.6051376381604485e-05   7.536248744752054e-06   -6.410685204639738e-05
2.3418366506738463e-05   -6.882277036351046e-06   -0.00012641965395219796
2.3418366506738463e-05   -6.882277036351046e-06   -0.00012641965395219796
2.3418366506738463e-05   -6.882277036351046e-06   -0.00012641965395219796
2.3418366506738463e-05   -6.882277036351046e-06   -0.00012641965395219796
-1.472838819067913e-05   1.065909227293202e-05   -7.336655104207021e-05
-1.472838819067913e-05   1.065909227293202e-05   -7.336655104207021e-05
-1.472838819067913e-05   1.065909227293202e-05   -7.336655104207021e-05
-1.472838819067913e-05   1.065909227293202e-05   -7.336655104207021e-05
1.394882792356137e-06   -6.559361455903134e-07   -9.344965229601517e-05
1.394882792356137e-06   -6.559361455903134e-07   -9.344965229601517e-05
1.394882792356137e-06   -6.559361455903134e-07   -9.344965229601517e-05
1.394882792356137e-06   -6.559361455903134e-07   -9.344965229601517e-05
-1.4728388190679022e-05   -6.882277036351046e-06   -0.00013694447553776667
-1.4728388190679022e-05   -6.882277036351046e-06   -0.00013694447553776667
-1.4728388190679022e-05   -6.882277036351046e-06   -0.00013694447553776667
-1.4728388190679022e-05   -6.882277036351046e-06   -0.00013694447553776667
2.3418366506738463e-05   1.065909227293202e-05   -6.284172945650052e-05
2.3418366506738463e-05   1.065909227293202e-05   -6.284172945650052e-05
2.3418366506738463e-05   1.065909227293202e-05   -6.284172945650052e-05
2.3418366506738463e-05   1.065909227293202e-05   -6.284172945650052e-05
3.269473356127032e-05   -1.0666112698794195e-08   -0.00014170559502866761
3.269473356127032e-05   -1.0666112698794195e-08   -0.00014170559502866761
3.269473356127032e-05   -1.0666112698794195e-08   -0.00014170559502866761
3.269473356127032e-05   -1.0666112698794195e-08   -0.00014170559502866761
-1.2878944858753867e-05   1.621972668491411e-05   -7.548770000719257e-05
-1.2878944858753867e-05   1.621972668491411e-05   -7.548770000719257e-05
-1.2878944858753867e-05   1.621972668491411e-05   -7.548770000719257e-05
-1.2878944858753867e-05   1.621972668491411e-05   -7.548770000719257e-05
5.4547113071837326e-06   2.3872104555891158e-06   -9.774428387949617e-05
5.4547113071837326e-06   2.3872104555891158e-06   -9.774428387949617e-05
5.4547113071837326e-06   2.3872104555891158e-06   -9.774428387949617e-05
5.4547113071837326e-06   2.3872104555891158e-06   -9.774428387949617e-05
-6.0229963625428335e-05   1.1263891418458218e-05   -0.00010712101511111457
-6.0229963625428335e-05   1.1263891418458218e-05   -0.00010712101511111457
-6.0229963625428335e-05   1.1263891418458218e-05   -0.00010712101511111457
-6.0229963625428335e-05   1.1263891418458218e-05   -0.00010712101511111457
-6.045876342232709e-05   -5.150375986116146e-06   -0.00011735090854869071
-6.045876342232709e-05   -5.150375986116146e-06   -0.00011735090854869071
-6.045876342232709e-05   -5.150375986116146e-06   -0.00011735090854869071
-6.045876342232709e-05   -5.150375986116146e-06   -0.00011735090854869071
-5.73966773271433e-05   1.7494317800714407e-05   -0.0001006337196773361
-5.73966773271433e-05   1.7494317800714407e-05   -0.0001006337196773361
-5.73966773271433e-05   1.7494317800714407e-05   -0.0001006337196773361
-5.73966773271433e-05   1.7494317800714407e-05   -0.0001006337196773361
-4.9810227740161106e-05   -9.878635363717858e-08   -0.00010272193982969373
-4.9810227740161106e-05   -9.878635363717858e-08   -0.00010272193982969373
-4.9810227740161106e-05   -9.878635363717858e-08   -0.00010272193982969373
-4.9810227740161106e-05   -9.878635363717858e-08   -0.00010272193982969373
-5.448112176658943e-05   7.75129883301938e-06   -9.964716756431227e-05
-5.448112176658943e-05   7.75129883301938e-06   -9.964716756431227e-05
-5.448112176658943e-05   7.75129883301938e-06   -9.964716756431227e-05
-5.448112176658943e-05   7.75129883301938e-06   -9.964716756431227e-05
-4.9810227740161106e-05   1.7494317800714407e-05   -9.007785718472515e-05
-4.9810227740161106e-05   1.7494317800714407e-05   -9.007785718472515e-05
-4.9810227740161106e-05   1.7494317800714407e-05   -9.007785718472515e-05
-4.9810227740161106e-05   1.7494317800714407e-05   -9.007785718472515e-05
-5.73966773271433e-05   -9.878635363544386e-08   -0.00011327780232230598
-5.73966773271433e-05   -9.878635363544386e-08   -0.00011327780232230598
-5.73966773271433e-05   -9.878635363544386e-08   -0.00011327780232230598
-5.73966773271433e-05   -9.878635363544386e-08   -0.00011327780232230598
-5.354104549220727e-05   2.0632032324081374e-05   -9.339415219769727e-05
-5.354104549220727e-05   2.0632032324081374e-05   -9.339415219769727e-05
-5.354104549220727e-05   2.0632032324081374e-05   -9.339415219769727e-05
-5.354104549220727e-05   2.0632032324081374e-05   -9.339415219769727e-05
-4.1173999863015984e-05   2.7470590466781297e-06   -0.0001032749109465751
-4.1173999863015984e-05   2.7470590466781297e-06   -0.0001032749109465751
-4.1173999863015984e-05   2.7470590466781297e-06   -0.0001032749109465751
-4.1173999863015984e-05   2.7470590466781297e-06   -0.0001032749109465751
-4.9529575473796525e-05   1.0338314933839785e-05   -9.39037051275746e-05
-4.9529575473796525e-05   1.0338314933839785e-05   -9.39037051275746e-05
-4.9529575473796525e-05   1.0338314933839785e-05   -9.39037051275746e-05
-4.9529575473796525e-05   1.0338314933839785e-05   -9.39037051275746e-05
-4.117399986301577e-05   2.0632032324081374e-05   -8.266316823125636e-05
-4.117399986301577e-05   2.0632032324081374e-05   -8.266316823125636e-05
-4.117399986301577e-05   2.0632032324081374e-05   -8.266316823125636e-05
-4.117399986301577e-05   2.0632032324081374e-05   -8.266316823125636e-05
-5.354104549220727e-05   2.7470590466798644e-06   -0.00011400589491301558
-5.354104549220727e-05   2.7470590466798644e-06   -0.00011400589491301558
-5.354104549220727e-05   2.7470590466798644e-06   -0.00011400589491301558
-5.354104549220727e-05   2.7470590466798644e-06   -0.00011400589491301558
-5.05175151851874e-05   2.5597293462287056e-05   -8.663938259840034e-05
-5.05175151851874e-05   2.5597293462287056e-05   -8.663938259840034e-05
-5.05175151851874e-05   2.5597293462287056e-05   -8.663938259840034e-05
-5.05175151851874e-05   2.5597293462287056e-05   -8.663938259840034e-05
-3.0511058587003297e-05   8.426993129593066e-06   -0.00010968129672908958
-3.0511058587003297e-05   8.426993129593066e-06   -0.00010968129672908958
-3.0511058587003297e-05   8.426993129593066e-06   -0.00010968129672908958
-3.0511058587003297e-05   8.426993129593066e-06   -0.00010968129672908958
-4.332629795525877e-05   1.2802652118223262e-05   -9.094795984184324e-05
-4.332629795525877e-05   1.2802652118223262e-05   -9.094795984184324e-05
-4.332629795525877e-05   1.2802652118223262e-05   -9.094795984184324e-05
-4.332629795525877e-05   1.2802652118223262e-05   -9.094795984184324e-05
-6.045876342232687e-05   6.4117038952593575e-06   -0.00019407082026699687
-6.045876342232687e-05   6.4117038952593575e-06   -0.00019407082026699687
-6.045876342232687e-05   6.4117038952593575e-06   -0.00019407082026699687
-6.045876342232687e-05   6.4117038952593575e-06   -0.00019407082026699687
-6.921098736024185e-05   -1.1541428987342506e-06   -0.0002131973682399182
-6.921098736024185e-05   -1.1541428987342506e-06   -0.0002131973682399182
-6.921098736024185e-05   -1.1541428987342506e-06   -0.0002131973682399182
-6.921098736024185e-05   -1.1541428987342506e-06   -0.0002131973682399182
-6.672400463548654e-05   1.3550278165830841e-05   -0.0001942322819597159
-6.672400463548654e-05   1.3550278165830841e-05   -0.0001942322819597159
-6.672400463548654e-05   1.3550278165830841e-05   -0.0001942322819597159
-6.672400463548654e-05   1.3550278165830841e-05   -0.0001942322819597159
-5.73966773271433e-05   5.2120179119229115e-06   -0.00020477487132127426
-5.73966773271433e-05   5.2120179119229115e-06   -0.00020477487132127426
-5.73966773271433e-05   5.2120179119229115e-06   -0.00020477487132127426
-5.73966773271433e-05   5.2120179119229115e-06   -0.00020477487132127426
-6.270749374427946e-05   7.391188829310516e-06   -0.0001972310131764857
-6.270749374427946e-05   7.391188829310516e-06   -0.0001972310131764857
-6.270749374427946e-05   7.391188829310516e-06   -0.0001972310131764857
-6.270749374427946e-05   7.391188829310516e-06   -0.0001972310131764857
-5.739667732714308e-05   1.3550278165830841e-05   -0.0001892293258073689
-5.739667732714308e-05   1.3550278165830841e-05   -0.0001892293258073689
-5.739667732714308e-05   1.3550278165830841e-05   -0.0001892293258073689
-5.739667732714308e-05   1.3550278165830841e-05   -0.0001892293258073689
-6.672400463548654e-05   5.2120179119229115e-06   -0.0002097778274736204
-6.672400463548654e-05   5.2120179119229115e-06   -0.0002097778274736204
-6.672400463548654e-05   5.2120179119229115e-06   -0.0002097778274736204
-6.672400463548654e-05   5.2120179119229115e-06   -0.0002097778274736204
-6.413856646623713e-05   2.0179455265221732e-05   -0.00019260623257637884
-6.413856646623713e-05   2.0179455265221732e-05   -0.00019260623257637884
-6.413856646623713e-05   2.0179455265221732e-05   -0.00019260623257637884
-6.413856646623713e-05   2.0179455265221732e-05   -0.00019260623257637884
-5.354104549220749e-05   1.133344536814393e-05   -0.00020496116159484734
-5.354104549220749e-05   1.133344536814393e-05   -0.00020496116159484734
-5.354104549220749e-05   1.133344536814393e-05   -0.00020496116159484734
-5.354104549220749e-05   1.133344536814393e-05   -0.00020496116159484734
-6.021422124742186e-05   1.2513553715605072e-05   -0.00019454726701130087
-6.021422124742186e-05   1.2513553715605072e-05   -0.00019454726701130087
-6.021422124742186e-05   1.2513553715605072e-05   -0.00019454726701130087
-6.021422124742186e-05   1.2513553715605072e-05   -0.00019454726701130087
-5.354104549220727e-05   2.0179455265220865e-05   -0.00018729862663813008
-5.354104549220727e-05   2.0179455265220865e-05   -0.00018729862663813008
-5.354104549220727e-05   2.0179455265220865e-05   -0.00018729862663813008
-5.354104549220727e-05   2.0179455265220865e-05   -0.00018729862663813008
-6.413856646623702e-05   1.1333445368142195e-05   -0.00021026876753309307
-6.413856646623702e-05   1.1333445368142195e-05   -0.00021026876753309307
-6.413856646623702e-05   1.1333445368142195e-05   -0.00021026876753309307
-6.413856646623702e-05   1.1333445368142195e-05   -0.00021026876753309307
-6.169905128420379e-05   2.7537216345079225e-05   -0.00019579261161552317
-6.169905128420379e-05   2.7537216345079225e-05   -0.00019579261161552317
-6.169905128420379e-05   2.7537216345079225e-05   -0.00019579261161552317
-6.169905128420379e-05   2.7537216345079225e-05   -0.00019579261161552317
-5.05175151851874e-05   1.8315475242060633e-05   -0.0002088954604520716
-5.05175151851874e-05   1.8315475242060633e-05   -0.0002088954604520716
-5.05175151851874e-05   1.8315475242060633e-05   -0.0002088954604520716
-5.05175151851874e-05   1.8315475242060633e-05   -0.0002088954604520716
-5.8015301793826115e-05   1.7877941117379684e-05   -0.00019613662896286656
-5.8015301793826115e-05   1.7877941117379684e-05   -0.00019613662896286656
-5.8015301793826115e-05   1.7877941117379684e-05   -0.00019613662896286656
-5.8015301793826115e-05   1.7877941117379684e-05   -0.00019613662896286656
-6.921098736024152e-05   3.6381562098656076e-06   -0.00022588781560951062
-6.921098736024152e-05   3.6381562098656076e-06   -0.00022588781560951062
-6.921098736024152e-05   3.6381562098656076e-06   -0.00022588781560951062
-6.921098736024152e-05   3.6381562098656076e-06   -0.00022588781560951062
-7.848841272698978e-05   5.225945592041495e-06   -0.00024039751759145217
-7.848841272698978e-05   5.225945592041495e-06   -0.00024039751759145217
-7.848841272698978e-05   5.225945592041495e-06   -0.00024039751759145217
-7.848841272698978e-05   5.225945592041495e-06   -0.00024039751759145217
-7.604126254571827e-05   1.0899298523640681e-05   -0.00022242902020641261
-7.604126254571827e-05   1.0899298523640681e-05   -0.00022242902020641261
-7.604126254571827e-05   1.0899298523640681e-05   -0.00022242902020641261
-7.604126254571827e-05   1.0899298523640681e-05   -0.00022242902020641261
-6.672400463548654e-05   1.1795878870847834e-05   -0.00023849573159845524
-6.672400463548654e-05   1.1795878870847834e-05   -0.00023849573159845524
-6.672400463548654e-05   1.1795878870847834e-05   -0.00023849573159845524
-6.672400463548654e-05   1.1795878870847834e-05   -0.00023849573159845524
-7.217939442502377e-05   8.910138736120676e-06   -0.00022767197120172585
-7.217939442502377e-05   8.910138736120676e-06   -0.00022767197120172585
-7.217939442502377e-05   8.910138736120676e-06   -0.00022767197120172585
-7.217939442502377e-05   8.910138736120676e-06   -0.00022767197120172585
-6.672400463548643e-05   1.0899298523639814e-05   -0.00022296696841473534
-6.672400463548643e-05   1.0899298523639814e-05   -0.00022296696841473534
-6.672400463548643e-05   1.0899298523639814e-05   -0.00022296696841473534
-6.672400463548643e-05   1.0899298523639814e-05   -0.00022296696841473534
-7.60412625457184e-05   1.1795878870847834e-05   -0.00023795778339013272
-7.60412625457184e-05   1.1795878870847834e-05   -0.00023795778339013272
-7.60412625457184e-05   1.1795878870847834e-05   -0.00023795778339013272
-7.60412625457184e-05   1.1795878870847834e-05   -0.00023795778339013272
-7.347198805591365e-05   1.8224492402431174e-05   -0.0002230832229519978
-7.347198805591365e-05   1.8224492402431174e-05   -0.0002230832229519978
-7.347198805591365e-05   1.8224492402431174e-05   -0.0002230832229519978
-7.347198805591365e-05   1.8224492402431174e-05   -0.0002230832229519978
-6.413856646623713e-05   1.8511828848322143e-05   -0.0002388113274689916
-6.413856646623713e-05   1.8511828848322143e-05   -0.0002388113274689916
-6.413856646623713e-05   1.8511828848322143e-05   -0.0002388113274689916
-6.413856646623713e-05   1.8511828848322143e-05   -0.0002388113274689916
-7.011900743287155e-05   1.4523380813011993e-05   -0.00022645085703675233
-7.011900743287155e-05   1.4523380813011993e-05   -0.00022645085703675233
-7.011900743287155e-05   1.4523380813011993e-05   -0.00022645085703675233
-7.011900743287155e-05   1.4523380813011993e-05   -0.00022645085703675233
-6.413856646623702e-05   1.822449240243204e-05   -0.00022325562481953064
-6.413856646623702e-05   1.822449240243204e-05   -0.00022325562481953064
-6.413856646623702e-05   1.822449240243204e-05   -0.00022325562481953064
-6.413856646623702e-05   1.822449240243204e-05   -0.00022325562481953064
-7.347198805591365e-05   1.8511828848322143e-05   -0.00023863892560145768
-7.347198805591365e-05   1.8511828848322143e-05   -0.00023863892560145768
-7.347198805591365e-05   1.8511828848322143e-05   -0.00023863892560145768
-7.347198805591365e-05   1.8511828848322143e-05   -0.00023863892560145768
-7.104761967942167e-05   2.5659724111683734e-05   -0.0002274127124251282
-7.104761967942167e-05   2.5659724111683734e-05   -0.0002274127124251282
-7.104761967942167e-05   2.5659724111683734e-05   -0.0002274127124251282
-7.104761967942167e-05   2.5659724111683734e-05   -0.0002274127124251282
-6.16990512842039e-05   2.5319953685605523e-05   -0.00024278979749484315
-6.16990512842039e-05   2.5319953685605523e-05   -0.00024278979749484315
-6.16990512842039e-05   2.5319953685605523e-05   -0.00024278979749484315
-6.16990512842039e-05   2.5319953685605523e-05   -0.00024278979749484315
-6.821840037169145e-05   2.0214833304787322e-05   -0.000228861143453875
-6.821840037169145e-05   2.0214833304787322e-05   -0.000228861143453875
-6.821840037169145e-05   2.0214833304787322e-05   -0.000228861143453875
-6.821840037169145e-05   2.0214833304787322e-05   -0.000228861143453875
-7.84884127269895e-05   1.4894956082743896e-06   -0.00019493277080020674
-7.84884127269895e-05   1.4894956082743896e-06   -0.00019493277080020674
-7.84884127269895e-05   1.4894956082743896e-06   -0.00019493277080020674
-7.84884127269895e-05   1.4894956082743896e-06   -0.00019493277080020674
-8.824172343428044e-05   1.1636724166727216e-05   -0.00020509995151062055
-8.824172343428044e-05   1.1636724166727216e-05   -0.00020509995151062055
-8.824172343428044e-05   1.1636724166727216e-05   -0.00020509995151062055
-8.824172343428044e-05   1.1636724166727216e-05   -0.00020509995151062055
-8.52896700695155e-05   8.515655335003015e-06   -0.00018640358670605345
-8.52896700695155e-05   8.515655335003015e-06   -0.00018640358670605345
-8.52896700695155e-05   8.515655335003015e-06   -0.00018640358670605345
-8.52896700695155e-05   8.515655335003015e-06   -0.00018640358670605345
-7.604126254571827e-05   1.8223537278948265e-05   -0.00020764232841208148
-7.604126254571827e-05   1.8223537278948265e-05   -0.00020764232841208148
-7.604126254571827e-05   1.8223537278948265e-05   -0.00020764232841208148
-7.604126254571827e-05   1.8223537278948265e-05   -0.00020764232841208148
-8.138281092409861e-05   1.0704033121890916e-05   -0.00019422804528721567
-8.138281092409861e-05   1.0704033121890916e-05   -0.00019422804528721567
-8.138281092409861e-05   1.0704033121890916e-05   -0.00019422804528721567
-8.138281092409861e-05   1.0704033121890916e-05   -0.00019422804528721567
-7.604126254571813e-05   8.515655335003015e-06   -0.00019222831587242025
-7.604126254571813e-05   8.515655335003015e-06   -0.00019222831587242025
-7.604126254571813e-05   8.515655335003015e-06   -0.00019222831587242025
-7.604126254571813e-05   8.515655335003015e-06   -0.00019222831587242025
-8.52896700695155e-05   1.8223537278948265e-05   -0.00020181759924571552
-8.52896700695155e-05   1.8223537278948265e-05   -0.00020181759924571552
-8.52896700695155e-05   1.8223537278948265e-05   -0.00020181759924571552
-8.52896700695155e-05   1.8223537278948265e-05   -0.00020181759924571552
-8.149523731545001e-05   1.5144143365823474e-05   -0.0001872405309849808
-8.149523731545001e-05   1.5144143365823474e-05   -0.0001872405309849808
-8.149523731545001e-05   1.5144143365823474e-05   -0.0001872405309849808
-8.149523731545001e-05   1.5144143365823474e-05   -0.0001872405309849808
-7.347198805591354e-05   2.4306408129060042e-05   -0.00020610997194214965
-7.347198805591354e-05   2.4306408129060042e-05   -0.00020610997194214965
-7.347198805591354e-05   2.4306408129060042e-05   -0.00020610997194214965
-7.347198805591354e-05   2.4306408129060042e-05   -0.00020610997194214965
-7.874587238523083e-05   1.592422690840402e-05   -0.0001922908559942307
-7.874587238523083e-05   1.592422690840402e-05   -0.0001922908559942307
-7.874587238523083e-05   1.592422690840402e-05   -0.0001922908559942307
-7.874587238523083e-05   1.592422690840402e-05   -0.0001922908559942307
-7.347198805591335e-05   1.5144143365824342e-05   -0.00019273788984292169
-7.347198805591335e-05   1.5144143365824342e-05   -0.00019273788984292169
-7.347198805591335e-05   1.5144143365824342e-05   -0.00019273788984292169
-7.347198805591335e-05   1.5144143365824342e-05   -0.00019273788984292169
-8.149523731545017e-05   2.4306408129060042e-05   -0.0002006126130842086
-8.149523731545017e-05   2.4306408129060042e-05   -0.0002006126130842086
-8.149523731545017e-05   2.4306408129060042e-05   -0.0002006126130842086
-8.149523731545017e-05   2.4306408129060042e-05   -0.0002006126130842086
-7.85091544495805e-05   2.2648613408593997e-05   -0.00019243524330444291
-7.85091544495805e-05   2.2648613408593997e-05   -0.00019243524330444291
-7.85091544495805e-05   2.2648613408593997e-05   -0.00019243524330444291
-7.85091544495805e-05   2.2648613408593997e-05   -0.00019243524330444291
-7.104761967942167e-05   3.1133555143756514e-05   -0.00020996209962913804
-7.104761967942167e-05   3.1133555143756514e-05   -0.00020996209962913804
-7.104761967942167e-05   3.1133555143756514e-05   -0.00020996209962913804
-7.104761967942167e-05   3.1133555143756514e-05   -0.00020996209962913804
-7.675352726045517e-05   2.1267906079576113e-05   -0.0001945328642222379
-7.675352726045517e-05   2.1267906079576113e-05   -0.0001945328642222379
-7.675352726045517e-05   2.1267906079576113e-05   -0.0001945328642222379
-7.675352726045517e-05   2.1267906079576113e-05   -0.0001945328642222379
-8.824172343428017e-05   1.9921529046335387e-06   -0.00010398523088950631
-8.824172343428017e-05   1.9921529046335387e-06   -0.00010398523088950631
-8.824172343428017e-05   1.9921529046335387e-06   -0.00010398523088950631
-8.824172343428017e-05   1.9921529046335387e-06   -0.00010398523088950631
-0.00010648716250878285   1.951506918314999e-05   -0.00012388054624656777
-0.00010648716250878285   1.951506918314999e-05   -0.00012388054624656777
-0.00010648716250878285   1.951506918314999e-05   -0.00012388054624656777
-0.00010648716250878285   1.951506918314999e-05   -0.00012388054624656777
-9.613409101092633e-05   7.536248744752054e-06   -8.594623590485635e-05
-9.613409101092633e-05   7.536248744752054e-06   -8.594623590485635e-05
-9.613409101092633e-05   7.536248744752054e-06   -8.594623590485635e-05
-9.613409101092633e-05   7.536248744752054e-06   -8.594623590485635e-05
-8.528967006951545e-05   2.54777397324657e-05   -0.00011478516539983473
-8.528967006951545e-05   2.54777397324657e-05   -0.00011478516539983473
-8.528967006951545e-05   2.54777397324657e-05   -0.00011478516539983473
-8.528967006951545e-05   2.54777397324657e-05   -0.00011478516539983473
-9.023170071856712e-05   1.4362789689574551e-05   -9.987947762568313e-05
-9.023170071856712e-05   1.4362789689574551e-05   -9.987947762568313e-05
-9.023170071856712e-05   1.4362789689574551e-05   -9.987947762568313e-05
-9.023170071856712e-05   1.4362789689574551e-05   -9.987947762568313e-05
-8.528967006951518e-05   7.536248744752054e-06   -9.67111304974828e-05
-8.528967006951518e-05   7.536248744752054e-06   -9.67111304974828e-05
-8.528967006951518e-05   7.536248744752054e-06   -9.67111304974828e-05
-8.528967006951518e-05   7.536248744752054e-06   -9.67111304974828e-05
-9.613409101092612e-05   2.54777397324657e-05   -0.00010402027080720806
-9.613409101092612e-05   2.54777397324657e-05   -0.00010402027080720806
-9.613409101092612e-05   2.54777397324657e-05   -0.00010402027080720806
-9.613409101092612e-05   2.54777397324657e-05   -0.00010402027080720806
-8.771330138966811e-05   1.065909227293202e-05   -8.46482815849048e-05
-8.771330138966811e-05   1.065909227293202e-05   -8.46482815849048e-05
-8.771330138966811e-05   1.065909227293202e-05   -8.46482815849048e-05
-8.771330138966811e-05   1.065909227293202e-05   -8.46482815849048e-05
-8.149523731545001e-05   2.8208685639109776e-05   -0.00010554147772830734
-8.149523731545001e-05   2.8208685639109776e-05   -0.00010554147772830734
-8.149523731545001e-05   2.8208685639109776e-05   -0.00010554147772830734
-8.149523731545001e-05   2.8208685639109776e-05   -0.00010554147772830734
-8.576809703269854e-05   1.71128537779508e-05   -9.176254574953216e-05
-8.576809703269854e-05   1.71128537779508e-05   -9.176254574953216e-05
-8.576809703269854e-05   1.71128537779508e-05   -9.176254574953216e-05
-8.576809703269854e-05   1.71128537779508e-05   -9.176254574953216e-05
-8.149523731545001e-05   1.065909227293202e-05   -9.517803760461085e-05
-8.149523731545001e-05   1.065909227293202e-05   -9.517803760461085e-05
-8.149523731545001e-05   1.065909227293202e-05   -9.517803760461085e-05
-8.149523731545001e-05   1.065909227293202e-05   -9.517803760461085e-05
-8.771330138966811e-05   2.820868563910804e-05   -9.501172170860162e-05
-8.771330138966811e-05   2.820868563910804e-05   -9.501172170860162e-05
-8.771330138966811e-05   2.820868563910804e-05   -9.501172170860162e-05
-8.771330138966811e-05   2.820868563910804e-05   -9.501172170860162e-05
-7.74364333848579e-05   1.621972668491324e-05   -8.746570019788113e-05
-7.74364333848579e-05   1.621972668491324e-05   -8.746570019788113e-05
-7.74364333848579e-05   1.621972668491324e-05   -8.746570019788113e-05
-7.74364333848579e-05   1.621972668491324e-05   -8.746570019788113e-05
-7.85091544495804e-05   3.246505127912393e-05   -9.54250265132019e-05
-7.85091544495804e-05   3.246505127912393e-05   -9.54250265132019e-05
-7.85091544495804e-05   3.246505127912393e-05   -9.54250265132019e-05
-7.85091544495804e-05   3.246505127912393e-05   -9.54250265132019e-05
-7.928083486696241e-05   1.9352467086775765e-05   -8.627134196882431e-05
-7.928083486696241e-05   1.9352467086775765e-05   -8.627134196882431e-05
-7.928083486696241e-05   1.9352467086775765e-05   -8.627134196882431e-05
-7.928083486696241e-05   1.9352467086775765e-05   -8.627134196882431e-05
5.193926395976266e-05   -5.150375986116146e-06   -5.4778396280505924e-05
5.193926395976266e-05   -5.150375986116146e-06   -5.4778396280505924e-05
5.193926395976266e-05   -5.150375986116146e-06   -5.4778396280505924e-05
5.193926395976266e-05   -5.150375986116146e-06   -5.4778396280505924e-05
5.2221176419047204e-06   -2.1910804109865484e-05   -0.00014269656368451865
5.2221176419047204e-06   -2.1910804109865484e-05   -0.00014269656368451865
5.2221176419047204e-06   -2.1910804109865484e-05   -0.00014269656368451865
5.2221176419047204e-06   -2.1910804109865484e-05   -0.00014269656368451865
9.428203837670828e-06   -9.878635363544386e-08   -6.039134171399209e-05
9.428203837670828e-06   -9.878635363544386e-08   -6.039134171399209e-05
9.428203837670828e-06   -9.878635363544386e-08   -6.039134171399209e-05
9.428203837670828e-06   -9.878635363544386e-08   -6.039134171399209e-05
6.357882920620121e-05   -1.7991652224880195e-05   -0.00013990666447212877
6.357882920620121e-05   -1.7991652224880195e-05   -0.00013990666447212877
6.357882920620121e-05   -1.7991652224880195e-05   -0.00013990666447212877
6.357882920620121e-05   -1.7991652224880195e-05   -0.00013990666447212877
3.13371077133712e-05   -9.116962960711156e-06   -9.14952755425814e-05
3.13371077133712e-05   -9.116962960711156e-06   -9.14952755425814e-05
3.13371077133712e-05   -9.116962960711156e-06   -9.14952755425814e-05
3.13371077133712e-05   -9.116962960711156e-06   -9.14952755425814e-05
6.357882920620143e-05   -9.878635363544386e-08   -4.9655622191245585e-05
6.357882920620143e-05   -9.878635363544386e-08   -4.9655622191245585e-05
6.357882920620143e-05   -9.878635363544386e-08   -4.9655622191245585e-05
6.357882920620143e-05   -9.878635363544386e-08   -4.9655622191245585e-05
9.428203837670828e-06   -1.7991652224880195e-05   -0.000150642383994877
9.428203837670828e-06   -1.7991652224880195e-05   -0.000150642383994877
9.428203837670828e-06   -1.7991652224880195e-05   -0.000150642383994877
9.428203837670828e-06   -1.7991652224880195e-05   -0.000150642383994877
1.4380293159725914e-05   2.7470590466781297e-06   -6.081171796103006e-05
1.4380293159725914e-05   2.7470590466781297e-06   -6.081171796103006e-05
1.4380293159725914e-05   2.7470590466781297e-06   -6.081171796103006e-05
1.4380293159725914e-05   2.7470590466781297e-06   -6.081171796103006e-05
7.343790099449297e-05   -1.5392549879001197e-05   -0.00014835729899689972
7.343790099449297e-05   -1.5392549879001197e-05   -0.00014835729899689972
7.343790099449297e-05   -1.5392549879001197e-05   -0.00014835729899689972
7.343790099449297e-05   -1.5392549879001197e-05   -0.00014835729899689972
3.873532430424668e-05   -7.294174354088162e-06   -9.537869649477344e-05
3.873532430424668e-05   -7.294174354088162e-06   -9.537869649477344e-05
3.873532430424668e-05   -7.294174354088162e-06   -9.537869649477344e-05
3.873532430424668e-05   -7.294174354088162e-06   -9.537869649477344e-05
7.343790099449297e-05   2.7470590466781297e-06   -4.992795260562108e-05
7.343790099449297e-05   2.7470590466781297e-06   -4.992795260562108e-05
7.343790099449297e-05   2.7470590466781297e-06   -4.992795260562108e-05
7.343790099449297e-05   2.7470590466781297e-06   -4.992795260562108e-05
1.4380293159725914e-05   -1.5392549879001197e-05   -0.00015924106435230827
1.4380293159725914e-05   -1.5392549879001197e-05   -0.00015924106435230827
1.4380293159725914e-05   -1.5392549879001197e-05   -0.00015924106435230827
1.4380293159725914e-05   -1.5392549879001197e-05   -0.00015924106435230827
1.8472705703556202e-05   8.426993129593066e-06   -6.652189607503703e-05
1.8472705703556202e-05   8.426993129593066e-06   -6.652189607503703e-05
1.8472705703556202e-05   8.426993129593066e-06   -6.652189607503703e-05
1.8472705703556202e-05   8.426993129593066e-06   -6.652189607503703e-05
8.52793423089756e-05   -8.830062274067449e-06   -0.00016751205717520628
8.52793423089756e-05   -8.830062274067449e-06   -0.00016751205717520628
8.52793423089756e-05   -8.830062274067449e-06   -0.00016751205717520628
8.52793423089756e-05   -8.830062274067449e-06   -0.00016751205717520628
4.465505743337121e-05   -4.6294659262324095e-06   -0.00010232527352456965
4.465505743337121e-05   -4.6294659262324095e-06   -0.00010232527352456965
4.465505743337121e-05   -4.6294659262324095e-06   -0.00010232527352456965
4.465505743337121e-05   -4.6294659262324095e-06   -0.00010232527352456965
5.222117641904937e-06   -1.1541428987325159e-06   -0.0001561416047695871
5.222117641904937e-06   -1.1541428987325159e-06   -0.0001561416047695871
5.222117641904937e-06   -1.1541428987325159e-06   -0.0001561416047695871
5.222117641904937e-06   -1.1541428987325159e-06   -0.0001561416047695871
-4.955118255915052e-05   -8.723262401174117e-06   -0.0002519719101394778
-4.955118255915052e-05   -8.723262401174117e-06   -0.0002519719101394778
-4.955118255915052e-05   -8.723262401174117e-06   -0.0002519719101394778
-4.955118255915052e-05   -8.723262401174117e-06   -0.0002519719101394778
-4.584981727198602e-05   5.2120179119229115e-06   -0.00015703461285347664
-4.584981727198602e-05   5.2120179119229115e-06   -0.00015703461285347664
-4.584981727198602e-05   5.2120179119229115e-06   -0.00015703461285347664
-4.584981727198602e-05   5.2120179119229115e-06   -0.00015703461285347664
9.428203837670828e-06   -3.364985655604502e-06   -0.00024401844589572305
9.428203837670828e-06   -3.364985655604502e-06   -0.00024401844589572305
9.428203837670828e-06   -3.364985655604502e-06   -0.00024401844589572305
9.428203837670828e-06   -3.364985655604502e-06   -0.00024401844589572305
-1.9717511215627435e-05   -3.7173200612659885e-07   -0.00019723820632991124
-1.9717511215627435e-05   -3.7173200612659885e-07   -0.00019723820632991124
-1.9717511215627435e-05   -3.7173200612659885e-07   -0.00019723820632991124
-1.9717511215627435e-05   -3.7173200612659885e-07   -0.00019723820632991124
9.428203837670828e-06   5.2120179119229115e-06   -0.00015188841071296123
9.428203837670828e-06   5.2120179119229115e-06   -0.00015188841071296123
9.428203837670828e-06   5.2120179119229115e-06   -0.00015188841071296123
9.428203837670828e-06   5.2120179119229115e-06   -0.00015188841071296123
-4.584981727198602e-05   -3.3649856556027674e-06   -0.00024916464803623976
-4.584981727198602e-05   -3.3649856556027674e-06   -0.00024916464803623976
-4.584981727198602e-05   -3.3649856556027674e-06   -0.00024916464803623976
-4.584981727198602e-05   -3.3649856556027674e-06   -0.00024916464803623976
-4.2127841147105187e-05   1.1333445368142195e-05   -0.00015726459148892105
-4.2127841147105187e-05   1.1333445368142195e-05   -0.00015726459148892105
-4.2127841147105187e-05   1.1333445368142195e-05   -0.00015726459148892105
-4.2127841147105187e-05   1.1333445368142195e-05   -0.00015726459148892105
1.4380293159725914e-05   2.17076729137379e-06   -0.0002459472084875786
1.4380293159725914e-05   2.17076729137379e-06   -0.0002459472084875786
1.4380293159725914e-05   2.17076729137379e-06   -0.0002459472084875786
1.4380293159725914e-05   2.17076729137379e-06   -0.0002459472084875786
-1.643151483829208e-05   4.019514836658619e-06   -0.0001957034436847198
-1.643151483829208e-05   4.019514836658619e-06   -0.0001957034436847198
-1.643151483829208e-05   4.019514836658619e-06   -0.0001957034436847198
-1.643151483829208e-05   4.019514836658619e-06   -0.0001957034436847198
1.4380293159725914e-05   1.133344536814393e-05   -0.00015176698464286053
1.4380293159725914e-05   1.133344536814393e-05   -0.00015176698464286053
1.4380293159725914e-05   1.133344536814393e-05   -0.00015176698464286053
1.4380293159725914e-05   1.133344536814393e-05   -0.00015176698464286053
-4.2127841147105187e-05   2.17076729137379e-06   -0.00025144481533364
-4.2127841147105187e-05   2.17076729137379e-06   -0.00025144481533364
-4.2127841147105187e-05   2.17076729137379e-06   -0.00025144481533364
-4.2127841147105187e-05   2.17076729137379e-06   -0.00025144481533364
-3.8567406875057286e-05   1.8315475242060633e-05   -0.0001611917107625831
-3.8567406875057286e-05   1.8315475242060633e-05   -0.0001611917107625831
-3.8567406875057286e-05   1.8315475242060633e-05   -0.0001611917107625831
-3.8567406875057286e-05   1.8315475242060633e-05   -0.0001611917107625831
1.847270570355642e-05   8.719089968424118e-06   -0.0002505007338960913
1.847270570355642e-05   8.719089968424118e-06   -0.0002505007338960913
1.847270570355642e-05   8.719089968424118e-06   -0.0002505007338960913
1.847270570355642e-05   8.719089968424118e-06   -0.0002505007338960913
-1.2780817825779587e-05   8.879580116756547e-06   -0.0001985078221028655
-1.2780817825779587e-05   8.879580116756547e-06   -0.0001985078221028655
-1.2780817825779587e-05   8.879580116756547e-06   -0.0001985078221028655
-1.2780817825779587e-05   8.879580116756547e-06   -0.0001985078221028655
-4.955118255915074e-05   5.225945592041495e-06   -0.00018883589945189235
-4.955118255915074e-05   5.225945592041495e-06   -0.00018883589945189235
-4.955118255915074e-05   5.225945592041495e-06   -0.00018883589945189235
-4.955118255915074e-05   5.225945592041495e-06   -0.00018883589945189235
-0.0001038707780799089   6.59115817626052e-06   -0.00027854943110262355
-0.0001038707780799089   6.59115817626052e-06   -0.00027854943110262355
-0.0001038707780799089   6.59115817626052e-06   -0.00027854943110262355
-0.0001038707780799089   6.59115817626052e-06   -0.00027854943110262355
-0.00010014045312451016   1.1795878870847834e-05   -0.0001854796339706942
-0.00010014045312451016   1.1795878870847834e-05   -0.0001854796339706942
-0.00010014045312451016   1.1795878870847834e-05   -0.0001854796339706942
-0.00010014045312451016   1.1795878870847834e-05   -0.0001854796339706942
-4.584981727198613e-05   1.2250683883547123e-05   -0.0002762369100658534
-4.584981727198613e-05   1.2250683883547123e-05   -0.0002762369100658534
-4.584981727198613e-05   1.2250683883547123e-05   -0.0002762369100658534
-4.584981727198613e-05   1.2250683883547123e-05   -0.0002762369100658534
-7.44190035856162e-05   1.0122204976292445e-05   -0.0002273445121987838
-7.44190035856162e-05   1.0122204976292445e-05   -0.0002273445121987838
-7.44190035856162e-05   1.0122204976292445e-05   -0.0002273445121987838
-7.44190035856162e-05   1.0122204976292445e-05   -0.0002273445121987838
-4.584981727198613e-05   1.1795878870847834e-05   -0.00018575251697831256
-4.584981727198613e-05   1.1795878870847834e-05   -0.00018575251697831256
-4.584981727198613e-05   1.1795878870847834e-05   -0.00018575251697831256
-4.584981727198613e-05   1.1795878870847834e-05   -0.00018575251697831256
-0.00010014045312451016   1.2250683883545388e-05   -0.00027596402705823506
-0.00010014045312451016   1.2250683883545388e-05   -0.00027596402705823506
-0.00010014045312451016   1.2250683883545388e-05   -0.00027596402705823506
-0.00010014045312451016   1.2250683883545388e-05   -0.00027596402705823506
-9.635396717262003e-05   1.8511828848322143e-05   -0.00018596607612117975
-9.635396717262003e-05   1.8511828848322143e-05   -0.00018596607612117975
-9.635396717262003e-05   1.8511828848322143e-05   -0.00018596607612117975
-9.635396717262003e-05   1.8511828848322143e-05   -0.00018596607612117975
-4.2127841147105295e-05   1.8246954354386724e-05   -0.0002761840281340097
-4.2127841147105295e-05   1.8246954354386724e-05   -0.0002761840281340097
-4.2127841147105295e-05   1.8246954354386724e-05   -0.0002761840281340097
-4.2127841147105295e-05   1.8246954354386724e-05   -0.0002761840281340097
-7.113098514919687e-05   1.5056701593007052e-05   -0.00022593130314036564
-7.113098514919687e-05   1.5056701593007052e-05   -0.00022593130314036564
-7.113098514919687e-05   1.5056701593007052e-05   -0.00022593130314036564
-7.113098514919687e-05   1.5056701593007052e-05   -0.00022593130314036564
-4.2127841147105295e-05   1.8511828848322143e-05   -0.0001858071514248185
-4.2127841147105295e-05   1.8511828848322143e-05   -0.0001858071514248185
-4.2127841147105295e-05   1.8511828848322143e-05   -0.0001858071514248185
-4.2127841147105295e-05   1.8511828848322143e-05   -0.0001858071514248185
-9.635396717261986e-05   1.8246954354386724e-05   -0.00027634295283037163
-9.635396717261986e-05   1.8246954354386724e-05   -0.00027634295283037163
-9.635396717261986e-05   1.8246954354386724e-05   -0.00027634295283037163
-9.635396717261986e-05   1.8246954354386724e-05   -0.00027634295283037163
-9.274260801009007e-05   2.5319953685605523e-05   -0.00019013715034896933
-9.274260801009007e-05   2.5319953685605523e-05   -0.00019013715034896933
-9.274260801009007e-05   2.5319953685605523e-05   -0.00019013715034896933
-9.274260801009007e-05   2.5319953685605523e-05   -0.00019013715034896933
-3.8567406875057286e-05   2.4346375009896143e-05   -0.00027984500503526444
-3.8567406875057286e-05   2.4346375009896143e-05   -0.00027984500503526444
-3.8567406875057286e-05   2.4346375009896143e-05   -0.00027984500503526444
-3.8567406875057286e-05   2.4346375009896143e-05   -0.00027984500503526444
-6.806810528023035e-05   2.0065560779146743e-05   -0.00022810868582153008
-6.806810528023035e-05   2.0065560779146743e-05   -0.00022810868582153008
-6.806810528023035e-05   2.0065560779146743e-05   -0.00022810868582153008
-6.806810528023035e-05   2.0065560779146743e-05   -0.00022810868582153008
-0.00010387077807990906   1.1636724166725482e-05   -0.0001588075429555984
-0.00010387077807990906   1.1636724166725482e-05   -0.0001588075429555984
-0.00010387077807990906   1.1636724166725482e-05   -0.0001588075429555984
-0.00010387077807990906   1.1636724166725482e-05   -0.0001588075429555984
-0.00015745944455017639   2.1430705028789923e-05   -0.000242245598555472
-0.00015745944455017639   2.1430705028789923e-05   -0.000242245598555472
-0.00015745944455017639   2.1430705028789923e-05   -0.000242245598555472
-0.00015745944455017639   2.1430705028789923e-05   -0.000242245598555472
-0.00015320380350297398   1.8223537278948265e-05   -0.00014961574369480243
-0.00015320380350297398   1.8223537278948265e-05   -0.00014961574369480243
-0.00015320380350297398   1.8223537278948265e-05   -0.00014961574369480243
-0.00015320380350297398   1.8223537278948265e-05   -0.00014961574369480243
-0.00010014045312451016   2.7470929442018066e-05   -0.00024360309629008426
-0.00010014045312451016   2.7470929442018066e-05   -0.00024360309629008426
-0.00010014045312451016   2.7470929442018066e-05   -0.00024360309629008426
-0.00010014045312451016   2.7470929442018066e-05   -0.00024360309629008426
-0.00012777860872554065   2.048251325711091e-05   -0.00019334645391075496
-0.00012777860872554065   2.048251325711091e-05   -0.00019334645391075496
-0.00012777860872554065   2.048251325711091e-05   -0.00019334645391075496
-0.00012777860872554065   2.048251325711091e-05   -0.00019334645391075496
-0.00010014045312451033   1.822353727894653e-05   -0.00015516417899264466
-0.00010014045312451033   1.822353727894653e-05   -0.00015516417899264466
-0.00010014045312451033   1.822353727894653e-05   -0.00015516417899264466
-0.00010014045312451033   1.822353727894653e-05   -0.00015516417899264466
-0.00015320380350297426   2.7470929442018066e-05   -0.00023805466099224327
-0.00015320380350297426   2.7470929442018066e-05   -0.00023805466099224327
-0.00015320380350297426   2.7470929442018066e-05   -0.00023805466099224327
-0.00015320380350297426   2.7470929442018066e-05   -0.00023805466099224327
-0.00014812705032462398   2.4306408129060042e-05   -0.00014827084062898292
-0.00014812705032462398   2.4306408129060042e-05   -0.00014827084062898292
-0.00014812705032462398   2.4306408129060042e-05   -0.00014827084062898292
-0.00014812705032462398   2.4306408129060042e-05   -0.00014827084062898292
-9.635396717262003e-05   3.291687785054315e-05   -0.00023972559438187888
-9.635396717262003e-05   3.291687785054315e-05   -0.00023972559438187888
-9.635396717262003e-05   3.291687785054315e-05   -0.00023972559438187888
-9.635396717262003e-05   3.291687785054315e-05   -0.00023972559438187888
-0.0001234987950470835   2.5245652791817258e-05   -0.00018988147955587486
-0.0001234987950470835   2.5245652791817258e-05   -0.00018988147955587486
-0.0001234987950470835   2.5245652791817258e-05   -0.00018988147955587486
-0.0001234987950470835   2.5245652791817258e-05   -0.00018988147955587486
-9.635396717261995e-05   2.4306408129060042e-05   -0.0001534371224618707
-9.635396717261995e-05   2.4306408129060042e-05   -0.0001534371224618707
-9.635396717261995e-05   2.4306408129060042e-05   -0.0001534371224618707
-9.635396717261995e-05   2.4306408129060042e-05   -0.0001534371224618707
-0.00014812705032462398   3.291687785054141e-05   -0.00023455931254899066
-0.00014812705032462398   3.291687785054141e-05   -0.00023455931254899066
-0.00014812705032462398   3.291687785054141e-05   -0.00023455931254899066
-0.00014812705032462398   3.291687785054141e-05   -0.00023455931254899066
-0.0001438926974078285   3.1133555143756514e-05   -0.00015237291631008988
-0.0001438926974078285   3.1133555143756514e-05   -0.00015237291631008988
-0.0001438926974078285   3.1133555143756514e-05   -0.00015237291631008988
-0.0001438926974078285   3.1133555143756514e-05   -0.00015237291631008988
-9.274260801009007e-05   3.90213450063015e-05   -0.00024235573922384797
-9.274260801009007e-05   3.90213450063015e-05   -0.00024235573922384797
-9.274260801009007e-05   3.90213450063015e-05   -0.00024235573922384797
-9.274260801009007e-05   3.90213450063015e-05   -0.00024235573922384797
-0.00012060543105324358   2.994598332683139e-05   -0.00019047248381090943
-0.00012060543105324358   2.994598332683139e-05   -0.00019047248381090943
-0.00012060543105324358   2.994598332683139e-05   -0.00019047248381090943
-0.00012060543105324358   2.994598332683139e-05   -0.00019047248381090943
-0.00015745944455017639   1.951506918314999e-05   -8.222549894141857e-05
-0.00015745944455017639   1.951506918314999e-05   -8.222549894141857e-05
-0.00015745944455017639   1.951506918314999e-05   -8.222549894141857e-05
-0.00015745944455017639   1.951506918314999e-05   -8.222549894141857e-05
-0.00021844223909545102   3.682852235222488e-05   -0.00017347541794876346
-0.00021844223909545102   3.682852235222488e-05   -0.00017347541794876346
-0.00021844223909545102   3.682852235222488e-05   -0.00017347541794876346
-0.00021844223909545102   3.682852235222488e-05   -0.00017347541794876346
-0.00020686293098017027   2.54777397324657e-05   -5.2015732867458433e-05
-0.00020686293098017027   2.54777397324657e-05   -5.2015732867458433e-05
-0.00020686293098017027   2.54777397324657e-05   -5.2015732867458433e-05
-0.00020686293098017027   2.54777397324657e-05   -5.2015732867458433e-05
-0.00015320380350297398   4.3090368034907206e-05   -0.00015201518897758296
-0.00015320380350297398   4.3090368034907206e-05   -0.00015201518897758296
-0.00015320380350297398   4.3090368034907206e-05   -0.00015201518897758296
-0.00015320380350297398   4.3090368034907206e-05   -0.00015201518897758296
-0.00017650447219459122   3.195811071226781e-05   -0.00010650138676463828
-0.00017650447219459122   3.195811071226781e-05   -0.00010650138676463828
-0.00017650447219459122   3.195811071226781e-05   -0.00010650138676463828
-0.00017650447219459122   3.195811071226781e-05   -0.00010650138676463828
-0.00015320380350297415   2.54777397324657e-05   -6.25833098489223e-05
-0.00015320380350297415   2.54777397324657e-05   -6.25833098489223e-05
-0.00015320380350297415   2.54777397324657e-05   -6.25833098489223e-05
-0.00015320380350297415   2.54777397324657e-05   -6.25833098489223e-05
-0.00020686293098016951   4.3090368034907206e-05   -0.000141447611996119
-0.00020686293098016951   4.3090368034907206e-05   -0.000141447611996119
-0.00020686293098016951   4.3090368034907206e-05   -0.000141447611996119
-0.00020686293098016951   4.3090368034907206e-05   -0.000141447611996119
-0.00019729176631017823   2.8208685639109776e-05   -4.2926294212962575e-05
-0.00019729176631017823   2.8208685639109776e-05   -4.2926294212962575e-05
-0.00019729176631017823   2.8208685639109776e-05   -4.2926294212962575e-05
-0.00019729176631017823   2.8208685639109776e-05   -4.2926294212962575e-05
-0.0001481270503246237   4.53310374059733e-05   -0.00013514089858233903
-0.0001481270503246237   4.53310374059733e-05   -0.00013514089858233903
-0.0001481270503246237   4.53310374059733e-05   -0.00013514089858233903
-0.0001481270503246237   4.53310374059733e-05   -0.00013514089858233903
-0.00017220121777608636   3.4761372575497704e-05   -8.867548726495091e-05
-0.00017220121777608636   3.4761372575497704e-05   -8.867548726495091e-05
-0.00017220121777608636   3.4761372575497704e-05   -8.867548726495091e-05
-0.00017220121777608636   3.4761372575497704e-05   -8.867548726495091e-05
-0.00014812705032462398   2.820868563910804e-05   -5.319970527308156e-05
-0.00014812705032462398   2.820868563910804e-05   -5.319970527308156e-05
-0.00014812705032462398   2.820868563910804e-05   -5.319970527308156e-05
-0.00014812705032462398   2.820868563910804e-05   -5.319970527308156e-05
-0.0001972917663101779   4.53310374059733e-05   -0.00012486748752222037
-0.0001972917663101779   4.53310374059733e-05   -0.00012486748752222037
-0.0001972917663101779   4.53310374059733e-05   -0.00012486748752222037
-0.0001972917663101779   4.53310374059733e-05   -0.00012486748752222037
-0.0001859969929072704   3.246505127912393e-05   -3.348620617299285e-05
-0.0001859969929072704   3.246505127912393e-05   -3.348620617299285e-05
-0.0001859969929072704   3.246505127912393e-05   -3.348620617299285e-05
-0.0001859969929072704   3.246505127912393e-05   -3.348620617299285e-05
-0.0001438926974078285   4.81993880495548e-05   -0.0001131006340676547
-0.0001438926974078285   4.81993880495548e-05   -0.0001131006340676547
-0.0001438926974078285   4.81993880495548e-05   -0.0001131006340676547
-0.0001438926974078285   4.81993880495548e-05   -0.0001131006340676547
-0.00016323162856328495   3.6124803674014716e-05   -7.362433151657157e-05
-0.00016323162856328495   3.6124803674014716e-05   -7.362433151657157e-05
-0.00016323162856328495   3.6124803674014716e-05   -7.362433151657157e-05
-0.00016323162856328495   3.6124803674014716e-05   -7.362433151657157e-05
0.0001667398362980839   -2.191080410986375e-05   -2.1986794448850336e-06
0.0001667398362980839   -2.191080410986375e-05   -2.1986794448850336e-06
0.0001667398362980839   -2.191080410986375e-05   -2.1986794448850336e-06
0.0001667398362980839   -2.191080410986375e-05   -2.1986794448850336e-06
7.122551460571553e-05   -3.9649047132422205e-05   -0.0001720321614123669
7.122551460571553e-05   -3.9649047132422205e-05   -0.0001720321614123669
7.122551460571553e-05   -3.9649047132422205e-05   -0.0001720321614123669
7.122551460571553e-05   -3.9649047132422205e-05   -0.0001720321614123669
7.636160529879334e-05   -1.7991652224880195e-05   -1.9778117045616064e-05
7.636160529879334e-05   -1.7991652224880195e-05   -1.9778117045616064e-05
7.636160529879334e-05   -1.7991652224880195e-05   -1.9778117045616064e-05
7.636160529879334e-05   -1.7991652224880195e-05   -1.9778117045616064e-05
0.00017950529473511928   -3.6859436840709636e-05   -0.0001803635953366604
0.00017950529473511928   -3.6859436840709636e-05   -0.0001803635953366604
0.00017950529473511928   -3.6859436840709636e-05   -0.0001803635953366604
0.00017950529473511928   -3.6859436840709636e-05   -0.0001803635953366604
0.00011848735508775674   -2.6091410304976415e-05   -8.512784517916401e-05
0.00011848735508775674   -2.6091410304976415e-05   -8.512784517916401e-05
0.00011848735508775674   -2.6091410304976415e-05   -8.512784517916401e-05
0.00011848735508775674   -2.6091410304976415e-05   -8.512784517916401e-05
0.0001795052947351195   -1.7991652224880195e-05   -8.457446276119267e-06
0.0001795052947351195   -1.7991652224880195e-05   -8.457446276119267e-06
0.0001795052947351195   -1.7991652224880195e-05   -8.457446276119267e-06
0.0001795052947351195   -1.7991652224880195e-05   -8.457446276119267e-06
7.636160529879334e-05   -3.6859436840709636e-05   -0.00019168426610615893
7.636160529879334e-05   -3.6859436840709636e-05   -0.00019168426610615893
7.636160529879334e-05   -3.6859436840709636e-05   -0.00019168426610615893
7.636160529879334e-05   -3.6859436840709636e-05   -0.00019168426610615893
8.204646668319437e-05   -1.5392549878999462e-05   -2.745959965342812e-05
8.204646668319437e-05   -1.5392549878999462e-05   -2.745959965342812e-05
8.204646668319437e-05   -1.5392549878999462e-05   -2.745959965342812e-05
8.204646668319437e-05   -1.5392549878999462e-05   -2.745959965342812e-05
0.00019024850658585645   -3.448017129305085e-05   -0.00019634375997610188
0.00019024850658585645   -3.448017129305085e-05   -0.00019634375997610188
0.00019024850658585645   -3.448017129305085e-05   -0.00019634375997610188
0.00019024850658585645   -3.448017129305085e-05   -0.00019634375997610188
0.0001280781525973214   -2.503353966682234e-05   -9.839448230428019e-05
0.0001280781525973214   -2.503353966682234e-05   -9.839448230428019e-05
0.0001280781525973214   -2.503353966682234e-05   -9.839448230428019e-05
0.0001280781525973214   -2.503353966682234e-05   -9.839448230428019e-05
0.00019024850658585666   -1.5392549878999462e-05   -1.600702680499763e-05
0.00019024850658585666   -1.5392549878999462e-05   -1.600702680499763e-05
0.00019024850658585666   -1.5392549878999462e-05   -1.600702680499763e-05
0.00019024850658585666   -1.5392549878999462e-05   -1.600702680499763e-05
8.204646668319394e-05   -3.448017129304912e-05   -0.00020779633282453237
8.204646668319394e-05   -3.448017129304912e-05   -0.00020779633282453237
8.204646668319394e-05   -3.448017129304912e-05   -0.00020779633282453237
8.204646668319394e-05   -3.448017129304912e-05   -0.00020779633282453237
8.676093107394143e-05   -8.830062274067449e-06   -4.5247852096325786e-05
8.676093107394143e-05   -8.830062274067449e-06   -4.5247852096325786e-05
8.676093107394143e-05   -8.830062274067449e-06   -4.5247852096325786e-05
8.676093107394143e-05   -8.830062274067449e-06   -4.5247852096325786e-05
0.000202719803400082   -2.693555505885875e-05   -0.00022764934363568665
0.000202719803400082   -2.693555505885875e-05   -0.00022764934363568665
0.000202719803400082   -2.693555505885875e-05   -0.00022764934363568665
0.000202719803400082   -2.693555505885875e-05   -0.00022764934363568665
0.00013332995852891917   -2.210432631659376e-05   -0.00011489833942911372
0.00013332995852891917   -2.210432631659376e-05   -0.00011489833942911372
0.00013332995852891917   -2.210432631659376e-05   -0.00011489833942911372
0.00013332995852891917   -2.210432631659376e-05   -0.00011489833942911372
7.122551460571553e-05   -8.723262401175852e-06   -0.00011757550001191466
7.122551460571553e-05   -8.723262401175852e-06   -0.00011757550001191466
7.122551460571553e-05   -8.723262401175852e-06   -0.00011757550001191466
7.122551460571553e-05   -8.723262401175852e-06   -0.00011757550001191466
-3.0056710248500622e-05   -1.8662318145691234e-05   -0.0002923426415489842
-3.0056710248500622e-05   -1.8662318145691234e-05   -0.0002923426415489842
-3.0056710248500622e-05   -1.8662318145691234e-05   -0.0002923426415489842
-3.0056710248500622e-05   -1.8662318145691234e-05   -0.0002923426415489842
-2.5267052096489056e-05   -3.3649856556027674e-06   -0.00012002519517156397
-2.5267052096489056e-05   -3.3649856556027674e-06   -0.00012002519517156397
-2.5267052096489056e-05   -3.3649856556027674e-06   -0.00012002519517156397
-2.5267052096489056e-05   -3.3649856556027674e-06   -0.00012002519517156397
7.636160529879334e-05   -1.4816679364103996e-05   -0.00028253527460526647
7.636160529879334e-05   -1.4816679364103996e-05   -0.00028253527460526647
7.636160529879334e-05   -1.4816679364103996e-05   -0.00028253527460526647
7.636160529879334e-05   -1.4816679364103996e-05   -0.00028253527460526647
2.3323209399725648e-05   -9.041031508963404e-06   -0.00019760333681990505
2.3323209399725648e-05   -9.041031508963404e-06   -0.00019760333681990505
2.3323209399725648e-05   -9.041031508963404e-06   -0.00019760333681990505
2.3323209399725648e-05   -9.041031508963404e-06   -0.00019760333681990505
7.636160529879334e-05   -3.3649856556027674e-06   -0.00011315417894646254
7.636160529879334e-05   -3.3649856556027674e-06   -0.00011315417894646254
7.636160529879334e-05   -3.3649856556027674e-06   -0.00011315417894646254
7.636160529879334e-05   -3.3649856556027674e-06   -0.00011315417894646254
-2.5267052096489056e-05   -1.4816679364103996e-05   -0.00028940629083036747
-2.5267052096489056e-05   -1.4816679364103996e-05   -0.00028940629083036747
-2.5267052096489056e-05   -1.4816679364103996e-05   -0.00028940629083036747
-2.5267052096489056e-05   -1.4816679364103996e-05   -0.00028940629083036747
-2.0693521095006785e-05   2.17076729137379e-06   -0.0001215361299796193
-2.0693521095006785e-05   2.17076729137379e-06   -0.0001215361299796193
-2.0693521095006785e-05   2.17076729137379e-06   -0.0001215361299796193
-2.0693521095006785e-05   2.17076729137379e-06   -0.0001215361299796193
8.204646668319394e-05   -1.0113209693494302e-05   -0.0002853990567523654
8.204646668319394e-05   -1.0113209693494302e-05   -0.0002853990567523654
8.204646668319394e-05   -1.0113209693494302e-05   -0.0002853990567523654
8.204646668319394e-05   -1.0113209693494302e-05   -0.0002853990567523654
2.7137289319731253e-05   -5.646643981515459e-06   -0.00019656370057377723
2.7137289319731253e-05   -5.646643981515459e-06   -0.00019656370057377723
2.7137289319731253e-05   -5.646643981515459e-06   -0.00019656370057377723
2.7137289319731253e-05   -5.646643981515459e-06   -0.00019656370057377723
8.204646668319437e-05   2.17076729137379e-06   -0.00011416574378869844
8.204646668319437e-05   2.17076729137379e-06   -0.00011416574378869844
8.204646668319437e-05   2.17076729137379e-06   -0.00011416574378869844
8.204646668319437e-05   2.17076729137379e-06   -0.00011416574378869844
-2.0693521095006785e-05   -1.0113209693494302e-05   -0.00029276944294328797
-2.0693521095006785e-05   -1.0113209693494302e-05   -0.00029276944294328797
-2.0693521095006785e-05   -1.0113209693494302e-05   -0.00029276944294328797
-2.0693521095006785e-05   -1.0113209693494302e-05   -0.00029276944294328797
-1.6393630971855457e-05   8.719089968425853e-06   -0.0001256345867696653
-1.6393630971855457e-05   8.719089968425853e-06   -0.0001256345867696653
-1.6393630971855457e-05   8.719089968425853e-06   -0.0001256345867696653
-1.6393630971855457e-05   8.719089968425853e-06   -0.0001256345867696653
8.676093107394122e-05   -4.201395355991552e-06   -0.000289806565651344
8.676093107394122e-05   -4.201395355991552e-06   -0.000289806565651344
8.676093107394122e-05   -4.201395355991552e-06   -0.000289806565651344
8.676093107394122e-05   -4.201395355991552e-06   -0.000289806565651344
3.187316775166404e-05   -1.4645235653434896e-06   -0.0001999690831886087
3.187316775166404e-05   -1.4645235653434896e-06   -0.0001999690831886087
3.187316775166404e-05   -1.4645235653434896e-06   -0.0001999690831886087
3.187316775166404e-05   -1.4645235653434896e-06   -0.0001999690831886087
-3.0056710248500514e-05   6.5911581762622545e-06   -0.00015093558197230156
-3.0056710248500514e-05   6.5911581762622545e-06   -0.00015093558197230156
-3.0056710248500514e-05   6.5911581762622545e-06   -0.00015093558197230156
-3.0056710248500514e-05   6.5911581762622545e-06   -0.00015093558197230156
-0.00012955569678935674   3.2103737121463166e-06   -0.00031879569688553124
-0.00012955569678935674   3.2103737121463166e-06   -0.00031879569688553124
-0.00012955569678935674   3.2103737121463166e-06   -0.00031879569688553124
-0.00012955569678935674   3.2103737121463166e-06   -0.00031879569688553124
-0.00012439892756196762   1.2250683883547123e-05   -0.0001499342627679515
-0.00012439892756196762   1.2250683883547123e-05   -0.0001499342627679515
-0.00012439892756196762   1.2250683883547123e-05   -0.0001499342627679515
-0.00012439892756196762   1.2250683883547123e-05   -0.0001499342627679515
-2.5267052096489056e-05   7.52267460558953e-06   -0.00031231724964364224
-2.5267052096489056e-05   7.52267460558953e-06   -0.00031231724964364224
-2.5267052096489056e-05   7.52267460558953e-06   -0.00031231724964364224
-2.5267052096489056e-05   7.52267460558953e-06   -0.00031231724964364224
-7.678652481490268e-05   9.029536782608621e-06   -0.00022735557908583033
-7.678652481490268e-05   9.029536782608621e-06   -0.00022735557908583033
-7.678652481490268e-05   9.029536782608621e-06   -0.00022735557908583033
-7.678652481490268e-05   9.029536782608621e-06   -0.00022735557908583033
-2.5267052096489056e-05   1.2250683883547123e-05   -0.0001470974572011785
-2.5267052096489056e-05   1.2250683883547123e-05   -0.0001470974572011785
-2.5267052096489056e-05   1.2250683883547123e-05   -0.0001470974572011785
-2.5267052096489056e-05   1.2250683883547123e-05   -0.0001470974572011785
-0.00012439892756196762   7.52267460558953e-06   -0.00031515405521041675
-0.00012439892756196762   7.52267460558953e-06   -0.00031515405521041675
-0.00012439892756196762   7.52267460558953e-06   -0.00031515405521041675
-0.00012439892756196762   7.52267460558953e-06   -0.00031515405521041675
-0.00011942758394196983   1.824695435438846e-05   -0.00014970759268366583
-0.00011942758394196983   1.824695435438846e-05   -0.00014970759268366583
-0.00011942758394196983   1.824695435438846e-05   -0.00014970759268366583
-0.00011942758394196983   1.824695435438846e-05   -0.00014970759268366583
-2.0693521095006785e-05   1.2526537848259536e-05   -0.000310832114191595
-2.0693521095006785e-05   1.2526537848259536e-05   -0.000310832114191595
-2.0693521095006785e-05   1.2526537848259536e-05   -0.000310832114191595
-2.0693521095006785e-05   1.2526537848259536e-05   -0.000310832114191595
-7.23441560326185e-05   1.3064922920750371e-05   -0.00022507075367240396
-7.23441560326185e-05   1.3064922920750371e-05   -0.00022507075367240396
-7.23441560326185e-05   1.3064922920750371e-05   -0.00022507075367240396
-7.23441560326185e-05   1.3064922920750371e-05   -0.00022507075367240396
-2.0693521095006785e-05   1.8246954354386724e-05   -0.00014627534277999055
-2.0693521095006785e-05   1.8246954354386724e-05   -0.00014627534277999055
-2.0693521095006785e-05   1.8246954354386724e-05   -0.00014627534277999055
-2.0693521095006785e-05   1.8246954354386724e-05   -0.00014627534277999055
-0.00011942758394196983   1.2526537848259536e-05   -0.000314264364095272
-0.00011942758394196983   1.2526537848259536e-05   -0.000314264364095272
-0.00011942758394196983   1.2526537848259536e-05   -0.000314264364095272
-0.00011942758394196983   1.2526537848259536e-05   -0.000314264364095272
-0.00011483337405880013   2.4346375009896143e-05   -0.00015320898178977724
-0.00011483337405880013   2.4346375009896143e-05   -0.00015320898178977724
-0.00011483337405880013   2.4346375009896143e-05   -0.00015320898178977724
-0.00011483337405880013   2.4346375009896143e-05   -0.00015320898178977724
-1.6393630971855565e-05   1.769978326802979e-05   -0.00031328726522290027
-1.6393630971855565e-05   1.769978326802979e-05   -0.00031328726522290027
-1.6393630971855565e-05   1.769978326802979e-05   -0.00031328726522290027
-1.6393630971855565e-05   1.769978326802979e-05   -0.00031328726522290027
-6.837086583329511e-05   1.7205905108400726e-05   -0.00022636221355806004
-6.837086583329511e-05   1.7205905108400726e-05   -0.00022636221355806004
-6.837086583329511e-05   1.7205905108400726e-05   -0.00022636221355806004
-6.837086583329511e-05   1.7205905108400726e-05   -0.00022636221355806004
-0.00012955569678935698   2.1430705028789923e-05   -0.00012253660862085805
-0.00012955569678935698   2.1430705028789923e-05   -0.00012253660862085805
-0.00012955569678935698   2.1430705028789923e-05   -0.00012253660862085805
-0.00012955569678935698   2.1430705028789923e-05   -0.00012253660862085805
-0.00022710458762021908   2.5861973258357873e-05   -0.00028245933240122253
-0.00022710458762021908   2.5861973258357873e-05   -0.00028245933240122253
-0.00022710458762021908   2.5861973258357873e-05   -0.00028245933240122253
-0.00022710458762021908   2.5861973258357873e-05   -0.00028245933240122253
-0.00022089581854662223   2.7470929442018066e-05   -0.00011524540193064581
-0.00022089581854662223   2.7470929442018066e-05   -0.00011524540193064581
-0.00022089581854662223   2.7470929442018066e-05   -0.00011524540193064581
-0.00022089581854662223   2.7470929442018066e-05   -0.00011524540193064581
-0.00012439892756196784   3.135081289061016e-05   -0.00027840148364089345
-0.00012439892756196784   3.135081289061016e-05   -0.00027840148364089345
-0.00012439892756196784   3.135081289061016e-05   -0.00027840148364089345
-0.00012439892756196784   3.135081289061016e-05   -0.00027840148364089345
-0.0001742044175561873   2.7689766944461944e-05   -0.00019319570608283864
-0.0001742044175561873   2.7689766944461944e-05   -0.00019319570608283864
-0.0001742044175561873   2.7689766944461944e-05   -0.00019319570608283864
-0.0001742044175561873   2.7689766944461944e-05   -0.00019319570608283864
-0.00012439892756196784   2.747092944201633e-05   -0.00011757333199980194
-0.00012439892756196784   2.747092944201633e-05   -0.00011757333199980194
-0.00012439892756196784   2.747092944201633e-05   -0.00011757333199980194
-0.00012439892756196784   2.747092944201633e-05   -0.00011757333199980194
-0.00022089581854662258   3.135081289061016e-05   -0.000276073553571737
-0.00022089581854662258   3.135081289061016e-05   -0.000276073553571737
-0.00022089581854662258   3.135081289061016e-05   -0.000276073553571737
-0.00022089581854662258   3.135081289061016e-05   -0.000276073553571737
-0.00021404041638634996   3.291687785054315e-05   -0.00011119252739360489
-0.00021404041638634996   3.291687785054315e-05   -0.00011119252739360489
-0.00021404041638634996   3.291687785054315e-05   -0.00011119252739360489
-0.00021404041638634996   3.291687785054315e-05   -0.00011119252739360489
-0.00011942758394197005   3.607972258649027e-05   -0.00027077828830913986
-0.00011942758394197005   3.607972258649027e-05   -0.00027077828830913986
-0.00011942758394197005   3.607972258649027e-05   -0.00027077828830913986
-0.00011942758394197005   3.607972258649027e-05   -0.00027077828830913986
-0.00016793958168344526   3.195543445501728e-05   -0.00018745038586113127
-0.00016793958168344526   3.195543445501728e-05   -0.00018745038586113127
-0.00016793958168344526   3.195543445501728e-05   -0.00018745038586113127
-0.00016793958168344526   3.195543445501728e-05   -0.00018745038586113127
-0.00011942758394196997   3.291687785054315e-05   -0.00011309023423517264
-0.00011942758394196997   3.291687785054315e-05   -0.00011309023423517264
-0.00011942758394196997   3.291687785054315e-05   -0.00011309023423517264
-0.00011942758394196997   3.291687785054315e-05   -0.00011309023423517264
-0.00021404041638634996   3.607972258649027e-05   -0.00026888058146757286
-0.00021404041638634996   3.607972258649027e-05   -0.00026888058146757286
-0.00021404041638634996   3.607972258649027e-05   -0.00026888058146757286
-0.00021404041638634996   3.607972258649027e-05   -0.00026888058146757286
-0.00020824369892478832   3.90213450063015e-05   -0.0001137556200488431
-0.00020824369892478832   3.90213450063015e-05   -0.0001137556200488431
-0.00020824369892478832   3.90213450063015e-05   -0.0001137556200488431
-0.00020824369892478832   3.90213450063015e-05   -0.0001137556200488431
-0.00011483337405880038   4.1321259546454187e-05   -0.00027081944354958145
-0.00011483337405880038   4.1321259546454187e-05   -0.00027081944354958145
-0.00011483337405880038   4.1321259546454187e-05   -0.00027081944354958145
-0.00011483337405880038   4.1321259546454187e-05   -0.00027081944354958145
-0.00016400624331926566   3.5888517377820686e-05   -0.00018560501614762548
-0.00016400624331926566   3.5888517377820686e-05   -0.00018560501614762548
-0.00016400624331926566   3.5888517377820686e-05   -0.00018560501614762548
-0.00016400624331926566   3.5888517377820686e-05   -0.00018560501614762548
-0.00022710458762021908   3.682852235222661e-05   -6.149573897785716e-05
-0.00022710458762021908   3.682852235222661e-05   -6.149573897785716e-05
-0.00022710458762021908   3.682852235222661e-05   -6.149573897785716e-05
-0.00022710458762021908   3.682852235222661e-05   -6.149573897785716e-05
-0.0003297081361904378   5.097887568978818e-05   -0.00022401144125901943
-0.0003297081361904378   5.097887568978818e-05   -0.00022401144125901943
-0.0003297081361904378   5.097887568978818e-05   -0.00022401144125901943
-0.0003297081361904378   5.097887568978818e-05   -0.00022401144125901943
-0.0003155512751364686   4.3090368034907206e-05   -2.009821897985039e-05
-0.0003155512751364686   4.3090368034907206e-05   -2.009821897985039e-05
-0.0003155512751364686   4.3090368034907206e-05   -2.009821897985039e-05
-0.0003155512751364686   4.3090368034907206e-05   -2.009821897985039e-05
-0.00022089581854662223   5.826988626180321e-05   -0.00018696502423239746
-0.00022089581854662223   5.826988626180321e-05   -0.00018696502423239746
-0.00022089581854662223   5.826988626180321e-05   -0.00018696502423239746
-0.00022089581854662223   5.826988626180321e-05   -0.00018696502423239746
-0.0002620093822737218   4.857251990129062e-05   -0.0001126239982042576
-0.0002620093822737218   4.857251990129062e-05   -0.0001126239982042576
-0.0002620093822737218   4.857251990129062e-05   -0.0001126239982042576
-0.0002620093822737218   4.857251990129062e-05   -0.0001126239982042576
-0.0002208958185466224   4.3090368034907206e-05   -2.920592991598539e-05
-0.0002208958185466224   4.3090368034907206e-05   -2.920592991598539e-05
-0.0002208958185466224   4.3090368034907206e-05   -2.920592991598539e-05
-0.0002208958185466224   4.3090368034907206e-05   -2.920592991598539e-05
-0.00031555127513646793   5.8269886261801476e-05   -0.00017785731329626048
-0.00031555127513646793   5.8269886261801476e-05   -0.00017785731329626048
-0.00031555127513646793   5.8269886261801476e-05   -0.00017785731329626048
-0.00031555127513646793   5.8269886261801476e-05   -0.00017785731329626048
-0.0003038996311870097   4.53310374059733e-05   -2.8635915619778726e-06
-0.0003038996311870097   4.53310374059733e-05   -2.8635915619778726e-06
-0.0003038996311870097   4.53310374059733e-05   -2.8635915619778726e-06
-0.0003038996311870097   4.53310374059733e-05   -2.8635915619778726e-06
-0.00021404041638634996   6.0181907180935704e-05   -0.00016153947142805419
-0.00021404041638634996   6.0181907180935704e-05   -0.00016153947142805419
-0.00021404041638634996   6.0181907180935704e-05   -0.00016153947142805419
-0.00021404041638634996   6.0181907180935704e-05   -0.00016153947142805419
-0.00025710395199050553   5.145772669236208e-05   -8.453240379464834e-05
-0.00025710395199050553   5.145772669236208e-05   -8.453240379464834e-05
-0.00025710395199050553   5.145772669236208e-05   -8.453240379464834e-05
-0.00025710395199050553   5.145772669236208e-05   -8.453240379464834e-05
-0.00021404041638634996   4.53310374059733e-05   -1.1774113426954447e-05
-0.00021404041638634996   4.53310374059733e-05   -1.1774113426954447e-05
-0.00021404041638634996   4.53310374059733e-05   -1.1774113426954447e-05
-0.00021404041638634996   4.53310374059733e-05   -1.1774113426954447e-05
-0.00030389963118700864   6.018190718093397e-05   -0.00015262894956307848
-0.00030389963118700864   6.018190718093397e-05   -0.00015262894956307848
-0.00030389963118700864   6.018190718093397e-05   -0.00015262894956307848
-0.00030389963118700864   6.018190718093397e-05   -0.00015262894956307848
-0.00029135567246923305   4.81993880495548e-05   1.896302106703992e-05
-0.00029135567246923305   4.81993880495548e-05   1.896302106703992e-05
-0.00029135567246923305   4.81993880495548e-05   1.896302106703992e-05
-0.00029135567246923305   4.81993880495548e-05   1.896302106703992e-05
-0.00020824369892478832   6.185973784491629e-05   -0.00012775314471758523
-0.00020824369892478832   6.185973784491629e-05   -0.00012775314471758523
-0.00020824369892478832   6.185973784491629e-05   -0.00012775314471758523
-0.00020824369892478832   6.185973784491629e-05   -0.00012775314471758523
-0.00024533744113207324   5.193337120687133e-05   -5.997442105595222e-05
-0.00024533744113207324   5.193337120687133e-05   -5.997442105595222e-05
-0.00024533744113207324   5.193337120687133e-05   -5.997442105595222e-05
-0.00024533744113207324   5.193337120687133e-05   -5.997442105595222e-05
0.0002839478267875478   -3.9649047132422205e-05   5.5353215331488924e-05
0.0002839478267875478   -3.9649047132422205e-05   5.5353215331488924e-05
0.0002839478267875478   -3.9649047132422205e-05   5.5353215331488924e-05
0.0002839478267875478   -3.9649047132422205e-05   5.5353215331488924e-05
0.0001370494692511982   -5.885110312276072e-05   -0.0002009986141566283
0.0001370494692511982   -5.885110312276072e-05   -0.0002009986141566283
0.0001370494692511982   -5.885110312276072e-05   -0.0002009986141566283
0.0001370494692511982   -5.885110312276072e-05   -0.0002009986141566283
0.0001427474077858146   -3.6859436840709636e-05   2.6198101406478547e-05
0.0001427474077858146   -3.6859436840709636e-05   2.6198101406478547e-05
0.0001427474077858146   -3.6859436840709636e-05   2.6198101406478547e-05
0.0001427474077858146   -3.6859436840709636e-05   2.6198101406478547e-05
0.0002970923005495166   -5.745992147887513e-05   -0.00021868309575012778
0.0002970923005495166   -5.745992147887513e-05   -0.00021868309575012778
0.0002970923005495166   -5.745992147887513e-05   -0.00021868309575012778
0.0002970923005495166   -5.745992147887513e-05   -0.00021868309575012778
0.0002064695677040201   -4.344447697224134e-05   -7.605447437828046e-05
0.0002064695677040201   -4.344447697224134e-05   -7.605447437828046e-05
0.0002064695677040201   -4.344447697224134e-05   -7.605447437828046e-05
0.0002064695677040201   -4.344447697224134e-05   -7.605447437828046e-05
0.000297092300549517   -3.6859436840709636e-05   3.855839218937663e-05
0.000297092300549517   -3.6859436840709636e-05   3.855839218937663e-05
0.000297092300549517   -3.6859436840709636e-05   3.855839218937663e-05
0.000297092300549517   -3.6859436840709636e-05   3.855839218937663e-05
0.00014274740778581416   -5.745992147887513e-05   -0.0002310433865330263
0.00014274740778581416   -5.745992147887513e-05   -0.0002310433865330263
0.00014274740778581416   -5.745992147887513e-05   -0.0002310433865330263
0.00014274740778581416   -5.745992147887513e-05   -0.0002310433865330263
0.00014841334745928857   -3.448017129304912e-05   1.197357837526454e-05
0.00014841334745928857   -3.448017129304912e-05   1.197357837526454e-05
0.00014841334745928857   -3.448017129304912e-05   1.197357837526454e-05
0.00014841334745928857   -3.448017129304912e-05   1.197357837526454e-05
0.0003071945194393995   -5.5470732448048565e-05   -0.00024006737156525388
0.0003071945194393995   -5.5470732448048565e-05   -0.00024006737156525388
0.0003071945194393995   -5.5470732448048565e-05   -0.00024006737156525388
0.0003071945194393995   -5.5470732448048565e-05   -0.00024006737156525388
0.0002175259206593993   -4.330463962029692e-05   -9.791936262857097e-05
0.0002175259206593993   -4.330463962029692e-05   -9.791936262857097e-05
0.0002175259206593993   -4.330463962029692e-05   -9.791936262857097e-05
0.0002175259206593993   -4.330463962029692e-05   -9.791936262857097e-05
0.0003071945194393995   -3.448017129304912e-05   2.456791506826473e-05
0.0003071945194393995   -3.448017129304912e-05   2.456791506826473e-05
0.0003071945194393995   -3.448017129304912e-05   2.456791506826473e-05
0.0003071945194393995   -3.448017129304912e-05   2.456791506826473e-05
0.00014841334745928857   -5.5470732448048565e-05   -0.00025266170825825277
0.00014841334745928857   -5.5470732448048565e-05   -0.00025266170825825277
0.00014841334745928857   -5.5470732448048565e-05   -0.00025266170825825277
0.00014841334745928857   -5.5470732448048565e-05   -0.00025266170825825277
0.00015227607433795573   -2.693555505885875e-05   -1.6744355433442187e-05
0.00015227607433795573   -2.693555505885875e-05   -1.6744355433442187e-05
0.00015227607433795573   -2.693555505885875e-05   -1.6744355433442187e-05
0.00015227607433795573   -2.693555505885875e-05   -1.6744355433442187e-05
0.0003178722144566756   -4.769143627794334e-05   -0.0002802843935665227
0.0003178722144566756   -4.769143627794334e-05   -0.0002802843935665227
0.0003178722144566756   -4.769143627794334e-05   -0.0002802843935665227
0.0003178722144566756   -4.769143627794334e-05   -0.0002802843935665227
0.00022068212037595924   -3.9987042725384e-05   -0.00012292353956353409
0.00022068212037595924   -3.9987042725384e-05   -0.00012292353956353409
0.00022068212037595924   -3.9987042725384e-05   -0.00012292353956353409
0.00022068212037595924   -3.9987042725384e-05   -0.00012292353956353409
0.00013704946925119843   -1.8662318145691234e-05   -7.05150649526207e-05
0.00013704946925119843   -1.8662318145691234e-05   -7.05150649526207e-05
0.00013704946925119843   -1.8662318145691234e-05   -7.05150649526207e-05
0.00013704946925119843   -1.8662318145691234e-05   -7.05150649526207e-05
-7.912096005183839e-06   -3.836953569928518e-05   -0.00032394200424541546
-7.912096005183839e-06   -3.836953569928518e-05   -0.00032394200424541546
-7.912096005183839e-06   -3.836953569928518e-05   -0.00032394200424541546
-7.912096005183839e-06   -3.836953569928518e-05   -0.00032394200424541546
-2.0548455546153975e-06   -1.4816679364105731e-05   -7.770183652493559e-05
-2.0548455546153975e-06   -1.4816679364105731e-05   -7.770183652493559e-05
-2.0548455546153975e-06   -1.4816679364105731e-05   -7.770183652493559e-05
-2.0548455546153975e-06   -1.4816679364105731e-05   -7.770183652493559e-05
0.0001427474077858146   -3.6564895084613414e-05   -0.0003059899959933464
0.0001427474077858146   -3.6564895084613414e-05   -0.0003059899959933464
0.0001427474077858146   -3.6564895084613414e-05   -0.0003059899959933464
0.0001427474077858146   -3.6564895084613414e-05   -0.0003059899959933464
6.76680737228708e-05   -2.3202813605658484e-05   -0.00018887502144248128
6.76680737228708e-05   -2.3202813605658484e-05   -0.00018887502144248128
6.76680737228708e-05   -2.3202813605658484e-05   -0.00018887502144248128
6.76680737228708e-05   -2.3202813605658484e-05   -0.00018887502144248128
0.00014274740778581437   -1.4816679364105731e-05   -6.465290709262942e-05
0.00014274740778581437   -1.4816679364105731e-05   -6.465290709262942e-05
0.00014274740778581437   -1.4816679364105731e-05   -6.465290709262942e-05
0.00014274740778581437   -1.4816679364105731e-05   -6.465290709262942e-05
-2.0548455546153975e-06   -3.6564895084613414e-05   -0.00031903892542565256
-2.0548455546153975e-06   -3.6564895084613414e-05   -0.00031903892542565256
-2.0548455546153975e-06   -3.6564895084613414e-05   -0.00031903892542565256
-2.0548455546153975e-06   -3.6564895084613414e-05   -0.00031903892542565256
3.107941285550829e-06   -1.0113209693494302e-05   -7.947004016520959e-05
3.107941285550829e-06   -1.0113209693494302e-05   -7.947004016520959e-05
3.107941285550829e-06   -1.0113209693494302e-05   -7.947004016520959e-05
3.107941285550829e-06   -1.0113209693494302e-05   -7.947004016520959e-05
0.00014841334745928857   -3.318136738122805e-05   -0.0003078048225087992
0.00014841334745928857   -3.318136738122805e-05   -0.0003078048225087992
0.00014841334745928857   -3.318136738122805e-05   -0.0003078048225087992
0.00014841334745928857   -3.318136738122805e-05   -0.0003078048225087992
7.16752565620613e-05   -2.133361660699995e-05   -0.0001870166548112854
7.16752565620613e-05   -2.133361660699995e-05   -0.0001870166548112854
7.16752565620613e-05   -2.133361660699995e-05   -0.0001870166548112854
7.16752565620613e-05   -2.133361660699995e-05   -0.0001870166548112854
0.00014841334745928857   -1.0113209693494302e-05   -6.562914555256847e-05
0.00014841334745928857   -1.0113209693494302e-05   -6.562914555256847e-05
0.00014841334745928857   -1.0113209693494302e-05   -6.562914555256847e-05
0.00014841334745928857   -1.0113209693494302e-05   -6.562914555256847e-05
3.107941285550829e-06   -3.318136738122805e-05   -0.00032164571712143923
3.107941285550829e-06   -3.318136738122805e-05   -0.00032164571712143923
3.107941285550829e-06   -3.318136738122805e-05   -0.00032164571712143923
3.107941285550829e-06   -3.318136738122805e-05   -0.00032164571712143923
6.791189051354781e-06   -4.201395355993287e-06   -8.253897270784141e-05
6.791189051354781e-06   -4.201395355993287e-06   -8.253897270784141e-05
6.791189051354781e-06   -4.201395355993287e-06   -8.253897270784141e-05
6.791189051354781e-06   -4.201395355993287e-06   -8.253897270784141e-05
0.00015227607433795616   -2.8369213572023225e-05   -0.00031051309058922655
0.00015227607433795616   -2.8369213572023225e-05   -0.00031051309058922655
0.00015227607433795616   -2.8369213572023225e-05   -0.00031051309058922655
0.00015227607433795616   -2.8369213572023225e-05   -0.00031051309058922655
7.64417310175185e-05   -1.802511060468824e-05   -0.0001903289801689005
7.64417310175185e-05   -1.802511060468824e-05   -0.0001903289801689005
7.64417310175185e-05   -1.802511060468824e-05   -0.0001903289801689005
7.64417310175185e-05   -1.802511060468824e-05   -0.0001903289801689005
-7.912096005183839e-06   3.2103737121463166e-06   -0.00010676398014285594
-7.912096005183839e-06   3.2103737121463166e-06   -0.00010676398014285594
-7.912096005183839e-06   3.2103737121463166e-06   -0.00010676398014285594
-7.912096005183839e-06   3.2103737121463166e-06   -0.00010676398014285594
-0.0001507311240382099   -2.050788592570206e-05   -0.00035902664931394303
-0.0001507311240382099   -2.050788592570206e-05   -0.00035902664931394303
-0.0001507311240382099   -2.050788592570206e-05   -0.00035902664931394303
-0.0001507311240382099   -2.050788592570206e-05   -0.00035902664931394303
-0.00014370663961046307   7.522674605591265e-06   -0.00011616140930940239
-0.00014370663961046307   7.522674605591265e-06   -0.00011616140930940239
-0.00014370663961046307   7.522674605591265e-06   -0.00011616140930940239
-0.00014370663961046307   7.522674605591265e-06   -0.00011616140930940239
-2.0548455546153975e-06   -1.8391682013063626e-05   -0.00033669911876462377
-2.0548455546153975e-06   -1.8391682013063626e-05   -0.00033669911876462377
-2.0548455546153975e-06   -1.8391682013063626e-05   -0.00033669911876462377
-2.0548455546153975e-06   -1.8391682013063626e-05   -0.00033669911876462377
-7.51845181798031e-05   -4.2003602244208155e-06   -0.00022333112412916247
-7.51845181798031e-05   -4.2003602244208155e-06   -0.00022333112412916247
-7.51845181798031e-05   -4.2003602244208155e-06   -0.00022333112412916247
-7.51845181798031e-05   -4.2003602244208155e-06   -0.00022333112412916247
-2.0548455546153975e-06   7.522674605591265e-06   -0.00010061279533821101
-2.0548455546153975e-06   7.522674605591265e-06   -0.00010061279533821101
-2.0548455546153975e-06   7.522674605591265e-06   -0.00010061279533821101
-2.0548455546153975e-06   7.522674605591265e-06   -0.00010061279533821101
-0.00014370663961046307   -1.8391682013063626e-05   -0.00035224773273581644
-0.00014370663961046307   -1.8391682013063626e-05   -0.00035224773273581644
-0.00014370663961046307   -1.8391682013063626e-05   -0.00035224773273581644
-0.00014370663961046307   -1.8391682013063626e-05   -0.00035224773273581644
-0.00013726165652109764   1.2526537848259536e-05   -0.0001140865247944347
-0.00013726165652109764   1.2526537848259536e-05   -0.0001140865247944347
-0.00013726165652109764   1.2526537848259536e-05   -0.0001140865247944347
-0.00013726165652109764   1.2526537848259536e-05   -0.0001140865247944347
3.107941285550829e-06   -1.5063151119936932e-05   -0.00033148204109126355
3.107941285550829e-06   -1.5063151119936932e-05   -0.00033148204109126355
3.107941285550829e-06   -1.5063151119936932e-05   -0.00033148204109126355
3.107941285550829e-06   -1.5063151119936932e-05   -0.00033148204109126355
-6.945618274198782e-05   -1.764802475120661e-06   -0.00021852084356559004
-6.945618274198782e-05   -1.764802475120661e-06   -0.00021852084356559004
-6.945618274198782e-05   -1.764802475120661e-06   -0.00021852084356559004
-6.945618274198782e-05   -1.764802475120661e-06   -0.00021852084356559004
3.107941285550829e-06   1.2526537848259536e-05   -9.753271141351577e-05
3.107941285550829e-06   1.2526537848259536e-05   -9.753271141351577e-05
3.107941285550829e-06   1.2526537848259536e-05   -9.753271141351577e-05
3.107941285550829e-06   1.2526537848259536e-05   -9.753271141351577e-05
-0.00013726165652109786   -1.5063151119936932e-05   -0.000348035854472184
-0.00013726165652109786   -1.5063151119936932e-05   -0.000348035854472184
-0.00013726165652109786   -1.5063151119936932e-05   -0.000348035854472184
-0.00013726165652109786   -1.5063151119936932e-05   -0.000348035854472184
-0.00013291320863720893   1.769978326802979e-05   -0.00011603418171769568
-0.00013291320863720893   1.769978326802979e-05   -0.00011603418171769568
-0.00013291320863720893   1.769978326802979e-05   -0.00011603418171769568
-0.00013291320863720893   1.769978326802979e-05   -0.00011603418171769568
6.791189051354781e-06   -1.1911551120215302e-05   -0.0003311080438990208
6.791189051354781e-06   -1.1911551120215302e-05   -0.0003311080438990208
6.791189051354781e-06   -1.1911551120215302e-05   -0.0003311080438990208
6.791189051354781e-06   -1.1911551120215302e-05   -0.0003311080438990208
-6.536289205221152e-05   9.737641279410764e-07   -0.000218582431208641
-6.536289205221152e-05   9.737641279410764e-07   -0.000218582431208641
-6.536289205221152e-05   9.737641279410764e-07   -0.000218582431208641
-6.536289205221152e-05   9.737641279410764e-07   -0.000218582431208641
-0.0001507311240382097   2.5861973258357873e-05   -8.73173323789958e-05
-0.0001507311240382097   2.5861973258357873e-05   -8.73173323789958e-05
-0.0001507311240382097   2.5861973258357873e-05   -8.73173323789958e-05
-0.0001507311240382097   2.5861973258357873e-05   -8.73173323789958e-05
-0.0002954938313842982   4.432740043183378e-06   -0.00034144605121824625
-0.0002954938313842982   4.432740043183378e-06   -0.00034144605121824625
-0.0002954938313842982   4.432740043183378e-06   -0.00034144605121824625
-0.0002954938313842982   4.432740043183378e-06   -0.00034144605121824625
-0.00028549751003777244   3.135081289061016e-05   -9.318300342558462e-05
-0.00028549751003777244   3.135081289061016e-05   -9.318300342558462e-05
-0.00028549751003777244   3.135081289061016e-05   -9.318300342558462e-05
-0.00028549751003777244   3.135081289061016e-05   -9.318300342558462e-05
-0.0001437066396104628   8.393870081099819e-06   -0.00031572695511872966
-0.0001437066396104628   8.393870081099819e-06   -0.00031572695511872966
-0.0001437066396104628   8.393870081099819e-06   -0.00031572695511872966
-0.0001437066396104628   8.393870081099819e-06   -0.00031572695511872966
-0.00021656697700308487   1.942016710536343e-05   -0.00020090883767891676
-0.00021656697700308487   1.942016710536343e-05   -0.00020090883767891676
-0.00021656697700308487   1.942016710536343e-05   -0.00020090883767891676
-0.00021656697700308487   1.942016710536343e-05   -0.00020090883767891676
-0.0001437066396104628   3.135081289061016e-05   -7.94088377398805e-05
-0.0001437066396104628   3.135081289061016e-05   -7.94088377398805e-05
-0.0001437066396104628   3.135081289061016e-05   -7.94088377398805e-05
-0.0001437066396104628   3.135081289061016e-05   -7.94088377398805e-05
-0.000285497510037773   8.393870081101554e-06   -0.00032950112080443617
-0.000285497510037773   8.393870081101554e-06   -0.00032950112080443617
-0.000285497510037773   8.393870081101554e-06   -0.00032950112080443617
-0.000285497510037773   8.393870081101554e-06   -0.00032950112080443617
-0.00027585023559046436   3.607972258649027e-05   -8.502106390231856e-05
-0.00027585023559046436   3.607972258649027e-05   -8.502106390231856e-05
-0.00027585023559046436   3.607972258649027e-05   -8.502106390231856e-05
-0.00027585023559046436   3.607972258649027e-05   -8.502106390231856e-05
-0.00013726165652109786   1.2045364429799296e-05   -0.00030158141412391624
-0.00013726165652109786   1.2045364429799296e-05   -0.00030158141412391624
-0.00013726165652109786   1.2045364429799296e-05   -0.00030158141412391624
-0.00013726165652109786   1.2045364429799296e-05   -0.00030158141412391624
-0.00020755631803961254   2.2865858267485245e-05   -0.000190915941229003
-0.00020755631803961254   2.2865858267485245e-05   -0.000190915941229003
-0.00020755631803961254   2.2865858267485245e-05   -0.000190915941229003
-0.00020755631803961254   2.2865858267485245e-05   -0.000190915941229003
-0.00013726165652109748   3.607972258649027e-05   -7.060044900830328e-05
-0.00013726165652109748   3.607972258649027e-05   -7.060044900830328e-05
-0.00013726165652109748   3.607972258649027e-05   -7.060044900830328e-05
-0.00013726165652109748   3.607972258649027e-05   -7.060044900830328e-05
-0.0002758502355904648   1.2045364429797562e-05   -0.0003160020290179314
-0.0002758502355904648   1.2045364429797562e-05   -0.0003160020290179314
-0.0002758502355904648   1.2045364429797562e-05   -0.0003160020290179314
-0.0002758502355904648   1.2045364429797562e-05   -0.0003160020290179314
-0.00026850868157708165   4.1321259546454187e-05   -8.528421553694564e-05
-0.00026850868157708165   4.1321259546454187e-05   -8.528421553694564e-05
-0.00026850868157708165   4.1321259546454187e-05   -8.528421553694564e-05
-0.00026850868157708165   4.1321259546454187e-05   -8.528421553694564e-05
-0.00013291320863720915   1.5144908650307695e-05   -0.00029557085989904703
-0.00013291320863720915   1.5144908650307695e-05   -0.00029557085989904703
-0.00013291320863720915   1.5144908650307695e-05   -0.00029557085989904703
-0.00013291320863720915   1.5144908650307695e-05   -0.00029557085989904703
-0.00020245451714578003   2.5267763672294496e-05   -0.00018574239206461864
-0.00020245451714578003   2.5267763672294496e-05   -0.00018574239206461864
-0.00020245451714578003   2.5267763672294496e-05   -0.00018574239206461864
-0.00020245451714578003   2.5267763672294496e-05   -0.00018574239206461864
-0.0002954938313842982   5.097887568978991e-05   -5.021719316843521e-05
-0.0002954938313842982   5.097887568978991e-05   -5.021719316843521e-05
-0.0002954938313842982   5.097887568978991e-05   -5.021719316843521e-05
-0.0002954938313842982   5.097887568978991e-05   -5.021719316843521e-05
-0.0004466013239323626   4.797823599076052e-05   -0.00030386339790129495
-0.0004466013239323626   4.797823599076052e-05   -0.00030386339790129495
-0.0004466013239323626   4.797823599076052e-05   -0.00030386339790129495
-0.0004466013239323626   4.797823599076052e-05   -0.00030386339790129495
-0.00042700963113752186   5.8269886261801476e-05   -2.4716770172898694e-06
-0.00042700963113752186   5.8269886261801476e-05   -2.4716770172898694e-06
-0.00042700963113752186   5.8269886261801476e-05   -2.4716770172898694e-06
-0.00042700963113752186   5.8269886261801476e-05   -2.4716770172898694e-06
-0.00028549751003777195   6.094121471006235e-05   -0.00023992800925249556
-0.00028549751003777195   6.094121471006235e-05   -0.00023992800925249556
-0.00028549751003777195   6.094121471006235e-05   -0.00023992800925249556
-0.00028549751003777195   6.094121471006235e-05   -0.00023992800925249556
-0.0003479591361661016   5.7488435838391055e-05   -0.00013375363171561246
-0.0003479591361661016   5.7488435838391055e-05   -0.00013375363171561246
-0.0003479591361661016   5.7488435838391055e-05   -0.00013375363171561246
-0.0003479591361661016   5.7488435838391055e-05   -0.00013375363171561246
-0.0002854975100377727   5.826988626180321e-05   -4.074474086244832e-06
-0.0002854975100377727   5.826988626180321e-05   -4.074474086244832e-06
-0.0002854975100377727   5.826988626180321e-05   -4.074474086244832e-06
-0.0002854975100377727   5.826988626180321e-05   -4.074474086244832e-06
-0.00042700963113752186   6.094121471006235e-05   -0.00023832521218354087
-0.00042700963113752186   6.094121471006235e-05   -0.00023832521218354087
-0.00042700963113752186   6.094121471006235e-05   -0.00023832521218354087
-0.00042700963113752186   6.094121471006235e-05   -0.00023832521218354087
-0.00041074098896447616   6.0181907180935704e-05   2.4518056044960622e-05
-0.00041074098896447616   6.0181907180935704e-05   2.4518056044960622e-05
-0.00041074098896447616   6.0181907180935704e-05   2.4518056044960622e-05
-0.00041074098896447616   6.0181907180935704e-05   2.4518056044960622e-05
-0.00027585023559046436   6.384525702720495e-05   -0.0002024978761528212
-0.00027585023559046436   6.384525702720495e-05   -0.0002024978761528212
-0.00027585023559046436   6.384525702720495e-05   -0.0002024978761528212
-0.00027585023559046436   6.384525702720495e-05   -0.0002024978761528212
-0.00034042735573022015   6.168663357819688e-05   -9.357416851715284e-05
-0.00034042735573022015   6.168663357819688e-05   -9.357416851715284e-05
-0.00034042735573022015   6.168663357819688e-05   -9.357416851715284e-05
-0.00034042735573022015   6.168663357819688e-05   -9.357416851715284e-05
-0.0002758502355904648   6.0181907180935704e-05   2.2320046137197513e-05
-0.0002758502355904648   6.0181907180935704e-05   2.2320046137197513e-05
-0.0002758502355904648   6.0181907180935704e-05   2.2320046137197513e-05
-0.0002758502355904648   6.0181907180935704e-05   2.2320046137197513e-05
-0.00041074098896447546   6.384525702720321e-05   -0.00020029986624505933
-0.00041074098896447546   6.384525702720321e-05   -0.00020029986624505933
-0.00041074098896447546   6.384525702720321e-05   -0.00020029986624505933
-0.00041074098896447546   6.384525702720321e-05   -0.00020029986624505933
-0.0003937469320638514   6.185973784491629e-05   6.062264420767828e-05
-0.0003937469320638514   6.185973784491629e-05   6.062264420767828e-05
-0.0003937469320638514   6.185973784491629e-05   6.062264420767828e-05
-0.0003937469320638514   6.185973784491629e-05   6.062264420767828e-05
-0.00026850868157708165   6.889392057278163e-05   -0.0001523282829069924
-0.00026850868157708165   6.889392057278163e-05   -0.0001523282829069924
-0.00026850868157708165   6.889392057278163e-05   -0.0001523282829069924
-0.00026850868157708165   6.889392057278163e-05   -0.0001523282829069924
-0.00032406435990333244   6.312236556102642e-05   -5.627255268952436e-05
-0.00032406435990333244   6.312236556102642e-05   -5.627255268952436e-05
-0.00032406435990333244   6.312236556102642e-05   -5.627255268952436e-05
-0.00032406435990333244   6.312236556102642e-05   -5.627255268952436e-05
0.0003911297423570728   -5.885110312276072e-05   0.00013268941999728355
0.0003911297423570728   -5.885110312276072e-05   0.00013268941999728355
0.0003911297423570728   -5.885110312276072e-05   0.00013268941999728355
0.0003911297423570728   -5.885110312276072e-05   0.00013268941999728355
0.00019683229655993967   -7.453819451187782e-05   -0.00020055191116474195
0.00019683229655993967   -7.453819451187782e-05   -0.00020055191116474195
0.00019683229655993967   -7.453819451187782e-05   -0.00020055191116474195
0.00019683229655993967   -7.453819451187782e-05   -0.00020055191116474195
0.00020171702789091963   -5.745992147887513e-05   9.499575197205457e-05
0.00020171702789091963   -5.745992147887513e-05   9.499575197205457e-05
0.00020171702789091963   -5.745992147887513e-05   9.499575197205457e-05
0.00020171702789091963   -5.745992147887513e-05   9.499575197205457e-05
0.0004009741765588521   -7.640207580385597e-05   -0.0002257342032128439
0.0004009741765588521   -7.640207580385597e-05   -0.0002257342032128439
0.0004009741765588521   -7.640207580385597e-05   -0.0002257342032128439
0.0004009741765588521   -7.640207580385597e-05   -0.0002257342032128439
0.000285822067927659   -6.011879899868282e-05   -4.358398824395957e-05
0.000285822067927659   -6.011879899868282e-05   -4.358398824395957e-05
0.000285822067927659   -6.011879899868282e-05   -4.358398824395957e-05
0.000285822067927659   -6.011879899868282e-05   -4.358398824395957e-05
0.0004009741765588521   -5.745992147887513e-05   0.00010636104456704376
0.0004009741765588521   -5.745992147887513e-05   0.00010636104456704376
0.0004009741765588521   -5.745992147887513e-05   0.00010636104456704376
0.0004009741765588521   -5.745992147887513e-05   0.00010636104456704376
0.00020171702789091963   -7.640207580385597e-05   -0.00023709949580783332
0.00020171702789091963   -7.640207580385597e-05   -0.00023709949580783332
0.00020171702789091963   -7.640207580385597e-05   -0.00023709949580783332
0.00020171702789091963   -7.640207580385597e-05   -0.00023709949580783332
0.0002058476040918397   -5.5470732448048565e-05   7.485965096551937e-05
0.0002058476040918397   -5.5470732448048565e-05   7.485965096551937e-05
0.0002058476040918397   -5.5470732448048565e-05   7.485965096551937e-05
0.0002058476040918397   -5.5470732448048565e-05   7.485965096551937e-05
0.00040711701609777873   -7.572465754778976e-05   -0.000248437013984536
0.00040711701609777873   -7.572465754778976e-05   -0.000248437013984536
0.00040711701609777873   -7.572465754778976e-05   -0.000248437013984536
0.00040711701609777873   -7.572465754778976e-05   -0.000248437013984536
0.00029596584737213815   -6.203581342804562e-05   -7.139837258031412e-05
0.00029596584737213815   -6.203581342804562e-05   -7.139837258031412e-05
0.00029596584737213815   -6.203581342804562e-05   -7.139837258031412e-05
0.00029596584737213815   -6.203581342804562e-05   -7.139837258031412e-05
0.00040711701609777873   -5.5470732448048565e-05   8.70120060253634e-05
0.00040711701609777873   -5.5470732448048565e-05   8.70120060253634e-05
0.00040711701609777873   -5.5470732448048565e-05   8.70120060253634e-05
0.00040711701609777873   -5.5470732448048565e-05   8.70120060253634e-05
0.0002058476040918397   -7.572465754778976e-05   -0.00026058936904437956
0.0002058476040918397   -7.572465754778976e-05   -0.00026058936904437956
0.0002058476040918397   -7.572465754778976e-05   -0.00026058936904437956
0.0002058476040918397   -7.572465754778976e-05   -0.00026058936904437956
0.0002101742094384216   -4.769143627794334e-05   3.5702092043607414e-05
0.0002101742094384216   -4.769143627794334e-05   3.5702092043607414e-05
0.0002101742094384216   -4.769143627794334e-05   3.5702092043607414e-05
0.0002101742094384216   -4.769143627794334e-05   3.5702092043607414e-05
0.0004131646932709126   -7.155486444288678e-05   -0.0002882973241115764
0.0004131646932709126   -7.155486444288678e-05   -0.0002882973241115764
0.0004131646932709126   -7.155486444288678e-05   -0.0002882973241115764
0.0004131646932709126   -7.155486444288678e-05   -0.0002882973241115764
0.00029618495218607696   -5.972639995328183e-05   -0.00010042816766394616
0.00029618495218607696   -5.972639995328183e-05   -0.00010042816766394616
0.00029618495218607696   -5.972639995328183e-05   -0.00010042816766394616
0.00029618495218607696   -5.972639995328183e-05   -0.00010042816766394616
0.00019683229655993967   -3.836953569928518e-05   1.2158105607184416e-05
0.00019683229655993967   -3.836953569928518e-05   1.2158105607184416e-05
0.00019683229655993967   -3.836953569928518e-05   1.2158105607184416e-05
0.00019683229655993967   -3.836953569928518e-05   1.2158105607184416e-05
2.396432247647089e-05   -7.533917722466962e-05   -0.00029813696944716063
2.396432247647089e-05   -7.533917722466962e-05   -0.00029813696944716063
2.396432247647089e-05   -7.533917722466962e-05   -0.00029813696944716063
2.396432247647089e-05   -7.533917722466962e-05   -0.00029813696944716063
2.966468572295042e-05   -3.6564895084613414e-05   -3.0005669143604724e-06
2.966468572295042e-05   -3.6564895084613414e-05   -3.0005669143604724e-06
2.966468572295042e-05   -3.6564895084613414e-05   -3.0005669143604724e-06
2.966468572295042e-05   -3.6564895084613414e-05   -3.0005669143604724e-06
0.00020171702789092006   -7.498107746143831e-05   -0.0002667047611015481
0.00020171702789092006   -7.498107746143831e-05   -0.0002667047611015481
0.00020171702789092006   -7.498107746143831e-05   -0.0002667047611015481
0.00020171702789092006   -7.498107746143831e-05   -0.0002667047611015481
0.00011349890897400041   -5.0795047583668956e-05   -0.00013418618083334407
0.00011349890897400041   -5.0795047583668956e-05   -0.00013418618083334407
0.00011349890897400041   -5.0795047583668956e-05   -0.00013418618083334407
0.00011349890897400041   -5.0795047583668956e-05   -0.00013418618083334407
0.00020171702789091952   -3.656489508461515e-05   2.0049142511734466e-05
0.00020171702789091952   -3.656489508461515e-05   2.0049142511734466e-05
0.00020171702789091952   -3.656489508461515e-05   2.0049142511734466e-05
0.00020171702789091952   -3.656489508461515e-05   2.0049142511734466e-05
2.966468572295031e-05   -7.498107746144005e-05   -0.0002897544705276426
2.966468572295031e-05   -7.498107746144005e-05   -0.0002897544705276426
2.966468572295031e-05   -7.498107746144005e-05   -0.0002897544705276426
2.966468572295031e-05   -7.498107746144005e-05   -0.0002897544705276426
3.4811112313972077e-05   -3.318136738122805e-05   -4.7823527375406155e-06
3.4811112313972077e-05   -3.318136738122805e-05   -4.7823527375406155e-06
3.4811112313972077e-05   -3.318136738122805e-05   -4.7823527375406155e-06
3.4811112313972077e-05   -3.318136738122805e-05   -4.7823527375406155e-06
0.0002058476040918397   -7.401284980208638e-05   -0.0002653442829148051
0.0002058476040918397   -7.401284980208638e-05   -0.0002653442829148051
0.0002058476040918397   -7.401284980208638e-05   -0.0002653442829148051
0.0002058476040918397   -7.401284980208638e-05   -0.0002653442829148051
0.00011676007571217095   -5.138828174544238e-05   -0.0001304398097826745
0.00011676007571217095   -5.138828174544238e-05   -0.0001304398097826745
0.00011676007571217095   -5.138828174544238e-05   -0.0001304398097826745
0.00011676007571217095   -5.138828174544238e-05   -0.0001304398097826745
0.0002058476040918397   -3.318136738122805e-05   1.971653671497403e-05
0.0002058476040918397   -3.318136738122805e-05   1.971653671497403e-05
0.0002058476040918397   -3.318136738122805e-05   1.971653671497403e-05
0.0002058476040918397   -3.318136738122805e-05   1.971653671497403e-05
3.4811112313972077e-05   -7.401284980208638e-05   -0.0002898431723673215
3.4811112313972077e-05   -7.401284980208638e-05   -0.0002898431723673215
3.4811112313972077e-05   -7.401284980208638e-05   -0.0002898431723673215
3.4811112313972077e-05   -7.401284980208638e-05   -0.0002898431723673215
4.248591791920959e-05   -2.8369213572023225e-05   -8.283761025688202e-06
4.248591791920959e-05   -2.8369213572023225e-05   -8.283761025688202e-06
4.248591791920959e-05   -2.8369213572023225e-05   -8.283761025688202e-06
4.248591791920959e-05   -2.8369213572023225e-05   -8.283761025688202e-06
0.0002101742094384215   -7.205368820209848e-05   -0.0002615535621129971
0.0002101742094384215   -7.205368820209848e-05   -0.0002615535621129971
0.0002101742094384215   -7.205368820209848e-05   -0.0002615535621129971
0.0002101742094384215   -7.205368820209848e-05   -0.0002615535621129971
0.00012291648421128976   -5.0635880832079413e-05   -0.00012897470448978814
0.00012291648421128976   -5.0635880832079413e-05   -0.00012897470448978814
0.00012291648421128976   -5.0635880832079413e-05   -0.00012897470448978814
0.00012291648421128976   -5.0635880832079413e-05   -0.00012897470448978814
2.396432247647089e-05   -2.0507885925703795e-05   -3.08773685938641e-05
2.396432247647089e-05   -2.0507885925703795e-05   -3.08773685938641e-05
2.396432247647089e-05   -2.0507885925703795e-05   -3.08773685938641e-05
2.396432247647089e-05   -2.0507885925703795e-05   -3.08773685938641e-05
-0.0001471416591409657   -9.148030106669036e-05   -0.0003586374537075162
-0.0001471416591409657   -9.148030106669036e-05   -0.0003586374537075162
-0.0001471416591409657   -9.148030106669036e-05   -0.0003586374537075162
-0.0001471416591409657   -9.148030106669036e-05   -0.0003586374537075162
-0.0001382688833820692   -1.8391682013063626e-05   -6.575420518376354e-05
-0.0001382688833820692   -1.8391682013063626e-05   -6.575420518376354e-05
-0.0001382688833820692   -1.8391682013063626e-05   -6.575420518376354e-05
-0.0001382688833820692   -1.8391682013063626e-05   -6.575420518376354e-05
2.966468572295031e-05   -9.354742356378759e-05   -0.0003005500420950292
2.966468572295031e-05   -9.354742356378759e-05   -0.0003005500420950292
2.966468572295031e-05   -9.354742356378759e-05   -0.0003005500420950292
2.966468572295031e-05   -9.354742356378759e-05   -0.0003005500420950292
-5.594381383618971e-05   -5.187066617377313e-05   -0.00018287526393047197
-5.594381383618971e-05   -5.187066617377313e-05   -0.00018287526393047197
-5.594381383618971e-05   -5.187066617377313e-05   -0.00018287526393047197
-5.594381383618971e-05   -5.187066617377313e-05   -0.00018287526393047197
2.966468572295031e-05   -1.8391682013063626e-05   -2.0660760253331245e-05
2.966468572295031e-05   -1.8391682013063626e-05   -2.0660760253331245e-05
2.966468572295031e-05   -1.8391682013063626e-05   -2.0660760253331245e-05
2.966468572295031e-05   -1.8391682013063626e-05   -2.0660760253331245e-05
-0.0001382688833820694   -9.354742356378759e-05   -0.00034564348702546474
-0.0001382688833820694   -9.354742356378759e-05   -0.00034564348702546474
-0.0001382688833820694   -9.354742356378759e-05   -0.00034564348702546474
-0.0001382688833820694   -9.354742356378759e-05   -0.00034564348702546474
-0.00013063061891835484   -1.5063151119936932e-05   -6.147851605549544e-05
-0.00013063061891835484   -1.5063151119936932e-05   -6.147851605549544e-05
-0.00013063061891835484   -1.5063151119936932e-05   -6.147851605549544e-05
-0.00013063061891835484   -1.5063151119936932e-05   -6.147851605549544e-05
3.4811112313972077e-05   -9.3162883366818e-05   -0.0002903548954279122
3.4811112313972077e-05   -9.3162883366818e-05   -0.0002903548954279122
3.4811112313972077e-05   -9.3162883366818e-05   -0.0002903548954279122
3.4811112313972077e-05   -9.3162883366818e-05   -0.0002903548954279122
-4.963980017723413e-05   -5.3084342014049143e-05   -0.00017365049942089572
-4.963980017723413e-05   -5.3084342014049143e-05   -0.00017365049942089572
-4.963980017723413e-05   -5.3084342014049143e-05   -0.00017365049942089572
-4.963980017723413e-05   -5.3084342014049143e-05   -0.00017365049942089572
3.4811112313972077e-05   -1.5063151119936932e-05   -1.4618676707368189e-05
3.4811112313972077e-05   -1.5063151119936932e-05   -1.4618676707368189e-05
3.4811112313972077e-05   -1.5063151119936932e-05   -1.4618676707368189e-05
3.4811112313972077e-05   -1.5063151119936932e-05   -1.4618676707368189e-05
-0.00013063061891835527   -9.316288336681626e-05   -0.00033721473477604097
-0.00013063061891835527   -9.316288336681626e-05   -0.00033721473477604097
-0.00013063061891835527   -9.316288336681626e-05   -0.00033721473477604097
-0.00013063061891835527   -9.316288336681626e-05   -0.00033721473477604097
-0.0001174565716326396   -1.1911551120215302e-05   -6.12060646823561e-05
-0.0001174565716326396   -1.1911551120215302e-05   -6.12060646823561e-05
-0.0001174565716326396   -1.1911551120215302e-05   -6.12060646823561e-05
-0.0001174565716326396   -1.1911551120215302e-05   -6.12060646823561e-05
4.24859179192097e-05   -8.995828658103777e-05   -0.00028094883932561513
4.24859179192097e-05   -8.995828658103777e-05   -0.00028094883932561513
4.24859179192097e-05   -8.995828658103777e-05   -0.00028094883932561513
4.24859179192097e-05   -8.995828658103777e-05   -0.00028094883932561513
-4.145038797667396e-05   -5.19555679955111e-05   -0.00016385662731712314
-4.145038797667396e-05   -5.19555679955111e-05   -0.00016385662731712314
-4.145038797667396e-05   -5.19555679955111e-05   -0.00016385662731712314
-4.145038797667396e-05   -5.19555679955111e-05   -0.00016385662731712314
-0.00014714165914096538   4.432740043183378e-06   -4.302267965365647e-05
-0.00014714165914096538   4.432740043183378e-06   -4.302267965365647e-05
-0.00014714165914096538   4.432740043183378e-06   -4.302267965365647e-05
-0.00014714165914096538   4.432740043183378e-06   -4.302267965365647e-05
-0.0003382797705654136   -0.00011464296153053215   -0.00043303161963863246
-0.0003382797705654136   -0.00011464296153053215   -0.00043303161963863246
-0.0003382797705654136   -0.00011464296153053215   -0.00043303161963863246
-0.0003382797705654136   -0.00011464296153053215   -0.00043303161963863246
-0.0003277291500383139   8.393870081099819e-06   -0.00011093368455526893
-0.0003277291500383139   8.393870081099819e-06   -0.00011093368455526893
-0.0003277291500383139   8.393870081099819e-06   -0.00011093368455526893
-0.0003277291500383139   8.393870081099819e-06   -0.00011093368455526893
-0.0001382688833820692   -0.00012777322489988287   -0.0003450005386604182
-0.0001382688833820692   -0.00012777322489988287   -0.0003450005386604182
-0.0001382688833820692   -0.00012777322489988287   -0.0003450005386604182
-0.0001382688833820692   -0.00012777322489988287   -0.0003450005386604182
-0.000234402146095344   -5.860491706224588e-05   -0.00022627941884087715
-0.000234402146095344   -5.860491706224588e-05   -0.00022627941884087715
-0.000234402146095344   -5.860491706224588e-05   -0.00022627941884087715
-0.000234402146095344   -5.860491706224588e-05   -0.00022627941884087715
-0.0001382688833820692   8.393870081101554e-06   -2.923342756667828e-05
-0.0001382688833820692   8.393870081101554e-06   -2.923342756667828e-05
-0.0001382688833820692   8.393870081101554e-06   -2.923342756667828e-05
-0.0001382688833820692   8.393870081101554e-06   -2.923342756667828e-05
-0.0003277291500383139   -0.00012777322489988287   -0.00042670079564901056
-0.0003277291500383139   -0.00012777322489988287   -0.00042670079564901056
-0.0003277291500383139   -0.00012777322489988287   -0.00042670079564901056
-0.0003277291500383139   -0.00012777322489988287   -0.00042670079564901056
-0.00031761032220896975   1.2045364429799296e-05   -9.937522326905132e-05
-0.00031761032220896975   1.2045364429799296e-05   -9.937522326905132e-05
-0.00031761032220896975   1.2045364429799296e-05   -9.937522326905132e-05
-0.00031761032220896975   1.2045364429799296e-05   -9.937522326905132e-05
-0.000130630618918355   -0.00012853988150657476   -0.00032665691452491894
-0.000130630618918355   -0.00012853988150657476   -0.00032665691452491894
-0.000130630618918355   -0.00012853988150657476   -0.00032665691452491894
-0.000130630618918355   -0.00012853988150657476   -0.00032665691452491894
-0.00022411633755569694   -5.8852060384924354e-05   -0.00021266007613567322
-0.00022411633755569694   -5.8852060384924354e-05   -0.00021266007613567322
-0.00022411633755569694   -5.8852060384924354e-05   -0.00021266007613567322
-0.00022411633755569694   -5.8852060384924354e-05   -0.00021266007613567322
-0.000130630618918355   1.2045364429799296e-05   -1.5024075707229315e-05
-0.000130630618918355   1.2045364429799296e-05   -1.5024075707229315e-05
-0.000130630618918355   1.2045364429799296e-05   -1.5024075707229315e-05
-0.000130630618918355   1.2045364429799296e-05   -1.5024075707229315e-05
-0.0003176103222089703   -0.00012853988150657476   -0.00041100806208674463
-0.0003176103222089703   -0.00012853988150657476   -0.00041100806208674463
-0.0003176103222089703   -0.00012853988150657476   -0.00041100806208674463
-0.0003176103222089703   -0.00012853988150657476   -0.00041100806208674463
-0.00030105983947270094   1.5144908650307695e-05   -8.756545471981514e-05
-0.00030105983947270094   1.5144908650307695e-05   -8.756545471981514e-05
-0.00030105983947270094   1.5144908650307695e-05   -8.756545471981514e-05
-0.00030105983947270094   1.5144908650307695e-05   -8.756545471981514e-05
-0.00011745657163263998   -0.00011762738246699073   -0.0003139075264495377
-0.00011745657163263998   -0.00011762738246699073   -0.0003139075264495377
-0.00011745657163263998   -0.00011762738246699073   -0.0003139075264495377
-0.00011745657163263998   -0.00011762738246699073   -0.0003139075264495377
-0.00021391802422747122   -5.220935977059103e-05   -0.00019238925240931942
-0.00021391802422747122   -5.220935977059103e-05   -0.00019238925240931942
-0.00021391802422747122   -5.220935977059103e-05   -0.00019238925240931942
-0.00021391802422747122   -5.220935977059103e-05   -0.00019238925240931942
-0.0003382797705654136   4.797823599076052e-05   -7.508506346151633e-05
-0.0003382797705654136   4.797823599076052e-05   -7.508506346151633e-05
-0.0003382797705654136   4.797823599076052e-05   -7.508506346151633e-05
-0.0003382797705654136   4.797823599076052e-05   -7.508506346151633e-05
-0.0005836962501100455   0.0   -0.0005128994709636941
-0.0005836962501100455   0.0   -0.0005128994709636941
-0.0005836962501100455   0.0   -0.0005128994709636941
-0.0005836962501100455   0.0   -0.0005128994709636941
-0.0005682174424084672   6.094121471006235e-05   -5.792530182936739e-05
-0.0005682174424084672   6.094121471006235e-05   -5.792530182936739e-05
-0.0005682174424084672   6.094121471006235e-05   -5.792530182936739e-05
-0.0005682174424084672   6.094121471006235e-05   -5.792530182936739e-05
-0.00032772915003831334   0.0   -0.0004221743936202552
-0.00032772915003831334   0.0   -0.0004221743936202552
-0.00032772915003831334   0.0   -0.0004221743936202552
-0.00032772915003831334   0.0   -0.0004221743936202552
-0.00043515832566797376   1.8508746657850544e-05   -0.00025423101556553036
-0.00043515832566797376   1.8508746657850544e-05   -0.00025423101556553036
-0.00043515832566797376   1.8508746657850544e-05   -0.00025423101556553036
-0.00043515832566797376   1.8508746657850544e-05   -0.00025423101556553036
-0.0003277291500383136   6.094121471006235e-05   -2.136057300333033e-05
-0.0003277291500383136   6.094121471006235e-05   -2.136057300333033e-05
-0.0003277291500383136   6.094121471006235e-05   -2.136057300333033e-05
-0.0003277291500383136   6.094121471006235e-05   -2.136057300333033e-05
-0.0005682174424084662   0.0   -0.00045873912244629063
-0.0005682174424084662   0.0   -0.00045873912244629063
-0.0005682174424084662   0.0   -0.00045873912244629063
-0.0005682174424084662   0.0   -0.00045873912244629063
-0.0005551495237064571   6.384525702720321e-05   -2.417822462026653e-05
-0.0005551495237064571   6.384525702720321e-05   -2.417822462026653e-05
-0.0005551495237064571   6.384525702720321e-05   -2.417822462026653e-05
-0.0005551495237064571   6.384525702720321e-05   -2.417822462026653e-05
-0.0003176103222089703   0.0   -0.00038176973956642363
-0.0003176103222089703   0.0   -0.00038176973956642363
-0.0003176103222089703   0.0   -0.00038176973956642363
-0.0003176103222089703   0.0   -0.00038176973956642363
-0.0004304367592386116   2.9482477205149474e-05   -0.00021141516417343912
-0.0004304367592386116   2.9482477205149474e-05   -0.00021141516417343912
-0.0004304367592386116   2.9482477205149474e-05   -0.00021141516417343912
-0.0004304367592386116   2.9482477205149474e-05   -0.00021141516417343912
-0.0003176103222089703   6.384525702720495e-05   1.4128929596055051e-05
-0.0003176103222089703   6.384525702720495e-05   1.4128929596055051e-05
-0.0003176103222089703   6.384525702720495e-05   1.4128929596055051e-05
-0.0003176103222089703   6.384525702720495e-05   1.4128929596055051e-05
-0.000555149523706456   0.0   -0.0004200768937827441
-0.000555149523706456   0.0   -0.0004200768937827441
-0.000555149523706456   0.0   -0.0004200768937827441
-0.000555149523706456   0.0   -0.0004200768937827441
-0.0005291032960208001   6.889392057278163e-05   3.0046580466257244e-05
-0.0005291032960208001   6.889392057278163e-05   3.0046580466257244e-05
-0.0005291032960208001   6.889392057278163e-05   3.0046580466257244e-05
-0.0005291032960208001   6.889392057278163e-05   3.0046580466257244e-05
-0.00030105983947270143   0.0   -0.0003086894947702378
-0.00030105983947270143   0.0   -0.0003086894947702378
-0.00030105983947270143   0.0   -0.0003086894947702378
-0.00030105983947270143   0.0   -0.0003086894947702378
-0.00040779633374743847   3.641075517114151e-05   -0.000152641790748362
-0.00040779633374743847   3.641075517114151e-05   -0.000152641790748362
-0.00040779633374743847   3.641075517114151e-05   -0.000152641790748362
-0.00040779633374743847   3.641075517114151e-05   -0.000152641790748362
0.000432741150486595   -7.453819451187782e-05   0.0002587354074888165
0.000432741150486595   -7.453819451187782e-05   0.0002587354074888165
0.000432741150486595   -7.453819451187782e-05   0.0002587354074888165
0.000432741150486595   -7.453819451187782e-05   0.0002587354074888165
0.0002247980287802024   -5.722411996916983e-05   -7.7448017296213e-05
0.0002247980287802024   -5.722411996916983e-05   -7.7448017296213e-05
0.0002247980287802024   -5.722411996916983e-05   -7.7448017296213e-05
0.0002247980287802024   -5.722411996916983e-05   -7.7448017296213e-05
0.00021908611843470167   -7.640207580385597e-05   0.00022876036590906146
0.00021908611843470167   -7.640207580385597e-05   0.00022876036590906146
0.00021908611843470167   -7.640207580385597e-05   0.00022876036590906146
0.00021908611843470167   -7.640207580385597e-05   0.00022876036590906146
0.0004280345082712135   -6.295572563349769e-05   -0.00012755476058734136
0.0004280345082712135   -6.295572563349769e-05   -0.00012755476058734136
0.0004280345082712135   -6.295572563349769e-05   -0.00012755476058734136
0.0004280345082712135   -6.295572563349769e-05   -0.00012755476058734136
0.0003128324658289115   -6.411275694172616e-05   6.514286226810048e-05
0.0003128324658289115   -6.411275694172616e-05   6.514286226810048e-05
0.0003128324658289115   -6.411275694172616e-05   6.514286226810048e-05
0.0003128324658289115   -6.411275694172616e-05   6.514286226810048e-05
0.0004280345082712135   -7.640207580385597e-05   0.00022069255580684476
0.0004280345082712135   -7.640207580385597e-05   0.00022069255580684476
0.0004280345082712135   -7.640207580385597e-05   0.00022069255580684476
0.0004280345082712135   -7.640207580385597e-05   0.00022069255580684476
0.00021908611843470167   -6.295572563349769e-05   -0.00011948695048512575
0.00021908611843470167   -6.295572563349769e-05   -0.00011948695048512575
0.00021908611843470167   -6.295572563349769e-05   -0.00011948695048512575
0.00021908611843470167   -6.295572563349769e-05   -0.00011948695048512575
0.00021392427178658585   -7.572465754778976e-05   0.00020551408007235192
0.00021392427178658585   -7.572465754778976e-05   0.00020551408007235192
0.00021392427178658585   -7.572465754778976e-05   0.00020551408007235192
0.00021392427178658585   -7.572465754778976e-05   0.00020551408007235192
0.00042261145515609796   -6.349915633806907e-05   -0.00014963319293600076
0.00042261145515609796   -6.349915633806907e-05   -0.00014963319293600076
0.00042261145515609796   -6.349915633806907e-05   -0.00014963319293600076
0.00042261145515609796   -6.349915633806907e-05   -0.00014963319293600076
0.00031252821540668865   -6.523661139287186e-05   3.48813463458956e-05
0.00031252821540668865   -6.523661139287186e-05   3.48813463458956e-05
0.00031252821540668865   -6.523661139287186e-05   3.48813463458956e-05
0.00031252821540668865   -6.523661139287186e-05   3.48813463458956e-05
0.0004226114551560987   -7.572465754778976e-05   0.00019817877934651812
0.0004226114551560987   -7.572465754778976e-05   0.00019817877934651812
0.0004226114551560987   -7.572465754778976e-05   0.00019817877934651812
0.0004226114551560987   -7.572465754778976e-05   0.00019817877934651812
0.00021392427178658585   -6.349915633806907e-05   -0.00014229789221016816
0.00021392427178658585   -6.349915633806907e-05   -0.00014229789221016816
0.00021392427178658585   -6.349915633806907e-05   -0.00014229789221016816
0.00021392427178658585   -6.349915633806907e-05   -0.00014229789221016816
0.00020762953467211027   -7.155486444288678e-05   0.0001676951025399321
0.00020762953467211027   -7.155486444288678e-05   0.0001676951025399321
0.00020762953467211027   -7.155486444288678e-05   0.0001676951025399321
0.00020762953467211027   -7.155486444288678e-05   0.0001676951025399321
0.00041411635459391973   -6.222869892362828e-05   -0.0001820452966413039
0.00041411635459391973   -6.222869892362828e-05   -0.0001820452966413039
0.00041411635459391973   -6.222869892362828e-05   -0.0001820452966413039
0.00041411635459391973   -6.222869892362828e-05   -0.0001820452966413039
0.0003017992984188051   -6.203950140277505e-05   5.036278471372627e-06
0.0003017992984188051   -6.203950140277505e-05   5.036278471372627e-06
0.0003017992984188051   -6.203950140277505e-05   5.036278471372627e-06
0.0003017992984188051   -6.203950140277505e-05   5.036278471372627e-06
0.0002247980287802024   -7.533917722466962e-05   0.00019372057884725277
0.0002247980287802024   -7.533917722466962e-05   0.00019372057884725277
0.0002247980287802024   -7.533917722466962e-05   0.00019372057884725277
0.0002247980287802024   -7.533917722466962e-05   0.00019372057884725277
4.866609309657857e-05   -3.562761139364046e-05   -7.600570779350228e-05
4.866609309657857e-05   -3.562761139364046e-05   -7.600570779350228e-05
4.866609309657857e-05   -3.562761139364046e-05   -7.600570779350228e-05
4.866609309657857e-05   -3.562761139364046e-05   -7.600570779350228e-05
3.962496127951707e-05   -7.498107746144005e-05   0.000221460667591461
3.962496127951707e-05   -7.498107746144005e-05   0.000221460667591461
3.962496127951707e-05   -7.498107746144005e-05   0.000221460667591461
3.962496127951707e-05   -7.498107746144005e-05   0.000221460667591461
0.00021908611843470167   -3.780513250124795e-05   -9.994682797662786e-05
0.00021908611843470167   -3.780513250124795e-05   -9.994682797662786e-05
0.00021908611843470167   -3.780513250124795e-05   -9.994682797662786e-05
0.00021908611843470167   -3.780513250124795e-05   -9.994682797662786e-05
0.0001328697288201649   -5.387181391817465e-05   5.338716356442178e-05
0.0001328697288201649   -5.387181391817465e-05   5.338716356442178e-05
0.0001328697288201649   -5.387181391817465e-05   5.338716356442178e-05
0.0001328697288201649   -5.387181391817465e-05   5.338716356442178e-05
0.0002190861184347019   -7.498107746143831e-05   0.0001991551006153454
0.0002190861184347019   -7.498107746143831e-05   0.0001991551006153454
0.0002190861184347019   -7.498107746143831e-05   0.0001991551006153454
0.0002190861184347019   -7.498107746143831e-05   0.0001991551006153454
3.962496127951707e-05   -3.780513250124795e-05   -7.764126100051356e-05
3.962496127951707e-05   -3.780513250124795e-05   -7.764126100051356e-05
3.962496127951707e-05   -3.780513250124795e-05   -7.764126100051356e-05
3.962496127951707e-05   -3.780513250124795e-05   -7.764126100051356e-05
3.3186241946839344e-05   -7.401284980208638e-05   0.00022189007944580993
3.3186241946839344e-05   -7.401284980208638e-05   0.00022189007944580993
3.3186241946839344e-05   -7.401284980208638e-05   0.00022189007944580993
3.3186241946839344e-05   -7.401284980208638e-05   0.00022189007944580993
0.00021392427178658585   -3.8794661062277816e-05   -0.00010047088353098716
0.00021392427178658585   -3.8794661062277816e-05   -0.00010047088353098716
0.00021392427178658585   -3.8794661062277816e-05   -0.00010047088353098716
0.00021392427178658585   -3.8794661062277816e-05   -0.00010047088353098716
0.0001251401109955463   -5.278428906408707e-05   5.589649458850182e-05
0.0001251401109955463   -5.278428906408707e-05   5.589649458850182e-05
0.0001251401109955463   -5.278428906408707e-05   5.589649458850182e-05
0.0001251401109955463   -5.278428906408707e-05   5.589649458850182e-05
0.00021392427178658629   -7.401284980208811e-05   0.00020075916620192376
0.00021392427178658629   -7.401284980208811e-05   0.00020075916620192376
0.00021392427178658629   -7.401284980208811e-05   0.00020075916620192376
0.00021392427178658629   -7.401284980208811e-05   0.00020075916620192376
3.3186241946839344e-05   -3.8794661062277816e-05   -7.933997028710098e-05
3.3186241946839344e-05   -3.8794661062277816e-05   -7.933997028710098e-05
3.3186241946839344e-05   -3.8794661062277816e-05   -7.933997028710098e-05
3.3186241946839344e-05   -3.8794661062277816e-05   -7.933997028710098e-05
2.6020239161419698e-05   -7.205368820209848e-05   0.00022921449185132198
2.6020239161419698e-05   -7.205368820209848e-05   0.00022921449185132198
2.6020239161419698e-05   -7.205368820209848e-05   0.00022921449185132198
2.6020239161419698e-05   -7.205368820209848e-05   0.00022921449185132198
0.00020762953467210995   -3.79577375123584e-05   -9.392523774700624e-05
0.00020762953467210995   -3.79577375123584e-05   -9.392523774700624e-05
0.00020762953467210995   -3.79577375123584e-05   -9.392523774700624e-05
0.00020762953467210995   -3.79577375123584e-05   -9.392523774700624e-05
0.00012039607880909574   -5.0497784669520374e-05   5.898788365231401e-05
0.00012039607880909574   -5.0497784669520374e-05   5.898788365231401e-05
0.00012039607880909574   -5.0497784669520374e-05   5.898788365231401e-05
0.00012039607880909574   -5.0497784669520374e-05   5.898788365231401e-05
4.8666093096578675e-05   -9.148030106669036e-05   0.00019963048317010734
4.8666093096578675e-05   -9.148030106669036e-05   0.00019963048317010734
4.8666093096578675e-05   -9.148030106669036e-05   0.00019963048317010734
4.8666093096578675e-05   -9.148030106669036e-05   0.00019963048317010734
-0.0001204747849501476   -1.5359112106441697e-05   -3.659826686495428e-05
-0.0001204747849501476   -1.5359112106441697e-05   -3.659826686495428e-05
-0.0001204747849501476   -1.5359112106441697e-05   -3.659826686495428e-05
-0.0001204747849501476   -1.5359112106441697e-05   -3.659826686495428e-05
-0.00013454578652190633   -9.354742356378759e-05   0.00025705532113253285
-0.00013454578652190633   -9.354742356378759e-05   0.00025705532113253285
-0.00013454578652190633   -9.354742356378759e-05   0.00025705532113253285
-0.00013454578652190633   -9.354742356378759e-05   0.00025705532113253285
3.962496127951718e-05   -1.623038171635373e-05   -7.961948364496691e-05
3.962496127951718e-05   -1.623038171635373e-05   -7.961948364496691e-05
3.962496127951718e-05   -1.623038171635373e-05   -7.961948364496691e-05
3.962496127951718e-05   -1.623038171635373e-05   -7.961948364496691e-05
-4.014517383984595e-05   -5.2422810882156445e-05   7.504619905345303e-05
-4.014517383984595e-05   -5.2422810882156445e-05   7.504619905345303e-05
-4.014517383984595e-05   -5.2422810882156445e-05   7.504619905345303e-05
-4.014517383984595e-05   -5.2422810882156445e-05   7.504619905345303e-05
3.962496127951707e-05   -9.354742356378759e-05   0.00021066509602407288
3.962496127951707e-05   -9.354742356378759e-05   0.00021066509602407288
3.962496127951707e-05   -9.354742356378759e-05   0.00021066509602407288
3.962496127951707e-05   -9.354742356378759e-05   0.00021066509602407288
-0.0001345457865219061   -1.623038171635373e-05   -3.322925853650564e-05
-0.0001345457865219061   -1.623038171635373e-05   -3.322925853650564e-05
-0.0001345457865219061   -1.623038171635373e-05   -3.322925853650564e-05
-0.0001345457865219061   -1.623038171635373e-05   -3.322925853650564e-05
-0.00014313181794994162   -9.316288336681626e-05   0.00026690101382820935
-0.00014313181794994162   -9.316288336681626e-05   0.00026690101382820935
-0.00014313181794994162   -9.316288336681626e-05   0.00026690101382820935
-0.00014313181794994162   -9.316288336681626e-05   0.00026690101382820935
3.3186241946839344e-05   -1.729178762850149e-05   -7.248507677608306e-05
3.3186241946839344e-05   -1.729178762850149e-05   -7.248507677608306e-05
3.3186241946839344e-05   -1.729178762850149e-05   -7.248507677608306e-05
3.3186241946839344e-05   -1.729178762850149e-05   -7.248507677608306e-05
-4.966434297839779e-05   -5.2294903508564444e-05   8.660110096068247e-05
-4.966434297839779e-05   -5.2294903508564444e-05   8.660110096068247e-05
-4.966434297839779e-05   -5.2294903508564444e-05   8.660110096068247e-05
-4.966434297839779e-05   -5.2294903508564444e-05   8.660110096068247e-05
3.3186241946839344e-05   -9.3162883366818e-05   0.00022137835638521772
3.3186241946839344e-05   -9.3162883366818e-05   0.00022137835638521772
3.3186241946839344e-05   -9.3162883366818e-05   0.00022137835638521772
3.3186241946839344e-05   -9.3162883366818e-05   0.00022137835638521772
-0.0001431318179499414   -1.729178762850149e-05   -2.696241933309272e-05
-0.0001431318179499414   -1.729178762850149e-05   -2.696241933309272e-05
-0.0001431318179499414   -1.729178762850149e-05   -2.696241933309272e-05
-0.0001431318179499414   -1.729178762850149e-05   -2.696241933309272e-05
-0.00015324713483741057   -8.995828658103777e-05   0.0002796726755334225
-0.00015324713483741057   -8.995828658103777e-05   0.0002796726755334225
-0.00015324713483741057   -8.995828658103777e-05   0.0002796726755334225
-0.00015324713483741057   -8.995828658103777e-05   0.0002796726755334225
2.602023916141959e-05   -1.722032638658451e-05   -6.274905724796588e-05
2.602023916141959e-05   -1.722032638658451e-05   -6.274905724796588e-05
2.602023916141959e-05   -1.722032638658451e-05   -6.274905724796588e-05
2.602023916141959e-05   -1.722032638658451e-05   -6.274905724796588e-05
-5.7408483922386704e-05   -5.026521491403174e-05   9.61257476748468e-05
-5.7408483922386704e-05   -5.026521491403174e-05   9.61257476748468e-05
-5.7408483922386704e-05   -5.026521491403174e-05   9.61257476748468e-05
-5.7408483922386704e-05   -5.026521491403174e-05   9.61257476748468e-05
-0.00012047478495014782   -0.00011464296153053215   0.00024235445155937167
-0.00012047478495014782   -0.00011464296153053215   0.00024235445155937167
-0.00012047478495014782   -0.00011464296153053215   0.00024235445155937167
-0.00012047478495014782   -0.00011464296153053215   0.00024235445155937167
-0.0003135042642724139   1.5437715624696743e-05   -1.3129410179352902e-06
-0.0003135042642724139   1.5437715624696743e-05   -1.3129410179352902e-06
-0.0003135042642724139   1.5437715624696743e-05   -1.3129410179352902e-06
-0.0003135042642724139   1.5437715624696743e-05   -1.3129410179352902e-06
-0.0003303601771363421   -0.00012777322489988287   0.00034301298493245175
-0.0003303601771363421   -0.00012777322489988287   0.00034301298493245175
-0.0003303601771363421   -0.00012777322489988287   0.00034301298493245175
-0.0003303601771363421   -0.00012777322489988287   0.00034301298493245175
-0.0001345457865219061   1.4417967491572176e-05   -6.865904819314717e-05
-0.0001345457865219061   1.4417967491572176e-05   -6.865904819314717e-05
-0.0001345457865219061   1.4417967491572176e-05   -6.865904819314717e-05
-0.0001345457865219061   1.4417967491572176e-05   -6.865904819314717e-05
-0.00022154530016484786   -4.808204006652092e-05   0.00011384014574661056
-0.00022154530016484786   -4.808204006652092e-05   0.00011384014574661056
-0.00022154530016484786   -4.808204006652092e-05   0.00011384014574661056
-0.00022154530016484786   -4.808204006652092e-05   0.00011384014574661056
-0.00013454578652190633   -0.00012777322489988287   0.0002576982694975794
-0.00013454578652190633   -0.00012777322489988287   0.0002576982694975794
-0.00013454578652190633   -0.00012777322489988287   0.0002576982694975794
-0.00013454578652190633   -0.00012777322489988287   0.0002576982694975794
-0.0003303601771363421   1.4417967491572176e-05   1.665566724172625e-05
-0.0003303601771363421   1.4417967491572176e-05   1.665566724172625e-05
-0.0003303601771363421   1.4417967491572176e-05   1.665566724172625e-05
-0.0003303601771363421   1.4417967491572176e-05   1.665566724172625e-05
-0.00034064458941134945   -0.00012853988150657476   0.00036214651073086454
-0.00034064458941134945   -0.00012853988150657476   0.00036214651073086454
-0.00034064458941134945   -0.00012853988150657476   0.00036214651073086454
-0.00034064458941134945   -0.00012853988150657476   0.00036214651073086454
-0.0001431318179499414   1.2606246245982014e-05   -5.172911835635025e-05
-0.0001431318179499414   1.2606246245982014e-05   -5.172911835635025e-05
-0.0001431318179499414   1.2606246245982014e-05   -5.172911835635025e-05
-0.0001431318179499414   1.2606246245982014e-05   -5.172911835635025e-05
-0.00023253164104399026   -5.518176029392814e-05   0.00013794339072434412
-0.00023253164104399026   -5.518176029392814e-05   0.00013794339072434412
-0.00023253164104399026   -5.518176029392814e-05   0.00013794339072434412
-0.00023253164104399026   -5.518176029392814e-05   0.00013794339072434412
-0.00014313181794994119   -0.00012853988150657476   0.00027745883407932943
-0.00014313181794994119   -0.00012853988150657476   0.00027745883407932943
-0.00014313181794994119   -0.00012853988150657476   0.00027745883407932943
-0.00014313181794994119   -0.00012853988150657476   0.00027745883407932943
-0.00034064458941134886   1.2606246245982014e-05   3.295855829518399e-05
-0.00034064458941134886   1.2606246245982014e-05   3.295855829518399e-05
-0.00034064458941134886   1.2606246245982014e-05   3.295855829518399e-05
-0.00034064458941134886   1.2606246245982014e-05   3.295855829518399e-05
-0.0003517134054647335   -0.00011762738246699073   0.00037045674655080546
-0.0003517134054647335   -0.00011762738246699073   0.00037045674655080546
-0.0003517134054647335   -0.00011762738246699073   0.00037045674655080546
-0.0003517134054647335   -0.00011762738246699073   0.00037045674655080546
-0.00015324713483740992   1.0563812307694959e-05   -3.7235088026212016e-05
-0.00015324713483740992   1.0563812307694959e-05   -3.7235088026212016e-05
-0.00015324713483740992   1.0563812307694959e-05   -3.7235088026212016e-05
-0.00015324713483740992   1.0563812307694959e-05   -3.7235088026212016e-05
-0.00024380718901400344   -5.562821240870375e-05   0.00015341355043128543
-0.00024380718901400344   -5.562821240870375e-05   0.00015341355043128543
-0.00024380718901400344   -5.562821240870375e-05   0.00015341355043128543
-0.00024380718901400344   -5.562821240870375e-05   0.00015341355043128543
-0.0003135042642724128   0.0   0.0002693219481219016
-0.0003135042642724128   0.0   0.0002693219481219016
-0.0003135042642724128   0.0   0.0002693219481219016
-0.0003135042642724128   0.0   0.0002693219481219016
-0.0005534080814711259   7.241822760169735e-05   -8.706681064827009e-05
-0.0005534080814711259   7.241822760169735e-05   -8.706681064827009e-05
-0.0005534080814711259   7.241822760169735e-05   -8.706681064827009e-05
-0.0005534080814711259   7.241822760169735e-05   -8.706681064827009e-05
-0.0005767542422807914   0.0   0.00038940495447964234
-0.0005767542422807914   0.0   0.00038940495447964234
-0.0005767542422807914   0.0   0.00038940495447964234
-0.0005767542422807914   0.0   0.00038940495447964234
-0.00033036017713634143   6.97759458640583e-05   -6.311738827954449e-05
-0.00033036017713634143   6.97759458640583e-05   -6.311738827954449e-05
-0.00033036017713634143   6.97759458640583e-05   -6.311738827954449e-05
-0.00033036017713634143   6.97759458640583e-05   -6.311738827954449e-05
-0.0004245748788703968   4.297368750310129e-05   0.00010998846962712288
-0.0004245748788703968   4.297368750310129e-05   0.00010998846962712288
-0.0004245748788703968   4.297368750310129e-05   0.00010998846962712288
-0.0004245748788703968   4.297368750310129e-05   0.00010998846962712288
-0.0003303601771363412   0.0   0.000347539386961207
-0.0003303601771363412   0.0   0.000347539386961207
-0.0003303601771363412   0.0   0.000347539386961207
-0.0003303601771363412   0.0   0.000347539386961207
-0.0005767542422807925   6.97759458640583e-05   -2.125182076110916e-05
-0.0005767542422807925   6.97759458640583e-05   -2.125182076110916e-05
-0.0005767542422807925   6.97759458640583e-05   -2.125182076110916e-05
-0.0005767542422807925   6.97759458640583e-05   -2.125182076110916e-05
-0.0005885244188339764   0.0   0.0004321501980970588
-0.0005885244188339764   0.0   0.0004321501980970588
-0.0005885244188339764   0.0   0.0004321501980970588
-0.0005885244188339764   0.0   0.0004321501980970588
-0.00034064458941134886   6.794227474312547e-05   -2.174821578652909e-05
-0.00034064458941134886   6.794227474312547e-05   -2.174821578652909e-05
-0.00034064458941134886   6.794227474312547e-05   -2.174821578652909e-05
-0.00034064458941134886   6.794227474312547e-05   -2.174821578652909e-05
-0.0004469651749150524   3.585033408513502e-05   0.00017470792444777405
-0.0004469651749150524   3.585033408513502e-05   0.00017470792444777405
-0.0004469651749150524   3.585033408513502e-05   0.00017470792444777405
-0.0004469651749150524   3.585033408513502e-05   0.00017470792444777405
-0.00034064458941134886   0.0   0.0003913848332511849
-0.00034064458941134886   0.0   0.0003913848332511849
-0.00034064458941134886   0.0   0.0003913848332511849
-0.00034064458941134886   0.0   0.0003913848332511849
-0.0005885244188339786   6.794227474312547e-05   1.901714905934524e-05
-0.0005885244188339786   6.794227474312547e-05   1.901714905934524e-05
-0.0005885244188339786   6.794227474312547e-05   1.901714905934524e-05
-0.0005885244188339786   6.794227474312547e-05   1.901714905934524e-05
-0.0006016783567464379   0.0   0.0004891749016165629
-0.0006016783567464379   0.0   0.0004891749016165629
-0.0006016783567464379   0.0   0.0004891749016165629
-0.0006016783567464379   0.0   0.0004891749016165629
-0.0003517134054647335   5.639458119346963e-05   3.872990076430466e-05
-0.0003517134054647335   5.639458119346963e-05   3.872990076430466e-05
-0.0003517134054647335   5.639458119346963e-05   3.872990076430466e-05
-0.0003517134054647335   5.639458119346963e-05   3.872990076430466e-05
-0.00045085312523675334   2.507964629853629e-05   0.00022275172798796525
-0.00045085312523675334   2.507964629853629e-05   0.00022275172798796525
-0.00045085312523675334   2.507964629853629e-05   0.00022275172798796525
-0.00045085312523675334   2.507964629853629e-05   0.00022275172798796525
0.0003796879337058197   -5.722411996916983e-05   0.0002703784647861366
0.0003796879337058197   -5.722411996916983e-05   0.0002703784647861366
0.0003796879337058197   -5.722411996916983e-05   0.0002703784647861366
0.0003796879337058197   -5.722411996916983e-05   0.0002703784647861366
0.00019222471820101906   -4.298331976665057e-05   -3.351574760035274e-05
0.00019222471820101906   -4.298331976665057e-05   -3.351574760035274e-05
0.00019222471820101906   -4.298331976665057e-05   -3.351574760035274e-05
0.00019222471820101906   -4.298331976665057e-05   -3.351574760035274e-05
0.00018709759836024395   -6.295572563349769e-05   0.00023618686745600047
0.00018709759836024395   -6.295572563349769e-05   0.00023618686745600047
0.00018709759836024395   -6.295572563349769e-05   0.00023618686745600047
0.00018709759836024395   -6.295572563349769e-05   0.00023618686745600047
0.00037051038747255133   -4.876353373742259e-05   -7.801642953548913e-05
0.00037051038747255133   -4.876353373742259e-05   -7.801642953548913e-05
0.00037051038747255133   -4.876353373742259e-05   -7.801642953548913e-05
0.00037051038747255133   -4.876353373742259e-05   -7.801642953548913e-05
0.00026980896333623556   -5.085013530756709e-05   9.107123830045735e-05
0.00026980896333623556   -5.085013530756709e-05   9.107123830045735e-05
0.00026980896333623556   -5.085013530756709e-05   9.107123830045735e-05
0.00026980896333623556   -5.085013530756709e-05   9.107123830045735e-05
0.0003705103874725507   -6.295572563349769e-05   0.00022767155231835472
0.0003705103874725507   -6.295572563349769e-05   0.00022767155231835472
0.0003705103874725507   -6.295572563349769e-05   0.00022767155231835472
0.0003705103874725507   -6.295572563349769e-05   0.00022767155231835472
0.00018709759836024433   -4.876353373742259e-05   -6.950111439784495e-05
0.00018709759836024433   -4.876353373742259e-05   -6.950111439784495e-05
0.00018709759836024433   -4.876353373742259e-05   -6.950111439784495e-05
0.00018709759836024433   -4.876353373742259e-05   -6.950111439784495e-05
0.00018048993273990315   -6.349915633806907e-05   0.00021211135485458936
0.00018048993273990315   -6.349915633806907e-05   0.00021211135485458936
0.00018048993273990315   -6.349915633806907e-05   0.00021211135485458936
0.00018048993273990315   -6.349915633806907e-05   0.00021211135485458936
0.0003612396452174953   -4.963405735838519e-05   -9.745722532920713e-05
0.0003612396452174953   -4.963405735838519e-05   -9.745722532920713e-05
0.0003612396452174953   -4.963405735838519e-05   -9.745722532920713e-05
0.0003612396452174953   -4.963405735838519e-05   -9.745722532920713e-05
0.00026717958871751553   -5.308157390361383e-05   6.137804543122818e-05
0.00026717958871751553   -5.308157390361383e-05   6.137804543122818e-05
0.00026717958871751553   -5.308157390361383e-05   6.137804543122818e-05
0.00026717958871751553   -5.308157390361383e-05   6.137804543122818e-05
0.0003612396452174953   -6.349915633806907e-05   0.00020379229546677903
0.0003612396452174953   -6.349915633806907e-05   0.00020379229546677903
0.0003612396452174953   -6.349915633806907e-05   0.00020379229546677903
0.0003612396452174953   -6.349915633806907e-05   0.00020379229546677903
0.00018048993273990315   -4.963405735838519e-05   -8.91381659413968e-05
0.00018048993273990315   -4.963405735838519e-05   -8.91381659413968e-05
0.00018048993273990315   -4.963405735838519e-05   -8.91381659413968e-05
0.00018048993273990315   -4.963405735838519e-05   -8.91381659413968e-05
0.00017356143652244002   -6.222869892362828e-05   0.0001764416269093693
0.00017356143652244002   -6.222869892362828e-05   0.0001764416269093693
0.00017356143652244002   -6.222869892362828e-05   0.0001764416269093693
0.00017356143652244002   -6.222869892362828e-05   0.0001764416269093693
0.00034963808013856054   -4.9370550418790377e-05   -0.00012473433488706837
0.00034963808013856054   -4.9370550418790377e-05   -0.00012473433488706837
0.00034963808013856054   -4.9370550418790377e-05   -0.00012473433488706837
0.00034963808013856054   -4.9370550418790377e-05   -0.00012473433488706837
0.00025517952609852045   -5.170888817466329e-05   3.40995911665273e-05
0.00025517952609852045   -5.170888817466329e-05   3.40995911665273e-05
0.00025517952609852045   -5.170888817466329e-05   3.40995911665273e-05
0.00025517952609852045   -5.170888817466329e-05   3.40995911665273e-05
0.00019222471820101944   -3.562761139364046e-05   0.0002565383149117414
0.00019222471820101944   -3.562761139364046e-05   0.0002565383149117414
0.00019222471820101944   -3.562761139364046e-05   0.0002565383149117414
0.00019222471820101944   -3.562761139364046e-05   0.0002565383149117414
2.1544612097380454e-05   -1.5227462197418828e-05   -1.568843907659087e-05
2.1544612097380454e-05   -1.5227462197418828e-05   -1.568843907659087e-05
2.1544612097380454e-05   -1.5227462197418828e-05   -1.568843907659087e-05
2.1544612097380454e-05   -1.5227462197418828e-05   -1.568843907659087e-05
1.6456921113550864e-05   -3.780513250124795e-05   0.00026740332562881844
1.6456921113550864e-05   -3.780513250124795e-05   0.00026740332562881844
1.6456921113550864e-05   -3.780513250124795e-05   0.00026740332562881844
1.6456921113550864e-05   -3.780513250124795e-05   0.00026740332562881844
0.00018709759836024433   -1.8344573060713465e-05   -2.8674138779992073e-05
0.00018709759836024433   -1.8344573060713465e-05   -2.8674138779992073e-05
0.00018709759836024433   -1.8344573060713465e-05   -2.8674138779992073e-05
0.00018709759836024433   -1.8344573060713465e-05   -2.8674138779992073e-05
0.0001033344427118095   -2.4866704834671655e-05   0.00011484439969844037
0.0001033344427118095   -2.4866704834671655e-05   0.00011484439969844037
0.0001033344427118095   -2.4866704834671655e-05   0.00011484439969844037
0.0001033344427118095   -2.4866704834671655e-05   0.00011484439969844037
0.00018709759836024417   -3.780513250124795e-05   0.00025572698996449705
0.00018709759836024417   -3.780513250124795e-05   0.00025572698996449705
0.00018709759836024417   -3.780513250124795e-05   0.00025572698996449705
0.00018709759836024417   -3.780513250124795e-05   0.00025572698996449705
1.6456921113550864e-05   -1.8344573060713465e-05   -1.6997803115670687e-05
1.6456921113550864e-05   -1.8344573060713465e-05   -1.6997803115670687e-05
1.6456921113550864e-05   -1.8344573060713465e-05   -1.6997803115670687e-05
1.6456921113550864e-05   -1.8344573060713465e-05   -1.6997803115670687e-05
9.95638986697842e-06   -3.8794661062277816e-05   0.000264972949596343
9.95638986697842e-06   -3.8794661062277816e-05   0.000264972949596343
9.95638986697842e-06   -3.8794661062277816e-05   0.000264972949596343
9.95638986697842e-06   -3.8794661062277816e-05   0.000264972949596343
0.00018048993273990315   -2.0403684291325427e-05   -3.0284207921103508e-05
0.00018048993273990315   -2.0403684291325427e-05   -3.0284207921103508e-05
0.00018048993273990315   -2.0403684291325427e-05   -3.0284207921103508e-05
0.00018048993273990315   -2.0403684291325427e-05   -3.0284207921103508e-05
9.68924885761062e-05   -2.6054637262153818e-05   0.00011243543746772711
9.68924885761062e-05   -2.6054637262153818e-05   0.00011243543746772711
9.68924885761062e-05   -2.6054637262153818e-05   0.00011243543746772711
9.68924885761062e-05   -2.6054637262153818e-05   0.00011243543746772711
0.00018048993273990282   -3.8794661062277816e-05   0.0002539383635337712
0.00018048993273990282   -3.8794661062277816e-05   0.0002539383635337712
0.00018048993273990282   -3.8794661062277816e-05   0.0002539383635337712
0.00018048993273990282   -3.8794661062277816e-05   0.0002539383635337712
9.95638986697842e-06   -2.0403684291325427e-05   -1.924962185853151e-05
9.95638986697842e-06   -2.0403684291325427e-05   -1.924962185853151e-05
9.95638986697842e-06   -2.0403684291325427e-05   -1.924962185853151e-05
9.95638986697842e-06   -2.0403684291325427e-05   -1.924962185853151e-05
2.7746643829956513e-06   -3.79577375123584e-05   0.00026895593848001893
2.7746643829956513e-06   -3.79577375123584e-05   0.00026895593848001893
2.7746643829956513e-06   -3.79577375123584e-05   0.00026895593848001893
2.7746643829956513e-06   -3.79577375123584e-05   0.00026895593848001893
0.00017356143652243986   -2.1307817532515566e-05   -2.5678633740293323e-05
0.00017356143652243986   -2.1307817532515566e-05   -2.5678633740293323e-05
0.00017356143652243986   -2.1307817532515566e-05   -2.5678633740293323e-05
0.00017356143652243986   -2.1307817532515566e-05   -2.5678633740293323e-05
9.162048906107025e-05   -2.5828749331054113e-05   0.00011360217110778156
9.162048906107025e-05   -2.5828749331054113e-05   0.00011360217110778156
9.162048906107025e-05   -2.5828749331054113e-05   0.00011360217110778156
9.162048906107025e-05   -2.5828749331054113e-05   0.00011360217110778156
2.1544612097380454e-05   -1.5359112106441697e-05   0.0002625131319818723
2.1544612097380454e-05   -1.5359112106441697e-05   0.0002625131319818723
2.1544612097380454e-05   -1.5359112106441697e-05   0.0002625131319818723
2.1544612097380454e-05   -1.5359112106441697e-05   0.0002625131319818723
-0.00014376174886951963   1.340105231616845e-05   4.2586290239388785e-06
-0.00014376174886951963   1.340105231616845e-05   4.2586290239388785e-06
-0.00014376174886951963   1.340105231616845e-05   4.2586290239388785e-06
-0.00014376174886951963   1.340105231616845e-05   4.2586290239388785e-06
-0.0001494918943475142   -1.623038171635373e-05   0.00028176075473849115
-0.0001494918943475142   -1.623038171635373e-05   0.00028176075473849115
-0.0001494918943475142   -1.623038171635373e-05   0.00028176075473849115
-0.0001494918943475142   -1.623038171635373e-05   0.00028176075473849115
1.6456921113550864e-05   1.099570454051943e-05   -1.1156256117408545e-05
1.6456921113550864e-05   1.099570454051943e-05   -1.1156256117408545e-05
1.6456921113550864e-05   1.099570454051943e-05   -1.1156256117408545e-05
1.6456921113550864e-05   1.099570454051943e-05   -1.1156256117408545e-05
-6.369390312959745e-05   -5.321112682976636e-07   0.00012934514043979684
-6.369390312959745e-05   -5.321112682976636e-07   0.00012934514043979684
-6.369390312959745e-05   -5.321112682976636e-07   0.00012934514043979684
-6.369390312959745e-05   -5.321112682976636e-07   0.00012934514043979684
1.6456921113550864e-05   -1.623038171635373e-05   0.00026542510298436725
1.6456921113550864e-05   -1.623038171635373e-05   0.00026542510298436725
1.6456921113550864e-05   -1.623038171635373e-05   0.00026542510298436725
1.6456921113550864e-05   -1.623038171635373e-05   0.00026542510298436725
-0.0001494918943475142   1.0995704540521165e-05   5.179395636717085e-06
-0.0001494918943475142   1.0995704540521165e-05   5.179395636717085e-06
-0.0001494918943475142   1.0995704540521165e-05   5.179395636717085e-06
-0.0001494918943475142   1.0995704540521165e-05   5.179395636717085e-06
-0.00015718732791788223   -1.7291787628499755e-05   0.00028745678068821737
-0.00015718732791788223   -1.7291787628499755e-05   0.00028745678068821737
-0.00015718732791788223   -1.7291787628499755e-05   0.00028745678068821737
-0.00015718732791788223   -1.7291787628499755e-05   0.00028745678068821737
9.95638986697842e-06   8.756441672926052e-06   -6.7450198674063894e-06
9.95638986697842e-06   8.756441672926052e-06   -6.7450198674063894e-06
9.95638986697842e-06   8.756441672926052e-06   -6.7450198674063894e-06
9.95638986697842e-06   8.756441672926052e-06   -6.7450198674063894e-06
-6.934977409302998e-05   -1.2219902223720158e-06   0.00013141897920312083
-6.934977409302998e-05   -1.2219902223720158e-06   0.00013141897920312083
-6.934977409302998e-05   -1.2219902223720158e-06   0.00013141897920312083
-6.934977409302998e-05   -1.2219902223720158e-06   0.00013141897920312083
9.95638986697842e-06   -1.729178762850149e-05   0.0002718278431073605
9.95638986697842e-06   -1.729178762850149e-05   0.0002718278431073605
9.95638986697842e-06   -1.729178762850149e-05   0.0002718278431073605
9.95638986697842e-06   -1.729178762850149e-05   0.0002718278431073605
-0.00015718732791788201   8.756441672926052e-06   8.883917713449832e-06
-0.00015718732791788201   8.756441672926052e-06   8.883917713449832e-06
-0.00015718732791788201   8.756441672926052e-06   8.883917713449832e-06
-0.00015718732791788201   8.756441672926052e-06   8.883917713449832e-06
-0.00016538659477633257   -1.722032638658451e-05   0.000294289938218794
-0.00016538659477633257   -1.722032638658451e-05   0.000294289938218794
-0.00016538659477633257   -1.722032638658451e-05   0.000294289938218794
-0.00016538659477633257   -1.722032638658451e-05   0.000294289938218794
2.7746643829956513e-06   7.138656369377536e-06   -5.942167003321862e-07
2.7746643829956513e-06   7.138656369377536e-06   -5.942167003321862e-07
2.7746643829956513e-06   7.138656369377536e-06   -5.942167003321862e-07
2.7746643829956513e-06   7.138656369377536e-06   -5.942167003321862e-07
-7.656779698280277e-05   -1.7246040587715755e-06   0.00013696117516622756
-7.656779698280277e-05   -1.7246040587715755e-06   0.00013696117516622756
-7.656779698280277e-05   -1.7246040587715755e-06   0.00013696117516622756
-7.656779698280277e-05   -1.7246040587715755e-06   0.00013696117516622756
-0.0001437617488695192   1.5437715624696743e-05   0.000237006150189319
-0.0001437617488695192   1.5437715624696743e-05   0.000237006150189319
-0.0001437617488695192   1.5437715624696743e-05   0.000237006150189319
-0.0001437617488695192   1.5437715624696743e-05   0.000237006150189319
-0.00030555422661172546   4.382876825582971e-05   -1.5613347802343608e-05
-0.00030555422661172546   4.382876825582971e-05   -1.5613347802343608e-05
-0.00030555422661172546   4.382876825582971e-05   -1.5613347802343608e-05
-0.00030555422661172546   4.382876825582971e-05   -1.5613347802343608e-05
-0.00031392798541454237   1.4417967491572176e-05   0.0002625240790155997
-0.00031392798541454237   1.4417967491572176e-05   0.0002625240790155997
-0.00031392798541454237   1.4417967491572176e-05   0.0002625240790155997
-0.00031392798541454237   1.4417967491572176e-05   0.0002625240790155997
-0.00014949189434751377   4.1406490714488917e-05   -2.772918669653019e-05
-0.00014949189434751377   4.1406490714488917e-05   -2.772918669653019e-05
-0.00014949189434751377   4.1406490714488917e-05   -2.772918669653019e-05
-0.00014949189434751377   4.1406490714488917e-05   -2.772918669653019e-05
-0.00022636514190971826   2.930465660138694e-05   0.00010765399304167112
-0.00022636514190971826   2.930465660138694e-05   0.00010765399304167112
-0.00022636514190971826   2.930465660138694e-05   0.00010765399304167112
-0.00022636514190971826   2.930465660138694e-05   0.00010765399304167112
-0.00014949189434751398   1.4417967491572176e-05   0.0002463309650818507
-0.00014949189434751398   1.4417967491572176e-05   0.0002463309650818507
-0.00014949189434751398   1.4417967491572176e-05   0.0002463309650818507
-0.00014949189434751398   1.4417967491572176e-05   0.0002463309650818507
-0.0003139279854145417   4.1406490714488917e-05   -1.1536072762779667e-05
-0.0003139279854145417   4.1406490714488917e-05   -1.1536072762779667e-05
-0.0003139279854145417   4.1406490714488917e-05   -1.1536072762779667e-05
-0.0003139279854145417   4.1406490714488917e-05   -1.1536072762779667e-05
-0.0003241803878467227   1.2606246245982014e-05   0.0002786320855298549
-0.0003241803878467227   1.2606246245982014e-05   0.0002786320855298549
-0.0003241803878467227   1.2606246245982014e-05   0.0002786320855298549
-0.0003241803878467227   1.2606246245982014e-05   0.0002786320855298549
-0.00015718732791788201   3.917625268747005e-05   -1.5631684883106933e-05
-0.00015718732791788201   3.917625268747005e-05   -1.5631684883106933e-05
-0.00015718732791788201   3.917625268747005e-05   -1.5631684883106933e-05
-0.00015718732791788201   3.917625268747005e-05   -1.5631684883106933e-05
-0.00023262178459796724   2.8723161411137524e-05   0.00011636426434950093
-0.00023262178459796724   2.8723161411137524e-05   0.00011636426434950093
-0.00023262178459796724   2.8723161411137524e-05   0.00011636426434950093
-0.00023262178459796724   2.8723161411137524e-05   0.00011636426434950093
-0.0001571873279178819   1.2606246245982014e-05   0.0002626900816649607
-0.0001571873279178819   1.2606246245982014e-05   0.0002626900816649607
-0.0001571873279178819   1.2606246245982014e-05   0.0002626900816649607
-0.0001571873279178819   1.2606246245982014e-05   0.0002626900816649607
-0.0003241803878467227   3.917625268746831e-05   3.103189817870583e-07
-0.0003241803878467227   3.917625268746831e-05   3.103189817870583e-07
-0.0003241803878467227   3.917625268746831e-05   3.103189817870583e-07
-0.0003241803878467227   3.917625268746831e-05   3.103189817870583e-07
-0.0003350391689625642   1.0563812307694959e-05   0.0002915365665650954
-0.0003350391689625642   1.0563812307694959e-05   0.0002915365665650954
-0.0003350391689625642   1.0563812307694959e-05   0.0002915365665650954
-0.0003350391689625642   1.0563812307694959e-05   0.0002915365665650954
-0.00016538659477633203   3.6189537709728145e-05   -6.593158986509555e-06
-0.00016538659477633203   3.6189537709728145e-05   -6.593158986509555e-06
-0.00016538659477633203   3.6189537709728145e-05   -6.593158986509555e-06
-0.00016538659477633203   3.6189537709728145e-05   -6.593158986509555e-06
-0.00024297457532984688   2.6905230275911865e-05   0.00012829072639631168
-0.00024297457532984688   2.6905230275911865e-05   0.00012829072639631168
-0.00024297457532984688   2.6905230275911865e-05   0.00012829072639631168
-0.00024297457532984688   2.6905230275911865e-05   0.00012829072639631168
-0.00030555422661172546   7.241822760169735e-05   0.00012483597557664747
-0.00030555422661172546   7.241822760169735e-05   0.00012483597557664747
-0.00030555422661172546   7.241822760169735e-05   0.00012483597557664747
-0.00030555422661172546   7.241822760169735e-05   0.00012483597557664747
-0.0004603145945469686   7.127931776584884e-05   -0.0001337813168836013
-0.0004603145945469686   7.127931776584884e-05   -0.0001337813168836013
-0.0004603145945469686   7.127931776584884e-05   -0.0001337813168836013
-0.0004603145945469686   7.127931776584884e-05   -0.0001337813168836013
-0.0004753302385055641   6.97759458640583e-05   0.00018444314062406562
-0.0004753302385055641   6.97759458640583e-05   0.00018444314062406562
-0.0004753302385055641   6.97759458640583e-05   0.00018444314062406562
-0.0004753302385055641   6.97759458640583e-05   0.00018444314062406562
-0.0003139279854145417   7.259614108028577e-05   -8.62527316573753e-05
-0.0003139279854145417   7.259614108028577e-05   -8.62527316573753e-05
-0.0003139279854145417   7.259614108028577e-05   -8.62527316573753e-05
-0.0003139279854145417   7.259614108028577e-05   -8.62527316573753e-05
-0.00037313298212530814   7.268847306867929e-05   1.236686366753309e-05
-0.00037313298212530814   7.268847306867929e-05   1.236686366753309e-05
-0.00037313298212530814   7.268847306867929e-05   1.236686366753309e-05
-0.00037313298212530814   7.268847306867929e-05   1.236686366753309e-05
-0.0003139279854145415   6.97759458640583e-05   0.00018275102349432984
-0.0003139279854145415   6.97759458640583e-05   0.00018275102349432984
-0.0003139279854145415   6.97759458640583e-05   0.00018275102349432984
-0.0003139279854145415   6.97759458640583e-05   0.00018275102349432984
-0.0004753302385055641   7.259614108028403e-05   -8.45606145276406e-05
-0.0004753302385055641   7.259614108028403e-05   -8.45606145276406e-05
-0.0004753302385055641   7.259614108028403e-05   -8.45606145276406e-05
-0.0004753302385055641   7.259614108028403e-05   -8.45606145276406e-05
-0.0004900564774125037   6.794227474312547e-05   0.0002263938765944603
-0.0004900564774125037   6.794227474312547e-05   0.0002263938765944603
-0.0004900564774125037   6.794227474312547e-05   0.0002263938765944603
-0.0004900564774125037   6.794227474312547e-05   0.0002263938765944603
-0.00032418038784672216   7.205654998699434e-05   -5.2534837828165266e-05
-0.00032418038784672216   7.205654998699434e-05   -5.2534837828165266e-05
-0.00032418038784672216   7.205654998699434e-05   -5.2534837828165266e-05
-0.00032418038784672216   7.205654998699434e-05   -5.2534837828165266e-05
-0.0003902579904825046   7.263304085643185e-05   5.724860537648308e-05
-0.0003902579904825046   7.263304085643185e-05   5.724860537648308e-05
-0.0003902579904825046   7.263304085643185e-05   5.724860537648308e-05
-0.0003902579904825046   7.263304085643185e-05   5.724860537648308e-05
-0.00032418038784672216   6.794227474312547e-05   0.00022392531144813967
-0.00032418038784672216   6.794227474312547e-05   0.00022392531144813967
-0.00032418038784672216   6.794227474312547e-05   0.00022392531144813967
-0.00032418038784672216   6.794227474312547e-05   0.00022392531144813967
-0.0004900564774125037   7.205654998699434e-05   -5.0066272681842904e-05
-0.0004900564774125037   7.205654998699434e-05   -5.0066272681842904e-05
-0.0004900564774125037   7.205654998699434e-05   -5.0066272681842904e-05
-0.0004900564774125037   7.205654998699434e-05   -5.0066272681842904e-05
-0.0005074154109659636   5.639458119346963e-05   0.00029651956989510016
-0.0005074154109659636   5.639458119346963e-05   0.00029651956989510016
-0.0005074154109659636   5.639458119346963e-05   0.00029651956989510016
-0.0005074154109659636   5.639458119346963e-05   0.00029651956989510016
-0.0003350391689625631   6.62824668673026e-05   3.293101818464166e-06
-0.0003350391689625631   6.62824668673026e-05   3.293101818464166e-06
-0.0003350391689625631   6.62824668673026e-05   3.293101818464166e-06
-0.0003350391689625631   6.62824668673026e-05   3.293101818464166e-06
-0.00039653211249374154   6.91475685835434e-05   0.0001040622800073548
-0.00039653211249374154   6.91475685835434e-05   0.0001040622800073548
-0.00039653211249374154   6.91475685835434e-05   0.0001040622800073548
-0.00039653211249374154   6.91475685835434e-05   0.0001040622800073548
0.0003069102569528944   -4.298331976665057e-05   0.00023767092399688654
0.0003069102569528944   -4.298331976665057e-05   0.00023767092399688654
0.0003069102569528944   -4.298331976665057e-05   0.00023767092399688654
0.0003069102569528944   -4.298331976665057e-05   0.00023767092399688654
0.00015210781952660284   -3.137807360643029e-05   -1.3369990684132874e-05
0.00015210781952660284   -3.137807360643029e-05   -1.3369990684132874e-05
0.00015210781952660284   -3.137807360643029e-05   -1.3369990684132874e-05
0.00015210781952660284   -3.137807360643029e-05   -1.3369990684132874e-05
0.0001462047604889474   -4.876353373742259e-05   0.00020680424083380743
0.0001462047604889474   -4.876353373742259e-05   0.00020680424083380743
0.0001462047604889474   -4.876353373742259e-05   0.00020680424083380743
0.0001462047604889474   -4.876353373742259e-05   0.00020680424083380743
0.0002960462789624739   -3.644963072697675e-05   -5.0319965095003944e-05
0.0002960462789624739   -3.644963072697675e-05   -5.0319965095003944e-05
0.0002960462789624739   -3.644963072697675e-05   -5.0319965095003944e-05
0.0002960462789624739   -3.644963072697675e-05   -5.0319965095003944e-05
0.00021499891922037112   -3.948846966418673e-05   8.658227117082796e-05
0.00021499891922037112   -3.948846966418673e-05   8.658227117082796e-05
0.00021499891922037112   -3.948846966418673e-05   8.658227117082796e-05
0.00021499891922037112   -3.948846966418673e-05   8.658227117082796e-05
0.00029604627896247335   -4.876353373742259e-05   0.00019941589902753958
0.00029604627896247335   -4.876353373742259e-05   0.00019941589902753958
0.00029604627896247335   -4.876353373742259e-05   0.00019941589902753958
0.00029604627896247335   -4.876353373742259e-05   0.00019941589902753958
0.0001462047604889479   -3.644963072697675e-05   -4.293162328873612e-05
0.0001462047604889479   -3.644963072697675e-05   -4.293162328873612e-05
0.0001462047604889479   -3.644963072697675e-05   -4.293162328873612e-05
0.0001462047604889479   -3.644963072697675e-05   -4.293162328873612e-05
0.00013964997754725526   -4.963405735838519e-05   0.00018541723716273065
0.00013964997754725526   -4.963405735838519e-05   0.00018541723716273065
0.00013964997754725526   -4.963405735838519e-05   0.00018541723716273065
0.00013964997754725526   -4.963405735838519e-05   0.00018541723716273065
0.00028621829424813674   -3.747627164288163e-05   -6.615796210137384e-05
0.00028621829424813674   -3.747627164288163e-05   -6.615796210137384e-05
0.00028621829424813674   -3.747627164288163e-05   -6.615796210137384e-05
0.00028621829424813674   -3.747627164288163e-05   -6.615796210137384e-05
0.00021085909518351058   -4.1450366348151635e-05   6.182515982949876e-05
0.00021085909518351058   -4.1450366348151635e-05   6.182515982949876e-05
0.00021085909518351058   -4.1450366348151635e-05   6.182515982949876e-05
0.00021085909518351058   -4.1450366348151635e-05   6.182515982949876e-05
0.00028621829424813576   -4.963405735838519e-05   0.00017812256573342816
0.00028621829424813576   -4.963405735838519e-05   0.00017812256573342816
0.00028621829424813576   -4.963405735838519e-05   0.00017812256573342816
0.00028621829424813576   -4.963405735838519e-05   0.00017812256573342816
0.00013964997754725554   -3.747627164288163e-05   -5.886329067207076e-05
0.00013964997754725554   -3.747627164288163e-05   -5.886329067207076e-05
0.00013964997754725554   -3.747627164288163e-05   -5.886329067207076e-05
0.00013964997754725554   -3.747627164288163e-05   -5.886329067207076e-05
0.0001333499215060485   -4.9370550418790377e-05   0.0001556577995754059
0.0001333499215060485   -4.9370550418790377e-05   0.0001556577995754059
0.0001333499215060485   -4.9370550418790377e-05   0.0001556577995754059
0.0001333499215060485   -4.9370550418790377e-05   0.0001556577995754059
0.0002750964197874651   -3.7930939495304725e-05   -8.745013078104621e-05
0.0002750964197874651   -3.7930939495304725e-05   -8.745013078104621e-05
0.0002750964197874651   -3.7930939495304725e-05   -8.745013078104621e-05
0.0002750964197874651   -3.7930939495304725e-05   -8.745013078104621e-05
0.00019989962753638082   -4.076605251829117e-05   3.95789241178896e-05
0.00019989962753638082   -4.076605251829117e-05   3.95789241178896e-05
0.00019989962753638082   -4.076605251829117e-05   3.95789241178896e-05
0.00019989962753638082   -4.076605251829117e-05   3.95789241178896e-05
0.00015210781952660284   -1.5227462197418828e-05   0.00025022129069905
0.00015210781952660284   -1.5227462197418828e-05   0.00025022129069905
0.00015210781952660284   -1.5227462197418828e-05   0.00025022129069905
0.00015210781952660284   -1.5227462197418828e-05   0.00025022129069905
6.810228574817166e-06   -5.985984263085983e-06   1.3603525873339718e-05
6.810228574817166e-06   -5.985984263085983e-06   1.3603525873339718e-05
6.810228574817166e-06   -5.985984263085983e-06   1.3603525873339718e-05
6.810228574817166e-06   -5.985984263085983e-06   1.3603525873339718e-05
1.1483673145507066e-06   -1.8344573060713465e-05   0.00025288268439339207
1.1483673145507066e-06   -1.8344573060713465e-05   0.00025288268439339207
1.1483673145507066e-06   -1.8344573060713465e-05   0.00025288268439339207
1.1483673145507066e-06   -1.8344573060713465e-05   0.00025288268439339207
0.0001462047604889479   -9.592126491160535e-06   5.870561160997928e-06
0.0001462047604889479   -9.592126491160535e-06   5.870561160997928e-06
0.0001462047604889479   -9.592126491160535e-06   5.870561160997928e-06
0.0001462047604889479   -9.592126491160535e-06   5.870561160997928e-06
7.564143090357399e-05   -1.182746033655084e-05   0.00012481731077718843
7.564143090357399e-05   -1.182746033655084e-05   0.00012481731077718843
7.564143090357399e-05   -1.182746033655084e-05   0.00012481731077718843
7.564143090357399e-05   -1.182746033655084e-05   0.00012481731077718843
0.0001462047604889478   -1.8344573060713465e-05   0.0002476312164516603
0.0001462047604889478   -1.8344573060713465e-05   0.0002476312164516603
0.0001462047604889478   -1.8344573060713465e-05   0.0002476312164516603
0.0001462047604889478   -1.8344573060713465e-05   0.0002476312164516603
1.1483673145507066e-06   -9.592126491160535e-06   1.1122029102730337e-05
1.1483673145507066e-06   -9.592126491160535e-06   1.1122029102730337e-05
1.1483673145507066e-06   -9.592126491160535e-06   1.1122029102730337e-05
1.1483673145507066e-06   -9.592126491160535e-06   1.1122029102730337e-05
-4.736413775361173e-06   -2.0403684291325427e-05   0.00024914330525833625
-4.736413775361173e-06   -2.0403684291325427e-05   0.00024914330525833625
-4.736413775361173e-06   -2.0403684291325427e-05   0.00024914330525833625
-4.736413775361173e-06   -2.0403684291325427e-05   0.00024914330525833625
0.00013964997754725554   -1.2283500832476271e-05   3.627209645332423e-06
0.00013964997754725554   -1.2283500832476271e-05   3.627209645332423e-06
0.00013964997754725554   -1.2283500832476271e-05   3.627209645332423e-06
0.00013964997754725554   -1.2283500832476271e-05   3.627209645332423e-06
6.915323500617237e-05   -1.372255925206553e-05   0.00012198521559889401
6.915323500617237e-05   -1.372255925206553e-05   0.00012198521559889401
6.915323500617237e-05   -1.372255925206553e-05   0.00012198521559889401
6.915323500617237e-05   -1.372255925206553e-05   0.00012198521559889401
0.00013964997754725526   -2.0403684291325427e-05   0.000244271195183025
0.00013964997754725526   -2.0403684291325427e-05   0.000244271195183025
0.00013964997754725526   -2.0403684291325427e-05   0.000244271195183025
0.00013964997754725526   -2.0403684291325427e-05   0.000244271195183025
-4.736413775361173e-06   -1.2283500832474537e-05   8.499319720642676e-06
-4.736413775361173e-06   -1.2283500832474537e-05   8.499319720642676e-06
-4.736413775361173e-06   -1.2283500832474537e-05   8.499319720642676e-06
-4.736413775361173e-06   -1.2283500832474537e-05   8.499319720642676e-06
-1.086274482186764e-05   -2.1307817532515566e-05   0.0002511302818727565
-1.086274482186764e-05   -2.1307817532515566e-05   0.0002511302818727565
-1.086274482186764e-05   -2.1307817532515566e-05   0.0002511302818727565
-1.086274482186764e-05   -2.1307817532515566e-05   0.0002511302818727565
0.00013334992150604882   -1.4421700443380953e-05   6.64416773941425e-06
0.00013334992150604882   -1.4421700443380953e-05   6.64416773941425e-06
0.00013334992150604882   -1.4421700443380953e-05   6.64416773941425e-06
0.00013334992150604882   -1.4421700443380953e-05   6.64416773941425e-06
6.425519222905468e-05   -1.4755333854806624e-05   0.00012200222991459904
6.425519222905468e-05   -1.4755333854806624e-05   0.00012200222991459904
6.425519222905468e-05   -1.4755333854806624e-05   0.00012200222991459904
6.425519222905468e-05   -1.4755333854806624e-05   0.00012200222991459904
6.810228574817166e-06   1.340105231616845e-05   0.000258457146906612
6.810228574817166e-06   1.340105231616845e-05   0.000258457146906612
6.810228574817166e-06   1.340105231616845e-05   0.000258457146906612
6.810228574817166e-06   1.340105231616845e-05   0.000258457146906612
-0.00013420949177240312   1.9553032026459888e-05   2.7115467487419734e-05
-0.00013420949177240312   1.9553032026459888e-05   2.7115467487419734e-05
-0.00013420949177240312   1.9553032026459888e-05   2.7115467487419734e-05
-0.00013420949177240312   1.9553032026459888e-05   2.7115467487419734e-05
-0.00014012238588681448   1.0995704540521165e-05   0.00026204948391214157
-0.00014012238588681448   1.0995704540521165e-05   0.00026204948391214157
-0.00014012238588681448   1.0995704540521165e-05   0.00026204948391214157
-0.00014012238588681448   1.0995704540521165e-05   0.00026204948391214157
1.1483673145507066e-06   1.6537792074665034e-05   2.327297605604628e-05
1.1483673145507066e-06   1.6537792074665034e-05   2.327297605604628e-05
1.1483673145507066e-06   1.6537792074665034e-05   2.327297605604628e-05
1.1483673145507066e-06   1.6537792074665034e-05   2.327297605604628e-05
-6.669756790761178e-05   1.5307240520765625e-05   0.00013708786569198916
-6.669756790761178e-05   1.5307240520765625e-05   0.00013708786569198916
-6.669756790761178e-05   1.5307240520765625e-05   0.00013708786569198916
-6.669756790761178e-05   1.5307240520765625e-05   0.00013708786569198916
1.1483673145507066e-06   1.0995704540521165e-05   0.0002587242313916542
1.1483673145507066e-06   1.0995704540521165e-05   0.0002587242313916542
1.1483673145507066e-06   1.0995704540521165e-05   0.0002587242313916542
1.1483673145507066e-06   1.0995704540521165e-05   0.0002587242313916542
-0.00014012238588681448   1.6537792074665034e-05   2.6598228576532774e-05
-0.00014012238588681448   1.6537792074665034e-05   2.6598228576532774e-05
-0.00014012238588681448   1.6537792074665034e-05   2.6598228576532774e-05
-0.00014012238588681448   1.6537792074665034e-05   2.6598228576532774e-05
-0.00014637007189756478   8.756441672926052e-06   0.0002645596472225283
-0.00014637007189756478   8.756441672926052e-06   0.0002645596472225283
-0.00014637007189756478   8.756441672926052e-06   0.0002645596472225283
-0.00014637007189756478   8.756441672926052e-06   0.0002645596472225283
-4.736413775361173e-06   1.360934162803612e-05   2.5591810379122035e-05
-4.736413775361173e-06   1.360934162803612e-05   2.5591810379122035e-05
-4.736413775361173e-06   1.360934162803612e-05   2.5591810379122035e-05
-4.736413775361173e-06   1.360934162803612e-05   2.5591810379122035e-05
-7.219287414426923e-05   1.3577869223457828e-05   0.0001380381277700498
-7.219287414426923e-05   1.3577869223457828e-05   0.0001380381277700498
-7.219287414426923e-05   1.3577869223457828e-05   0.0001380381277700498
-7.219287414426923e-05   1.3577869223457828e-05   0.0001380381277700498
-4.736413775361173e-06   8.756441672926052e-06   0.0002616479072494616
-4.736413775361173e-06   8.756441672926052e-06   0.0002616479072494616
-4.736413775361173e-06   8.756441672926052e-06   0.0002616479072494616
-4.736413775361173e-06   8.756441672926052e-06   0.0002616479072494616
-0.0001463700718975652   1.360934162803612e-05   2.8503550352188337e-05
-0.0001463700718975652   1.360934162803612e-05   2.8503550352188337e-05
-0.0001463700718975652   1.360934162803612e-05   2.8503550352188337e-05
-0.0001463700718975652   1.360934162803612e-05   2.8503550352188337e-05
-0.00015281933877823843   7.13865636937927e-06   0.0002685426096101645
-0.00015281933877823843   7.13865636937927e-06   0.0002685426096101645
-0.00015281933877823843   7.13865636937927e-06   0.0002685426096101645
-0.00015281933877823843   7.13865636937927e-06   0.0002685426096101645
-1.086274482186764e-05   1.1001760844961753e-05   2.9630423664194763e-05
-1.086274482186764e-05   1.1001760844961753e-05   2.9630423664194763e-05
-1.086274482186764e-05   1.1001760844961753e-05   2.9630423664194763e-05
-1.086274482186764e-05   1.1001760844961753e-05   2.9630423664194763e-05
-7.813934149215955e-05   1.1919426586631462e-05   0.00014120748533635137
-7.813934149215955e-05   1.1919426586631462e-05   0.00014120748533635137
-7.813934149215955e-05   1.1919426586631462e-05   0.00014120748533635137
-7.813934149215955e-05   1.1919426586631462e-05   0.00014120748533635137
-0.00013420949177240366   4.382876825582971e-05   0.0002252417263278253
-0.00013420949177240366   4.382876825582971e-05   0.0002252417263278253
-0.00013420949177240366   4.382876825582971e-05   0.0002252417263278253
-0.00013420949177240366   4.382876825582971e-05   0.0002252417263278253
-0.00027063978610532887   4.4380036060717026e-05   -1.8113368774521493e-06
-0.00027063978610532887   4.4380036060717026e-05   -1.8113368774521493e-06
-0.00027063978610532887   4.4380036060717026e-05   -1.8113368774521493e-06
-0.00027063978610532887   4.4380036060717026e-05   -1.8113368774521493e-06
-0.0002775061464107488   4.1406490714488917e-05   0.0002291896622378612
-0.0002775061464107488   4.1406490714488917e-05   0.0002291896622378612
-0.0002775061464107488   4.1406490714488917e-05   0.0002291896622378612
-0.0002775061464107488   4.1406490714488917e-05   0.0002291896622378612
-0.00014012238588681492   4.148775847943355e-05   1.6796737233840293e-07
-0.00014012238588681492   4.148775847943355e-05   1.6796737233840293e-07
-0.00014012238588681492   4.148775847943355e-05   1.6796737233840293e-07
-0.00014012238588681492   4.148775847943355e-05   1.6796737233840293e-07
-0.00020469990052167424   4.269113560490673e-05   0.00010707513215515172
-0.00020469990052167424   4.269113560490673e-05   0.00010707513215515172
-0.00020469990052167424   4.269113560490673e-05   0.00010707513215515172
-0.00020469990052167424   4.269113560490673e-05   0.00010707513215515172
-0.00014012238588681492   4.1406490714488917e-05   0.00022914090157889408
-0.00014012238588681492   4.1406490714488917e-05   0.00022914090157889408
-0.00014012238588681492   4.1406490714488917e-05   0.00022914090157889408
-0.00014012238588681492   4.1406490714488917e-05   0.00022914090157889408
-0.0002775061464107486   4.148775847943528e-05   2.167280313044445e-07
-0.0002775061464107486   4.148775847943528e-05   2.167280313044445e-07
-0.0002775061464107486   4.148775847943528e-05   2.167280313044445e-07
-0.0002775061464107486   4.148775847943528e-05   2.167280313044445e-07
-0.0002851233804354034   3.917625268747005e-05   0.00023983782009947413
-0.0002851233804354034   3.917625268747005e-05   0.00023983782009947413
-0.0002851233804354034   3.917625268747005e-05   0.00023983782009947413
-0.0002851233804354034   3.917625268747005e-05   0.00023983782009947413
-0.0001463700718975652   3.8832545143306293e-05   8.788530396241926e-06
-0.0001463700718975652   3.8832545143306293e-05   8.788530396241926e-06
-0.0001463700718975652   3.8832545143306293e-05   8.788530396241926e-06
-0.0001463700718975652   3.8832545143306293e-05   8.788530396241926e-06
-0.0002096870110928641   4.105027027856076e-05   0.00011298612730725527
-0.0002096870110928641   4.105027027856076e-05   0.00011298612730725527
-0.0002096870110928641   4.105027027856076e-05   0.00011298612730725527
-0.0002096870110928641   4.105027027856076e-05   0.00011298612730725527
-0.0001463700718975651   3.917625268746831e-05   0.00024004404462597134
-0.0001463700718975651   3.917625268746831e-05   0.00024004404462597134
-0.0001463700718975651   3.917625268746831e-05   0.00024004404462597134
-0.0001463700718975651   3.917625268746831e-05   0.00024004404462597134
-0.000285123380435403   3.8832545143306293e-05   8.58230586974363e-06
-0.000285123380435403   3.8832545143306293e-05   8.58230586974363e-06
-0.000285123380435403   3.8832545143306293e-05   8.58230586974363e-06
-0.000285123380435403   3.8832545143306293e-05   8.58230586974363e-06
-0.0002923872000032224   3.6189537709728145e-05   0.0002475745687583984
-0.0002923872000032224   3.6189537709728145e-05   0.0002475745687583984
-0.0002923872000032224   3.6189537709728145e-05   0.0002475745687583984
-0.0002923872000032224   3.6189537709728145e-05   0.0002475745687583984
-0.00015281933877823897   3.560002285637846e-05   1.5315175628769677e-05
-0.00015281933877823897   3.560002285637846e-05   1.5315175628769677e-05
-0.00015281933877823897   3.560002285637846e-05   1.5315175628769677e-05
-0.00015281933877823897   3.560002285637846e-05   1.5315175628769677e-05
-0.00021756971996871304   3.893356535984889e-05   0.000121232352110819
-0.00021756971996871304   3.893356535984889e-05   0.000121232352110819
-0.00021756971996871304   3.893356535984889e-05   0.000121232352110819
-0.00021756971996871304   3.893356535984889e-05   0.000121232352110819
-0.0002706397861053282   7.127931776584884e-05   0.00010808786383100823
-0.0002706397861053282   7.127931776584884e-05   0.00010808786383100823
-0.0002706397861053282   7.127931776584884e-05   0.00010808786383100823
-0.0002706397861053282   7.127931776584884e-05   0.00010808786383100823
-0.0004000141627085508   6.376879712003194e-05   -0.00011204240956185375
-0.0004000141627085508   6.376879712003194e-05   -0.00011204240956185375
-0.0004000141627085508   6.376879712003194e-05   -0.00011204240956185375
-0.0004000141627085508   6.376879712003194e-05   -0.00011204240956185375
-0.00041082402732782095   7.259614108028577e-05   0.00014955766035388077
-0.00041082402732782095   7.259614108028577e-05   0.00014955766035388077
-0.00041082402732782095   7.259614108028577e-05   0.00014955766035388077
-0.00041082402732782095   7.259614108028577e-05   0.00014955766035388077
-0.0002775061464107488   6.440390276464363e-05   -6.772346485185666e-05
-0.0002775061464107488   6.440390276464363e-05   -6.772346485185666e-05
-0.0002775061464107488   6.440390276464363e-05   -6.772346485185666e-05
-0.0002775061464107488   6.440390276464363e-05   -6.772346485185666e-05
-0.00032674359886112746   6.763948248255172e-05   1.2397608068029885e-05
-0.00032674359886112746   6.763948248255172e-05   1.2397608068029885e-05
-0.00032674359886112746   6.763948248255172e-05   1.2397608068029885e-05
-0.00032674359886112746   6.763948248255172e-05   1.2397608068029885e-05
-0.00027750614641074817   7.259614108028577e-05   0.00015447300334326536
-0.00027750614641074817   7.259614108028577e-05   0.00015447300334326536
-0.00027750614641074817   7.259614108028577e-05   0.00015447300334326536
-0.00027750614641074817   7.259614108028577e-05   0.00015447300334326536
-0.00041082402732782247   6.440390276464363e-05   -7.263880784124255e-05
-0.00041082402732782247   6.440390276464363e-05   -7.263880784124255e-05
-0.00041082402732782247   6.440390276464363e-05   -7.263880784124255e-05
-0.00041082402732782247   6.440390276464363e-05   -7.263880784124255e-05
-0.0004213899226724882   7.205654998699434e-05   0.00018196882819141239
-0.0004213899226724882   7.205654998699434e-05   0.00018196882819141239
-0.0004213899226724882   7.205654998699434e-05   0.00018196882819141239
-0.0004213899226724882   7.205654998699434e-05   0.00018196882819141239
-0.0002851233804354034   6.368349149014733e-05   -4.011824043895348e-05
-0.0002851233804354034   6.368349149014733e-05   -4.011824043895348e-05
-0.0002851233804354034   6.368349149014733e-05   -4.011824043895348e-05
-0.0002851233804354034   6.368349149014733e-05   -4.011824043895348e-05
-0.00033995071184797965   6.885808098032464e-05   4.815589155457217e-05
-0.00033995071184797965   6.885808098032464e-05   4.815589155457217e-05
-0.00033995071184797965   6.885808098032464e-05   4.815589155457217e-05
-0.00033995071184797965   6.885808098032464e-05   4.815589155457217e-05
-0.0002851233804354034   7.205654998699608e-05   0.00018699266328952267
-0.0002851233804354034   7.205654998699608e-05   0.00018699266328952267
-0.0002851233804354034   7.205654998699608e-05   0.00018699266328952267
-0.0002851233804354034   7.205654998699608e-05   0.00018699266328952267
-0.0004213899226724897   6.368349149014733e-05   -4.5142075537063335e-05
-0.0004213899226724897   6.368349149014733e-05   -4.5142075537063335e-05
-0.0004213899226724897   6.368349149014733e-05   -4.5142075537063335e-05
-0.0004213899226724897   6.368349149014733e-05   -4.5142075537063335e-05
-0.00043374030264995   6.62824668673026e-05   0.0002375620663536606
-0.00043374030264995   6.62824668673026e-05   0.0002375620663536606
-0.00043374030264995   6.62824668673026e-05   0.0002375620663536606
-0.00043374030264995   6.62824668673026e-05   0.0002375620663536606
-0.0002923872000032224   5.874358691981482e-05   6.496889910939142e-06
-0.0002923872000032224   5.874358691981482e-05   6.496889910939142e-06
-0.0002923872000032224   5.874358691981482e-05   6.496889910939142e-06
-0.0002923872000032224   5.874358691981482e-05   6.496889910939142e-06
-0.00034341613084888374   6.682259238673452e-05   8.669770470689456e-05
-0.00034341613084888374   6.682259238673452e-05   8.669770470689456e-05
-0.00034341613084888374   6.682259238673452e-05   8.669770470689456e-05
-0.00034341613084888374   6.682259238673452e-05   8.669770470689456e-05
0.00023199764075230742   -3.137807360643029e-05   0.0001977247056675147
0.00023199764075230742   -3.137807360643029e-05   0.0001977247056675147
0.00023199764075230742   -3.137807360643029e-05   0.0001977247056675147
0.00023199764075230742   -3.137807360643029e-05   0.0001977247056675147
0.00010930772283514125   -2.061473562181039e-05   -3.0048807032369285e-07
0.00010930772283514125   -2.061473562181039e-05   -3.0048807032369285e-07
0.00010930772283514125   -2.061473562181039e-05   -3.0048807032369285e-07
0.00010930772283514125   -2.061473562181039e-05   -3.0048807032369285e-07
0.00010404393816229761   -3.644963072697502e-05   0.00017383859911445677
0.00010404393816229761   -3.644963072697502e-05   0.00017383859911445677
0.00010404393816229761   -3.644963072697502e-05   0.00017383859911445677
0.00010404393816229761   -3.644963072697502e-05   0.00017383859911445677
0.00022182028881080038   -2.506570446986385e-05   -2.928567438731497e-05
0.00022182028881080038   -2.506570446986385e-05   -2.928567438731497e-05
0.00022182028881080038   -2.506570446986385e-05   -2.928567438731497e-05
0.00022182028881080038   -2.506570446986385e-05   -2.928567438731497e-05
0.00015894265943313573   -2.8601913116009514e-05   7.763209976314718e-05
0.00015894265943313573   -2.8601913116009514e-05   7.763209976314718e-05
0.00015894265943313573   -2.8601913116009514e-05   7.763209976314718e-05
0.00015894265943313573   -2.8601913116009514e-05   7.763209976314718e-05
0.00022182028881080038   -3.644963072697502e-05   0.00016700824336019025
0.00022182028881080038   -3.644963072697502e-05   0.00016700824336019025
0.00022182028881080038   -3.644963072697502e-05   0.00016700824336019025
0.00022182028881080038   -3.644963072697502e-05   0.00016700824336019025
0.00010404393816229777   -2.506570446986385e-05   -2.2455318633048116e-05
0.00010404393816229777   -2.506570446986385e-05   -2.2455318633048116e-05
0.00010404393816229777   -2.506570446986385e-05   -2.2455318633048116e-05
0.00010404393816229777   -2.506570446986385e-05   -2.2455318633048116e-05
9.824085082841687e-05   -3.747627164288163e-05   0.00015703751591950987
9.824085082841687e-05   -3.747627164288163e-05   0.00015703751591950987
9.824085082841687e-05   -3.747627164288163e-05   0.00015703751591950987
9.824085082841687e-05   -3.747627164288163e-05   0.00015703751591950987
0.00021290960936089513   -2.6261496343760876e-05   -4.080594681409326e-05
0.00021290960936089513   -2.6261496343760876e-05   -4.080594681409326e-05
0.00021290960936089513   -2.6261496343760876e-05   -4.080594681409326e-05
0.00021290960936089513   -2.6261496343760876e-05   -4.080594681409326e-05
0.00015467813763457705   -3.0404023538179586e-05   5.8732022379758345e-05
0.00015467813763457705   -3.0404023538179586e-05   5.8732022379758345e-05
0.00015467813763457705   -3.0404023538179586e-05   5.8732022379758345e-05
0.00015467813763457705   -3.0404023538179586e-05   5.8732022379758345e-05
0.00021290960936089476   -3.747627164288163e-05   0.00015030865074003655
0.00021290960936089476   -3.747627164288163e-05   0.00015030865074003655
0.00021290960936089476   -3.747627164288163e-05   0.00015030865074003655
0.00021290960936089476   -3.747627164288163e-05   0.00015030865074003655
9.824085082841703e-05   -2.6261496343760876e-05   -3.4077081634619616e-05
9.824085082841703e-05   -2.6261496343760876e-05   -3.4077081634619616e-05
9.824085082841703e-05   -2.6261496343760876e-05   -3.4077081634619616e-05
9.824085082841703e-05   -2.6261496343760876e-05   -3.4077081634619616e-05
9.288634269394942e-05   -3.7930939495304725e-05   0.0001343459777618846
9.288634269394942e-05   -3.7930939495304725e-05   0.0001343459777618846
9.288634269394942e-05   -3.7930939495304725e-05   0.0001343459777618846
9.288634269394942e-05   -3.7930939495304725e-05   0.0001343459777618846
0.0002029664548918377   -2.7410209167884683e-05   -5.543331409771314e-05
0.0002029664548918377   -2.7410209167884683e-05   -5.543331409771314e-05
0.0002029664548918377   -2.7410209167884683e-05   -5.543331409771314e-05
0.0002029664548918377   -2.7410209167884683e-05   -5.543331409771314e-05
0.00014542440489644296   -3.0245913242604727e-05   4.217152500611294e-05
0.00014542440489644296   -3.0245913242604727e-05   4.217152500611294e-05
0.00014542440489644296   -3.0245913242604727e-05   4.217152500611294e-05
0.00014542440489644296   -3.0245913242604727e-05   4.217152500611294e-05
0.00010930772283514087   -5.985984263087718e-06   0.00022561133825515882
0.00010930772283514087   -5.985984263087718e-06   0.00022561133825515882
0.00010930772283514087   -5.985984263087718e-06   0.00022561133825515882
0.00010930772283514087   -5.985984263087718e-06   0.00022561133825515882
-6.871118255526447e-06   -4.1160581030347254e-08   3.554683064661401e-05
-6.871118255526447e-06   -4.1160581030347254e-08   3.554683064661401e-05
-6.871118255526447e-06   -4.1160581030347254e-08   3.554683064661401e-05
-6.871118255526447e-06   -4.1160581030347254e-08   3.554683064661401e-05
-1.1815979695948805e-05   -9.59212649116227e-06   0.00022604133069696955
-1.1815979695948805e-05   -9.59212649116227e-06   0.00022604133069696955
-1.1815979695948805e-05   -9.59212649116227e-06   0.00022604133069696955
-1.1815979695948805e-05   -9.59212649116227e-06   0.00022604133069696955
0.00010404393816229777   -3.924547936530118e-06   2.954092046711387e-05
0.00010404393816229777   -3.924547936530118e-06   2.954092046711387e-05
0.00010404393816229777   -3.924547936530118e-06   2.954092046711387e-05
0.00010404393816229777   -3.924547936530118e-06   2.954092046711387e-05
4.787980794128773e-05   -5.024996041425728e-06   0.00012380807303173343
4.787980794128773e-05   -5.024996041425728e-06   0.00012380807303173343
4.787980794128773e-05   -5.024996041425728e-06   0.00012380807303173343
4.787980794128773e-05   -5.024996041425728e-06   0.00012380807303173343
0.00010404393816229753   -9.59212649116227e-06   0.0002226407835641906
0.00010404393816229753   -9.59212649116227e-06   0.0002226407835641906
0.00010404393816229753   -9.59212649116227e-06   0.0002226407835641906
0.00010404393816229753   -9.59212649116227e-06   0.0002226407835641906
-1.1815979695948805e-05   -3.924547936528383e-06   3.294146759989184e-05
-1.1815979695948805e-05   -3.924547936528383e-06   3.294146759989184e-05
-1.1815979695948805e-05   -3.924547936528383e-06   3.294146759989184e-05
-1.1815979695948805e-05   -3.924547936528383e-06   3.294146759989184e-05
-1.6864481955605423e-05   -1.2283500832474537e-05   0.0002226999071020825
-1.6864481955605423e-05   -1.2283500832474537e-05   0.0002226999071020825
-1.6864481955605423e-05   -1.2283500832474537e-05   0.0002226999071020825
-1.6864481955605423e-05   -1.2283500832474537e-05   0.0002226999071020825
9.824085082841703e-05   -6.997016057190206e-06   2.7685794930208142e-05
9.824085082841703e-05   -6.997016057190206e-06   2.7685794930208142e-05
9.824085082841703e-05   -6.997016057190206e-06   2.7685794930208142e-05
9.824085082841703e-05   -6.997016057190206e-06   2.7685794930208142e-05
4.234379067861553e-05   -7.427606755983085e-06   0.00012110591626582692
4.234379067861553e-05   -7.427606755983085e-06   0.00012110591626582692
4.234379067861553e-05   -7.427606755983085e-06   0.00012110591626582692
4.234379067861553e-05   -7.427606755983085e-06   0.00012110591626582692
9.824085082841687e-05   -1.2283500832476271e-05   0.00021952801623691294
9.824085082841687e-05   -1.2283500832476271e-05   0.00021952801623691294
9.824085082841687e-05   -1.2283500832476271e-05   0.00021952801623691294
9.824085082841687e-05   -1.2283500832476271e-05   0.00021952801623691294
-1.6864481955605423e-05   -6.997016057190206e-06   3.085768579537927e-05
-1.6864481955605423e-05   -6.997016057190206e-06   3.085768579537927e-05
-1.6864481955605423e-05   -6.997016057190206e-06   3.085768579537927e-05
-1.6864481955605423e-05   -6.997016057190206e-06   3.085768579537927e-05
-2.193941378965706e-05   -1.4421700443380953e-05   0.00022431552539402787
-2.193941378965706e-05   -1.4421700443380953e-05   0.00022431552539402787
-2.193941378965706e-05   -1.4421700443380953e-05   0.00022431552539402787
-2.193941378965706e-05   -1.4421700443380953e-05   0.00022431552539402787
9.28863426939495e-05   -9.856674333758031e-06   3.0200248922242494e-05
9.28863426939495e-05   -9.856674333758031e-06   3.0200248922242494e-05
9.28863426939495e-05   -9.856674333758031e-06   3.0200248922242494e-05
9.28863426939495e-05   -9.856674333758031e-06   3.0200248922242494e-05
3.809915688309086e-05   -9.219782906189078e-06   0.000121130090417137
3.809915688309086e-05   -9.219782906189078e-06   0.000121130090417137
3.809915688309086e-05   -9.219782906189078e-06   0.000121130090417137
3.809915688309086e-05   -9.219782906189078e-06   0.000121130090417137
-6.871118255526447e-06   1.9553032026458153e-05   0.00023899898625229926
-6.871118255526447e-06   1.9553032026458153e-05   0.00023899898625229926
-6.871118255526447e-06   1.9553032026458153e-05   0.00023899898625229926
-6.871118255526447e-06   1.9553032026458153e-05   0.00023899898625229926
-0.00012061403502124242   2.0100403950232965e-05   4.975588146370353e-05
-0.00012061403502124242   2.0100403950232965e-05   4.975588146370353e-05
-0.00012061403502124242   2.0100403950232965e-05   4.975588146370353e-05
-0.00012061403502124242   2.0100403950232965e-05   4.975588146370353e-05
-0.00012558166538959503   1.6537792074665034e-05   0.00023827482265156678
-0.00012558166538959503   1.6537792074665034e-05   0.00023827482265156678
-0.00012558166538959503   1.6537792074665034e-05   0.00023827482265156678
-0.00012558166538959503   1.6537792074665034e-05   0.00023827482265156678
-1.1815979695948913e-05   1.6675367076801964e-05   4.85828014942086e-05
-1.1815979695948913e-05   1.6675367076801964e-05   4.85828014942086e-05
-1.1815979695948913e-05   1.6675367076801964e-05   4.85828014942086e-05
-1.1815979695948913e-05   1.6675367076801964e-05   4.85828014942086e-05
-6.639339750124626e-05   1.790584704630324e-05   0.00013880687652133685
-6.639339750124626e-05   1.790584704630324e-05   0.00013880687652133685
-6.639339750124626e-05   1.790584704630324e-05   0.00013880687652133685
-6.639339750124626e-05   1.790584704630324e-05   0.00013880687652133685
-1.1815979695948913e-05   1.6537792074665034e-05   0.0002381922776502855
-1.1815979695948913e-05   1.6537792074665034e-05   0.0002381922776502855
-1.1815979695948913e-05   1.6537792074665034e-05   0.0002381922776502855
-1.1815979695948913e-05   1.6537792074665034e-05   0.0002381922776502855
-0.00012558166538959503   1.667536707680023e-05   4.8665346495490105e-05
-0.00012558166538959503   1.667536707680023e-05   4.8665346495490105e-05
-0.00012558166538959503   1.667536707680023e-05   4.8665346495490105e-05
-0.00012558166538959503   1.667536707680023e-05   4.8665346495490105e-05
-0.00013067544084138685   1.360934162803612e-05   0.0002396092487400043
-0.00013067544084138685   1.360934162803612e-05   0.0002396092487400043
-0.00013067544084138685   1.360934162803612e-05   0.0002396092487400043
-0.00013067544084138685   1.360934162803612e-05   0.0002396092487400043
-1.6864481955605423e-05   1.3304093260438007e-05   5.0107466284260525e-05
-1.6864481955605423e-05   1.3304093260438007e-05   5.0107466284260525e-05
-1.6864481955605423e-05   1.3304093260438007e-05   5.0107466284260525e-05
-1.6864481955605423e-05   1.3304093260438007e-05   5.0107466284260525e-05
-7.100918458184923e-05   1.5597360296069895e-05   0.0001389726771066249
-7.100918458184923e-05   1.5597360296069895e-05   0.0001389726771066249
-7.100918458184923e-05   1.5597360296069895e-05   0.0001389726771066249
-7.100918458184923e-05   1.5597360296069895e-05   0.0001389726771066249
-1.6864481955605423e-05   1.360934162803612e-05   0.0002397923977605649
-1.6864481955605423e-05   1.360934162803612e-05   0.0002397923977605649
-1.6864481955605423e-05   1.360934162803612e-05   0.0002397923977605649
-1.6864481955605423e-05   1.360934162803612e-05   0.0002397923977605649
-0.00013067544084138685   1.3304093260438007e-05   4.992431726370209e-05
-0.00013067544084138685   1.3304093260438007e-05   4.992431726370209e-05
-0.00013067544084138685   1.3304093260438007e-05   4.992431726370209e-05
-0.00013067544084138685   1.3304093260438007e-05   4.992431726370209e-05
-0.0001357691033917524   1.1001760844963487e-05   0.0002426314842566401
-0.0001357691033917524   1.1001760844963487e-05   0.0002426314842566401
-0.0001357691033917524   1.1001760844963487e-05   0.0002426314842566401
-0.0001357691033917524   1.1001760844963487e-05   0.0002426314842566401
-2.193941378965717e-05   1.0104049497151532e-05   5.345396172850084e-05
-2.193941378965717e-05   1.0104049497151532e-05   5.345396172850084e-05
-2.193941378965717e-05   1.0104049497151532e-05   5.345396172850084e-05
-2.193941378965717e-05   1.0104049497151532e-05   5.345396172850084e-05
-7.58397258061223e-05   1.3346270906690327e-05   0.00014134248224355848
-7.58397258061223e-05   1.3346270906690327e-05   0.00014134248224355848
-7.58397258061223e-05   1.3346270906690327e-05   0.00014134248224355848
-7.58397258061223e-05   1.3346270906690327e-05   0.00014134248224355848
-0.00012061403502124242   4.4380036060717026e-05   0.00021006984435876022
-0.00012061403502124242   4.4380036060717026e-05   0.00021006984435876022
-0.00012061403502124242   4.4380036060717026e-05   0.00021006984435876022
-0.00012061403502124242   4.4380036060717026e-05   0.00021006984435876022
-0.00023173557628180185   3.946506963537107e-05   2.19182957359532e-05
-0.00023173557628180185   3.946506963537107e-05   2.19182957359532e-05
-0.00023173557628180185   3.946506963537107e-05   2.19182957359532e-05
-0.00023173557628180185   3.946506963537107e-05   2.19182957359532e-05
-0.00023707758623948538   4.148775847943355e-05   0.00020865619504042109
-0.00023707758623948538   4.148775847943355e-05   0.00020865619504042109
-0.00023707758623948538   4.148775847943355e-05   0.00020865619504042109
-0.00023707758623948538   4.148775847943355e-05   0.00020865619504042109
-0.00012558166538959503   3.617381446784952e-05   2.601802669755524e-05
-0.00012558166538959503   3.617381446784952e-05   2.601802669755524e-05
-0.00012558166538959503   3.617381446784952e-05   2.601802669755524e-05
-0.00012558166538959503   3.617381446784952e-05   2.601802669755524e-05
-0.00017816462515596646   3.986367429813578e-05   0.00011144237707666959
-0.00017816462515596646   3.986367429813578e-05   0.00011144237707666959
-0.00017816462515596646   3.986367429813578e-05   0.00011144237707666959
-0.00017816462515596646   3.986367429813578e-05   0.00011144237707666959
-0.00012558166538959503   4.148775847943355e-05   0.00021184456144737306
-0.00012558166538959503   4.148775847943355e-05   0.00021184456144737306
-0.00012558166538959503   4.148775847943355e-05   0.00021184456144737306
-0.00012558166538959503   4.148775847943355e-05   0.00021184456144737306
-0.00023707758623948538   3.617381446784952e-05   2.282966029060543e-05
-0.00023707758623948538   3.617381446784952e-05   2.282966029060543e-05
-0.00023707758623948538   3.617381446784952e-05   2.282966029060543e-05
-0.00023707758623948538   3.617381446784952e-05   2.282966029060543e-05
-0.0002429635802225188   3.8832545143306293e-05   0.00021646525631416336
-0.0002429635802225188   3.8832545143306293e-05   0.00021646525631416336
-0.0002429635802225188   3.8832545143306293e-05   0.00021646525631416336
-0.0002429635802225188   3.8832545143306293e-05   0.00021646525631416336
-0.00013067544084138707   3.3117591026815205e-05   3.274732981550614e-05
-0.00013067544084138707   3.3117591026815205e-05   3.274732981550614e-05
-0.00013067544084138707   3.3117591026815205e-05   3.274732981550614e-05
-0.00013067544084138707   3.3117591026815205e-05   3.274732981550614e-05
-0.00018202152474476368   3.77576806967761e-05   0.00011554008251916156
-0.00018202152474476368   3.77576806967761e-05   0.00011554008251916156
-0.00018202152474476368   3.77576806967761e-05   0.00011554008251916156
-0.00018202152474476368   3.77576806967761e-05   0.00011554008251916156
-0.00013067544084138685   3.8832545143306293e-05   0.00021989422878405766
-0.00013067544084138685   3.8832545143306293e-05   0.00021989422878405766
-0.00013067544084138685   3.8832545143306293e-05   0.00021989422878405766
-0.00013067544084138685   3.8832545143306293e-05   0.00021989422878405766
-0.0002429635802225188   3.3117591026815205e-05   2.93183573456101e-05
-0.0002429635802225188   3.3117591026815205e-05   2.93183573456101e-05
-0.0002429635802225188   3.3117591026815205e-05   2.93183573456101e-05
-0.0002429635802225188   3.3117591026815205e-05   2.93183573456101e-05
-0.0002483517212810197   3.560002285637846e-05   0.00022237925682406373
-0.0002483517212810197   3.560002285637846e-05   0.00022237925682406373
-0.0002483517212810197   3.560002285637846e-05   0.00022237925682406373
-0.0002483517212810197   3.560002285637846e-05   0.00022237925682406373
-0.00013576910339175262   2.956816167004779e-05   3.836067705375061e-05
-0.00013576910339175262   2.956816167004779e-05   3.836067705375061e-05
-0.00013576910339175262   2.956816167004779e-05   3.836067705375061e-05
-0.00013576910339175262   2.956816167004779e-05   3.836067705375061e-05
-0.00018811194142309457   3.539369726066749e-05   0.00012210341908496002
-0.00018811194142309457   3.539369726066749e-05   0.00012210341908496002
-0.00018811194142309457   3.539369726066749e-05   0.00012210341908496002
-0.00018811194142309457   3.539369726066749e-05   0.00012210341908496002
-0.00023173557628180185   6.376879712003194e-05   0.00010139610420663997
-0.00023173557628180185   6.376879712003194e-05   0.00010139610420663997
-0.00023173557628180185   6.376879712003194e-05   0.00010139610420663997
-0.00023173557628180185   6.376879712003194e-05   0.00010139610420663997
-0.0003370048948313775   5.4252048132802724e-05   -7.976280943498924e-05
-0.0003370048948313775   5.4252048132802724e-05   -7.976280943498924e-05
-0.0003370048948313775   5.4252048132802724e-05   -7.976280943498924e-05
-0.0003370048948313775   5.4252048132802724e-05   -7.976280943498924e-05
-0.0003465929702345461   6.440390276464189e-05   0.0001344378767238353
-0.0003465929702345461   6.440390276464189e-05   0.0001344378767238353
-0.0003465929702345461   6.440390276464189e-05   0.0001344378767238353
-0.0003465929702345461   6.440390276464189e-05   0.0001344378767238353
-0.00023707758623948538   5.394036037559974e-05   -4.180963783450816e-05
-0.00023707758623948538   5.394036037559974e-05   -4.180963783450816e-05
-0.00023707758623948538   5.394036037559974e-05   -4.180963783450816e-05
-0.00023707758623948538   5.394036037559974e-05   -4.180963783450816e-05
-0.00027714771755965205   5.8241838988549316e-05   2.2393027198001122e-05
-0.00027714771755965205   5.8241838988549316e-05   2.2393027198001122e-05
-0.00027714771755965205   5.8241838988549316e-05   2.2393027198001122e-05
-0.00027714771755965205   5.8241838988549316e-05   2.2393027198001122e-05
-0.00023707758623948516   6.440390276464189e-05   0.00014071600215726128
-0.00023707758623948516   6.440390276464189e-05   0.00014071600215726128
-0.00023707758623948516   6.440390276464189e-05   0.00014071600215726128
-0.00023707758623948516   6.440390276464189e-05   0.00014071600215726128
-0.00034659297023454673   5.394036037559974e-05   -4.808776326793371e-05
-0.00034659297023454673   5.394036037559974e-05   -4.808776326793371e-05
-0.00034659297023454673   5.394036037559974e-05   -4.808776326793371e-05
-0.00034659297023454673   5.394036037559974e-05   -4.808776326793371e-05
-0.00035518929886941154   6.36834914901456e-05   0.00016125124679097422
-0.00035518929886941154   6.36834914901456e-05   0.00016125124679097422
-0.00035518929886941154   6.36834914901456e-05   0.00016125124679097422
-0.00035518929886941154   6.36834914901456e-05   0.00016125124679097422
-0.0002429635802225188   5.282771946599554e-05   -1.9278154406025903e-05
-0.0002429635802225188   5.282771946599554e-05   -1.9278154406025903e-05
-0.0002429635802225188   5.282771946599554e-05   -1.9278154406025903e-05
-0.0002429635802225188   5.282771946599554e-05   -1.9278154406025903e-05
-0.0002881104505208156   5.8870312006516906e-05   5.234107390016769e-05
-0.0002881104505208156   5.8870312006516906e-05   5.234107390016769e-05
-0.0002881104505208156   5.8870312006516906e-05   5.234107390016769e-05
-0.0002881104505208156   5.8870312006516906e-05   5.234107390016769e-05
-0.0002429635802225188   6.36834914901456e-05   0.00016776471000546495
-0.0002429635802225188   6.36834914901456e-05   0.00016776471000546495
-0.0002429635802225188   6.36834914901456e-05   0.00016776471000546495
-0.0002429635802225188   6.36834914901456e-05   0.00016776471000546495
-0.00035518929886941197   5.282771946599554e-05   -2.5791617620514462e-05
-0.00035518929886941197   5.282771946599554e-05   -2.5791617620514462e-05
-0.00035518929886941197   5.282771946599554e-05   -2.5791617620514462e-05
-0.00035518929886941197   5.282771946599554e-05   -2.5791617620514462e-05
-0.0003650780480004138   5.874358691981482e-05   0.00020743969411369557
-0.0003650780480004138   5.874358691981482e-05   0.00020743969411369557
-0.0003650780480004138   5.874358691981482e-05   0.00020743969411369557
-0.0003650780480004138   5.874358691981482e-05   0.00020743969411369557
-0.0002483517212810197   4.795194374556701e-05   1.9370802152586e-05
-0.0002483517212810197   4.795194374556701e-05   1.9370802152586e-05
-0.0002483517212810197   4.795194374556701e-05   1.9370802152586e-05
-0.0002483517212810197   4.795194374556701e-05   1.9370802152586e-05
-0.00029054838362249527   5.685260793692609e-05   8.435817420690333e-05
-0.00029054838362249527   5.685260793692609e-05   8.435817420690333e-05
-0.00029054838362249527   5.685260793692609e-05   8.435817420690333e-05
-0.00029054838362249527   5.685260793692609e-05   8.435817420690333e-05
0.0001588967710198814   -2.0614735621808655e-05   0.00016031867471378095
0.0001588967710198814   -2.0614735621808655e-05   0.00016031867471378095
0.0001588967710198814   -2.0614735621808655e-05   0.00016031867471378095
0.0001588967710198814   -2.0614735621808655e-05   0.00016031867471378095
6.587328266032018e-05   -9.998281883815546e-06   1.1649399690641556e-05
6.587328266032018e-05   -9.998281883815546e-06   1.1649399690641556e-05
6.587328266032018e-05   -9.998281883815546e-06   1.1649399690641556e-05
6.587328266032018e-05   -9.998281883815546e-06   1.1649399690641556e-05
6.165174687935575e-05   -2.506570446986385e-05   0.00014425011233542163
6.165174687935575e-05   -2.506570446986385e-05   0.00014425011233542163
6.165174687935575e-05   -2.506570446986385e-05   0.00014425011233542163
6.165174687935575e-05   -2.506570446986385e-05   0.00014425011233542163
0.00014992633536494002   -1.3964262799648353e-05   -9.535066809347303e-06
0.00014992633536494002   -1.3964262799648353e-05   -9.535066809347303e-06
0.00014992633536494002   -1.3964262799648353e-05   -9.535066809347303e-06
0.00014992633536494002   -1.3964262799648353e-05   -9.535066809347303e-06
0.00010365291255978362   -1.7838059833810704e-05   6.991158275308079e-05
0.00010365291255978362   -1.7838059833810704e-05   6.991158275308079e-05
0.00010365291255978362   -1.7838059833810704e-05   6.991158275308079e-05
0.00010365291255978362   -1.7838059833810704e-05   6.991158275308079e-05
0.00014992633536494034   -2.506570446986385e-05   0.0001375892473332932
0.00014992633536494034   -2.506570446986385e-05   0.0001375892473332932
0.00014992633536494034   -2.506570446986385e-05   0.0001375892473332932
0.00014992633536494034   -2.506570446986385e-05   0.0001375892473332932
6.165174687935553e-05   -1.3964262799648353e-05   -2.8742018072184378e-06
6.165174687935553e-05   -1.3964262799648353e-05   -2.8742018072184378e-06
6.165174687935553e-05   -1.3964262799648353e-05   -2.8742018072184378e-06
6.165174687935553e-05   -1.3964262799648353e-05   -2.8742018072184378e-06
5.691814151904533e-05   -2.6261496343760876e-05   0.00013230262973176147
5.691814151904533e-05   -2.6261496343760876e-05   0.00013230262973176147
5.691814151904533e-05   -2.6261496343760876e-05   0.00013230262973176147
5.691814151904533e-05   -2.6261496343760876e-05   0.00013230262973176147
0.00014223382437217493   -1.5337807063470557e-05   -1.6444388591626766e-05
0.00014223382437217493   -1.5337807063470557e-05   -1.6444388591626766e-05
0.00014223382437217493   -1.5337807063470557e-05   -1.6444388591626766e-05
0.00014223382437217493   -1.5337807063470557e-05   -1.6444388591626766e-05
9.96236023149737e-05   -1.9517348055253167e-05   5.708037276544583e-05
9.96236023149737e-05   -1.9517348055253167e-05   5.708037276544583e-05
9.96236023149737e-05   -1.9517348055253167e-05   5.708037276544583e-05
9.96236023149737e-05   -1.9517348055253167e-05   5.708037276544583e-05
0.00014223382437217514   -2.6261496343760876e-05   0.00012574841616358814
0.00014223382437217514   -2.6261496343760876e-05   0.00012574841616358814
0.00014223382437217514   -2.6261496343760876e-05   0.00012574841616358814
0.00014223382437217514   -2.6261496343760876e-05   0.00012574841616358814
5.691814151904522e-05   -1.5337807063470557e-05   -9.890175023454309e-06
5.691814151904522e-05   -1.5337807063470557e-05   -9.890175023454309e-06
5.691814151904522e-05   -1.5337807063470557e-05   -9.890175023454309e-06
5.691814151904522e-05   -1.5337807063470557e-05   -9.890175023454309e-06
5.267825102975594e-05   -2.7410209167884683e-05   0.0001168497510873473
5.267825102975594e-05   -2.7410209167884683e-05   0.0001168497510873473
5.267825102975594e-05   -2.7410209167884683e-05   0.0001168497510873473
5.267825102975594e-05   -2.7410209167884683e-05   0.0001168497510873473
0.00013352248294292964   -1.718006684131579e-05   -2.402872083054916e-05
0.00013352248294292964   -1.718006684131579e-05   -2.402872083054916e-05
0.00013352248294292964   -1.718006684131579e-05   -2.402872083054916e-05
0.00013352248294292964   -1.718006684131579e-05   -2.402872083054916e-05
9.227678973728134e-05   -1.986460708690123e-05   4.632482532621529e-05
9.227678973728134e-05   -1.986460708690123e-05   4.632482532621529e-05
9.227678973728134e-05   -1.986460708690123e-05   4.632482532621529e-05
9.227678973728134e-05   -1.986460708690123e-05   4.632482532621529e-05
6.587328266032043e-05   -4.1160581030347254e-08   0.0001989689714642813
6.587328266032043e-05   -4.1160581030347254e-08   0.0001989689714642813
6.587328266032043e-05   -4.1160581030347254e-08   0.0001989689714642813
6.587328266032043e-05   -4.1160581030347254e-08   0.0001989689714642813
-2.1491173743041114e-05   5.325896681873318e-06   5.658177848308788e-05
-2.1491173743041114e-05   5.325896681873318e-06   5.658177848308788e-05
-2.1491173743041114e-05   5.325896681873318e-06   5.658177848308788e-05
-2.1491173743041114e-05   5.325896681873318e-06   5.658177848308788e-05
-2.5366771084205032e-05   -3.924547936528383e-06   0.00019937884052444264
-2.5366771084205032e-05   -3.924547936528383e-06   0.00019937884052444264
-2.5366771084205032e-05   -3.924547936528383e-06   0.00019937884052444264
-2.5366771084205032e-05   -3.924547936528383e-06   0.00019937884052444264
6.165174687935553e-05   1.2962672115701679e-06   5.121548816298195e-05
6.165174687935553e-05   1.2962672115701679e-06   5.121548816298195e-05
6.165174687935553e-05   1.2962672115701679e-06   5.121548816298195e-05
6.165174687935553e-05   1.2962672115701679e-06   5.121548816298195e-05
1.954665377595978e-05   3.214866582980369e-07   0.00012197551166727438
1.954665377595978e-05   3.214866582980369e-07   0.00012197551166727438
1.954665377595978e-05   3.214866582980369e-07   0.00012197551166727438
1.954665377595978e-05   3.214866582980369e-07   0.00012197551166727438
6.16517468793557e-05   -3.924547936530118e-06   0.00019624635143558264
6.16517468793557e-05   -3.924547936530118e-06   0.00019624635143558264
6.16517468793557e-05   -3.924547936530118e-06   0.00019624635143558264
6.16517468793557e-05   -3.924547936530118e-06   0.00019624635143558264
-2.5366771084204924e-05   1.2962672115701679e-06   5.434797725184168e-05
-2.5366771084204924e-05   1.2962672115701679e-06   5.434797725184168e-05
-2.5366771084204924e-05   1.2962672115701679e-06   5.434797725184168e-05
-2.5366771084204924e-05   1.2962672115701679e-06   5.434797725184168e-05
-2.932752710907893e-05   -6.997016057190206e-06   0.0001970565470930455
-2.932752710907893e-05   -6.997016057190206e-06   0.0001970565470930455
-2.932752710907893e-05   -6.997016057190206e-06   0.0001970565470930455
-2.932752710907893e-05   -6.997016057190206e-06   0.0001970565470930455
5.691814151904522e-05   -2.011948063096458e-06   5.0322725249716724e-05
5.691814151904522e-05   -2.011948063096458e-06   5.0322725249716724e-05
5.691814151904522e-05   -2.011948063096458e-06   5.0322725249716724e-05
5.691814151904522e-05   -2.011948063096458e-06   5.0322725249716724e-05
1.529346499751985e-05   -2.3727164833592385e-06   0.00011991364717109073
1.529346499751985e-05   -2.3727164833592385e-06   0.00011991364717109073
1.529346499751985e-05   -2.3727164833592385e-06   0.00011991364717109073
1.529346499751985e-05   -2.3727164833592385e-06   0.00011991364717109073
5.691814151904544e-05   -6.997016057190206e-06   0.00019406550629658906
5.691814151904544e-05   -6.997016057190206e-06   0.00019406550629658906
5.691814151904544e-05   -6.997016057190206e-06   0.00019406550629658906
5.691814151904544e-05   -6.997016057190206e-06   0.00019406550629658906
-2.932752710907904e-05   -2.011948063096458e-06   5.331376604617282e-05
-2.932752710907904e-05   -2.011948063096458e-06   5.331376604617282e-05
-2.932752710907904e-05   -2.011948063096458e-06   5.331376604617282e-05
-2.932752710907904e-05   -2.011948063096458e-06   5.331376604617282e-05
-3.325366746817428e-05   -9.856674333758031e-06   0.00019891335590403823
-3.325366746817428e-05   -9.856674333758031e-06   0.00019891335590403823
-3.325366746817428e-05   -9.856674333758031e-06   0.00019891335590403823
-3.325366746817428e-05   -9.856674333758031e-06   0.00019891335590403823
5.2678251029755725e-05   -5.2858743451143775e-06   5.295101174763696e-05
5.2678251029755725e-05   -5.2858743451143775e-06   5.295101174763696e-05
5.2678251029755725e-05   -5.2858743451143775e-06   5.295101174763696e-05
5.2678251029755725e-05   -5.2858743451143775e-06   5.295101174763696e-05
1.1920463539354275e-05   -4.632044172373298e-06   0.00012048835946132765
1.1920463539354275e-05   -4.632044172373298e-06   0.00012048835946132765
1.1920463539354275e-05   -4.632044172373298e-06   0.00012048835946132765
1.1920463539354275e-05   -4.632044172373298e-06   0.00012048835946132765
-2.1491173743041114e-05   2.0100403950232965e-05   0.00021606983348484814
-2.1491173743041114e-05   2.0100403950232965e-05   0.00021606983348484814
-2.1491173743041114e-05   2.0100403950232965e-05   0.00021606983348484814
-2.1491173743041114e-05   2.0100403950232965e-05   0.00021606983348484814
-0.00010744389586270914   1.9743380671647867e-05   7.260108265158376e-05
-0.00010744389586270914   1.9743380671647867e-05   7.260108265158376e-05
-0.00010744389586270914   1.9743380671647867e-05   7.260108265158376e-05
-0.00010744389586270914   1.9743380671647867e-05   7.260108265158376e-05
-0.00011126364439187114   1.6675367076801964e-05   0.00021465667109291792
-0.00011126364439187114   1.6675367076801964e-05   0.00021465667109291792
-0.00011126364439187114   1.6675367076801964e-05   0.00021465667109291792
-0.00011126364439187114   1.6675367076801964e-05   0.00021465667109291792
-2.5366771084204924e-05   1.6069528200400585e-05   7.185871890598135e-05
-2.5366771084204924e-05   1.6069528200400585e-05   7.185871890598135e-05
-2.5366771084204924e-05   1.6069528200400585e-05   7.185871890598135e-05
-2.5366771084204924e-05   1.6069528200400585e-05   7.185871890598135e-05
-6.655579921010667e-05   1.7705778360944946e-05   0.00013952534901949618
-6.655579921010667e-05   1.7705778360944946e-05   0.00013952534901949618
-6.655579921010667e-05   1.7705778360944946e-05   0.00013952534901949618
-6.655579921010667e-05   1.7705778360944946e-05   0.00013952534901949618
-2.5366771084205032e-05   1.667536707680023e-05   0.00021502017441875874
-2.5366771084205032e-05   1.667536707680023e-05   0.00021502017441875874
-2.5366771084205032e-05   1.667536707680023e-05   0.00021502017441875874
-2.5366771084205032e-05   1.667536707680023e-05   0.00021502017441875874
-0.00011126364439187114   1.6069528200400585e-05   7.149521558014182e-05
-0.00011126364439187114   1.6069528200400585e-05   7.149521558014182e-05
-0.00011126364439187114   1.6069528200400585e-05   7.149521558014182e-05
-0.00011126364439187114   1.6069528200400585e-05   7.149521558014182e-05
-0.00011517682928622306   1.3304093260438007e-05   0.00021578633206638907
-0.00011517682928622306   1.3304093260438007e-05   0.00021578633206638907
-0.00011517682928622306   1.3304093260438007e-05   0.00021578633206638907
-0.00011517682928622306   1.3304093260438007e-05   0.00021578633206638907
-2.932752710907893e-05   1.2437434067872483e-05   7.322415728668779e-05
-2.932752710907893e-05   1.2437434067872483e-05   7.322415728668779e-05
-2.932752710907893e-05   1.2437434067872483e-05   7.322415728668779e-05
-2.932752710907893e-05   1.2437434067872483e-05   7.322415728668779e-05
-7.005791109446295e-05   1.5034058511786269e-05   0.00013955015592931764
-7.005791109446295e-05   1.5034058511786269e-05   0.00013955015592931764
-7.005791109446295e-05   1.5034058511786269e-05   0.00013955015592931764
-7.005791109446295e-05   1.5034058511786269e-05   0.00013955015592931764
-2.932752710907904e-05   1.3304093260438007e-05   0.00021630632758192717
-2.932752710907904e-05   1.3304093260438007e-05   0.00021630632758192717
-2.932752710907904e-05   1.3304093260438007e-05   0.00021630632758192717
-2.932752710907904e-05   1.3304093260438007e-05   0.00021630632758192717
-0.00011517682928622306   1.2437434067874217e-05   7.270416177115012e-05
-0.00011517682928622306   1.2437434067874217e-05   7.270416177115012e-05
-0.00011517682928622306   1.2437434067874217e-05   7.270416177115012e-05
-0.00011517682928622306   1.2437434067874217e-05   7.270416177115012e-05
-0.00011904602509177874   1.0104049497151532e-05   0.00021872899333714134
-0.00011904602509177874   1.0104049497151532e-05   0.00021872899333714134
-0.00011904602509177874   1.0104049497151532e-05   0.00021872899333714134
-0.00011904602509177874   1.0104049497151532e-05   0.00021872899333714134
-3.325366746817417e-05   8.938949984845998e-06   7.644079033851717e-05
-3.325366746817417e-05   8.938949984845998e-06   7.644079033851717e-05
-3.325366746817417e-05   8.938949984845998e-06   7.644079033851717e-05
-3.325366746817417e-05   8.938949984845998e-06   7.644079033851717e-05
-7.371907459102902e-05   1.2423788648694215e-05   0.00014179223234496528
-7.371907459102902e-05   1.2423788648694215e-05   0.00014179223234496528
-7.371907459102902e-05   1.2423788648694215e-05   0.00014179223234496528
-7.371907459102902e-05   1.2423788648694215e-05   0.00014179223234496528
-0.00010744389586270914   3.946506963537107e-05   0.0001909670136451538
-0.00010744389586270914   3.946506963537107e-05   0.0001909670136451538
-0.00010744389586270914   3.946506963537107e-05   0.0001909670136451538
-0.00010744389586270914   3.946506963537107e-05   0.0001909670136451538
-0.00019187044054945392   3.375988852133069e-05   4.683299716548876e-05
-0.00019187044054945392   3.375988852133069e-05   4.683299716548876e-05
-0.00019187044054945392   3.375988852133069e-05   4.683299716548876e-05
-0.00019187044054945392   3.375988852133069e-05   4.683299716548876e-05
-0.00019596318392764347   3.617381446784952e-05   0.0001884024724596988
-0.00019596318392764347   3.617381446784952e-05   0.0001884024724596988
-0.00019596318392764347   3.617381446784952e-05   0.0001884024724596988
-0.00019596318392764347   3.617381446784952e-05   0.0001884024724596988
-0.00011126364439187093   3.0162349742374195e-05   5.0843452068697215e-05
-0.00011126364439187093   3.0162349742374195e-05   5.0843452068697215e-05
-0.00011126364439187093   3.0162349742374195e-05   5.0843452068697215e-05
-0.00011126364439187093   3.0162349742374195e-05   5.0843452068697215e-05
-0.00015120954421544422   3.4310114175591794e-05   0.00011493129311472604
-0.00015120954421544422   3.4310114175591794e-05   0.00011493129311472604
-0.00015120954421544422   3.4310114175591794e-05   0.00011493129311472604
-0.00015120954421544422   3.4310114175591794e-05   0.00011493129311472604
-0.00011126364439187114   3.617381446784952e-05   0.00019200935129498435
-0.00011126364439187114   3.617381446784952e-05   0.00019200935129498435
-0.00011126364439187114   3.617381446784952e-05   0.00019200935129498435
-0.00011126364439187114   3.617381446784952e-05   0.00019200935129498435
-0.00019596318392764325   3.0162349742374195e-05   4.723657323341124e-05
-0.00019596318392764325   3.0162349742374195e-05   4.723657323341124e-05
-0.00019596318392764325   3.0162349742374195e-05   4.723657323341124e-05
-0.00019596318392764325   3.0162349742374195e-05   4.723657323341124e-05
-0.00020057354202292362   3.3117591026815205e-05   0.00019484442337151797
-0.00020057354202292362   3.3117591026815205e-05   0.00019484442337151797
-0.00020057354202292362   3.3117591026815205e-05   0.00019484442337151797
-0.00020057354202292362   3.3117591026815205e-05   0.00019484442337151797
-0.00011517682928622263   2.68427222823598e-05   5.628149005702495e-05
-0.00011517682928622263   2.68427222823598e-05   5.628149005702495e-05
-0.00011517682928622263   2.68427222823598e-05   5.628149005702495e-05
-0.00011517682928622263   2.68427222823598e-05   5.628149005702495e-05
-0.00015406360441172506   3.18555161564725e-05   0.00011808510560839874
-0.00015406360441172506   3.18555161564725e-05   0.00011808510560839874
-0.00015406360441172506   3.18555161564725e-05   0.00011808510560839874
-0.00015406360441172506   3.18555161564725e-05   0.00011808510560839874
-0.00011517682928622306   3.3117591026815205e-05   0.00019860934461819052
-0.00011517682928622306   3.3117591026815205e-05   0.00019860934461819052
-0.00011517682928622306   3.3117591026815205e-05   0.00019860934461819052
-0.00011517682928622306   3.3117591026815205e-05   0.00019860934461819052
-0.0002005735420229234   2.6842722282361536e-05   5.25165688103524e-05
-0.0002005735420229234   2.6842722282361536e-05   5.25165688103524e-05
-0.0002005735420229234   2.6842722282361536e-05   5.25165688103524e-05
-0.0002005735420229234   2.6842722282361536e-05   5.25165688103524e-05
-0.00020467938484380757   2.956816167004779e-05   0.00020031794734568127
-0.00020467938484380757   2.956816167004779e-05   0.00020031794734568127
-0.00020467938484380757   2.956816167004779e-05   0.00020031794734568127
-0.00020467938484380757   2.956816167004779e-05   0.00020031794734568127
-0.0001190460250917783   2.3140848127718716e-05   6.145206921769715e-05
-0.0001190460250917783   2.3140848127718716e-05   6.145206921769715e-05
-0.0001190460250917783   2.3140848127718716e-05   6.145206921769715e-05
-0.0001190460250917783   2.3140848127718716e-05   6.145206921769715e-05
-0.00015867370668097428   2.9282266443449168e-05   0.00012381335421025484
-0.00015867370668097428   2.9282266443449168e-05   0.00012381335421025484
-0.00015867370668097428   2.9282266443449168e-05   0.00012381335421025484
-0.00015867370668097428   2.9282266443449168e-05   0.00012381335421025484
-0.00019187044054945392   5.4252048132802724e-05   9.157284919812485e-05
-0.00019187044054945392   5.4252048132802724e-05   9.157284919812485e-05
-0.00019187044054945392   5.4252048132802724e-05   9.157284919812485e-05
-0.00019187044054945392   5.4252048132802724e-05   9.157284919812485e-05
-0.0002707881777087363   4.4148558277097225e-05   -4.601880664743471e-05
-0.0002707881777087363   4.4148558277097225e-05   -4.601880664743471e-05
-0.0002707881777087363   4.4148558277097225e-05   -4.601880664743471e-05
-0.0002707881777087363   4.4148558277097225e-05   -4.601880664743471e-05
-0.00027932778110861724   5.394036037559974e-05   0.00011718148143614882
-0.00027932778110861724   5.394036037559974e-05   0.00011718148143614882
-0.00027932778110861724   5.394036037559974e-05   0.00011718148143614882
-0.00027932778110861724   5.394036037559974e-05   0.00011718148143614882
-0.00019596318392764282   4.297087221154065e-05   -1.5177820967039908e-05
-0.00019596318392764282   4.297087221154065e-05   -1.5177820967039908e-05
-0.00019596318392764282   4.297087221154065e-05   -1.5177820967039908e-05
-0.00019596318392764282   4.297087221154065e-05   -1.5177820967039908e-05
-0.00022570558785325672   4.795472285317251e-05   3.140254185734137e-05
-0.00022570558785325672   4.795472285317251e-05   3.140254185734137e-05
-0.00022570558785325672   4.795472285317251e-05   3.140254185734137e-05
-0.00022570558785325672   4.795472285317251e-05   3.140254185734137e-05
-0.00019596318392764347   5.394036037559974e-05   0.00012376317433458392
-0.00019596318392764347   5.394036037559974e-05   0.00012376317433458392
-0.00019596318392764347   5.394036037559974e-05   0.00012376317433458392
-0.00019596318392764347   5.394036037559974e-05   0.00012376317433458392
-0.0002793277811086177   4.297087221154065e-05   -2.1759513865475446e-05
-0.0002793277811086177   4.297087221154065e-05   -2.1759513865475446e-05
-0.0002793277811086177   4.297087221154065e-05   -2.1759513865475446e-05
-0.0002793277811086177   4.297087221154065e-05   -2.1759513865475446e-05
-0.00028679025617577925   5.282771946599554e-05   0.00013949065170312976
-0.00028679025617577925   5.282771946599554e-05   0.00013949065170312976
-0.00028679025617577925   5.282771946599554e-05   0.00013949065170312976
-0.00028679025617577925   5.282771946599554e-05   0.00013949065170312976
-0.00020057354202292297   4.156561960474113e-05   2.5533880317904836e-06
-0.00020057354202292297   4.156561960474113e-05   2.5533880317904836e-06
-0.00020057354202292297   4.156561960474113e-05   2.5533880317904836e-06
-0.00020057354202292297   4.156561960474113e-05   2.5533880317904836e-06
-0.0002347088953439946   4.79685357620465e-05   5.560389387253327e-05
-0.0002347088953439946   4.79685357620465e-05   5.560389387253327e-05
-0.0002347088953439946   4.79685357620465e-05   5.560389387253327e-05
-0.0002347088953439946   4.79685357620465e-05   5.560389387253327e-05
-0.00020057354202292362   5.282771946599554e-05   0.00014624791161988414
-0.00020057354202292362   5.282771946599554e-05   0.00014624791161988414
-0.00020057354202292362   5.282771946599554e-05   0.00014624791161988414
-0.00020057354202292362   5.282771946599554e-05   0.00014624791161988414
-0.00028679025617577925   4.156561960474113e-05   -4.203871884963031e-06
-0.00028679025617577925   4.156561960474113e-05   -4.203871884963031e-06
-0.00028679025617577925   4.156561960474113e-05   -4.203871884963031e-06
-0.00028679025617577925   4.156561960474113e-05   -4.203871884963031e-06
-0.00029545702298442496   4.795194374556527e-05   0.00017830201412223808
-0.00029545702298442496   4.795194374556527e-05   0.00017830201412223808
-0.00029545702298442496   4.795194374556527e-05   0.00017830201412223808
-0.00029545702298442496   4.795194374556527e-05   0.00017830201412223808
-0.0002046793848438067   3.687665202210637e-05   3.3651125588617624e-05
-0.0002046793848438067   3.687665202210637e-05   3.3651125588617624e-05
-0.0002046793848438067   3.687665202210637e-05   3.3651125588617624e-05
-0.0002046793848438067   3.687665202210637e-05   3.3651125588617624e-05
-0.00023679315605095407   4.5929010211297194e-05   8.174266268701387e-05
-0.00023679315605095407   4.5929010211297194e-05   8.174266268701387e-05
-0.00023679315605095407   4.5929010211297194e-05   8.174266268701387e-05
-0.00023679315605095407   4.5929010211297194e-05   8.174266268701387e-05
8.721384906404606e-05   -9.998281883815546e-06   0.00012555816161631886
8.721384906404606e-05   -9.998281883815546e-06   0.00012555816161631886
8.721384906404606e-05   -9.998281883815546e-06   0.00012555816161631886
8.721384906404606e-05   -9.998281883815546e-06   0.00012555816161631886
2.2405258294975794e-05   4.6318975129369666e-07   2.3820726648934518e-05
2.2405258294975794e-05   4.6318975129369666e-07   2.3820726648934518e-05
2.2405258294975794e-05   4.6318975129369666e-07   2.3820726648934518e-05
2.2405258294975794e-05   4.6318975129369666e-07   2.3820726648934518e-05
1.9264125174997467e-05   -1.3964262799648353e-05   0.00011720307404716919
1.9264125174997467e-05   -1.3964262799648353e-05   0.00011720307404716919
1.9264125174997467e-05   -1.3964262799648353e-05   0.00011720307404716919
1.9264125174997467e-05   -1.3964262799648353e-05   0.00011720307404716919
7.9461400912634e-05   -3.0806734932480734e-06   1.0344127567269595e-05
7.9461400912634e-05   -3.0806734932480734e-06   1.0344127567269595e-05
7.9461400912634e-05   -3.0806734932480734e-06   1.0344127567269595e-05
7.9461400912634e-05   -3.0806734932480734e-06   1.0344127567269595e-05
4.899209066667512e-05   -7.146910724774649e-06   6.356605364945481e-05
4.899209066667512e-05   -7.146910724774649e-06   6.356605364945481e-05
4.899209066667512e-05   -7.146910724774649e-06   6.356605364945481e-05
4.899209066667512e-05   -7.146910724774649e-06   6.356605364945481e-05
7.946140091263405e-05   -1.3964262799648353e-05   0.00011067292046332972
7.946140091263405e-05   -1.3964262799648353e-05   0.00011067292046332972
7.946140091263405e-05   -1.3964262799648353e-05   0.00011067292046332972
7.946140091263405e-05   -1.3964262799648353e-05   0.00011067292046332972
1.926412517499744e-05   -3.0806734932480734e-06   1.687428115111026e-05
1.926412517499744e-05   -3.0806734932480734e-06   1.687428115111026e-05
1.926412517499744e-05   -3.0806734932480734e-06   1.687428115111026e-05
1.926412517499744e-05   -3.0806734932480734e-06   1.687428115111026e-05
1.5610956366981832e-05   -1.5337807063472292e-05   0.00011009235977818294
1.5610956366981832e-05   -1.5337807063472292e-05   0.00011009235977818294
1.5610956366981832e-05   -1.5337807063472292e-05   0.00011009235977818294
1.5610956366981832e-05   -1.5337807063472292e-05   0.00011009235977818294
7.290622538727142e-05   -4.620447844889963e-06   8.169829213218525e-06
7.290622538727142e-05   -4.620447844889963e-06   8.169829213218525e-06
7.290622538727142e-05   -4.620447844889963e-06   8.169829213218525e-06
7.290622538727142e-05   -4.620447844889963e-06   8.169829213218525e-06
4.521699532901624e-05   -8.692659639205486e-06   5.6761873053565864e-05
4.521699532901624e-05   -8.692659639205486e-06   5.6761873053565864e-05
4.521699532901624e-05   -8.692659639205486e-06   5.6761873053565864e-05
4.521699532901624e-05   -8.692659639205486e-06   5.6761873053565864e-05
7.290622538727164e-05   -1.5337807063472292e-05   0.00010366194424703441
7.290622538727164e-05   -1.5337807063472292e-05   0.00010366194424703441
7.290622538727164e-05   -1.5337807063472292e-05   0.00010366194424703441
7.290622538727164e-05   -1.5337807063472292e-05   0.00010366194424703441
1.5610956366981778e-05   -4.620447844889963e-06   1.4600244744367163e-05
1.5610956366981778e-05   -4.620447844889963e-06   1.4600244744367163e-05
1.5610956366981778e-05   -4.620447844889963e-06   1.4600244744367163e-05
1.5610956366981778e-05   -4.620447844889963e-06   1.4600244744367163e-05
1.2449743210371733e-05   -1.718006684131579e-05   0.00010194694399995839
1.2449743210371733e-05   -1.718006684131579e-05   0.00010194694399995839
1.2449743210371733e-05   -1.718006684131579e-05   0.00010194694399995839
1.2449743210371733e-05   -1.718006684131579e-05   0.00010194694399995839
6.52426549844719e-05   -7.207609890627978e-06   7.97528353937971e-06
6.52426549844719e-05   -7.207609890627978e-06   7.97528353937971e-06
6.52426549844719e-05   -7.207609890627978e-06   7.97528353937971e-06
6.52426549844719e-05   -7.207609890627978e-06   7.97528353937971e-06
3.973446180511544e-05   -9.511652453546293e-06   5.187136437606078e-05
3.973446180511544e-05   -9.511652453546293e-06   5.187136437606078e-05
3.973446180511544e-05   -9.511652453546293e-06   5.187136437606078e-05
3.973446180511544e-05   -9.511652453546293e-06   5.187136437606078e-05
2.2405258294975848e-05   5.325896681873318e-06   0.00017354718903208905
2.2405258294975848e-05   5.325896681873318e-06   0.00017354718903208905
2.2405258294975848e-05   5.325896681873318e-06   0.00017354718903208905
2.2405258294975848e-05   5.325896681873318e-06   0.00017354718903208905
-3.670557413037751e-05   1.0038666444936103e-05   7.785679684767146e-05
-3.670557413037751e-05   1.0038666444936103e-05   7.785679684767146e-05
-3.670557413037751e-05   1.0038666444936103e-05   7.785679684767146e-05
-3.670557413037751e-05   1.0038666444936103e-05   7.785679684767146e-05
-3.946081965165054e-05   1.2962672115701679e-06   0.00017412602676973327
-3.946081965165054e-05   1.2962672115701679e-06   0.00017412602676973327
-3.946081965165054e-05   1.2962672115701679e-06   0.00017412602676973327
-3.946081965165054e-05   1.2962672115701679e-06   0.00017412602676973327
1.926412517499744e-05   6.01837179884171e-06   7.341785597295971e-05
1.926412517499744e-05   6.01837179884171e-06   7.341785597295971e-05
1.926412517499744e-05   6.01837179884171e-06   7.341785597295971e-05
1.926412517499744e-05   6.01837179884171e-06   7.341785597295971e-05
-9.061413470534774e-06   5.27576003976106e-06   0.00012107265410430008
-9.061413470534774e-06   5.27576003976106e-06   0.00012107265410430008
-9.061413470534774e-06   5.27576003976106e-06   0.00012107265410430008
-9.061413470534774e-06   5.27576003976106e-06   0.00012107265410430008
1.9264125174997467e-05   1.2962672115701679e-06   0.00017129276401737104
1.9264125174997467e-05   1.2962672115701679e-06   0.00017129276401737104
1.9264125174997467e-05   1.2962672115701679e-06   0.00017129276401737104
1.9264125174997467e-05   1.2962672115701679e-06   0.00017129276401737104
-3.946081965165054e-05   6.018371798839975e-06   7.625111872532151e-05
-3.946081965165054e-05   6.018371798839975e-06   7.625111872532151e-05
-3.946081965165054e-05   6.018371798839975e-06   7.625111872532151e-05
-3.946081965165054e-05   6.018371798839975e-06   7.625111872532151e-05
-4.229477279948956e-05   -2.011948063096458e-06   0.00017307216683688526
-4.229477279948956e-05   -2.011948063096458e-06   0.00017307216683688526
-4.229477279948956e-05   -2.011948063096458e-06   0.00017307216683688526
-4.229477279948956e-05   -2.011948063096458e-06   0.00017307216683688526
1.5610956366981778e-05   2.599563246124051e-06   7.379571144056906e-05
1.5610956366981778e-05   2.599563246124051e-06   7.379571144056906e-05
1.5610956366981778e-05   2.599563246124051e-06   7.379571144056906e-05
1.5610956366981778e-05   2.599563246124051e-06   7.379571144056906e-05
-1.1997544032146346e-05   2.4644958680000717e-06   0.00011989091919932526
-1.1997544032146346e-05   2.4644958680000717e-06   0.00011989091919932526
-1.1997544032146346e-05   2.4644958680000717e-06   0.00011989091919932526
-1.1997544032146346e-05   2.4644958680000717e-06   0.00011989091919932526
1.5610956366981832e-05   -2.011948063096458e-06   0.00017030526005135365
1.5610956366981832e-05   -2.011948063096458e-06   0.00017030526005135365
1.5610956366981832e-05   -2.011948063096458e-06   0.00017030526005135365
1.5610956366981832e-05   -2.011948063096458e-06   0.00017030526005135365
-4.229477279948967e-05   2.599563246124051e-06   7.656261822610189e-05
-4.229477279948967e-05   2.599563246124051e-06   7.656261822610189e-05
-4.229477279948967e-05   2.599563246124051e-06   7.656261822610189e-05
-4.229477279948967e-05   2.599563246124051e-06   7.656261822610189e-05
-4.508444826976845e-05   -5.2858743451143775e-06   0.00017541507301740023
-4.508444826976845e-05   -5.2858743451143775e-06   0.00017541507301740023
-4.508444826976845e-05   -5.2858743451143775e-06   0.00017541507301740023
-4.508444826976845e-05   -5.2858743451143775e-06   0.00017541507301740023
1.244974321037168e-05   -9.084046197847112e-07   7.689827204863833e-05
1.244974321037168e-05   -9.084046197847112e-07   7.689827204863833e-05
1.244974321037168e-05   -9.084046197847112e-07   7.689827204863833e-05
1.244974321037168e-05   -9.084046197847112e-07   7.689827204863833e-05
-1.4491644372377512e-05   -7.157145188313452e-08   0.00012129848478581451
-1.4491644372377512e-05   -7.157145188313452e-08   0.00012129848478581451
-1.4491644372377512e-05   -7.157145188313452e-08   0.00012129848478581451
-1.4491644372377512e-05   -7.157145188313452e-08   0.00012129848478581451
-3.670557413037751e-05   1.9743380671647867e-05   0.00019260836902557348
-3.670557413037751e-05   1.9743380671647867e-05   0.00019260836902557348
-3.670557413037751e-05   1.9743380671647867e-05   0.00019260836902557348
-3.670557413037751e-05   1.9743380671647867e-05   0.00019260836902557348
-9.486040553903052e-05   1.857456424927441e-05   9.498236015772783e-05
-9.486040553903052e-05   1.857456424927441e-05   9.498236015772783e-05
-9.486040553903052e-05   1.857456424927441e-05   9.498236015772783e-05
-9.486040553903052e-05   1.857456424927441e-05   9.498236015772783e-05
-9.750030805350906e-05   1.6069528200400585e-05   0.00019090881319505214
-9.750030805350906e-05   1.6069528200400585e-05   0.00019090881319505214
-9.750030805350906e-05   1.6069528200400585e-05   0.00019090881319505214
-9.750030805350906e-05   1.6069528200400585e-05   0.00019090881319505214
-3.946081965165043e-05   1.4856269485698237e-05   9.490428775411029e-05
-3.946081965165043e-05   1.4856269485698237e-05   9.490428775411029e-05
-3.946081965165043e-05   1.4856269485698237e-05   9.490428775411029e-05
-3.946081965165043e-05   1.4856269485698237e-05   9.490428775411029e-05
-6.725340682859276e-05   1.6908118290180976e-05   0.00013999415709966493
-6.725340682859276e-05   1.6908118290180976e-05   0.00013999415709966493
-6.725340682859276e-05   1.6908118290180976e-05   0.00013999415709966493
-6.725340682859276e-05   1.6908118290180976e-05   0.00013999415709966493
-3.946081965165054e-05   1.6069528200400585e-05   0.00019163676842387425
-3.946081965165054e-05   1.6069528200400585e-05   0.00019163676842387425
-3.946081965165054e-05   1.6069528200400585e-05   0.00019163676842387425
-3.946081965165054e-05   1.6069528200400585e-05   0.00019163676842387425
-9.750030805350885e-05   1.4856269485699972e-05   9.417633252528992e-05
-9.750030805350885e-05   1.4856269485699972e-05   9.417633252528992e-05
-9.750030805350885e-05   1.4856269485699972e-05   9.417633252528992e-05
-9.750030805350885e-05   1.4856269485699972e-05   9.417633252528992e-05
-0.00010022820716963578   1.2437434067874217e-05   0.00019221409595677596
-0.00010022820716963578   1.2437434067874217e-05   0.00019221409595677596
-0.00010022820716963578   1.2437434067874217e-05   0.00019221409595677596
-0.00010022820716963578   1.2437434067874217e-05   0.00019221409595677596
-4.229477279948956e-05   1.1156663866829578e-05   9.642683412715899e-05
-4.229477279948956e-05   1.1156663866829578e-05   9.642683412715899e-05
-4.229477279948956e-05   1.1156663866829578e-05   9.642683412715899e-05
-4.229477279948956e-05   1.1156663866829578e-05   9.642683412715899e-05
-6.960683875463101e-05   1.4074380033745129e-05   0.00014019631435224582
-6.960683875463101e-05   1.4074380033745129e-05   0.00014019631435224582
-6.960683875463101e-05   1.4074380033745129e-05   0.00014019631435224582
-6.960683875463101e-05   1.4074380033745129e-05   0.00014019631435224582
-4.229477279948967e-05   1.2437434067874217e-05   0.00019298255807740153
-4.229477279948967e-05   1.2437434067874217e-05   0.00019298255807740153
-4.229477279948967e-05   1.2437434067874217e-05   0.00019298255807740153
-4.229477279948967e-05   1.2437434067874217e-05   0.00019298255807740153
-0.00010022820716963556   1.1156663866829578e-05   9.565837200653342e-05
-0.00010022820716963556   1.1156663866829578e-05   9.565837200653342e-05
-0.00010022820716963556   1.1156663866829578e-05   9.565837200653342e-05
-0.00010022820716963556   1.1156663866829578e-05   9.565837200653342e-05
-0.00010291448381163438   8.938949984845998e-06   0.0001953656459721502
-0.00010291448381163438   8.938949984845998e-06   0.0001953656459721502
-0.00010291448381163438   8.938949984845998e-06   0.0001953656459721502
-0.00010291448381163438   8.938949984845998e-06   0.0001953656459721502
-4.508444826976845e-05   7.611073913268984e-06   9.977897904532096e-05
-4.508444826976845e-05   7.611073913268984e-06   9.977897904532096e-05
-4.508444826976845e-05   7.611073913268984e-06   9.977897904532096e-05
-4.508444826976845e-05   7.611073913268984e-06   9.977897904532096e-05
-7.210845451939227e-05   1.1295838088181895e-05   0.00014260813095641521
-7.210845451939227e-05   1.1295838088181895e-05   0.00014260813095641521
-7.210845451939227e-05   1.1295838088181895e-05   0.00014260813095641521
-7.210845451939227e-05   1.1295838088181895e-05   0.00014260813095641521
-9.486040553903052e-05   3.375988852133069e-05   0.0001695621023544789
-9.486040553903052e-05   3.375988852133069e-05   0.0001695621023544789
-9.486040553903052e-05   3.375988852133069e-05   0.0001695621023544789
-9.486040553903052e-05   3.375988852133069e-05   0.0001695621023544789
-0.00015189259679631033   2.7508768277600265e-05   7.075777811277328e-05
-0.00015189259679631033   2.7508768277600265e-05   7.075777811277328e-05
-0.00015189259679631033   2.7508768277600265e-05   7.075777811277328e-05
-0.00015189259679631033   2.7508768277600265e-05   7.075777811277328e-05
-0.00015476589528084562   3.0162349742374195e-05   0.00016641169555475094
-0.00015476589528084562   3.0162349742374195e-05   0.00016641169555475094
-0.00015476589528084562   3.0162349742374195e-05   0.00016641169555475094
-0.00015476589528084562   3.0162349742374195e-05   0.00016641169555475094
-9.750030805350863e-05   2.3753426194280877e-05   7.481440430471501e-05
-9.750030805350863e-05   2.3753426194280877e-05   7.481440430471501e-05
-9.750030805350863e-05   2.3753426194280877e-05   7.481440430471501e-05
-9.750030805350863e-05   2.3753426194280877e-05   7.481440430471501e-05
-0.00012445565215471975   2.8342729423149263e-05   0.00011698639586941919
-0.00012445565215471975   2.8342729423149263e-05   0.00011698639586941919
-0.00012445565215471975   2.8342729423149263e-05   0.00011698639586941919
-0.00012445565215471975   2.8342729423149263e-05   0.00011698639586941919
-9.750030805350906e-05   3.0162349742374195e-05   0.00017025704968360884
-9.750030805350906e-05   3.0162349742374195e-05   0.00017025704968360884
-9.750030805350906e-05   3.0162349742374195e-05   0.00017025704968360884
-9.750030805350906e-05   3.0162349742374195e-05   0.00017025704968360884
-0.0001547658952808454   2.3753426194279142e-05   7.096905017585928e-05
-0.0001547658952808454   2.3753426194279142e-05   7.096905017585928e-05
-0.0001547658952808454   2.3753426194279142e-05   7.096905017585928e-05
-0.0001547658952808454   2.3753426194279142e-05   7.096905017585928e-05
-0.0001581736606378855   2.68427222823598e-05   0.00017189408621761347
-0.0001581736606378855   2.68427222823598e-05   0.00017189408621761347
-0.0001581736606378855   2.68427222823598e-05   0.00017189408621761347
-0.0001581736606378855   2.68427222823598e-05   0.00017189408621761347
-0.00010022820716963535   2.0347158907297463e-05   7.921566846223619e-05
-0.00010022820716963535   2.0347158907297463e-05   7.921566846223619e-05
-0.00010022820716963535   2.0347158907297463e-05   7.921566846223619e-05
-0.00010022820716963535   2.0347158907297463e-05   7.921566846223619e-05
-0.00012633058215048886   2.5682282581793864e-05   0.00011951855255896027
-0.00012633058215048886   2.5682282581793864e-05   0.00011951855255896027
-0.00012633058215048886   2.5682282581793864e-05   0.00011951855255896027
-0.00012633058215048886   2.5682282581793864e-05   0.00011951855255896027
-0.00010022820716963556   2.68427222823598e-05   0.00017579142424265035
-0.00010022820716963556   2.68427222823598e-05   0.00017579142424265035
-0.00010022820716963556   2.68427222823598e-05   0.00017579142424265035
-0.00010022820716963556   2.68427222823598e-05   0.00017579142424265035
-0.00015817366063788463   2.0347158907297463e-05   7.531833043719844e-05
-0.00015817366063788463   2.0347158907297463e-05   7.531833043719844e-05
-0.00015817366063788463   2.0347158907297463e-05   7.531833043719844e-05
-0.00015817366063788463   2.0347158907297463e-05   7.531833043719844e-05
-0.0001611042177857673   2.3140848127718716e-05   0.00017722073708785133
-0.0001611042177857673   2.3140848127718716e-05   0.00017722073708785133
-0.0001611042177857673   2.3140848127718716e-05   0.00017722073708785133
-0.0001611042177857673   2.3140848127718716e-05   0.00017722073708785133
-0.00010291448381163394   1.671543567628199e-05   8.40930946018263e-05
-0.00010291448381163394   1.671543567628199e-05   8.40930946018263e-05
-0.00010291448381163394   1.671543567628199e-05   8.40930946018263e-05
-0.00010291448381163394   1.671543567628199e-05   8.40930946018263e-05
-0.00012953013560132454   2.3027110141665003e-05   0.00012466550957208541
-0.00012953013560132454   2.3027110141665003e-05   0.00012466550957208541
-0.00012953013560132454   2.3027110141665003e-05   0.00012466550957208541
-0.00012953013560132454   2.3027110141665003e-05   0.00012466550957208541
-0.00015189259679631076   4.414855827709896e-05   7.902172030873917e-05
-0.00015189259679631076   4.414855827709896e-05   7.902172030873917e-05
-0.00015189259679631076   4.414855827709896e-05   7.902172030873917e-05
-0.00015189259679631076   4.414855827709896e-05   7.902172030873917e-05
-0.00020307146612635408   3.371329627766852e-05   -1.2537552440991355e-05
-0.00020307146612635408   3.371329627766852e-05   -1.2537552440991355e-05
-0.00020307146612635408   3.371329627766852e-05   -1.2537552440991355e-05
-0.00020307146612635408   3.371329627766852e-05   -1.2537552440991355e-05
-0.00021042630900615323   4.297087221154065e-05   9.727975440514125e-05
-0.00021042630900615323   4.297087221154065e-05   9.727975440514125e-05
-0.00021042630900615323   4.297087221154065e-05   9.727975440514125e-05
-0.00021042630900615323   4.297087221154065e-05   9.727975440514125e-05
-0.00015476589528084519   3.177496062961062e-05   1.1229945145454275e-05
-0.00015476589528084519   3.177496062961062e-05   1.1229945145454275e-05
-0.00015476589528084519   3.177496062961062e-05   1.1229945145454275e-05
-0.00015476589528084519   3.177496062961062e-05   1.1229945145454275e-05
-0.00017348935993629884   3.746892986651422e-05   3.901933802907473e-05
-0.00017348935993629884   3.746892986651422e-05   3.901933802907473e-05
-0.00017348935993629884   3.746892986651422e-05   3.901933802907473e-05
-0.00017348935993629884   3.746892986651422e-05   3.901933802907473e-05
-0.00015476589528084519   4.297087221154065e-05   0.00010399730135429979
-0.00015476589528084519   4.297087221154065e-05   0.00010399730135429979
-0.00015476589528084519   4.297087221154065e-05   0.00010399730135429979
-0.00015476589528084519   4.297087221154065e-05   0.00010399730135429979
-0.0002104263090061541   3.177496062961235e-05   4.5123981962963845e-06
-0.0002104263090061541   3.177496062961235e-05   4.5123981962963845e-06
-0.0002104263090061541   3.177496062961235e-05   4.5123981962963845e-06
-0.0002104263090061541   3.177496062961235e-05   4.5123981962963845e-06
-0.00021677000356162737   4.156561960474113e-05   0.00011509462167735678
-0.00021677000356162737   4.156561960474113e-05   0.00011509462167735678
-0.00021677000356162737   4.156561960474113e-05   0.00011509462167735678
-0.00021677000356162737   4.156561960474113e-05   0.00011509462167735678
-0.00015817366063788463   3.017181333524882e-05   2.427033389947996e-05
-0.00015817366063788463   3.017181333524882e-05   2.427033389947996e-05
-0.00015817366063788463   3.017181333524882e-05   2.427033389947996e-05
-0.00015817366063788463   3.017181333524882e-05   2.427033389947996e-05
-0.00018052618319946046   3.695555111686913e-05   5.745429549980667e-05
-0.00018052618319946046   3.695555111686913e-05   5.745429549980667e-05
-0.00018052618319946046   3.695555111686913e-05   5.745429549980667e-05
-0.00018052618319946046   3.695555111686913e-05   5.745429549980667e-05
-0.00015817366063788484   4.1565619604739396e-05   0.00012193090543905112
-0.00015817366063788484   4.1565619604739396e-05   0.00012193090543905112
-0.00015817366063788484   4.1565619604739396e-05   0.00012193090543905112
-0.00015817366063788484   4.1565619604739396e-05   0.00012193090543905112
-0.0002167700035616278   3.0171813335250555e-05   1.7434050137787134e-05
-0.0002167700035616278   3.0171813335250555e-05   1.7434050137787134e-05
-0.0002167700035616278   3.0171813335250555e-05   1.7434050137787134e-05
-0.0002167700035616278   3.0171813335250555e-05   1.7434050137787134e-05
-0.00022437491463221616   3.68766520221081e-05   0.00014665303725638554
-0.00022437491463221616   3.68766520221081e-05   0.00014665303725638554
-0.00022437491463221616   3.68766520221081e-05   0.00014665303725638554
-0.00022437491463221616   3.68766520221081e-05   0.00014665303725638554
-0.00016110421778576687   2.583807814247191e-05   4.782502017341896e-05
-0.00016110421778576687   2.583807814247191e-05   4.782502017341896e-05
-0.00016110421778576687   2.583807814247191e-05   4.782502017341896e-05
-0.00016110421778576687   2.583807814247191e-05   4.782502017341896e-05
-0.00018233262317621116   3.49849554977643e-05   7.771756941098813e-05
-0.00018233262317621116   3.49849554977643e-05   7.771756941098813e-05
-0.00018233262317621116   3.49849554977643e-05   7.771756941098813e-05
-0.00018233262317621116   3.49849554977643e-05   7.771756941098813e-05
1.58822088297618e-05   4.6318975129369666e-07   9.313892316723232e-05
1.58822088297618e-05   4.6318975129369666e-07   9.313892316723232e-05
1.58822088297618e-05   4.6318975129369666e-07   9.313892316723232e-05
1.58822088297618e-05   4.6318975129369666e-07   9.313892316723232e-05
-2.0725146797051405e-05   1.0467374450835905e-05   3.8129174608934543e-05
-2.0725146797051405e-05   1.0467374450835905e-05   3.8129174608934543e-05
-2.0725146797051405e-05   1.0467374450835905e-05   3.8129174608934543e-05
-2.0725146797051405e-05   1.0467374450835905e-05   3.8129174608934543e-05
-2.2925378474710368e-05   -3.0806734932463387e-06   9.207081777902254e-05
-2.2925378474710368e-05   -3.0806734932463387e-06   9.207081777902254e-05
-2.2925378474710368e-05   -3.0806734932463387e-06   9.207081777902254e-05
-2.2925378474710368e-05   -3.0806734932463387e-06   9.207081777902254e-05
9.166002729123581e-06   7.16306570881526e-06   3.2438938918061765e-05
9.166002729123581e-06   7.16306570881526e-06   3.2438938918061765e-05
9.166002729123581e-06   7.16306570881526e-06   3.2438938918061765e-05
9.166002729123581e-06   7.16306570881526e-06   3.2438938918061765e-05
-5.462823759604118e-06   3.193500686431844e-06   5.920205541270519e-05
-5.462823759604118e-06   3.193500686431844e-06   5.920205541270519e-05
-5.462823759604118e-06   3.193500686431844e-06   5.920205541270519e-05
-5.462823759604118e-06   3.193500686431844e-06   5.920205541270519e-05
9.166002729123581e-06   -3.0806734932463387e-06   8.592457425778566e-05
9.166002729123581e-06   -3.0806734932463387e-06   8.592457425778566e-05
9.166002729123581e-06   -3.0806734932463387e-06   8.592457425778566e-05
9.166002729123581e-06   -3.0806734932463387e-06   8.592457425778566e-05
-2.2925378474710368e-05   7.16306570881526e-06   3.8585182439298746e-05
-2.2925378474710368e-05   7.16306570881526e-06   3.8585182439298746e-05
-2.2925378474710368e-05   7.16306570881526e-06   3.8585182439298746e-05
-2.2925378474710368e-05   7.16306570881526e-06   3.8585182439298746e-05
-2.563927162380807e-05   -4.620447844891698e-06   8.979240617319794e-05
-2.563927162380807e-05   -4.620447844891698e-06   8.979240617319794e-05
-2.563927162380807e-05   -4.620447844891698e-06   8.979240617319794e-05
-2.563927162380807e-05   -4.620447844891698e-06   8.979240617319794e-05
3.348758330986787e-06   5.327345807230356e-06   3.5510346723933734e-05
3.348758330986787e-06   5.327345807230356e-06   3.5510346723933734e-05
3.348758330986787e-06   5.327345807230356e-06   3.5510346723933734e-05
3.348758330986787e-06   5.327345807230356e-06   3.5510346723933734e-05
-9.104814399460534e-06   1.7842435718808808e-06   5.839216261588906e-05
-9.104814399460534e-06   1.7842435718808808e-06   5.839216261588906e-05
-9.104814399460534e-06   1.7842435718808808e-06   5.839216261588906e-05
-9.104814399460534e-06   1.7842435718808808e-06   5.839216261588906e-05
3.348758330986787e-06   -4.620447844891698e-06   8.38237299819241e-05
3.348758330986787e-06   -4.620447844891698e-06   8.38237299819241e-05
3.348758330986787e-06   -4.620447844891698e-06   8.38237299819241e-05
3.348758330986787e-06   -4.620447844891698e-06   8.38237299819241e-05
-2.5639271623808016e-05   5.327345807230356e-06   4.147902291520584e-05
-2.5639271623808016e-05   5.327345807230356e-06   4.147902291520584e-05
-2.5639271623808016e-05   5.327345807230356e-06   4.147902291520584e-05
-2.5639271623808016e-05   5.327345807230356e-06   4.147902291520584e-05
-2.7900505468295855e-05   -7.207609890626243e-06   8.917409885256288e-05
-2.7900505468295855e-05   -7.207609890626243e-06   8.917409885256288e-05
-2.7900505468295855e-05   -7.207609890626243e-06   8.917409885256288e-05
-2.7900505468295855e-05   -7.207609890626243e-06   8.917409885256288e-05
-3.9409108133029455e-06   1.4175779700148147e-06   4.4066328377856856e-05
-3.9409108133029455e-06   1.4175779700148147e-06   4.4066328377856856e-05
-3.9409108133029455e-06   1.4175779700148147e-06   4.4066328377856856e-05
-3.9409108133029455e-06   1.4175779700148147e-06   4.4066328377856856e-05
-1.2968217439266084e-05   4.6778927613802535e-07   5.9681712637454486e-05
-1.2968217439266084e-05   4.6778927613802535e-07   5.9681712637454486e-05
-1.2968217439266084e-05   4.6778927613802535e-07   5.9681712637454486e-05
-1.2968217439266084e-05   4.6778927613802535e-07   5.9681712637454486e-05
-2.0725146797051405e-05   1.0038666444937838e-05   0.00015034984232785605
-2.0725146797051405e-05   1.0038666444937838e-05   0.00015034984232785605
-2.0725146797051405e-05   1.0038666444937838e-05   0.00015034984232785605
-2.0725146797051405e-05   1.0038666444937838e-05   0.00015034984232785605
-5.139925640365085e-05   1.198040246752196e-05   0.00010039136793040838
-5.139925640365085e-05   1.198040246752196e-05   0.00010039136793040838
-5.139925640365085e-05   1.198040246752196e-05   0.00010039136793040838
-5.139925640365085e-05   1.198040246752196e-05   0.00010039136793040838
-5.304996832388852e-05   6.01837179884171e-06   0.00014997212620625547
-5.304996832388852e-05   6.01837179884171e-06   0.00014997212620625547
-5.304996832388852e-05   6.01837179884171e-06   0.00014997212620625547
-5.304996832388852e-05   6.01837179884171e-06   0.00014997212620625547
-2.2925378474710368e-05   8.281261141145774e-06   9.840674285224098e-05
-2.2925378474710368e-05   8.281261141145774e-06   9.840674285224098e-05
-2.2925378474710368e-05   8.281261141145774e-06   9.840674285224098e-05
-2.2925378474710368e-05   8.281261141145774e-06   9.840674285224098e-05
-3.722824655331466e-05   8.660114000678433e-06   0.00012201754460086233
-3.722824655331466e-05   8.660114000678433e-06   0.00012201754460086233
-3.722824655331466e-05   8.660114000678433e-06   0.00012201754460086233
-3.722824655331466e-05   8.660114000678433e-06   0.00012201754460086233
-2.2925378474710395e-05   6.01837179884171e-06   0.00014861439260087025
-2.2925378474710395e-05   6.01837179884171e-06   0.00014861439260087025
-2.2925378474710395e-05   6.01837179884171e-06   0.00014861439260087025
-2.2925378474710395e-05   6.01837179884171e-06   0.00014861439260087025
-5.304996832388841e-05   8.281261141145774e-06   9.976447645762467e-05
-5.304996832388841e-05   8.281261141145774e-06   9.976447645762467e-05
-5.304996832388841e-05   8.281261141145774e-06   9.976447645762467e-05
-5.304996832388841e-05   8.281261141145774e-06   9.976447645762467e-05
-5.47513501712992e-05   2.599563246124051e-06   0.00015033896505912275
-5.47513501712992e-05   2.599563246124051e-06   0.00015033896505912275
-5.47513501712992e-05   2.599563246124051e-06   0.00015033896505912275
-5.47513501712992e-05   2.599563246124051e-06   0.00015033896505912275
-2.5639271623808016e-05   4.851383562329628e-06   0.0001004677419569145
-2.5639271623808016e-05   4.851383562329628e-06   0.0001004677419569145
-2.5639271623808016e-05   4.851383562329628e-06   0.0001004677419569145
-2.5639271623808016e-05   4.851383562329628e-06   0.0001004677419569145
-3.8910976712816763e-05   5.947812320503468e-06   0.00012192939318369286
-3.8910976712816763e-05   5.947812320503468e-06   0.00012192939318369286
-3.8910976712816763e-05   5.947812320503468e-06   0.00012192939318369286
-3.8910976712816763e-05   5.947812320503468e-06   0.00012192939318369286
-2.563927162380807e-05   2.599563246124051e-06   0.0001489878728693989
-2.563927162380807e-05   2.599563246124051e-06   0.0001489878728693989
-2.563927162380807e-05   2.599563246124051e-06   0.0001489878728693989
-2.563927162380807e-05   2.599563246124051e-06   0.0001489878728693989
-5.47513501712992e-05   4.851383562329628e-06   0.00010181883414663723
-5.47513501712992e-05   4.851383562329628e-06   0.00010181883414663723
-5.47513501712992e-05   4.851383562329628e-06   0.00010181883414663723
-5.47513501712992e-05   4.851383562329628e-06   0.00010181883414663723
-5.6417056329197504e-05   -9.084046197847112e-07   0.00015333026080709567
-5.6417056329197504e-05   -9.084046197847112e-07   0.00015333026080709567
-5.6417056329197504e-05   -9.084046197847112e-07   0.00015333026080709567
-5.6417056329197504e-05   -9.084046197847112e-07   0.00015333026080709567
-2.7900505468295828e-05   1.1193414063623286e-06   0.00010458602842323874
-2.7900505468295828e-05   1.1193414063623286e-06   0.00010458602842323874
-2.7900505468295828e-05   1.1193414063623286e-06   0.00010458602842323874
-2.7900505468295828e-05   1.1193414063623286e-06   0.00010458602842323874
-4.0597293554321426e-05   3.2673736440795922e-06   0.0001244585225573171
-4.0597293554321426e-05   3.2673736440795922e-06   0.0001244585225573171
-4.0597293554321426e-05   3.2673736440795922e-06   0.0001244585225573171
-4.0597293554321426e-05   3.2673736440795922e-06   0.0001244585225573171
-5.139925640365074e-05   1.857456424927441e-05   0.00016934173710488835
-5.139925640365074e-05   1.857456424927441e-05   0.00016934173710488835
-5.139925640365074e-05   1.857456424927441e-05   0.00016934173710488835
-5.139925640365074e-05   1.857456424927441e-05   0.00016934173710488835
-8.205330292125786e-05   1.4266222683602219e-05   0.00011566665463614081
-8.205330292125786e-05   1.4266222683602219e-05   0.00011566665463614081
-8.205330292125786e-05   1.4266222683602219e-05   0.00011566665463614081
-8.205330292125786e-05   1.4266222683602219e-05   0.00011566665463614081
-8.344469604319857e-05   1.4856269485699972e-05   0.0001662072343322522
-8.344469604319857e-05   1.4856269485699972e-05   0.0001662072343322522
-8.344469604319857e-05   1.4856269485699972e-05   0.0001662072343322522
-8.344469604319857e-05   1.4856269485699972e-05   0.0001662072343322522
-5.304996832388841e-05   1.0826167981045978e-05   0.00011796741570286001
-5.304996832388841e-05   1.0826167981045978e-05   0.00011796741570286001
-5.304996832388841e-05   1.0826167981045978e-05   0.00011796741570286001
-5.304996832388841e-05   1.0826167981045978e-05   0.00011796741570286001
-6.751477045667699e-05   1.4361092982657225e-05   0.00013995446425654106
-6.751477045667699e-05   1.4361092982657225e-05   0.00013995446425654106
-6.751477045667699e-05   1.4361092982657225e-05   0.00013995446425654106
-6.751477045667699e-05   1.4361092982657225e-05   0.00013995446425654106
-5.304996832388841e-05   1.4856269485699972e-05   0.00016862529523504425
-5.304996832388841e-05   1.4856269485699972e-05   0.00016862529523504425
-5.304996832388841e-05   1.4856269485699972e-05   0.00016862529523504425
-5.304996832388841e-05   1.4856269485699972e-05   0.00016862529523504425
-8.344469604319857e-05   1.0826167981045978e-05   0.00011554935480006861
-8.344469604319857e-05   1.0826167981045978e-05   0.00011554935480006861
-8.344469604319857e-05   1.0826167981045978e-05   0.00011554935480006861
-8.344469604319857e-05   1.0826167981045978e-05   0.00011554935480006861
-8.493786850925973e-05   1.1156663866829578e-05   0.00016790635342154876
-8.493786850925973e-05   1.1156663866829578e-05   0.00016790635342154876
-8.493786850925973e-05   1.1156663866829578e-05   0.00016790635342154876
-8.493786850925973e-05   1.1156663866829578e-05   0.00016790635342154876
-5.47513501712992e-05   7.328617969109934e-06   0.00011989231706357908
-5.47513501712992e-05   7.328617969109934e-06   0.00011989231706357908
-5.47513501712992e-05   7.328617969109934e-06   0.00011989231706357908
-5.47513501712992e-05   7.328617969109934e-06   0.00011989231706357908
-6.870321674470588e-05   1.1599843854273942e-05   0.0001405826924881597
-6.870321674470588e-05   1.1599843854273942e-05   0.0001405826924881597
-6.870321674470588e-05   1.1599843854273942e-05   0.0001405826924881597
-6.870321674470588e-05   1.1599843854273942e-05   0.0001405826924881597
-5.47513501712992e-05   1.1156663866829578e-05   0.00017020318096017898
-5.47513501712992e-05   1.1156663866829578e-05   0.00017020318096017898
-5.47513501712992e-05   1.1156663866829578e-05   0.00017020318096017898
-5.47513501712992e-05   1.1156663866829578e-05   0.00017020318096017898
-8.493786850925951e-05   7.328617969109934e-06   0.00011759548952494821
-8.493786850925951e-05   7.328617969109934e-06   0.00011759548952494821
-8.493786850925951e-05   7.328617969109934e-06   0.00011759548952494821
-8.493786850925951e-05   7.328617969109934e-06   0.00011759548952494821
-8.640007378428677e-05   7.611073913268984e-06   0.00017142199437129423
-8.640007378428677e-05   7.611073913268984e-06   0.00017142199437129423
-8.640007378428677e-05   7.611073913268984e-06   0.00017142199437129423
-8.640007378428677e-05   7.611073913268984e-06   0.00017142199437129423
-5.641705632919761e-05   4.006921251122238e-06   0.00012361279021010042
-5.641705632919761e-05   4.006921251122238e-06   0.00012361279021010042
-5.641705632919761e-05   4.006921251122238e-06   0.00012361279021010042
-5.641705632919761e-05   4.006921251122238e-06   0.00012361279021010042
-7.002783877748325e-05   8.877676731782608e-06   0.00014337497433551303
-7.002783877748325e-05   8.877676731782608e-06   0.00014337497433551303
-7.002783877748325e-05   8.877676731782608e-06   0.00014337497433551303
-7.002783877748325e-05   8.877676731782608e-06   0.00014337497433551303
-8.205330292125829e-05   2.7508768277600265e-05   0.00014628282226677048
-8.205330292125829e-05   2.7508768277600265e-05   0.00014628282226677048
-8.205330292125829e-05   2.7508768277600265e-05   0.00014628282226677048
-8.205330292125829e-05   2.7508768277600265e-05   0.00014628282226677048
-0.00011216250000135007   1.9221284847109263e-05   9.112833707498966e-05
-0.00011216250000135007   1.9221284847109263e-05   9.112833707498966e-05
-0.00011216250000135007   1.9221284847109263e-05   9.112833707498966e-05
-0.00011216250000135007   1.9221284847109263e-05   9.112833707498966e-05
-0.00011368939056870123   2.3753426194280877e-05   0.0001419536033975691
-0.00011368939056870123   2.3753426194280877e-05   0.0001419536033975691
-0.00011368939056870123   2.3753426194280877e-05   0.0001419536033975691
-0.00011368939056870123   2.3753426194280877e-05   0.0001419536033975691
-8.344469604319857e-05   1.5600588337432754e-05   9.643748190250661e-05
-8.344469604319857e-05   1.5600588337432754e-05   9.643748190250661e-05
-8.344469604319857e-05   1.5600588337432754e-05   9.643748190250661e-05
-8.344469604319857e-05   1.5600588337432754e-05   9.643748190250661e-05
-9.763054647478949e-05   2.135452520552264e-05   0.00011662820383430503
-9.763054647478949e-05   2.135452520552264e-05   0.00011662820383430503
-9.763054647478949e-05   2.135452520552264e-05   0.00011662820383430503
-9.763054647478949e-05   2.135452520552264e-05   0.00011662820383430503
-8.344469604319857e-05   2.3753426194279142e-05   0.00014684530611167642
-8.344469604319857e-05   2.3753426194279142e-05   0.00014684530611167642
-8.344469604319857e-05   2.3753426194279142e-05   0.00014684530611167642
-8.344469604319857e-05   2.3753426194279142e-05   0.00014684530611167642
-0.0001136893905687008   1.560058833743362e-05   9.154577918839843e-05
-0.0001136893905687008   1.560058833743362e-05   9.154577918839843e-05
-0.0001136893905687008   1.560058833743362e-05   9.154577918839843e-05
-0.0001136893905687008   1.560058833743362e-05   9.154577918839843e-05
-0.00011581107136274596   2.0347158907297463e-05   0.00014668674780051166
-0.00011581107136274596   2.0347158907297463e-05   0.00014668674780051166
-0.00011581107136274596   2.0347158907297463e-05   0.00014668674780051166
-0.00011581107136274596   2.0347158907297463e-05   0.00014668674780051166
-8.493786850925973e-05   1.238565544606305e-05   0.00010000831178810874
-8.493786850925973e-05   1.238565544606305e-05   0.00010000831178810874
-8.493786850925973e-05   1.238565544606305e-05   0.00010000831178810874
-8.493786850925973e-05   1.238565544606305e-05   0.00010000831178810874
-9.846141462822085e-05   1.867796875050856e-05   0.00011877216733704316
-9.846141462822085e-05   1.867796875050856e-05   0.00011877216733704316
-9.846141462822085e-05   1.867796875050856e-05   0.00011877216733704316
-9.846141462822085e-05   1.867796875050856e-05   0.00011877216733704316
-8.493786850925951e-05   2.0347158907297463e-05   0.00015146364987725022
-8.493786850925951e-05   2.0347158907297463e-05   0.00015146364987725022
-8.493786850925951e-05   2.0347158907297463e-05   0.00015146364987725022
-8.493786850925951e-05   2.0347158907297463e-05   0.00015146364987725022
-0.00011581107136274596   1.238565544606305e-05   9.523140971136714e-05
-0.00011581107136274596   1.238565544606305e-05   9.523140971136714e-05
-0.00011581107136274596   1.238565544606305e-05   9.523140971136714e-05
-0.00011581107136274596   1.238565544606305e-05   9.523140971136714e-05
-0.00011751465845692482   1.671543567628199e-05   0.00015197387629103682
-0.00011751465845692482   1.671543567628199e-05   0.00015197387629103682
-0.00011751465845692482   1.671543567628199e-05   0.00015197387629103682
-0.00011751465845692482   1.671543567628199e-05   0.00015197387629103682
-8.640007378428677e-05   9.11717021010068e-06   0.00010467519444968274
-8.640007378428677e-05   9.11717021010068e-06   0.00010467519444968274
-8.640007378428677e-05   9.11717021010068e-06   0.00010467519444968274
-8.640007378428677e-05   9.11717021010068e-06   0.00010467519444968274
-0.0001002123268596572   1.6139995349292655e-05   0.00012348192115845414
-0.0001002123268596572   1.6139995349292655e-05   0.00012348192115845414
-0.0001002123268596572   1.6139995349292655e-05   0.00012348192115845414
-0.0001002123268596572   1.6139995349292655e-05   0.00012348192115845414
-0.00011216250000135007   3.371329627766678e-05   6.427615885437003e-05
-0.00011216250000135007   3.371329627766678e-05   6.427615885437003e-05
-0.00011216250000135007   3.371329627766678e-05   6.427615885437003e-05
-0.00011216250000135007   3.371329627766678e-05   6.427615885437003e-05
-0.00013549687878678697   2.259610921071832e-05   1.871521530513906e-05
-0.00013549687878678697   2.259610921071832e-05   1.871521530513906e-05
-0.00013549687878678697   2.259610921071832e-05   1.871521530513906e-05
-0.00013549687878678697   2.259610921071832e-05   1.871521530513906e-05
-0.00014132964340788506   3.177496062961062e-05   7.526057475646872e-05
-0.00014132964340788506   3.177496062961062e-05   7.526057475646872e-05
-0.00014132964340788506   3.177496062961062e-05   7.526057475646872e-05
-0.00014132964340788506   3.177496062961062e-05   7.526057475646872e-05
-0.0001136893905687008   2.0185087945118023e-05   3.614741030185829e-05
-0.0001136893905687008   2.0185087945118023e-05   3.614741030185829e-05
-0.0001136893905687008   2.0185087945118023e-05   3.614741030185829e-05
-0.0001136893905687008   2.0185087945118023e-05   3.614741030185829e-05
-0.00012131675093731689   2.6816361796220406e-05   4.488091327222235e-05
-0.00012131675093731689   2.6816361796220406e-05   4.488091327222235e-05
-0.00012131675093731689   2.6816361796220406e-05   4.488091327222235e-05
-0.00012131675093731689   2.6816361796220406e-05   4.488091327222235e-05
-0.0001136893905687008   3.177496062961235e-05   8.22144983671641e-05
-0.0001136893905687008   3.177496062961235e-05   8.22144983671641e-05
-0.0001136893905687008   3.177496062961235e-05   8.22144983671641e-05
-0.0001136893905687008   3.177496062961235e-05   8.22144983671641e-05
-0.0001413296434078855   2.0185087945117156e-05   2.919348669116143e-05
-0.0001413296434078855   2.0185087945117156e-05   2.919348669116143e-05
-0.0001413296434078855   2.0185087945117156e-05   2.919348669116143e-05
-0.0001413296434078855   2.0185087945117156e-05   2.919348669116143e-05
-0.00014634608019109064   3.017181333524882e-05   8.865674120331346e-05
-0.00014634608019109064   3.017181333524882e-05   8.865674120331346e-05
-0.00014634608019109064   3.017181333524882e-05   8.865674120331346e-05
-0.00014634608019109064   3.017181333524882e-05   8.865674120331346e-05
-0.0001158110713627464   1.8535129902783054e-05   4.4747069882218864e-05
-0.0001158110713627464   1.8535129902783054e-05   4.4747069882218864e-05
-0.0001158110713627464   1.8535129902783054e-05   4.4747069882218864e-05
-0.0001158110713627464   1.8535129902783054e-05   4.4747069882218864e-05
-0.00012624393375733713   2.5859140394338988e-05   5.774076757827321e-05
-0.00012624393375733713   2.5859140394338988e-05   5.774076757827321e-05
-0.00012624393375733713   2.5859140394338988e-05   5.774076757827321e-05
-0.00012624393375733713   2.5859140394338988e-05   5.774076757827321e-05
-0.0001158110713627464   3.0171813335250555e-05   9.563875126279275e-05
-0.0001158110713627464   3.0171813335250555e-05   9.563875126279275e-05
-0.0001158110713627464   3.0171813335250555e-05   9.563875126279275e-05
-0.0001158110713627464   3.0171813335250555e-05   9.563875126279275e-05
-0.0001463460801910915   1.8535129902783054e-05   3.776505982273935e-05
-0.0001463460801910915   1.8535129902783054e-05   3.776505982273935e-05
-0.0001463460801910915   1.8535129902783054e-05   3.776505982273935e-05
-0.0001463460801910915   1.8535129902783054e-05   3.776505982273935e-05
-0.00015275304094999583   2.583807814247191e-05   0.00011292335788028879
-0.00015275304094999583   2.583807814247191e-05   0.00011292335788028879
-0.00015275304094999583   2.583807814247191e-05   0.00011292335788028879
-0.00015275304094999583   2.583807814247191e-05   0.00011292335788028879
-0.00011751465845692439   1.4775259053797368e-05   6.083041184504071e-05
-0.00011751465845692439   1.4775259053797368e-05   6.083041184504071e-05
-0.00011751465845692439   1.4775259053797368e-05   6.083041184504071e-05
-0.00011751465845692439   1.4775259053797368e-05   6.083041184504071e-05
-0.00012767756865888526   2.4062985982643663e-05   7.219595935766595e-05
-0.00012767756865888526   2.4062985982643663e-05   7.219595935766595e-05
-0.00012767756865888526   2.4062985982643663e-05   7.219595935766595e-05
-0.00012767756865888526   2.4062985982643663e-05   7.219595935766595e-05
-5.825879495542706e-05   1.0467374450835905e-05   6.591342339639988e-05
-5.825879495542706e-05   1.0467374450835905e-05   6.591342339639988e-05
-5.825879495542706e-05   1.0467374450835905e-05   6.591342339639988e-05
-5.825879495542706e-05   1.0467374450835905e-05   6.591342339639988e-05
-6.249379791202644e-05   1.9548944761607796e-05   6.430402732186423e-05
-6.249379791202644e-05   1.9548944761607796e-05   6.430402732186423e-05
-6.249379791202644e-05   1.9548944761607796e-05   6.430402732186423e-05
-6.249379791202644e-05   1.9548944761607796e-05   6.430402732186423e-05
-6.403980233096003e-05   7.16306570881526e-06   7.113886219876431e-05
-6.403980233096003e-05   7.16306570881526e-06   7.113886219876431e-05
-6.403980233096003e-05   7.16306570881526e-06   7.113886219876431e-05
-6.403980233096003e-05   7.16306570881526e-06   7.113886219876431e-05
-6.488546132433506e-05   1.5317139057289923e-05   6.76558498453046e-05
-6.488546132433506e-05   1.5317139057289923e-05   6.76558498453046e-05
-6.488546132433506e-05   1.5317139057289923e-05   6.76558498453046e-05
-6.488546132433506e-05   1.5317139057289923e-05   6.76558498453046e-05
-6.083255036883375e-05   1.228989609746399e-05   6.271734402869844e-05
-6.083255036883375e-05   1.228989609746399e-05   6.271734402869844e-05
-6.083255036883375e-05   1.228989609746399e-05   6.271734402869844e-05
-6.083255036883375e-05   1.228989609746399e-05   6.271734402869844e-05
-6.488546132433522e-05   7.16306570881526e-06   6.624641818967847e-05
-6.488546132433522e-05   7.16306570881526e-06   6.624641818967847e-05
-6.488546132433522e-05   7.16306570881526e-06   6.624641818967847e-05
-6.488546132433522e-05   7.16306570881526e-06   6.624641818967847e-05
-6.403980233096003e-05   1.5317139057289923e-05   7.254829385438958e-05
-6.403980233096003e-05   1.5317139057289923e-05   7.254829385438958e-05
-6.403980233096003e-05   1.5317139057289923e-05   7.254829385438958e-05
-6.403980233096003e-05   1.5317139057289923e-05   7.254829385438958e-05
-6.604871530112576e-05   5.327345807230356e-06   7.358178672338964e-05
-6.604871530112576e-05   5.327345807230356e-06   7.358178672338964e-05
-6.604871530112576e-05   5.327345807230356e-06   7.358178672338964e-05
-6.604871530112576e-05   5.327345807230356e-06   7.358178672338964e-05
-7.131637165396165e-05   1.237426360248435e-05   7.813306330096232e-05
-7.131637165396165e-05   1.237426360248435e-05   7.813306330096232e-05
-7.131637165396165e-05   1.237426360248435e-05   7.813306330096232e-05
-7.131637165396165e-05   1.237426360248435e-05   7.813306330096232e-05
-6.478359264032925e-05   1.045941377943952e-05   6.839400817206702e-05
-6.478359264032925e-05   1.045941377943952e-05   6.839400817206702e-05
-6.478359264032925e-05   1.045941377943952e-05   6.839400817206702e-05
-6.478359264032925e-05   1.045941377943952e-05   6.839400817206702e-05
-7.131637165396171e-05   5.327345807230356e-06   6.935363604623551e-05
-7.131637165396171e-05   5.327345807230356e-06   6.935363604623551e-05
-7.131637165396171e-05   5.327345807230356e-06   6.935363604623551e-05
-7.131637165396171e-05   5.327345807230356e-06   6.935363604623551e-05
-6.604871530112576e-05   1.237426360248435e-05   8.236121397811515e-05
-6.604871530112576e-05   1.237426360248435e-05   8.236121397811515e-05
-6.604871530112576e-05   1.237426360248435e-05   8.236121397811515e-05
-6.604871530112576e-05   1.237426360248435e-05   8.236121397811515e-05
-6.730510662104661e-05   1.417577970015682e-06   8.120872183894033e-05
-6.730510662104661e-05   1.417577970015682e-06   8.120872183894033e-05
-6.730510662104661e-05   1.417577970015682e-06   8.120872183894033e-05
-6.730510662104661e-05   1.417577970015682e-06   8.120872183894033e-05
-7.815458504473237e-05   5.1263466729709745e-06   9.706592465664175e-05
-7.815458504473237e-05   5.1263466729709745e-06   9.706592465664175e-05
-7.815458504473237e-05   5.1263466729709745e-06   9.706592465664175e-05
-7.815458504473237e-05   5.1263466729709745e-06   9.706592465664175e-05
-6.748886535821471e-05   8.190939551178111e-06   7.745096945218559e-05
-6.748886535821471e-05   8.190939551178111e-06   7.745096945218559e-05
-6.748886535821471e-05   8.190939551178111e-06   7.745096945218559e-05
-6.748886535821471e-05   8.190939551178111e-06   7.745096945218559e-05
-6.249379791202635e-05   1.1980402467522827e-05   0.00013245951729078413
-6.249379791202635e-05   1.1980402467522827e-05   0.00013245951729078413
-6.249379791202635e-05   1.1980402467522827e-05   0.00013245951729078413
-6.249379791202635e-05   1.1980402467522827e-05   0.00013245951729078413
-6.260121614449826e-05   5.048768823421278e-06   0.00012812150671686956
-6.260121614449826e-05   5.048768823421278e-06   0.00012812150671686956
-6.260121614449826e-05   5.048768823421278e-06   0.00012812150671686956
-6.260121614449826e-05   5.048768823421278e-06   0.00012812150671686956
-6.304621123633667e-05   8.281261141146641e-06   0.00012746359091713464
-6.304621123633667e-05   8.281261141146641e-06   0.00012746359091713464
-6.304621123633667e-05   8.281261141146641e-06   0.00012746359091713464
-6.304621123633667e-05   8.281261141146641e-06   0.00012746359091713464
-6.403980233096003e-05   2.453208316859773e-06   0.00013261640776941194
-6.403980233096003e-05   2.453208316859773e-06   0.00013261640776941194
-6.403980233096003e-05   2.453208316859773e-06   0.00013261640776941194
-6.403980233096003e-05   2.453208316859773e-06   0.00013261640776941194
-6.283593368831566e-05   6.1506962544428945e-06   0.00012839146726912167
-6.283593368831566e-05   6.1506962544428945e-06   0.00012839146726912167
-6.283593368831566e-05   6.1506962544428945e-06   0.00012839146726912167
-6.283593368831566e-05   6.1506962544428945e-06   0.00012839146726912167
-6.403980233095997e-05   8.281261141145774e-06   0.00013096042261170416
-6.403980233095997e-05   8.281261141145774e-06   0.00013096042261170416
-6.403980233095997e-05   8.281261141145774e-06   0.00013096042261170416
-6.403980233095997e-05   8.281261141145774e-06   0.00013096042261170416
-6.304621123633656e-05   2.453208316859773e-06   0.0001291195760748402
-6.304621123633656e-05   2.453208316859773e-06   0.0001291195760748402
-6.304621123633656e-05   2.453208316859773e-06   0.0001291195760748402
-6.304621123633656e-05   2.453208316859773e-06   0.0001291195760748402
-6.360399352935359e-05   4.851383562329628e-06   0.0001293080795743231
-6.360399352935359e-05   4.851383562329628e-06   0.0001293080795743231
-6.360399352935359e-05   4.851383562329628e-06   0.0001293080795743231
-6.360399352935359e-05   4.851383562329628e-06   0.0001293080795743231
-6.604871530112576e-05   -5.859934222958094e-07   0.00013664504205138377
-6.604871530112576e-05   -5.859934222958094e-07   0.00013664504205138377
-6.604871530112576e-05   -5.859934222958094e-07   0.00013664504205138377
-6.604871530112576e-05   -5.859934222958094e-07   0.00013664504205138377
-6.33882546691253e-05   3.984805206604797e-06   0.00012946846182070797
-6.33882546691253e-05   3.984805206604797e-06   0.00012946846182070797
-6.33882546691253e-05   3.984805206604797e-06   0.00012946846182070797
-6.33882546691253e-05   3.984805206604797e-06   0.00012946846182070797
-6.604871530112576e-05   4.851383562328761e-06   0.00013257050576509543
-6.604871530112576e-05   4.851383562328761e-06   0.00013257050576509543
-6.604871530112576e-05   4.851383562328761e-06   0.00013257050576509543
-6.604871530112576e-05   4.851383562328761e-06   0.00013257050576509543
-6.360399352935337e-05   -5.859934222958094e-07   0.00013338261586060864
-6.360399352935337e-05   -5.859934222958094e-07   0.00013338261586060864
-6.360399352935337e-05   -5.859934222958094e-07   0.00013338261586060864
-6.360399352935337e-05   -5.859934222958094e-07   0.00013338261586060864
-6.399109038815823e-05   1.1193414063614612e-06   0.00013312297109175503
-6.399109038815823e-05   1.1193414063614612e-06   0.00013312297109175503
-6.399109038815823e-05   1.1193414063614612e-06   0.00013312297109175503
-6.399109038815823e-05   1.1193414063614612e-06   0.00013312297109175503
-6.730510662104655e-05   -4.597888720607804e-06   0.0001420766695560833
-6.730510662104655e-05   -4.597888720607804e-06   0.0001420766695560833
-6.730510662104655e-05   -4.597888720607804e-06   0.0001420766695560833
-6.730510662104655e-05   -4.597888720607804e-06   0.0001420766695560833
-6.429126857916594e-05   1.4217661857898745e-06   0.00013344181320910746
-6.429126857916594e-05   1.4217661857898745e-06   0.00013344181320910746
-6.429126857916594e-05   1.4217661857898745e-06   0.00013344181320910746
-6.429126857916594e-05   1.4217661857898745e-06   0.00013344181320910746
-6.260121614449848e-05   1.4266222683602219e-05   0.0001461608287494586
-6.260121614449848e-05   1.4266222683602219e-05   0.0001461608287494586
-6.260121614449848e-05   1.4266222683602219e-05   0.0001461608287494586
-6.260121614449848e-05   1.4266222683602219e-05   0.0001461608287494586
-6.681538900964851e-05   1.388616951683054e-06   0.00013141064386838937
-6.681538900964851e-05   1.388616951683054e-06   0.00013141064386838937
-6.681538900964851e-05   1.388616951683054e-06   0.00013141064386838937
-6.681538900964851e-05   1.388616951683054e-06   0.00013141064386838937
-6.693191844780186e-05   1.0826167981045978e-05   0.00013867756224938792
-6.693191844780186e-05   1.0826167981045978e-05   0.00013867756224938792
-6.693191844780186e-05   1.0826167981045978e-05   0.00013867756224938792
-6.693191844780186e-05   1.0826167981045978e-05   0.00013867756224938792
-6.304621123633656e-05   -8.221118739252034e-07   0.00013919035147659455
-6.304621123633656e-05   -8.221118739252034e-07   0.00013919035147659455
-6.304621123633656e-05   -8.221118739252034e-07   0.00013919035147659455
-6.304621123633656e-05   -8.221118739252034e-07   0.00013919035147659455
-6.472970213025386e-05   6.20773667699831e-06   0.00013777826050256946
-6.472970213025386e-05   6.20773667699831e-06   0.00013777826050256946
-6.472970213025386e-05   6.20773667699831e-06   0.00013777826050256946
-6.472970213025386e-05   6.20773667699831e-06   0.00013777826050256946
-6.304621123633656e-05   1.0826167981045978e-05   0.00014566653016236933
-6.304621123633656e-05   1.0826167981045978e-05   0.00014566653016236933
-6.304621123633656e-05   1.0826167981045978e-05   0.00014566653016236933
-6.304621123633656e-05   1.0826167981045978e-05   0.00014566653016236933
-6.693191844780164e-05   -8.221118739252034e-07   0.0001322013835636125
-6.693191844780164e-05   -8.221118739252034e-07   0.0001322013835636125
-6.693191844780164e-05   -8.221118739252034e-07   0.0001322013835636125
-6.693191844780164e-05   -8.221118739252034e-07   0.0001322013835636125
-6.718178538888363e-05   7.328617969109934e-06   0.00014090193057461446
-6.718178538888363e-05   7.328617969109934e-06   0.00014090193057461446
-6.718178538888363e-05   7.328617969109934e-06   0.00014090193057461446
-6.718178538888363e-05   7.328617969109934e-06   0.00014090193057461446
-6.360399352935348e-05   -3.470768558641417e-06   0.0001414185760587139
-6.360399352935348e-05   -3.470768558641417e-06   0.0001414185760587139
-6.360399352935348e-05   -3.470768558641417e-06   0.0001414185760587139
-6.360399352935348e-05   -3.470768558641417e-06   0.0001414185760587139
-6.471919195006698e-05   4.010208978211943e-06   0.0001387886535711199
-6.471919195006698e-05   4.010208978211943e-06   0.0001387886535711199
-6.471919195006698e-05   4.010208978211943e-06   0.0001387886535711199
-6.471919195006698e-05   4.010208978211943e-06   0.0001387886535711199
-6.360399352935359e-05   7.328617969110801e-06   0.00014738156249126302
-6.360399352935359e-05   7.328617969110801e-06   0.00014738156249126302
-6.360399352935359e-05   7.328617969110801e-06   0.00014738156249126302
-6.360399352935359e-05   7.328617969110801e-06   0.00014738156249126302
-6.718178538888341e-05   -3.470768558641417e-06   0.00013493894414206284
-6.718178538888341e-05   -3.470768558641417e-06   0.00013493894414206284
-6.718178538888341e-05   -3.470768558641417e-06   0.00013493894414206284
-6.718178538888341e-05   -3.470768558641417e-06   0.00013493894414206284
-6.732266022045977e-05   4.006921251123105e-06   0.00014484380750966284
-6.732266022045977e-05   4.006921251123105e-06   0.00014484380750966284
-6.732266022045977e-05   4.006921251123105e-06   0.00014484380750966284
-6.732266022045977e-05   4.006921251123105e-06   0.00014484380750966284
-6.399109038815812e-05   -6.1418750043210416e-06   0.00014538046887575774
-6.399109038815812e-05   -6.1418750043210416e-06   0.00014538046887575774
-6.399109038815812e-05   -6.1418750043210416e-06   0.00014538046887575774
-6.399109038815812e-05   -6.1418750043210416e-06   0.00014538046887575774
-6.48137032331612e-05   1.7484636761506273e-06   0.00014201728707580923
-6.48137032331612e-05   1.7484636761506273e-06   0.00014201728707580923
-6.48137032331612e-05   1.7484636761506273e-06   0.00014201728707580923
-6.48137032331612e-05   1.7484636761506273e-06   0.00014201728707580923
-6.681538900964851e-05   1.9221284847109263e-05   0.00011886843780744899
-6.681538900964851e-05   1.9221284847109263e-05   0.00011886843780744899
-6.681538900964851e-05   1.9221284847109263e-05   0.00011886843780744899
-6.681538900964851e-05   1.9221284847109263e-05   0.00011886843780744899
-7.316774023991262e-05   6.28057232334063e-06   0.00010051675824274725
-7.316774023991262e-05   6.28057232334063e-06   0.00010051675824274725
-7.316774023991262e-05   6.28057232334063e-06   0.00010051675824274725
-7.316774023991262e-05   6.28057232334063e-06   0.00010051675824274725
-7.323847982506184e-05   1.560058833743362e-05   0.00011222986950494129
-7.323847982506184e-05   1.560058833743362e-05   0.00011222986950494129
-7.323847982506184e-05   1.560058833743362e-05   0.00011222986950494129
-7.323847982506184e-05   1.560058833743362e-05   0.00011222986950494129
-6.693191844780186e-05   3.374221925958945e-06   0.00010905475372305958
-6.693191844780186e-05   3.374221925958945e-06   0.00010905475372305958
-6.693191844780186e-05   3.374221925958945e-06   0.00010905475372305958
-6.693191844780186e-05   3.374221925958945e-06   0.00010905475372305958
-6.985388286987035e-05   1.1398097597167464e-05   0.00010911036902378152
-6.985388286987035e-05   1.1398097597167464e-05   0.00010911036902378152
-6.985388286987035e-05   1.1398097597167464e-05   0.00010911036902378152
-6.985388286987035e-05   1.1398097597167464e-05   0.00010911036902378152
-6.693191844780186e-05   1.560058833743362e-05   0.00011956568935182505
-6.693191844780186e-05   1.560058833743362e-05   0.00011956568935182505
-6.693191844780186e-05   1.560058833743362e-05   0.00011956568935182505
-6.693191844780186e-05   1.560058833743362e-05   0.00011956568935182505
-7.323847982506184e-05   3.3742219259598125e-06   0.0001017189338761749
-7.323847982506184e-05   3.3742219259598125e-06   0.0001017189338761749
-7.323847982506184e-05   3.3742219259598125e-06   0.0001017189338761749
-7.323847982506184e-05   3.3742219259598125e-06   0.0001017189338761749
-7.399253738948506e-05   1.238565544606305e-05   0.00011641681838463463
-7.399253738948506e-05   1.238565544606305e-05   0.00011641681838463463
-7.399253738948506e-05   1.238565544606305e-05   0.00011641681838463463
-7.399253738948506e-05   1.238565544606305e-05   0.00011641681838463463
-6.718178538888341e-05   8.890980241638841e-07   0.00011196349950343696
-6.718178538888341e-05   8.890980241638841e-07   0.00011196349950343696
-6.718178538888341e-05   8.890980241638841e-07   0.00011196349950343696
-6.718178538888341e-05   8.890980241638841e-07   0.00011196349950343696
-6.961001300788384e-05   9.001799111419198e-06   0.00011114292488274662
-6.961001300788384e-05   9.001799111419198e-06   0.00011114292488274662
-6.961001300788384e-05   9.001799111419198e-06   0.00011114292488274662
-6.961001300788384e-05   9.001799111419198e-06   0.00011114292488274662
-6.718178538888341e-05   1.238565544606305e-05   0.00012331475283777066
-6.718178538888341e-05   1.238565544606305e-05   0.00012331475283777066
-6.718178538888341e-05   1.238565544606305e-05   0.00012331475283777066
-6.718178538888341e-05   1.238565544606305e-05   0.00012331475283777066
-7.399253738948506e-05   8.890980241638841e-07   0.0001050655650502981
-7.399253738948506e-05   8.890980241638841e-07   0.0001050655650502981
-7.399253738948506e-05   8.890980241638841e-07   0.0001050655650502981
-7.399253738948506e-05   8.890980241638841e-07   0.0001050655650502981
-7.442855848742609e-05   9.11717021010068e-06   0.00012163014886040335
-7.442855848742609e-05   9.11717021010068e-06   0.00012163014886040335
-7.442855848742609e-05   9.11717021010068e-06   0.00012163014886040335
-7.442855848742609e-05   9.11717021010068e-06   0.00012163014886040335
-6.732266022045977e-05   -1.6137539334479256e-06   0.00011622553956825397
-6.732266022045977e-05   -1.6137539334479256e-06   0.00011622553956825397
-6.732266022045977e-05   -1.6137539334479256e-06   0.00011622553956825397
-6.732266022045977e-05   -1.6137539334479256e-06   0.00011622553956825397
-6.991192622429548e-05   6.866338086218213e-06   0.00011545292769617882
-6.991192622429548e-05   6.866338086218213e-06   0.00011545292769617882
-6.991192622429548e-05   6.866338086218213e-06   0.00011545292769617882
-6.991192622429548e-05   6.866338086218213e-06   0.00011545292769617882
-7.316774023991262e-05   2.2596109210719188e-05   4.536120076350635e-05
-7.316774023991262e-05   2.2596109210719188e-05   4.536120076350635e-05
-7.316774023991262e-05   2.2596109210719188e-05   4.536120076350635e-05
-7.316774023991262e-05   2.2596109210719188e-05   4.536120076350635e-05
-7.156579104376564e-05   1.0269161609209772e-05   4.063494752951308e-05
-7.156579104376564e-05   1.0269161609209772e-05   4.063494752951308e-05
-7.156579104376564e-05   1.0269161609209772e-05   4.063494752951308e-05
-7.156579104376564e-05   1.0269161609209772e-05   4.063494752951308e-05
-7.524240901019387e-05   2.0185087945117156e-05   4.9654111515508303e-05
-7.524240901019387e-05   2.0185087945117156e-05   4.9654111515508303e-05
-7.524240901019387e-05   2.0185087945117156e-05   4.9654111515508303e-05
-7.524240901019387e-05   2.0185087945117156e-05   4.9654111515508303e-05
-7.323847982506184e-05   8.222772773631114e-06   5.3491618643180215e-05
-7.323847982506184e-05   8.222772773631114e-06   5.3491618643180215e-05
-7.323847982506184e-05   8.222772773631114e-06   5.3491618643180215e-05
-7.323847982506184e-05   8.222772773631114e-06   5.3491618643180215e-05
-7.092869088462647e-05   1.5866958258956357e-05   4.505545911792641e-05
-7.092869088462647e-05   1.5866958258956357e-05   4.505545911792641e-05
-7.092869088462647e-05   1.5866958258956357e-05   4.505545911792641e-05
-7.092869088462647e-05   1.5866958258956357e-05   4.505545911792641e-05
-7.32384798250614e-05   2.0185087945117156e-05   5.6831500618397673e-05
-7.32384798250614e-05   2.0185087945117156e-05   5.6831500618397673e-05
-7.32384798250614e-05   2.0185087945117156e-05   5.6831500618397673e-05
-7.32384798250614e-05   2.0185087945117156e-05   5.6831500618397673e-05
-7.524240901019387e-05   8.222772773631114e-06   4.631422954028846e-05
-7.524240901019387e-05   8.222772773631114e-06   4.631422954028846e-05
-7.524240901019387e-05   8.222772773631114e-06   4.631422954028846e-05
-7.524240901019387e-05   8.222772773631114e-06   4.631422954028846e-05
-7.847610288276964e-05   1.8535129902783054e-05   5.8940638751018605e-05
-7.847610288276964e-05   1.8535129902783054e-05   5.8940638751018605e-05
-7.847610288276964e-05   1.8535129902783054e-05   5.8940638751018605e-05
-7.847610288276964e-05   1.8535129902783054e-05   5.8940638751018605e-05
-7.399253738948463e-05   6.88206356200434e-06   5.8459869400010606e-05
-7.399253738948463e-05   6.88206356200434e-06   5.8459869400010606e-05
-7.399253738948463e-05   6.88206356200434e-06   5.8459869400010606e-05
-7.399253738948463e-05   6.88206356200434e-06   5.8459869400010606e-05
-7.353086772593671e-05   1.4655436178968514e-05   5.302639639058297e-05
-7.353086772593671e-05   1.4655436178968514e-05   5.302639639058297e-05
-7.353086772593671e-05   1.4655436178968514e-05   5.302639639058297e-05
-7.353086772593671e-05   1.4655436178968514e-05   5.302639639058297e-05
-7.399253738948463e-05   1.8535129902783054e-05   6.593247855548375e-05
-7.399253738948463e-05   1.8535129902783054e-05   6.593247855548375e-05
-7.399253738948463e-05   1.8535129902783054e-05   6.593247855548375e-05
-7.399253738948463e-05   1.8535129902783054e-05   6.593247855548375e-05
-7.847610288276964e-05   6.882063562005207e-06   5.1468029595543724e-05
-7.847610288276964e-05   6.882063562005207e-06   5.1468029595543724e-05
-7.847610288276964e-05   6.882063562005207e-06   5.1468029595543724e-05
-7.847610288276964e-05   6.882063562005207e-06   5.1468029595543724e-05
-8.332609141350512e-05   1.4775259053797368e-05   7.600873990138302e-05
-8.332609141350512e-05   1.4775259053797368e-05   7.600873990138302e-05
-8.332609141350512e-05   1.4775259053797368e-05   7.600873990138302e-05
-8.332609141350512e-05   1.4775259053797368e-05   7.600873990138302e-05
-7.442855848742609e-05   4.215949663653393e-06   6.75151039920027e-05
-7.442855848742609e-05   4.215949663653393e-06   6.75151039920027e-05
-7.442855848742609e-05   4.215949663653393e-06   6.75151039920027e-05
-7.442855848742609e-05   4.215949663653393e-06   6.75151039920027e-05
-7.44065137363724e-05   1.3238743752303286e-05   6.206468628704945e-05
-7.44065137363724e-05   1.3238743752303286e-05   6.206468628704945e-05
-7.44065137363724e-05   1.3238743752303286e-05   6.206468628704945e-05
-7.44065137363724e-05   1.3238743752303286e-05   6.206468628704945e-05
-0.00014774484767742597   1.9548944761607796e-05   5.468569305197048e-05
-0.00014774484767742597   1.9548944761607796e-05   5.468569305197048e-05
-0.00014774484767742597   1.9548944761607796e-05   5.468569305197048e-05
-0.00014774484767742597   1.9548944761607796e-05   5.468569305197048e-05
-9.916004502759487e-05   2.7140884687889503e-05   0.0001402155280907922
-9.916004502759487e-05   2.7140884687889503e-05   0.0001402155280907922
-9.916004502759487e-05   2.7140884687889503e-05   0.0001402155280907922
-9.916004502759487e-05   2.7140884687889503e-05   0.0001402155280907922
-9.907179155588676e-05   1.5317139057289923e-05   6.267153792389383e-05
-9.907179155588676e-05   1.5317139057289923e-05   6.267153792389383e-05
-9.907179155588676e-05   1.5317139057289923e-05   6.267153792389383e-05
-9.907179155588676e-05   1.5317139057289923e-05   6.267153792389383e-05
-0.00016241336791406144   1.1289199410063813e-05   0.00017065759564252223
-0.00016241336791406144   1.1289199410063813e-05   0.00017065759564252223
-0.00016241336791406144   1.1289199410063813e-05   0.00017065759564252223
-0.00016241336791406144   1.1289199410063813e-05   0.00017065759564252223
-0.00012055124036730958   1.615158138786694e-05   9.796995387792039e-05
-0.00012055124036730958   1.615158138786694e-05   9.796995387792039e-05
-0.00012055124036730958   1.615158138786694e-05   9.796995387792039e-05
-0.00012055124036730958   1.615158138786694e-05   9.796995387792039e-05
-0.00016241336791406172   1.5317139057289923e-05   6.508830171222946e-05
-0.00016241336791406172   1.5317139057289923e-05   6.508830171222946e-05
-0.00016241336791406172   1.5317139057289923e-05   6.508830171222946e-05
-0.00016241336791406172   1.5317139057289923e-05   6.508830171222946e-05
-9.907179155588676e-05   1.1289199410063813e-05   0.0001682408318541865
-9.907179155588676e-05   1.1289199410063813e-05   0.0001682408318541865
-9.907179155588676e-05   1.1289199410063813e-05   0.0001682408318541865
-9.907179155588676e-05   1.1289199410063813e-05   0.0001682408318541865
-0.00010031954210776832   1.237426360248435e-05   7.036042005485678e-05
-0.00010031954210776832   1.237426360248435e-05   7.036042005485678e-05
-0.00010031954210776832   1.237426360248435e-05   7.036042005485678e-05
-0.00010031954210776832   1.237426360248435e-05   7.036042005485678e-05
-0.0001628909306684714   8.205352707776024e-06   0.00017714741419285287
-0.0001628909306684714   8.205352707776024e-06   0.00017714741419285287
-0.0001628909306684714   8.205352707776024e-06   0.00017714741419285287
-0.0001628909306684714   8.205352707776024e-06   0.00017714741419285287
-0.00012847196065878333   1.0198871192818298e-05   0.00011858635308567946
-0.00012847196065878333   1.0198871192818298e-05   0.00011858635308567946
-0.00012847196065878333   1.0198871192818298e-05   0.00011858635308567946
-0.00012847196065878333   1.0198871192818298e-05   0.00011858635308567946
-0.0001628909306684716   1.237426360248435e-05   7.286176659168208e-05
-0.0001628909306684716   1.237426360248435e-05   7.286176659168208e-05
-0.0001628909306684716   1.237426360248435e-05   7.286176659168208e-05
-0.0001628909306684716   1.237426360248435e-05   7.286176659168208e-05
-0.00010031954210776813   8.205352707776024e-06   0.000174646067656028
-0.00010031954210776813   8.205352707776024e-06   0.000174646067656028
-0.00010031954210776813   8.205352707776024e-06   0.000174646067656028
-0.00010031954210776813   8.205352707776024e-06   0.000174646067656028
-9.91464727673545e-05   5.1263466729709745e-06   8.382913801608912e-05
-9.91464727673545e-05   5.1263466729709745e-06   8.382913801608912e-05
-9.91464727673545e-05   5.1263466729709745e-06   8.382913801608912e-05
-9.91464727673545e-05   5.1263466729709745e-06   8.382913801608912e-05
-0.00016449163188368758   -4.847361748621173e-06   0.0001987219615962653
-0.00016449163188368758   -4.847361748621173e-06   0.0001987219615962653
-0.00016449163188368758   -4.847361748621173e-06   0.0001987219615962653
-0.00016449163188368758   -4.847361748621173e-06   0.0001987219615962653
-0.0001264059169031987   5.076490172749738e-06   0.00012929145880929515
-0.0001264059169031987   5.076490172749738e-06   0.00012929145880929515
-0.0001264059169031987   5.076490172749738e-06   0.00012929145880929515
-0.0001264059169031987   5.076490172749738e-06   0.00012929145880929515
-9.916004502759506e-05   5.04876882342041e-06   0.00012721731658920732
-9.916004502759506e-05   5.04876882342041e-06   0.00012721731658920732
-9.916004502759506e-05   5.04876882342041e-06   0.00012721731658920732
-9.916004502759506e-05   5.04876882342041e-06   0.00012721731658920732
-6.056259078075657e-05   -2.9701699923618662e-05   0.00017069612575238097
-6.056259078075657e-05   -2.9701699923618662e-05   0.00017069612575238097
-6.056259078075657e-05   -2.9701699923618662e-05   0.00017069612575238097
-6.056259078075657e-05   -2.9701699923618662e-05   0.00017069612575238097
-6.061930463730598e-05   2.4532083168606403e-06   0.000106727889213109
-6.061930463730598e-05   2.4532083168606403e-06   0.000106727889213109
-6.061930463730598e-05   2.4532083168606403e-06   0.000106727889213109
-6.061930463730598e-05   2.4532083168606403e-06   0.000106727889213109
-9.907179155588676e-05   -2.423306272615307e-05   0.00018682713003655268
-9.907179155588676e-05   -2.423306272615307e-05   0.00018682713003655268
-9.907179155588676e-05   -2.423306272615307e-05   0.00018682713003655268
-9.907179155588676e-05   -2.423306272615307e-05   0.00018682713003655268
-7.940509928303687e-05   -1.4669577436088668e-05   0.00014831121840776468
-7.940509928303687e-05   -1.4669577436088668e-05   0.00014831121840776468
-7.940509928303687e-05   -1.4669577436088668e-05   0.00014831121840776468
-7.940509928303687e-05   -1.4669577436088668e-05   0.00014831121840776468
-9.907179155588684e-05   2.4532083168606403e-06   0.00012273965183891592
-9.907179155588684e-05   2.4532083168606403e-06   0.00012273965183891592
-9.907179155588684e-05   2.4532083168606403e-06   0.00012273965183891592
-9.907179155588684e-05   2.4532083168606403e-06   0.00012273965183891592
-6.061930463730587e-05   -2.423306272615307e-05   0.00017081536741074478
-6.061930463730587e-05   -2.423306272615307e-05   0.00017081536741074478
-6.061930463730587e-05   -2.423306272615307e-05   0.00017081536741074478
-6.061930463730587e-05   -2.423306272615307e-05   0.00017081536741074478
-6.0763552842621645e-05   -5.859934222958094e-07   0.00011010868584434078
-6.0763552842621645e-05   -5.859934222958094e-07   0.00011010868584434078
-6.0763552842621645e-05   -5.859934222958094e-07   0.00011010868584434078
-6.0763552842621645e-05   -5.859934222958094e-07   0.00011010868584434078
-0.00010031954210776813   -2.481193056193612e-05   0.0001905708969033689
-0.00010031954210776813   -2.481193056193612e-05   0.0001905708969033689
-0.00010031954210776813   -2.481193056193612e-05   0.0001905708969033689
-0.00010031954210776813   -2.481193056193612e-05   0.0001905708969033689
-7.875846359964842e-05   -1.2812221435994173e-05   0.0001474359405809365
-7.875846359964842e-05   -1.2812221435994173e-05   0.0001474359405809365
-7.875846359964842e-05   -1.2812221435994173e-05   0.0001474359405809365
-7.875846359964842e-05   -1.2812221435994173e-05   0.0001474359405809365
-0.00010031954210776832   -5.859934222958094e-07   0.00012464424812812496
-0.00010031954210776832   -5.859934222958094e-07   0.00012464424812812496
-0.00010031954210776832   -5.859934222958094e-07   0.00012464424812812496
-0.00010031954210776832   -5.859934222958094e-07   0.00012464424812812496
-6.0763552842621645e-05   -2.481193056193612e-05   0.00017603533461958427
-6.0763552842621645e-05   -2.481193056193612e-05   0.00017603533461958427
-6.0763552842621645e-05   -2.481193056193612e-05   0.00017603533461958427
-6.0763552842621645e-05   -2.481193056193612e-05   0.00017603533461958427
-6.005781872748942e-05   -4.597888720607804e-06   0.00011430185535077483
-6.005781872748942e-05   -4.597888720607804e-06   0.00011430185535077483
-6.005781872748942e-05   -4.597888720607804e-06   0.00011430185535077483
-6.005781872748942e-05   -4.597888720607804e-06   0.00011430185535077483
-9.914647276735428e-05   -2.511916595891164e-05   0.00019176237842686455
-9.914647276735428e-05   -2.511916595891164e-05   0.00019176237842686455
-9.914647276735428e-05   -2.511916595891164e-05   0.00019176237842686455
-9.914647276735428e-05   -2.511916595891164e-05   0.00019176237842686455
-7.902539892159463e-05   -1.4441939208228137e-05   0.00015182091930018816
-7.902539892159463e-05   -1.4441939208228137e-05   0.00015182091930018816
-7.902539892159463e-05   -1.4441939208228137e-05   0.00015182091930018816
-7.902539892159463e-05   -1.4441939208228137e-05   0.00015182091930018816
-6.056259078075657e-05   1.388616951683054e-06   0.00011738273593165467
-6.056259078075657e-05   1.388616951683054e-06   0.00011738273593165467
-6.056259078075657e-05   1.388616951683054e-06   0.00011738273593165467
-6.056259078075657e-05   1.388616951683054e-06   0.00011738273593165467
-4.423835967360345e-05   -2.3193228943700715e-05   0.00012984068023968046
-4.423835967360345e-05   -2.3193228943700715e-05   0.00012984068023968046
-4.423835967360345e-05   -2.3193228943700715e-05   0.00012984068023968046
-4.423835967360345e-05   -2.3193228943700715e-05   0.00012984068023968046
-4.376939119247417e-05   -8.221118739252034e-07   0.00010362510053446702
-4.376939119247417e-05   -8.221118739252034e-07   0.00010362510053446702
-4.376939119247417e-05   -8.221118739252034e-07   0.00010362510053446702
-4.376939119247417e-05   -8.221118739252034e-07   0.00010362510053446702
-6.061930463730587e-05   -2.2778052007919446e-05   0.00014488185368958378
-6.061930463730587e-05   -2.2778052007919446e-05   0.00014488185368958378
-6.061930463730587e-05   -2.2778052007919446e-05   0.00014488185368958378
-6.061930463730587e-05   -2.2778052007919446e-05   0.00014488185368958378
-5.196489299387681e-05   -1.174004916082742e-05   0.00012383503257561504
-5.196489299387681e-05   -1.174004916082742e-05   0.00012383503257561504
-5.196489299387681e-05   -1.174004916082742e-05   0.00012383503257561504
-5.196489299387681e-05   -1.174004916082742e-05   0.00012383503257561504
-6.061930463730587e-05   -8.221118739252034e-07   0.00011679866461486313
-6.061930463730587e-05   -8.221118739252034e-07   0.00011679866461486313
-6.061930463730587e-05   -8.221118739252034e-07   0.00011679866461486313
-6.061930463730587e-05   -8.221118739252034e-07   0.00011679866461486313
-4.376939119247439e-05   -2.2778052007919446e-05   0.00013170828960918756
-4.376939119247439e-05   -2.2778052007919446e-05   0.00013170828960918756
-4.376939119247439e-05   -2.2778052007919446e-05   0.00013170828960918756
-4.376939119247439e-05   -2.2778052007919446e-05   0.00013170828960918756
-4.334227955318662e-05   -3.470768558641417e-06   0.00010613282638486038
-4.334227955318662e-05   -3.470768558641417e-06   0.00010613282638486038
-4.334227955318662e-05   -3.470768558641417e-06   0.00010613282638486038
-4.334227955318662e-05   -3.470768558641417e-06   0.00010613282638486038
-6.0763552842621645e-05   -2.3490467987951485e-05   0.00014718010152483716
-6.0763552842621645e-05   -2.3490467987951485e-05   0.00014718010152483716
-6.0763552842621645e-05   -2.3490467987951485e-05   0.00014718010152483716
-6.0763552842621645e-05   -2.3490467987951485e-05   0.00014718010152483716
-5.143202805673561e-05   -1.255898329270786e-05   0.00012506866939787772
-5.143202805673561e-05   -1.255898329270786e-05   0.00012506866939787772
-5.143202805673561e-05   -1.255898329270786e-05   0.00012506866939787772
-5.143202805673561e-05   -1.255898329270786e-05   0.00012506866939787772
-6.0763552842621645e-05   -3.470768558641417e-06   0.00011814464604244625
-6.0763552842621645e-05   -3.470768558641417e-06   0.00011814464604244625
-6.0763552842621645e-05   -3.470768558641417e-06   0.00011814464604244625
-6.0763552842621645e-05   -3.470768558641417e-06   0.00011814464604244625
-4.3342279553186406e-05   -2.349046798795192e-05   0.00013516828186725162
-4.3342279553186406e-05   -2.349046798795192e-05   0.00013516828186725162
-4.3342279553186406e-05   -2.349046798795192e-05   0.00013516828186725162
-4.3342279553186406e-05   -2.349046798795192e-05   0.00013516828186725162
-4.2388960482599896e-05   -6.1418750043210416e-06   0.00011000471181604136
-4.2388960482599896e-05   -6.1418750043210416e-06   0.00011000471181604136
-4.2388960482599896e-05   -6.1418750043210416e-06   0.00011000471181604136
-4.2388960482599896e-05   -6.1418750043210416e-06   0.00011000471181604136
-6.005781872748931e-05   -2.4527343221970258e-05   0.00015048408982144606
-6.005781872748931e-05   -2.4527343221970258e-05   0.00015048408982144606
-6.005781872748931e-05   -2.4527343221970258e-05   0.00015048408982144606
-6.005781872748931e-05   -2.4527343221970258e-05   0.00015048408982144606
-5.080352200725121e-05   -1.3736085457261796e-05   0.00012858550729555763
-5.080352200725121e-05   -1.3736085457261796e-05   0.00012858550729555763
-5.080352200725121e-05   -1.3736085457261796e-05   0.00012858550729555763
-5.080352200725121e-05   -1.3736085457261796e-05   0.00012858550729555763
-4.423835967360345e-05   6.28057232334063e-06   7.950417028304438e-05
-4.423835967360345e-05   6.28057232334063e-06   7.950417028304438e-05
-4.423835967360345e-05   6.28057232334063e-06   7.950417028304438e-05
-4.423835967360345e-05   6.28057232334063e-06   7.950417028304438e-05
-3.6510416741168065e-05   -9.48495187883154e-06   8.292476064913294e-05
-3.6510416741168065e-05   -9.48495187883154e-06   8.292476064913294e-05
-3.6510416741168065e-05   -9.48495187883154e-06   8.292476064913294e-05
-3.6510416741168065e-05   -9.48495187883154e-06   8.292476064913294e-05
-3.56413620222905e-05   3.374221925958945e-06   7.177413295709253e-05
-3.56413620222905e-05   3.374221925958945e-06   7.177413295709253e-05
-3.56413620222905e-05   3.374221925958945e-06   7.177413295709253e-05
-3.56413620222905e-05   3.374221925958945e-06   7.177413295709253e-05
-4.376939119247417e-05   -1.1133007635409642e-05   9.402518597755472e-05
-4.376939119247417e-05   -1.1133007635409642e-05   9.402518597755472e-05
-4.376939119247417e-05   -1.1133007635409642e-05   9.402518597755472e-05
-4.376939119247417e-05   -1.1133007635409642e-05   9.402518597755472e-05
-3.97439143739603e-05   -2.1585964080491835e-06   8.193141121028277e-05
-3.97439143739603e-05   -2.1585964080491835e-06   8.193141121028277e-05
-3.97439143739603e-05   -2.1585964080491835e-06   8.193141121028277e-05
-3.97439143739603e-05   -2.1585964080491835e-06   8.193141121028277e-05
-4.376939119247417e-05   3.374221925958945e-06   8.047847069391411e-05
-4.376939119247417e-05   3.374221925958945e-06   8.047847069391411e-05
-4.376939119247417e-05   3.374221925958945e-06   8.047847069391411e-05
-4.376939119247417e-05   3.374221925958945e-06   8.047847069391411e-05
-3.56413620222905e-05   -1.1133007635409642e-05   8.532084824073335e-05
-3.56413620222905e-05   -1.1133007635409642e-05   8.532084824073335e-05
-3.56413620222905e-05   -1.1133007635409642e-05   8.532084824073335e-05
-3.56413620222905e-05   -1.1133007635409642e-05   8.532084824073335e-05
-3.520070953487572e-05   8.890980241638841e-07   7.51910618140136e-05
-3.520070953487572e-05   8.890980241638841e-07   7.51910618140136e-05
-3.520070953487572e-05   8.890980241638841e-07   7.51910618140136e-05
-3.520070953487572e-05   8.890980241638841e-07   7.51910618140136e-05
-4.3342279553186406e-05   -1.2388101862871766e-05   9.672666511008473e-05
-4.3342279553186406e-05   -1.2388101862871766e-05   9.672666511008473e-05
-4.3342279553186406e-05   -1.2388101862871766e-05   9.672666511008473e-05
-4.3342279553186406e-05   -1.2388101862871766e-05   9.672666511008473e-05
-3.888493076458627e-05   -3.9415129778836225e-06   8.42297971314211e-05
-3.888493076458627e-05   -3.9415129778836225e-06   8.42297971314211e-05
-3.888493076458627e-05   -3.9415129778836225e-06   8.42297971314211e-05
-3.888493076458627e-05   -3.9415129778836225e-06   8.42297971314211e-05
-4.3342279553186406e-05   8.890980241638841e-07   8.315738174623308e-05
-4.3342279553186406e-05   8.890980241638841e-07   8.315738174623308e-05
-4.3342279553186406e-05   8.890980241638841e-07   8.315738174623308e-05
-4.3342279553186406e-05   8.890980241638841e-07   8.315738174623308e-05
-3.520070953487572e-05   -1.2388101862871766e-05   8.876034517786395e-05
-3.520070953487572e-05   -1.2388101862871766e-05   8.876034517786395e-05
-3.520070953487572e-05   -1.2388101862871766e-05   8.876034517786395e-05
-3.520070953487572e-05   -1.2388101862871766e-05   8.876034517786395e-05
-3.452669061607041e-05   -1.6137539334479256e-06   7.94822952784437e-05
-3.452669061607041e-05   -1.6137539334479256e-06   7.94822952784437e-05
-3.452669061607041e-05   -1.6137539334479256e-06   7.94822952784437e-05
-3.452669061607041e-05   -1.6137539334479256e-06   7.94822952784437e-05
-4.2388960482599896e-05   -1.404169557238117e-05   0.00010004284337268576
-4.2388960482599896e-05   -1.404169557238117e-05   0.00010004284337268576
-4.2388960482599896e-05   -1.404169557238117e-05   0.00010004284337268576
-4.2388960482599896e-05   -1.404169557238117e-05   0.00010004284337268576
-3.818881250395169e-05   -5.496212735233742e-06   8.791530703931892e-05
-3.818881250395169e-05   -5.496212735233742e-06   8.791530703931892e-05
-3.818881250395169e-05   -5.496212735233742e-06   8.791530703931892e-05
-3.818881250395169e-05   -5.496212735233742e-06   8.791530703931892e-05
-3.6510416741168065e-05   1.0269161609209772e-05   1.7559213609411733e-05
-3.6510416741168065e-05   1.0269161609209772e-05   1.7559213609411733e-05
-3.6510416741168065e-05   1.0269161609209772e-05   1.7559213609411733e-05
-3.6510416741168065e-05   1.0269161609209772e-05   1.7559213609411733e-05
-2.053795824059814e-05   -1.1134615711572322e-06   3.7350403868807985e-05
-2.053795824059814e-05   -1.1134615711572322e-06   3.7350403868807985e-05
-2.053795824059814e-05   -1.1134615711572322e-06   3.7350403868807985e-05
-2.053795824059814e-05   -1.1134615711572322e-06   3.7350403868807985e-05
-2.163787629408517e-05   8.222772773631114e-06   1.7694772300296153e-05
-2.163787629408517e-05   8.222772773631114e-06   1.7694772300296153e-05
-2.163787629408517e-05   8.222772773631114e-06   1.7694772300296153e-05
-2.163787629408517e-05   8.222772773631114e-06   1.7694772300296153e-05
-3.56413620222905e-05   -1.5306362660381413e-06   4.6885960604441026e-05
-3.56413620222905e-05   -1.5306362660381413e-06   4.6885960604441026e-05
-3.56413620222905e-05   -1.5306362660381413e-06   4.6885960604441026e-05
-3.56413620222905e-05   -1.5306362660381413e-06   4.6885960604441026e-05
-2.7600701967839562e-05   5.266031239972713e-06   2.940686001008403e-05
-2.7600701967839562e-05   5.266031239972713e-06   2.940686001008403e-05
-2.7600701967839562e-05   5.266031239972713e-06   2.940686001008403e-05
-2.7600701967839562e-05   5.266031239972713e-06   2.940686001008403e-05
-3.56413620222905e-05   8.222772773631114e-06   2.3546817724096492e-05
-3.56413620222905e-05   8.222772773631114e-06   2.3546817724096492e-05
-3.56413620222905e-05   8.222772773631114e-06   2.3546817724096492e-05
-3.56413620222905e-05   8.222772773631114e-06   2.3546817724096492e-05
-2.1637876294085603e-05   -1.5306362660381413e-06   4.103391518063982e-05
-2.1637876294085603e-05   -1.5306362660381413e-06   4.103391518063982e-05
-2.1637876294085603e-05   -1.5306362660381413e-06   4.103391518063982e-05
-2.1637876294085603e-05   -1.5306362660381413e-06   4.103391518063982e-05
-2.2529709968156612e-05   6.88206356200434e-06   2.3194553378682974e-05
-2.2529709968156612e-05   6.88206356200434e-06   2.3194553378682974e-05
-2.2529709968156612e-05   6.88206356200434e-06   2.3194553378682974e-05
-2.2529709968156612e-05   6.88206356200434e-06   2.3194553378682974e-05
-3.520070953487572e-05   -2.102624413066745e-06   4.970369877492324e-05
-3.520070953487572e-05   -2.102624413066745e-06   4.970369877492324e-05
-3.520070953487572e-05   -2.102624413066745e-06   4.970369877492324e-05
-3.520070953487572e-05   -2.102624413066745e-06   4.970369877492324e-05
-2.7998930521321236e-05   4.240516008021007e-06   3.389484949967766e-05
-2.7998930521321236e-05   4.240516008021007e-06   3.389484949967766e-05
-2.7998930521321236e-05   4.240516008021007e-06   3.389484949967766e-05
-2.7998930521321236e-05   4.240516008021007e-06   3.389484949967766e-05
-3.520070953487572e-05   6.88206356200434e-06   2.8585366163726318e-05
-3.520070953487572e-05   6.88206356200434e-06   2.8585366163726318e-05
-3.520070953487572e-05   6.88206356200434e-06   2.8585366163726318e-05
-3.520070953487572e-05   6.88206356200434e-06   2.8585366163726318e-05
-2.2529709968156612e-05   -2.102624413066745e-06   4.431288598988033e-05
-2.2529709968156612e-05   -2.102624413066745e-06   4.431288598988033e-05
-2.2529709968156612e-05   -2.102624413066745e-06   4.431288598988033e-05
-2.2529709968156612e-05   -2.102624413066745e-06   4.431288598988033e-05
-2.4869741557967222e-05   4.215949663653393e-06   3.301755413715173e-05
-2.4869741557967222e-05   4.215949663653393e-06   3.301755413715173e-05
-2.4869741557967222e-05   4.215949663653393e-06   3.301755413715173e-05
-2.4869741557967222e-05   4.215949663653393e-06   3.301755413715173e-05
-3.452669061607041e-05   -2.7721504216302907e-06   5.330532928515862e-05
-3.452669061607041e-05   -2.7721504216302907e-06   5.330532928515862e-05
-3.452669061607041e-05   -2.7721504216302907e-06   5.330532928515862e-05
-3.452669061607041e-05   -2.7721504216302907e-06   5.330532928515862e-05
-2.7989408597696008e-05   3.559671733112911e-06   3.8610765961689594e-05
-2.7989408597696008e-05   3.559671733112911e-06   3.8610765961689594e-05
-2.7989408597696008e-05   3.559671733112911e-06   3.8610765961689594e-05
-2.7989408597696008e-05   3.559671733112911e-06   3.8610765961689594e-05
-0.0003428140642129572   2.7140884687889503e-05   0.0001430139330338097
-0.0003428140642129572   2.7140884687889503e-05   0.0001430139330338097
-0.0003428140642129572   2.7140884687889503e-05   0.0001430139330338097
-0.0003428140642129572   2.7140884687889503e-05   0.0001430139330338097
-8.104018421160723e-05   -0.00016274569992571187   0.0004653717822678991
-8.104018421160723e-05   -0.00016274569992571187   0.0004653717822678991
-8.104018421160723e-05   -0.00016274569992571187   0.0004653717822678991
-8.104018421160723e-05   -0.00016274569992571187   0.0004653717822678991
-9.481379933063653e-05   1.1289199410063813e-05   7.88962657504162e-05
-9.481379933063653e-05   1.1289199410063813e-05   7.88962657504162e-05
-9.481379933063653e-05   1.1289199410063813e-05   7.88962657504162e-05
-9.481379933063653e-05   1.1289199410063813e-05   7.88962657504162e-05
-0.00031265320054198344   -0.00012577330432765593   0.0005241994366786257
-0.00031265320054198344   -0.00012577330432765593   0.0005241994366786257
-0.00031265320054198344   -0.00012577330432765593   0.0005241994366786257
-0.00031265320054198344   -0.00012577330432765593   0.0005241994366786257
-0.00020857846566827776   -6.26481976414039e-05   0.00031286648121069826
-0.00020857846566827776   -6.26481976414039e-05   0.00031286648121069826
-0.00020857846566827776   -6.26481976414039e-05   0.00031286648121069826
-0.00020857846566827776   -6.26481976414039e-05   0.00031286648121069826
-0.0003126532005419829   1.1289199410063813e-05   0.000161133767993048
-0.0003126532005419829   1.1289199410063813e-05   0.000161133767993048
-0.0003126532005419829   1.1289199410063813e-05   0.000161133767993048
-0.0003126532005419829   1.1289199410063813e-05   0.000161133767993048
-9.481379933063664e-05   -0.00012577330432765593   0.0004419619344359937
-9.481379933063664e-05   -0.00012577330432765593   0.0004419619344359937
-9.481379933063664e-05   -0.00012577330432765593   0.0004419619344359937
-9.481379933063664e-05   -0.00012577330432765593   0.0004419619344359937
-9.680443182233617e-05   8.205352707776024e-06   8.66701088921625e-05
-9.680443182233617e-05   8.205352707776024e-06   8.66701088921625e-05
-9.680443182233617e-05   8.205352707776024e-06   8.66701088921625e-05
-9.680443182233617e-05   8.205352707776024e-06   8.66701088921625e-05
-0.0002949631583896617   -0.0001078618212232785   0.0004865749575296704
-0.0002949631583896617   -0.0001078618212232785   0.0004865749575296704
-0.0002949631583896617   -0.0001078618212232785   0.0004865749575296704
-0.0002949631583896617   -0.0001078618212232785   0.0004865749575296704
-0.0002022194157287636   -5.927633000680664e-05   0.0003028507583649574
-0.0002022194157287636   -5.927633000680664e-05   0.0003028507583649574
-0.0002022194157287636   -5.927633000680664e-05   0.0003028507583649574
-0.0002022194157287636   -5.927633000680664e-05   0.0003028507583649574
-0.0002949631583896612   8.205352707776024e-06   0.0001563104132507949
-0.0002949631583896612   8.205352707776024e-06   0.0001563104132507949
-0.0002949631583896612   8.205352707776024e-06   0.0001563104132507949
-0.0002949631583896612   8.205352707776024e-06   0.0001563104132507949
-9.680443182233633e-05   -0.0001078618212232785   0.00041693465317103775
-9.680443182233633e-05   -0.0001078618212232785   0.00041693465317103775
-9.680443182233633e-05   -0.0001078618212232785   0.00041693465317103775
-9.680443182233633e-05   -0.0001078618212232785   0.00041693465317103775
-0.00010572567341619643   -4.847361748621173e-06   0.00010867447123351565
-0.00010572567341619643   -4.847361748621173e-06   0.00010867447123351565
-0.00010572567341619643   -4.847361748621173e-06   0.00010867447123351565
-0.00010572567341619643   -4.847361748621173e-06   0.00010867447123351565
-0.0002723386765301448   -8.413714467313736e-05   0.00043393667951147194
-0.0002723386765301448   -8.413714467313736e-05   0.00043393667951147194
-0.0002723386765301448   -8.413714467313736e-05   0.00043393667951147194
-0.0002723386765301448   -8.413714467313736e-05   0.00043393667951147194
-0.00019434474581039944   -5.468337312518139e-05   0.00028627453204978985
-0.00019434474581039944   -5.468337312518139e-05   0.00028627453204978985
-0.00019434474581039944   -5.468337312518139e-05   0.00028627453204978985
-0.00019434474581039944   -5.468337312518139e-05   0.00028627453204978985
-8.104018421160712e-05   -2.9701699923618662e-05   8.041286117546121e-05
-8.104018421160712e-05   -2.9701699923618662e-05   8.041286117546121e-05
-8.104018421160712e-05   -2.9701699923618662e-05   8.041286117546121e-05
-8.104018421160712e-05   -2.9701699923618662e-05   8.041286117546121e-05
-2.8360778574394794e-05   -4.913278026197359e-05   0.00015655322236780302
-2.8360778574394794e-05   -4.913278026197359e-05   0.00015655322236780302
-2.8360778574394794e-05   -4.913278026197359e-05   0.00015655322236780302
-2.8360778574394794e-05   -4.913278026197359e-05   0.00015655322236780302
-3.1501600031964296e-05   -2.423306272615307e-05   7.260694186035535e-05
-3.1501600031964296e-05   -2.423306272615307e-05   7.260694186035535e-05
-3.1501600031964296e-05   -2.423306272615307e-05   7.260694186035535e-05
-3.1501600031964296e-05   -2.423306272615307e-05   7.260694186035535e-05
-9.481379933063664e-05   -6.569243284686475e-05   0.00020300289609723556
-9.481379933063664e-05   -6.569243284686475e-05   0.00020300289609723556
-9.481379933063664e-05   -6.569243284686475e-05   0.00020300289609723556
-9.481379933063664e-05   -6.569243284686475e-05   0.00020300289609723556
-5.5858800236500836e-05   -3.461701376882183e-05   0.00011943264616018313
-5.5858800236500836e-05   -3.461701376882183e-05   0.00011943264616018313
-5.5858800236500836e-05   -3.461701376882183e-05   0.00011943264616018313
-5.5858800236500836e-05   -3.461701376882183e-05   0.00011943264616018313
-9.481379933063642e-05   -2.423306272615307e-05   9.748256393278141e-05
-9.481379933063642e-05   -2.423306272615307e-05   9.748256393278141e-05
-9.481379933063642e-05   -2.423306272615307e-05   9.748256393278141e-05
-9.481379933063642e-05   -2.423306272615307e-05   9.748256393278141e-05
-3.1501600031964404e-05   -6.569243284686475e-05   0.0001781272740248087
-3.1501600031964404e-05   -6.569243284686475e-05   0.0001781272740248087
-3.1501600031964404e-05   -6.569243284686475e-05   0.0001781272740248087
-3.1501600031964404e-05   -6.569243284686475e-05   0.0001781272740248087
-3.4178656595669705e-05   -2.481193056193612e-05   8.161700184703032e-05
-3.4178656595669705e-05   -2.481193056193612e-05   8.161700184703032e-05
-3.4178656595669705e-05   -2.481193056193612e-05   8.161700184703032e-05
-3.4178656595669705e-05   -2.481193056193612e-05   8.161700184703032e-05
-9.680443182233633e-05   -5.977515771605795e-05   0.00020697123018394723
-9.680443182233633e-05   -5.977515771605795e-05   0.00020697123018394723
-9.680443182233633e-05   -5.977515771605795e-05   0.00020697123018394723
-9.680443182233633e-05   -5.977515771605795e-05   0.00020697123018394723
-6.278526819026434e-05   -4.249646441797212e-05   0.0001399054081516434
-6.278526819026434e-05   -4.249646441797212e-05   0.0001399054081516434
-6.278526819026434e-05   -4.249646441797212e-05   0.0001399054081516434
-6.278526819026434e-05   -4.249646441797212e-05   0.0001399054081516434
-9.680443182233617e-05   -2.481193056193612e-05   0.00010259493813950349
-9.680443182233617e-05   -2.481193056193612e-05   0.00010259493813950349
-9.680443182233617e-05   -2.481193056193612e-05   0.00010259493813950349
-9.680443182233617e-05   -2.481193056193612e-05   0.00010259493813950349
-3.4178656595669705e-05   -5.977515771605795e-05   0.00018599329389147416
-3.4178656595669705e-05   -5.977515771605795e-05   0.00018599329389147416
-3.4178656595669705e-05   -5.977515771605795e-05   0.00018599329389147416
-3.4178656595669705e-05   -5.977515771605795e-05   0.00018599329389147416
-3.8503186200807005e-05   -2.5119165958912074e-05   8.912540543137316e-05
-3.8503186200807005e-05   -2.5119165958912074e-05   8.912540543137316e-05
-3.8503186200807005e-05   -2.5119165958912074e-05   8.912540543137316e-05
-3.8503186200807005e-05   -2.5119165958912074e-05   8.912540543137316e-05
-0.00010572567341619654   -5.607534543507343e-05   0.00021973659180938535
-0.00010572567341619654   -5.607534543507343e-05   0.00021973659180938535
-0.00010572567341619654   -5.607534543507343e-05   0.00021973659180938535
-0.00010572567341619654   -5.607534543507343e-05   0.00021973659180938535
-6.672419512817804e-05   -3.877241963773674e-05   0.00014435237251761933
-6.672419512817804e-05   -3.877241963773674e-05   0.00014435237251761933
-6.672419512817804e-05   -3.877241963773674e-05   0.00014435237251761933
-6.672419512817804e-05   -3.877241963773674e-05   0.00014435237251761933
-2.8360778574394686e-05   -2.3193228943700715e-05   4.264787499697769e-05
-2.8360778574394686e-05   -2.3193228943700715e-05   4.264787499697769e-05
-2.8360778574394686e-05   -2.3193228943700715e-05   4.264787499697769e-05
-2.8360778574394686e-05   -2.3193228943700715e-05   4.264787499697769e-05
-1.5742057900576707e-05   -1.2981441189011963e-05   6.980614877282127e-05
-1.5742057900576707e-05   -1.2981441189011963e-05   6.980614877282127e-05
-1.5742057900576707e-05   -1.2981441189011963e-05   6.980614877282127e-05
-1.5742057900576707e-05   -1.2981441189011963e-05   6.980614877282127e-05
-1.503787750634024e-05   -2.2778052007919446e-05   4.9998085932436397e-05
-1.503787750634024e-05   -2.2778052007919446e-05   4.9998085932436397e-05
-1.503787750634024e-05   -2.2778052007919446e-05   4.9998085932436397e-05
-1.503787750634024e-05   -2.2778052007919446e-05   4.9998085932436397e-05
-3.1501600031964404e-05   -1.7236955685849965e-05   7.411296568190042e-05
-3.1501600031964404e-05   -1.7236955685849965e-05   7.411296568190042e-05
-3.1501600031964404e-05   -1.7236955685849965e-05   7.411296568190042e-05
-3.1501600031964404e-05   -1.7236955685849965e-05   7.411296568190042e-05
-2.1235388878789558e-05   -1.8149184589534052e-05   5.7549951102152386e-05
-2.1235388878789558e-05   -1.8149184589534052e-05   5.7549951102152386e-05
-2.1235388878789558e-05   -1.8149184589534052e-05   5.7549951102152386e-05
-2.1235388878789558e-05   -1.8149184589534052e-05   5.7549951102152386e-05
-3.150160003196419e-05   -2.2778052007919446e-05   4.667342813919435e-05
-3.150160003196419e-05   -2.2778052007919446e-05   4.667342813919435e-05
-3.150160003196419e-05   -2.2778052007919446e-05   4.667342813919435e-05
-3.150160003196419e-05   -2.2778052007919446e-05   4.667342813919435e-05
-1.503787750634024e-05   -1.7236955685849965e-05   7.743762347514204e-05
-1.503787750634024e-05   -1.7236955685849965e-05   7.743762347514204e-05
-1.503787750634024e-05   -1.7236955685849965e-05   7.743762347514204e-05
-1.503787750634024e-05   -1.7236955685849965e-05   7.743762347514204e-05
-1.4969912908308937e-05   -2.349046798795192e-05   5.3396744910533256e-05
-1.4969912908308937e-05   -2.349046798795192e-05   5.3396744910533256e-05
-1.4969912908308937e-05   -2.349046798795192e-05   5.3396744910533256e-05
-1.4969912908308937e-05   -2.349046798795192e-05   5.3396744910533256e-05
-3.4178656595669705e-05   -2.243217439086879e-05   8.477634156455068e-05
-3.4178656595669705e-05   -2.243217439086879e-05   8.477634156455068e-05
-3.4178656595669705e-05   -2.243217439086879e-05   8.477634156455068e-05
-3.4178656595669705e-05   -2.243217439086879e-05   8.477634156455068e-05
-2.24013125093241e-05   -1.9849395912965775e-05   6.359776766723304e-05
-2.24013125093241e-05   -1.9849395912965775e-05   6.359776766723304e-05
-2.24013125093241e-05   -1.9849395912965775e-05   6.359776766723304e-05
-2.24013125093241e-05   -1.9849395912965775e-05   6.359776766723304e-05
-3.4178656595669596e-05   -2.3490467987951485e-05   5.276176875228331e-05
-3.4178656595669596e-05   -2.3490467987951485e-05   5.276176875228331e-05
-3.4178656595669596e-05   -2.3490467987951485e-05   5.276176875228331e-05
-3.4178656595669596e-05   -2.3490467987951485e-05   5.276176875228331e-05
-1.4969912908308937e-05   -2.243217439086879e-05   8.541131772280041e-05
-1.4969912908308937e-05   -2.243217439086879e-05   8.541131772280041e-05
-1.4969912908308937e-05   -2.243217439086879e-05   8.541131772280041e-05
-1.4969912908308937e-05   -2.243217439086879e-05   8.541131772280041e-05
-1.502903735654251e-05   -2.4527343221970258e-05   5.844611969122587e-05
-1.502903735654251e-05   -2.4527343221970258e-05   5.844611969122587e-05
-1.502903735654251e-05   -2.4527343221970258e-05   5.844611969122587e-05
-1.502903735654251e-05   -2.4527343221970258e-05   5.844611969122587e-05
-3.8503186200807005e-05   -2.738361568482305e-05   9.928346457604379e-05
-3.8503186200807005e-05   -2.738361568482305e-05   9.928346457604379e-05
-3.8503186200807005e-05   -2.738361568482305e-05   9.928346457604379e-05
-3.8503186200807005e-05   -2.738361568482305e-05   9.928346457604379e-05
-2.3707319843019293e-05   -2.176229963663911e-05   7.125089768415414e-05
-2.3707319843019293e-05   -2.176229963663911e-05   7.125089768415414e-05
-2.3707319843019293e-05   -2.176229963663911e-05   7.125089768415414e-05
-2.3707319843019293e-05   -2.176229963663911e-05   7.125089768415414e-05
-1.5742057900576707e-05   -9.48495187883154e-06   1.1318342580547225e-05
-1.5742057900576707e-05   -9.48495187883154e-06   1.1318342580547225e-05
-1.5742057900576707e-05   -9.48495187883154e-06   1.1318342580547225e-05
-1.5742057900576707e-05   -9.48495187883154e-06   1.1318342580547225e-05
-1.1512158093721688e-05   3.0848817487292744e-06   2.591007576850917e-05
-1.1512158093721688e-05   3.0848817487292744e-06   2.591007576850917e-05
-1.1512158093721688e-05   3.0848817487292744e-06   2.591007576850917e-05
-1.1512158093721688e-05   3.0848817487292744e-06   2.591007576850917e-05
-9.2387492971642e-06   -1.1133007635409642e-05   1.99701683561539e-05
-9.2387492971642e-06   -1.1133007635409642e-05   1.99701683561539e-05
-9.2387492971642e-06   -1.1133007635409642e-05   1.99701683561539e-05
-9.2387492971642e-06   -1.1133007635409642e-05   1.99701683561539e-05
-1.503787750634024e-05   1.6256357901744945e-06   2.1980195982762574e-05
-1.503787750634024e-05   1.6256357901744945e-06   2.1980195982762574e-05
-1.503787750634024e-05   1.6256357901744945e-06   2.1980195982762574e-05
-1.503787750634024e-05   1.6256357901744945e-06   2.1980195982762574e-05
-1.2094414006009416e-05   -4.199096035396735e-06   2.0569262577552812e-05
-1.2094414006009416e-05   -4.199096035396735e-06   2.0569262577552812e-05
-1.2094414006009416e-05   -4.199096035396735e-06   2.0569262577552812e-05
-1.2094414006009416e-05   -4.199096035396735e-06   2.0569262577552812e-05
-1.503787750634024e-05   -1.1133007635409642e-05   1.2314982300803447e-05
-1.503787750634024e-05   -1.1133007635409642e-05   1.2314982300803447e-05
-1.503787750634024e-05   -1.1133007635409642e-05   1.2314982300803447e-05
-1.503787750634024e-05   -1.1133007635409642e-05   1.2314982300803447e-05
-9.2387492971642e-06   1.6256357901744945e-06   2.963538203811303e-05
-9.2387492971642e-06   1.6256357901744945e-06   2.963538203811303e-05
-9.2387492971642e-06   1.6256357901744945e-06   2.963538203811303e-05
-9.2387492971642e-06   1.6256357901744945e-06   2.963538203811303e-05
-7.958638950129968e-06   -1.2388101862871766e-05   2.1930007870252927e-05
-7.958638950129968e-06   -1.2388101862871766e-05   2.1930007870252927e-05
-7.958638950129968e-06   -1.2388101862871766e-05   2.1930007870252927e-05
-7.958638950129968e-06   -1.2388101862871766e-05   2.1930007870252927e-05
-1.4969912908308937e-05   -7.633023347286831e-07   2.6640584750330706e-05
-1.4969912908308937e-05   -7.633023347286831e-07   2.6640584750330706e-05
-1.4969912908308937e-05   -7.633023347286831e-07   2.6640584750330706e-05
-1.4969912908308937e-05   -7.633023347286831e-07   2.6640584750330706e-05
-1.0891368205082595e-05   -5.433839061134375e-06   2.2645332280797886e-05
-1.0891368205082595e-05   -5.433839061134375e-06   2.2645332280797886e-05
-1.0891368205082595e-05   -5.433839061134375e-06   2.2645332280797886e-05
-1.0891368205082595e-05   -5.433839061134375e-06   2.2645332280797886e-05
-1.4969912908308937e-05   -1.2388101862871766e-05   1.4955128153366264e-05
-1.4969912908308937e-05   -1.2388101862871766e-05   1.4955128153366264e-05
-1.4969912908308937e-05   -1.2388101862871766e-05   1.4955128153366264e-05
-1.4969912908308937e-05   -1.2388101862871766e-05   1.4955128153366264e-05
-7.958638950129968e-06   -7.633023347286831e-07   3.3615464467216284e-05
-7.958638950129968e-06   -7.633023347286831e-07   3.3615464467216284e-05
-7.958638950129968e-06   -7.633023347286831e-07   3.3615464467216284e-05
-7.958638950129968e-06   -7.633023347286831e-07   3.3615464467216284e-05
-5.990395281224841e-06   -1.404169557238117e-05   2.4002404594682374e-05
-5.990395281224841e-06   -1.404169557238117e-05   2.4002404594682374e-05
-5.990395281224841e-06   -1.404169557238117e-05   2.4002404594682374e-05
-5.990395281224841e-06   -1.404169557238117e-05   2.4002404594682374e-05
-1.502903735654251e-05   -5.764611536334817e-06   3.410055763191635e-05
-1.502903735654251e-05   -5.764611536334817e-06   3.410055763191635e-05
-1.502903735654251e-05   -5.764611536334817e-06   3.410055763191635e-05
-1.502903735654251e-05   -5.764611536334817e-06   3.410055763191635e-05
-9.874131589980443e-06   -7.358897529822876e-06   2.6465619617074918e-05
-9.874131589980443e-06   -7.358897529822876e-06   2.6465619617074918e-05
-9.874131589980443e-06   -7.358897529822876e-06   2.6465619617074918e-05
-9.874131589980443e-06   -7.358897529822876e-06   2.6465619617074918e-05
-1.1512158093721688e-05   -1.1134615711572322e-06   -1.9884540115021245e-05
-1.1512158093721688e-05   -1.1134615711572322e-06   -1.9884540115021245e-05
-1.1512158093721688e-05   -1.1134615711572322e-06   -1.9884540115021245e-05
-1.1512158093721688e-05   -1.1134615711572322e-06   -1.9884540115021245e-05
-1.953366273930307e-06   1.7240064425071578e-06   -2.2507396071707285e-06
-1.953366273930307e-06   1.7240064425071578e-06   -2.2507396071707285e-06
-1.953366273930307e-06   1.7240064425071578e-06   -2.2507396071707285e-06
-1.953366273930307e-06   1.7240064425071578e-06   -2.2507396071707285e-06
2.859911449994493e-07   -1.5306362660381413e-06   -1.5738858150799936e-05
2.859911449994493e-07   -1.5306362660381413e-06   -1.5738858150799936e-05
2.859911449994493e-07   -1.5306362660381413e-06   -1.5738858150799936e-05
2.859911449994493e-07   -1.5306362660381413e-06   -1.5738858150799936e-05
-9.2387492971642e-06   3.012465616193514e-06   -2.5901518765328486e-06
-9.2387492971642e-06   3.012465616193514e-06   -2.5901518765328486e-06
-9.2387492971642e-06   3.012465616193514e-06   -2.5901518765328486e-06
-9.2387492971642e-06   3.012465616193514e-06   -2.5901518765328486e-06
-5.124125310756143e-06   7.744689304615623e-07   -8.105060509109446e-06
-5.124125310756143e-06   7.744689304615623e-07   -8.105060509109446e-06
-5.124125310756143e-06   7.744689304615623e-07   -8.105060509109446e-06
-5.124125310756143e-06   7.744689304615623e-07   -8.105060509109446e-06
-9.2387492971642e-06   -1.5306362660381413e-06   -1.8464719280139076e-05
-9.2387492971642e-06   -1.5306362660381413e-06   -1.8464719280139076e-05
-9.2387492971642e-06   -1.5306362660381413e-06   -1.8464719280139076e-05
-9.2387492971642e-06   -1.5306362660381413e-06   -1.8464719280139076e-05
2.859911449990156e-07   3.012465616193514e-06   1.3570925280585733e-07
2.859911449990156e-07   3.012465616193514e-06   1.3570925280585733e-07
2.859911449990156e-07   3.012465616193514e-06   1.3570925280585733e-07
2.859911449990156e-07   3.012465616193514e-06   1.3570925280585733e-07
1.4931476808506018e-06   -2.102624413066745e-06   -1.4268627019190482e-05
1.4931476808506018e-06   -2.102624413066745e-06   -1.4268627019190482e-05
1.4931476808506018e-06   -2.102624413066745e-06   -1.4268627019190482e-05
1.4931476808506018e-06   -2.102624413066745e-06   -1.4268627019190482e-05
-7.958638950129968e-06   2.6607281094291992e-06   -1.3736608143878441e-06
-7.958638950129968e-06   2.6607281094291992e-06   -1.3736608143878441e-06
-7.958638950129968e-06   2.6607281094291992e-06   -1.3736608143878441e-06
-7.958638950129968e-06   2.6607281094291992e-06   -1.3736608143878441e-06
-3.4524384149975905e-06   5.124398969099525e-07   -7.595022112094271e-06
-3.4524384149975905e-06   5.124398969099525e-07   -7.595022112094271e-06
-3.4524384149975905e-06   5.124398969099525e-07   -7.595022112094271e-06
-3.4524384149975905e-06   5.124398969099525e-07   -7.595022112094271e-06
-7.958638950129968e-06   -2.102624413066745e-06   -1.7126638532688e-05
-7.958638950129968e-06   -2.102624413066745e-06   -1.7126638532688e-05
-7.958638950129968e-06   -2.102624413066745e-06   -1.7126638532688e-05
-7.958638950129968e-06   -2.102624413066745e-06   -1.7126638532688e-05
1.4931476808506018e-06   2.6607281094291992e-06   1.4843506991098904e-06
1.4931476808506018e-06   2.6607281094291992e-06   1.4843506991098904e-06
1.4931476808506018e-06   2.6607281094291992e-06   1.4843506991098904e-06
1.4931476808506018e-06   2.6607281094291992e-06   1.4843506991098904e-06
3.017805589187062e-06   -2.7721504216302907e-06   -1.2152597678412487e-05
3.017805589187062e-06   -2.7721504216302907e-06   -1.2152597678412487e-05
3.017805589187062e-06   -2.7721504216302907e-06   -1.2152597678412487e-05
3.017805589187062e-06   -2.7721504216302907e-06   -1.2152597678412487e-05
-5.990395281224841e-06   2.43742763015575e-06   -2.646763921317942e-07
-5.990395281224841e-06   2.43742763015575e-06   -2.646763921317942e-07
-5.990395281224841e-06   2.43742763015575e-06   -2.646763921317942e-07
-5.990395281224841e-06   2.43742763015575e-06   -2.646763921317942e-07
-1.93162498605395e-06   2.110030322766479e-07   -5.693438792022006e-06
-1.93162498605395e-06   2.110030322766479e-07   -5.693438792022006e-06
-1.93162498605395e-06   2.110030322766479e-07   -5.693438792022006e-06
-1.93162498605395e-06   2.110030322766479e-07   -5.693438792022006e-06
              </DataArray>   
             <DataArray type="Float64" NumberOfComponents="3" Name="Stress" format="ascii">   
-17.727369077518183   -4.431842269379546   -4.431842269379546
-17.727369077518183   -4.431842269379546   -4.431842269379546
-17.727369077518183   -4.431842269379546   -4.431842269379546
-17.727369077518183   -4.431842269379546   -4.431842269379546
-10.2607948505986   -0.3206022480685231   -0.20396503026711532
-10.2607948505986   -0.3206022480685231   -0.20396503026711532
-10.2607948505986   -0.3206022480685231   -0.20396503026711532
-10.2607948505986   -0.3206022480685231   -0.20396503026711532
-11.063975765252597   -2.765993941313149   -2.765993941313149
-11.063975765252597   -2.765993941313149   -2.765993941313149
-11.063975765252597   -2.765993941313149   -2.765993941313149
-11.063975765252597   -2.765993941313149   -2.765993941313149
-17.087201935713466   -1.3996952250752894   -0.5341764717085836
-17.087201935713466   -1.3996952250752894   -0.5341764717085836
-17.087201935713466   -1.3996952250752894   -0.5341764717085836
-17.087201935713466   -1.3996952250752894   -0.5341764717085836
-13.4024909087851   -2.1951650453516   -0.036763602339765694
-13.4024909087851   -2.1951650453516   -0.036763602339765694
-13.4024909087851   -2.1951650453516   -0.036763602339765694
-13.4024909087851   -2.1951650453516   -0.036763602339765694
-18.55603066261858   -4.639007665654645   -4.639007665654645
-18.55603066261858   -4.639007665654645   -4.639007665654645
-18.55603066261858   -4.639007665654645   -4.639007665654645
-18.55603066261858   -4.639007665654645   -4.639007665654645
-9.943119575786136   0.1253459618275805   -0.05305289712157968
-9.943119575786136   0.1253459618275805   -0.05305289712157968
-9.943119575786136   0.1253459618275805   -0.05305289712157968
-9.943119575786136   0.1253459618275805   -0.05305289712157968
-11.098238608023191   -2.774559652005798   -2.774559652005798
-11.098238608023191   -2.774559652005798   -2.774559652005798
-11.098238608023191   -2.774559652005798   -2.774559652005798
-11.098238608023191   -2.774559652005798   -2.774559652005798
-17.66490728340616   -1.4140822253569905   -0.783169595826201
-17.66490728340616   -1.4140822253569905   -0.783169595826201
-17.66490728340616   -1.4140822253569905   -0.783169595826201
-17.66490728340616   -1.4140822253569905   -0.783169595826201
-13.905656761278259   -2.0678863469081823   -0.7382916005392336
-13.905656761278259   -2.0678863469081823   -0.7382916005392336
-13.905656761278259   -2.0678863469081823   -0.7382916005392336
-13.905656761278259   -2.0678863469081823   -0.7382916005392336
-19.13939657685506   -4.784849144213765   -4.784849144213765
-19.13939657685506   -4.784849144213765   -4.784849144213765
-19.13939657685506   -4.784849144213765   -4.784849144213765
-19.13939657685506   -4.784849144213765   -4.784849144213765
-9.917074148188581   0.3028824332367157   0.05382056192473628
-9.917074148188581   0.3028824332367157   0.05382056192473628
-9.917074148188581   0.3028824332367157   0.05382056192473628
-9.917074148188581   0.3028824332367157   0.05382056192473628
-11.095855136861733   -2.773963784215433   -2.773963784215433
-11.095855136861733   -2.773963784215433   -2.773963784215433
-11.095855136861733   -2.773963784215433   -2.773963784215433
-11.095855136861733   -2.773963784215433   -2.773963784215433
-18.695934565003874   -1.2425193694966428   -0.4682471784982294
-18.695934565003874   -1.2425193694966428   -0.4682471784982294
-18.695934565003874   -1.2425193694966428   -0.4682471784982294
-18.695934565003874   -1.2425193694966428   -0.4682471784982294
-14.280177954888636   -2.036641790162652   -1.3349316284178654
-14.280177954888636   -2.036641790162652   -1.3349316284178654
-14.280177954888636   -2.036641790162652   -1.3349316284178654
-14.280177954888636   -2.036641790162652   -1.3349316284178654
-11.28431266103499   -2.8210781652587475   -2.8210781652587475
-11.28431266103499   -2.8210781652587475   -2.8210781652587475
-11.28431266103499   -2.8210781652587475   -2.8210781652587475
-11.28431266103499   -2.8210781652587475   -2.8210781652587475
-4.704075567576772   -0.310052038506203   -0.10103573325511375
-4.704075567576772   -0.310052038506203   -0.10103573325511375
-4.704075567576772   -0.310052038506203   -0.10103573325511375
-4.704075567576772   -0.310052038506203   -0.10103573325511375
-4.942135799653947   -1.2355339499134868   -1.2355339499134868
-4.942135799653947   -1.2355339499134868   -1.2355339499134868
-4.942135799653947   -1.2355339499134868   -1.2355339499134868
-4.942135799653947   -1.2355339499134868   -1.2355339499134868
-10.275785228382642   -1.2068271183885868   -0.3842080798879331
-10.275785228382642   -1.2068271183885868   -0.3842080798879331
-10.275785228382642   -1.2068271183885868   -0.3842080798879331
-10.275785228382642   -1.2068271183885868   -0.3842080798879331
-7.576823007940664   -1.4343241981374681   0.05971819498419446
-7.576823007940664   -1.4343241981374681   0.05971819498419446
-7.576823007940664   -1.4343241981374681   0.05971819498419446
-7.576823007940664   -1.4343241981374681   0.05971819498419446
-11.063975765252586   -2.7659939413131465   -2.7659939413131465
-11.063975765252586   -2.7659939413131465   -2.7659939413131465
-11.063975765252586   -2.7659939413131465   -2.7659939413131465
-11.063975765252586   -2.7659939413131465   -2.7659939413131465
-4.440930351897326   0.036647783897740704   -0.001688444941611189
-4.440930351897326   0.036647783897740704   -0.001688444941611189
-4.440930351897326   0.036647783897740704   -0.001688444941611189
-4.440930351897326   0.036647783897740704   -0.001688444941611189
-4.83484495852709   -1.2087112396317725   -1.2087112396317725
-4.83484495852709   -1.2087112396317725   -1.2087112396317725
-4.83484495852709   -1.2087112396317725   -1.2087112396317725
-4.83484495852709   -1.2087112396317725   -1.2087112396317725
-10.252909863907135   -0.9853295302666842   -0.33714605316463236
-10.252909863907135   -0.9853295302666842   -0.33714605316463236
-10.252909863907135   -0.9853295302666842   -0.33714605316463236
-10.252909863907135   -0.9853295302666842   -0.33714605316463236
-7.474319139773046   -1.2081330985018526   -0.39111597185916
-7.474319139773046   -1.2081330985018526   -0.39111597185916
-7.474319139773046   -1.2081330985018526   -0.39111597185916
-7.474319139773046   -1.2081330985018526   -0.39111597185916
-11.098238608023191   -2.774559652005798   -2.774559652005798
-11.098238608023191   -2.774559652005798   -2.774559652005798
-11.098238608023191   -2.774559652005798   -2.774559652005798
-11.098238608023191   -2.774559652005798   -2.774559652005798
-4.267470004888522   0.30256509162985323   0.11688719729944169
-4.267470004888522   0.30256509162985323   0.11688719729944169
-4.267470004888522   0.30256509162985323   0.11688719729944169
-4.267470004888522   0.30256509162985323   0.11688719729944169
-4.7376538167586775   -1.1844134541896694   -1.1844134541896694
-4.7376538167586775   -1.1844134541896694   -1.1844134541896694
-4.7376538167586775   -1.1844134541896694   -1.1844134541896694
-4.7376538167586775   -1.1844134541896694   -1.1844134541896694
-10.180851565302623   -0.7611652520750247   -0.21174445856042418
-10.180851565302623   -0.7611652520750247   -0.21174445856042418
-10.180851565302623   -0.7611652520750247   -0.21174445856042418
-10.180851565302623   -0.7611652520750247   -0.21174445856042418
-7.514516162241197   -1.0699810632790825   -0.8718417921677113
-7.514516162241197   -1.0699810632790825   -0.8718417921677113
-7.514516162241197   -1.0699810632790825   -0.8718417921677113
-7.514516162241197   -1.0699810632790825   -0.8718417921677113
-5.135397792471685   -1.2838494481179212   -1.2838494481179212
-5.135397792471685   -1.2838494481179212   -1.2838494481179212
-5.135397792471685   -1.2838494481179212   -1.2838494481179212
-5.135397792471685   -1.2838494481179212   -1.2838494481179212
0.6184945961638832   0.041995980956903156   0.004934456073914156
0.6184945961638832   0.041995980956903156   0.004934456073914156
0.6184945961638832   0.041995980956903156   0.004934456073914156
0.6184945961638832   0.041995980956903156   0.004934456073914156
0.7987273427343469   0.19968183568358672   0.19968183568358672
0.7987273427343469   0.19968183568358672   0.19968183568358672
0.7987273427343469   0.19968183568358672   0.19968183568358672
0.7987273427343469   0.19968183568358672   0.19968183568358672
-4.646164052565861   -0.8031384515290738   -0.1880707128575041
-4.646164052565861   -0.8031384515290738   -0.1880707128575041
-4.646164052565861   -0.8031384515290738   -0.1880707128575041
-4.646164052565861   -0.8031384515290738   -0.1880707128575041
-1.9843943458830147   -0.5035880068969044   0.33912478939080076
-1.9843943458830147   -0.5035880068969044   0.33912478939080076
-1.9843943458830147   -0.5035880068969044   0.33912478939080076
-1.9843943458830147   -0.5035880068969044   0.33912478939080076
-4.942135799653947   -1.2355339499134868   -1.2355339499134868
-4.942135799653947   -1.2355339499134868   -1.2355339499134868
-4.942135799653947   -1.2355339499134868   -1.2355339499134868
-4.942135799653947   -1.2355339499134868   -1.2355339499134868
0.8125169806811582   0.34989522492672964   0.11841663617449413
0.8125169806811582   0.34989522492672964   0.11841663617449413
0.8125169806811582   0.34989522492672964   0.11841663617449413
0.8125169806811582   0.34989522492672964   0.11841663617449413
0.8945656916124631   0.22364142290311578   0.22364142290311578
0.8945656916124631   0.22364142290311578   0.22364142290311578
0.8945656916124631   0.22364142290311578   0.22364142290311578
0.8945656916124631   0.22364142290311578   0.22364142290311578
-4.484928338570169   -0.5416848170194044   -0.12615456245961032
-4.484928338570169   -0.5416848170194044   -0.12615456245961032
-4.484928338570169   -0.5416848170194044   -0.12615456245961032
-4.484928338570169   -0.5416848170194044   -0.12615456245961032
-1.9067218603325136   -0.3116880416627073   -0.11488851690654038
-1.9067218603325136   -0.3116880416627073   -0.11488851690654038
-1.9067218603325136   -0.3116880416627073   -0.11488851690654038
-1.9067218603325136   -0.3116880416627073   -0.11488851690654038
-4.83484495852709   -1.2087112396317725   -1.2087112396317725
-4.83484495852709   -1.2087112396317725   -1.2087112396317725
-4.83484495852709   -1.2087112396317725   -1.2087112396317725
-4.83484495852709   -1.2087112396317725   -1.2087112396317725
0.9679727380675553   0.6141582720136691   0.20015980606801645
0.9679727380675553   0.6141582720136691   0.20015980606801645
0.9679727380675553   0.6141582720136691   0.20015980606801645
0.9679727380675553   0.6141582720136691   0.20015980606801645
1.0245325907128509   0.2561331476782127   0.2561331476782127
1.0245325907128509   0.2561331476782127   0.2561331476782127
1.0245325907128509   0.2561331476782127   0.2561331476782127
1.0245325907128509   0.2561331476782127   0.2561331476782127
-4.30940373115369   -0.22963659506240564   0.002060114707955668
-4.30940373115369   -0.22963659506240564   0.002060114707955668
-4.30940373115369   -0.22963659506240564   0.002060114707955668
-4.30940373115369   -0.22963659506240564   0.002060114707955668
-1.8529500738150395   -0.12669479826617353   -0.5648527432270045
-1.8529500738150395   -0.12669479826617353   -0.5648527432270045
-1.8529500738150395   -0.12669479826617353   -0.5648527432270045
-1.8529500738150395   -0.12669479826617353   -0.5648527432270045
0.676787231953023   0.16919680798825576   0.16919680798825576
0.676787231953023   0.16919680798825576   0.16919680798825576
0.676787231953023   0.16919680798825576   0.16919680798825576
0.676787231953023   0.16919680798825576   0.16919680798825576
6.442411813773811   0.5907116477796487   0.1968468092170754
6.442411813773811   0.5907116477796487   0.1968468092170754
6.442411813773811   0.5907116477796487   0.1968468092170754
6.442411813773811   0.5907116477796487   0.1968468092170754
6.99168844301735   1.7479221107543375   1.7479221107543375
6.99168844301735   1.7479221107543375   1.7479221107543375
6.99168844301735   1.7479221107543375   1.7479221107543375
6.99168844301735   1.7479221107543375   1.7479221107543375
0.608825642003694   -0.45395525111383134   -0.09618958117227214
0.608825642003694   -0.45395525111383134   -0.09618958117227214
0.608825642003694   -0.45395525111383134   -0.09618958117227214
0.608825642003694   -0.45395525111383134   -0.09618958117227214
3.676014041102387   0.4574769859108365   0.6685229509177598
3.676014041102387   0.4574769859108365   0.6685229509177598
3.676014041102387   0.4574769859108365   0.6685229509177598
3.676014041102387   0.4574769859108365   0.6685229509177598
0.7987273427343496   0.1996818356835874   0.1996818356835874
0.7987273427343496   0.1996818356835874   0.1996818356835874
0.7987273427343496   0.1996818356835874   0.1996818356835874
0.7987273427343496   0.1996818356835874   0.1996818356835874
6.5150366279000425   0.8075349095702665   0.30505023635186945
6.5150366279000425   0.8075349095702665   0.30505023635186945
6.5150366279000425   0.8075349095702665   0.30505023635186945
6.5150366279000425   0.8075349095702665   0.30505023635186945
6.958338935105134   1.7395847337762835   1.7395847337762835
6.958338935105134   1.7395847337762835   1.7395847337762835
6.958338935105134   1.7395847337762835   1.7395847337762835
6.958338935105134   1.7395847337762835   1.7395847337762835
0.7652851959711243   -0.198425722206344   -0.0006939101941258047
0.7652851959711243   -0.198425722206344   -0.0006939101941258047
0.7652851959711243   -0.198425722206344   -0.0006939101941258047
0.7652851959711243   -0.198425722206344   -0.0006939101941258047
3.645417120293512   0.5991070938757324   0.17457938245298937
3.645417120293512   0.5991070938757324   0.17457938245298937
3.645417120293512   0.5991070938757324   0.17457938245298937
3.645417120293512   0.5991070938757324   0.17457938245298937
0.8945656916124639   0.22364142290311598   0.22364142290311598
0.8945656916124639   0.22364142290311598   0.22364142290311598
0.8945656916124639   0.22364142290311598   0.22364142290311598
0.8945656916124639   0.22364142290311598   0.22364142290311598
6.545044771107451   1.0335039203104803   0.37919472725366976
6.545044771107451   1.0335039203104803   0.37919472725366976
6.545044771107451   1.0335039203104803   0.37919472725366976
6.545044771107451   1.0335039203104803   0.37919472725366976
7.08982915390702   1.772457288476755   1.772457288476755
7.08982915390702   1.772457288476755   1.772457288476755
7.08982915390702   1.772457288476755   1.772457288476755
7.08982915390702   1.772457288476755   1.772457288476755
0.9712650062364135   0.1399514730626457   0.10597689991158493
0.9712650062364135   0.1399514730626457   0.10597689991158493
0.9712650062364135   0.1399514730626457   0.10597689991158493
0.9712650062364135   0.1399514730626457   0.10597689991158493
3.698670024438408   0.8118981485898383   -0.283436428816629
3.698670024438408   0.8118981485898383   -0.283436428816629
3.698670024438408   0.8118981485898383   -0.283436428816629
3.698670024438408   0.8118981485898383   -0.283436428816629
6.983222358193851   1.7458055895484628   1.7458055895484628
6.983222358193851   1.7458055895484628   1.7458055895484628
6.983222358193851   1.7458055895484628   1.7458055895484628
6.983222358193851   1.7458055895484628   1.7458055895484628
14.465306793511775   1.1015474755495496   0.37370230791197434
14.465306793511775   1.1015474755495496   0.37370230791197434
14.465306793511775   1.1015474755495496   0.37370230791197434
14.465306793511775   1.1015474755495496   0.37370230791197434
14.781709762520926   3.6954274406302314   3.6954274406302314
14.781709762520926   3.6954274406302314   3.6954274406302314
14.781709762520926   3.6954274406302314   3.6954274406302314
14.781709762520926   3.6954274406302314   3.6954274406302314
6.214037994037404   -0.3545314492541016   -0.03787657413695611
6.214037994037404   -0.3545314492541016   -0.03787657413695611
6.214037994037404   -0.3545314492541016   -0.03787657413695611
6.214037994037404   -0.3545314492541016   -0.03787657413695611
10.319336007281237   1.459367928095678   1.1662148367022658
10.319336007281237   1.459367928095678   1.1662148367022658
10.319336007281237   1.459367928095678   1.1662148367022658
10.319336007281237   1.459367928095678   1.1662148367022658
6.991688443017344   1.747922110754336   1.747922110754336
6.991688443017344   1.747922110754336   1.747922110754336
6.991688443017344   1.747922110754336   1.747922110754336
6.991688443017344   1.747922110754336   1.747922110754336
13.69681089445725   1.2857254615381106   0.6806350794042109
13.69681089445725   1.2857254615381106   0.6806350794042109
13.69681089445725   1.2857254615381106   0.6806350794042109
13.69681089445725   1.2857254615381106   0.6806350794042109
14.336084650292202   3.5840211625730505   3.5840211625730505
14.336084650292202   3.5840211625730505   3.5840211625730505
14.336084650292202   3.5840211625730505   3.5840211625730505
14.336084650292202   3.5840211625730505   3.5840211625730505
6.232556567812465   -0.19732467610922755   0.047582307198453966
6.232556567812465   -0.19732467610922755   0.047582307198453966
6.232556567812465   -0.19732467610922755   0.047582307198453966
6.232556567812465   -0.19732467610922755   0.047582307198453966
10.009469795178948   1.5004488846968578   0.5594106312514184
10.009469795178948   1.5004488846968578   0.5594106312514184
10.009469795178948   1.5004488846968578   0.5594106312514184
10.009469795178948   1.5004488846968578   0.5594106312514184
6.958338935105134   1.7395847337762835   1.7395847337762835
6.958338935105134   1.7395847337762835   1.7395847337762835
6.958338935105134   1.7395847337762835   1.7395847337762835
6.958338935105134   1.7395847337762835   1.7395847337762835
13.252159502300994   1.2889689719890431   0.45944761320124783
13.252159502300994   1.2889689719890431   0.45944761320124783
13.252159502300994   1.2889689719890431   0.45944761320124783
13.252159502300994   1.2889689719890431   0.45944761320124783
13.675054190546698   3.4187635476366744   3.4187635476366744
13.675054190546698   3.4187635476366744   3.4187635476366744
13.675054190546698   3.4187635476366744   3.4187635476366744
13.675054190546698   3.4187635476366744   3.4187635476366744
6.4597449142609475   0.19921617241739575   0.1952772063057508
6.4597449142609475   0.19921617241739575   0.1952772063057508
6.4597449142609475   0.19921617241739575   0.1952772063057508
6.4597449142609475   0.19921617241739575   0.1952772063057508
9.580974113747413   1.6256427693766171   -0.14590673335622503
9.580974113747413   1.6256427693766171   -0.14590673335622503
9.580974113747413   1.6256427693766171   -0.14590673335622503
9.580974113747413   1.6256427693766171   -0.14590673335622503
-14.040292135941042   -1.0048747837827092   0.15416957650441082
-14.040292135941042   -1.0048747837827092   0.15416957650441082
-14.040292135941042   -1.0048747837827092   0.15416957650441082
-14.040292135941042   -1.0048747837827092   0.15416957650441082
-8.933029744367962   -0.20239462972157396   -0.056408168629174193
-8.933029744367962   -0.20239462972157396   -0.056408168629174193
-8.933029744367962   -0.20239462972157396   -0.056408168629174193
-8.933029744367962   -0.20239462972157396   -0.056408168629174193
-8.996692067540964   0.36233045634640737   0.18544206722739676
-8.996692067540964   0.36233045634640737   0.18544206722739676
-8.996692067540964   0.36233045634640737   0.18544206722739676
-8.996692067540964   0.36233045634640737   0.18544206722739676
-14.250914842282073   -0.9701351285715591   -0.16702839019278948
-14.250914842282073   -0.9701351285715591   -0.16702839019278948
-14.250914842282073   -0.9701351285715591   -0.16702839019278948
-14.250914842282073   -0.9701351285715591   -0.16702839019278948
-11.100132081870397   -0.3779081347963209   -0.042004689689056796
-11.100132081870397   -0.3779081347963209   -0.042004689689056796
-11.100132081870397   -0.3779081347963209   -0.042004689689056796
-11.100132081870397   -0.3779081347963209   -0.042004689689056796
-14.149088831050353   -0.6923700019350822   0.06433653932933725
-14.149088831050353   -0.6923700019350822   0.06433653932933725
-14.149088831050353   -0.6923700019350822   0.06433653932933725
-14.149088831050353   -0.6923700019350822   0.06433653932933725
-9.113658127670933   0.06942528081171728   -0.10648305788760715
-9.113658127670933   0.06942528081171728   -0.10648305788760715
-9.113658127670933   0.06942528081171728   -0.10648305788760715
-9.113658127670933   0.06942528081171728   -0.10648305788760715
-9.00941988053786   0.5160132753066846   0.2118205046238918
-9.00941988053786   0.5160132753066846   0.2118205046238918
-9.00941988053786   0.5160132753066846   0.2118205046238918
-9.00941988053786   0.5160132753066846   0.2118205046238918
-14.340115997328185   -0.8552627728386151   -0.2206968230081061
-14.340115997328185   -0.8552627728386151   -0.2206968230081061
-14.340115997328185   -0.8552627728386151   -0.2206968230081061
-14.340115997328185   -0.8552627728386151   -0.2206968230081061
-11.414354967163023   -0.2538042343126512   -0.10728057466764274
-11.414354967163023   -0.2538042343126512   -0.10728057466764274
-11.414354967163023   -0.2538042343126512   -0.10728057466764274
-11.414354967163023   -0.2538042343126512   -0.10728057466764274
-14.08464432048442   -0.41759662994417557   0.6189954183161487
-14.08464432048442   -0.41759662994417557   0.6189954183161487
-14.08464432048442   -0.41759662994417557   0.6189954183161487
-14.08464432048442   -0.41759662994417557   0.6189954183161487
-9.157989406527498   0.18524928326636347   -0.20026313328390133
-9.157989406527498   0.18524928326636347   -0.20026313328390133
-9.157989406527498   0.18524928326636347   -0.20026313328390133
-9.157989406527498   0.18524928326636347   -0.20026313328390133
-8.847797571145728   0.8981013990748168   0.3867196705009217
-8.847797571145728   0.8981013990748168   0.3867196705009217
-8.847797571145728   0.8981013990748168   0.3867196705009217
-8.847797571145728   0.8981013990748168   0.3867196705009217
-13.948014883748332   -0.691836327762402   -0.3619605801330775
-13.948014883748332   -0.691836327762402   -0.3619605801330775
-13.948014883748332   -0.691836327762402   -0.3619605801330775
-13.948014883748332   -0.691836327762402   -0.3619605801330775
-10.98096045940403   0.10054638753612499   0.24269232279132058
-10.98096045940403   0.10054638753612499   0.24269232279132058
-10.98096045940403   0.10054638753612499   0.24269232279132058
-10.98096045940403   0.10054638753612499   0.24269232279132058
-9.156053368795769   -1.212520530164113   -0.16140039032566847
-9.156053368795769   -1.212520530164113   -0.16140039032566847
-9.156053368795769   -1.212520530164113   -0.16140039032566847
-9.156053368795769   -1.212520530164113   -0.16140039032566847
-4.213265367227514   -0.09123754388373628   0.045299203722114934
-4.213265367227514   -0.09123754388373628   0.045299203722114934
-4.213265367227514   -0.09123754388373628   0.045299203722114934
-4.213265367227514   -0.09123754388373628   0.045299203722114934
-4.277112094890322   0.08231520633764666   0.06283041025094455
-4.277112094890322   0.08231520633764666   0.06283041025094455
-4.277112094890322   0.08231520633764666   0.06283041025094455
-4.277112094890322   0.08231520633764666   0.06283041025094455
-9.338759222651563   -0.8879067613646767   -0.2746564906145148
-9.338759222651563   -0.8879067613646767   -0.2746564906145148
-9.338759222651563   -0.8879067613646767   -0.2746564906145148
-9.338759222651563   -0.8879067613646767   -0.2746564906145148
-6.745929839973601   -0.546559236529047   -0.15364542440378431
-6.745929839973601   -0.546559236529047   -0.15364542440378431
-6.745929839973601   -0.546559236529047   -0.15364542440378431
-6.745929839973601   -0.546559236529047   -0.15364542440378431
-9.330364700024226   -0.970849603756528   -0.1497410350860237
-9.330364700024226   -0.970849603756528   -0.1497410350860237
-9.330364700024226   -0.970849603756528   -0.1497410350860237
-9.330364700024226   -0.970849603756528   -0.1497410350860237
-4.268821259511354   0.18194340673580134   0.004656386747666552
-4.268821259511354   0.18194340673580134   0.004656386747666552
-4.268821259511354   0.18194340673580134   0.004656386747666552
-4.268821259511354   0.18194340673580134   0.004656386747666552
-4.262812563164495   0.29733359554150873   0.08607227513370719
-4.262812563164495   0.29733359554150873   0.08607227513370719
-4.262812563164495   0.29733359554150873   0.08607227513370719
-4.262812563164495   0.29733359554150873   0.08607227513370719
-9.34470712282038   -0.6516870986684726   -0.2969153328135404
-9.34470712282038   -0.6516870986684726   -0.2969153328135404
-9.34470712282038   -0.6516870986684726   -0.2969153328135404
-9.34470712282038   -0.6516870986684726   -0.2969153328135404
-6.73468442918836   -0.30459692524441073   -0.07297023557846555
-6.73468442918836   -0.30459692524441073   -0.07297023557846555
-6.73468442918836   -0.30459692524441073   -0.07297023557846555
-6.73468442918836   -0.30459692524441073   -0.07297023557846555
-9.308501663342538   -0.7354447552828356   -0.03213037880997083
-9.308501663342538   -0.7354447552828356   -0.03213037880997083
-9.308501663342538   -0.7354447552828356   -0.03213037880997083
-9.308501663342538   -0.7354447552828356   -0.03213037880997083
-4.268060300143899   0.412048974654327   -0.05488178887605322
-4.268060300143899   0.412048974654327   -0.05488178887605322
-4.268060300143899   0.412048974654327   -0.05488178887605322
-4.268060300143899   0.412048974654327   -0.05488178887605322
-4.193155748540281   0.5135106344147389   0.17393915712606628
-4.193155748540281   0.5135106344147389   0.17393915712606628
-4.193155748540281   0.5135106344147389   0.17393915712606628
-4.193155748540281   0.5135106344147389   0.17393915712606628
-9.2466802236605   -0.37878419969531674   -0.3308079933028393
-9.2466802236605   -0.37878419969531674   -0.3308079933028393
-9.2466802236605   -0.37878419969531674   -0.3308079933028393
-9.2466802236605   -0.37878419969531674   -0.3308079933028393
-6.708531046050581   -0.07566279773553553   0.03377116704807903
-6.708531046050581   -0.07566279773553553   0.03377116704807903
-6.708531046050581   -0.07566279773553553   0.03377116704807903
-6.708531046050581   -0.07566279773553553   0.03377116704807903
-4.443669677308309   -1.0091797858878693   -0.18878010467775597
-4.443669677308309   -1.0091797858878693   -0.18878010467775597
-4.443669677308309   -1.0091797858878693   -0.18878010467775597
-4.443669677308309   -1.0091797858878693   -0.18878010467775597
0.4704235535444782   0.10703398012989401   0.17312450287925374
0.4704235535444782   0.10703398012989401   0.17312450287925374
0.4704235535444782   0.10703398012989401   0.17312450287925374
0.4704235535444782   0.10703398012989401   0.17312450287925374
0.44762893444326113   0.2559444936999301   0.013551026278393587
0.44762893444326113   0.2559444936999301   0.013551026278393587
0.44762893444326113   0.2559444936999301   0.013551026278393587
0.44762893444326113   0.2559444936999301   0.013551026278393587
-4.464083775849106   -0.6692465158165658   -0.12046627238876648
-4.464083775849106   -0.6692465158165658   -0.12046627238876648
-4.464083775849106   -0.6692465158165658   -0.12046627238876648
-4.464083775849106   -0.6692465158165658   -0.12046627238876648
-2.016710177963999   -0.33392033315953706   -0.06328665020956203
-2.016710177963999   -0.33392033315953706   -0.06328665020956203
-2.016710177963999   -0.33392033315953706   -0.06328665020956203
-2.016710177963999   -0.33392033315953706   -0.06328665020956203
-4.49491341739396   -0.7700386509242608   -0.17382234500533977
-4.49491341739396   -0.7700386509242608   -0.17382234500533977
-4.49491341739396   -0.7700386509242608   -0.17382234500533977
-4.49491341739396   -0.7700386509242608   -0.17382234500533977
0.4957327420114247   0.37401079483094013   0.13600376298820138
0.4957327420114247   0.37401079483094013   0.13600376298820138
0.4957327420114247   0.37401079483094013   0.13600376298820138
0.4957327420114247   0.37401079483094013   0.13600376298820138
0.48075097336113676   0.49281128729563306   0.08064664718427055
0.48075097336113676   0.49281128729563306   0.08064664718427055
0.48075097336113676   0.49281128729563306   0.08064664718427055
0.48075097336113676   0.49281128729563306   0.08064664718427055
-4.451436396638785   -0.40954831222604327   -0.1501649844701902
-4.451436396638785   -0.40954831222604327   -0.1501649844701902
-4.451436396638785   -0.40954831222604327   -0.1501649844701902
-4.451436396638785   -0.40954831222604327   -0.1501649844701902
-1.9867777709471859   -0.08207797040559622   0.02416180258654417
-1.9867777709471859   -0.08207797040559622   0.02416180258654417
-1.9867777709471859   -0.08207797040559622   0.02416180258654417
-1.9867777709471859   -0.08207797040559622   0.02416180258654417
-4.46321527946123   -0.529860695722822   -0.08874701508563822
-4.46321527946123   -0.529860695722822   -0.08874701508563822
-4.46321527946123   -0.529860695722822   -0.08874701508563822
-4.46321527946123   -0.529860695722822   -0.08874701508563822
0.5110997713399543   0.6316935859487836   0.09350833842520426
0.5110997713399543   0.6316935859487836   0.09350833842520426
0.5110997713399543   0.6316935859487836   0.09350833842520426
0.5110997713399543   0.6316935859487836   0.09350833842520426
0.49016771807553816   0.7564782305991926   0.13306279378671926
0.49016771807553816   0.7564782305991926   0.13306279378671926
0.49016771807553816   0.7564782305991926   0.13306279378671926
0.49016771807553816   0.7564782305991926   0.13306279378671926
-4.394803036068507   -0.13178876259038663   -0.18899788350991897
-4.394803036068507   -0.13178876259038663   -0.18899788350991897
-4.394803036068507   -0.13178876259038663   -0.18899788350991897
-4.394803036068507   -0.13178876259038663   -0.18899788350991897
-1.938630052534248   0.18129754662753456   0.11989229695722761
-1.938630052534248   0.18129754662753456   0.11989229695722761
-1.938630052534248   0.18129754662753456   0.11989229695722761
-1.938630052534248   0.18129754662753456   0.11989229695722761
0.22035102544495166   -0.7392589193560268   -0.23094523813245815
0.22035102544495166   -0.7392589193560268   -0.23094523813245815
0.22035102544495166   -0.7392589193560268   -0.23094523813245815
0.22035102544495166   -0.7392589193560268   -0.23094523813245815
5.31082266762324   0.36760388807537225   0.31714474541840093
5.31082266762324   0.36760388807537225   0.31714474541840093
5.31082266762324   0.36760388807537225   0.31714474541840093
5.31082266762324   0.36760388807537225   0.31714474541840093
5.303013989329183   0.4940472057710056   -0.05036564407357716
5.303013989329183   0.4940472057710056   -0.05036564407357716
5.303013989329183   0.4940472057710056   -0.05036564407357716
5.303013989329183   0.4940472057710056   -0.05036564407357716
0.31082932280066156   -0.4452511657826548   0.030748627547980634
0.31082932280066156   -0.4452511657826548   0.030748627547980634
0.31082932280066156   -0.4452511657826548   0.030748627547980634
0.31082932280066156   -0.4452511657826548   0.030748627547980634
2.7520277525738677   -0.0626074760476395   0.006388962491199052
2.7520277525738677   -0.0626074760476395   0.006388962491199052
2.7520277525738677   -0.0626074760476395   0.006388962491199052
2.7520277525738677   -0.0626074760476395   0.006388962491199052
0.2512141815453297   -0.540629396561094   -0.17194884795023627
0.2512141815453297   -0.540629396561094   -0.17194884795023627
0.2512141815453297   -0.540629396561094   -0.17194884795023627
0.2512141815453297   -0.540629396561094   -0.17194884795023627
5.393571306451693   0.6203676124166242   0.27610053489331265
5.393571306451693   0.6203676124166242   0.27610053489331265
5.393571306451693   0.6203676124166242   0.27610053489331265
5.393571306451693   0.6203676124166242   0.27610053489331265
5.34299340636046   0.7282100249336783   0.054776615116635285
5.34299340636046   0.7282100249336783   0.054776615116635285
5.34299340636046   0.7282100249336783   0.054776615116635285
5.34299340636046   0.7282100249336783   0.054776615116635285
0.320093511699912   -0.2132526098216091   -0.016576764004611014
0.320093511699912   -0.2132526098216091   -0.016576764004611014
0.320093511699912   -0.2132526098216091   -0.016576764004611014
0.320093511699912   -0.2132526098216091   -0.016576764004611014
2.786956356266005   0.16128966009433948   0.1138500270189257
2.786956356266005   0.16128966009433948   0.1138500270189257
2.786956356266005   0.16128966009433948   0.1138500270189257
2.786956356266005   0.16128966009433948   0.1138500270189257
0.2768408807085155   -0.3209952574805649   -0.1250972713026368
0.2768408807085155   -0.3209952574805649   -0.1250972713026368
0.2768408807085155   -0.3209952574805649   -0.1250972713026368
0.2768408807085155   -0.3209952574805649   -0.1250972713026368
5.408619958237464   0.8583265934782272   0.25279280595701786
5.408619958237464   0.8583265934782272   0.25279280595701786
5.408619958237464   0.8583265934782272   0.25279280595701786
5.408619958237464   0.8583265934782272   0.25279280595701786
5.255733943794772   0.9985169126435502   0.11433516025774809
5.255733943794772   0.9985169126435502   0.11433516025774809
5.255733943794772   0.9985169126435502   0.11433516025774809
5.255733943794772   0.9985169126435502   0.11433516025774809
0.3157315994376045   0.07438703695105348   -0.0570266057548102
0.3157315994376045   0.07438703695105348   -0.0570266057548102
0.3157315994376045   0.07438703695105348   -0.0570266057548102
0.3157315994376045   0.07438703695105348   -0.0570266057548102
2.826404380339178   0.41731865479964336   0.2132184883686777
2.826404380339178   0.41731865479964336   0.2132184883686777
2.826404380339178   0.41731865479964336   0.2132184883686777
2.826404380339178   0.41731865479964336   0.2132184883686777
4.894294315519202   -0.9724784225305361   -0.42541470449588026
4.894294315519202   -0.9724784225305361   -0.42541470449588026
4.894294315519202   -0.9724784225305361   -0.42541470449588026
4.894294315519202   -0.9724784225305361   -0.42541470449588026
10.069233762229233   0.6649876757451421   0.30723553280255367
10.069233762229233   0.6649876757451421   0.30723553280255367
10.069233762229233   0.6649876757451421   0.30723553280255367
10.069233762229233   0.6649876757451421   0.30723553280255367
10.18115463669251   0.31852048999161986   -0.6397335205634702
10.18115463669251   0.31852048999161986   -0.6397335205634702
10.18115463669251   0.31852048999161986   -0.6397335205634702
10.18115463669251   0.31852048999161986   -0.6397335205634702
5.210469035225353   -0.20216370845463127   0.1831204996328214
5.210469035225353   -0.20216370845463127   0.1831204996328214
5.210469035225353   -0.20216370845463127   0.1831204996328214
5.210469035225353   -0.20216370845463127   0.1831204996328214
7.211865861557087   -0.12404172065509589   -0.1789606136583085
7.211865861557087   -0.12404172065509589   -0.1789606136583085
7.211865861557087   -0.12404172065509589   -0.1789606136583085
7.211865861557087   -0.12404172065509589   -0.1789606136583085
5.029967473217342   -0.6400670353025637   -0.2814839835592351
5.029967473217342   -0.6400670353025637   -0.2814839835592351
5.029967473217342   -0.6400670353025637   -0.2814839835592351
5.029967473217342   -0.6400670353025637   -0.2814839835592351
10.453717785993465   0.8484854041325107   0.19311731180042002
10.453717785993465   0.8484854041325107   0.19311731180042002
10.453717785993465   0.8484854041325107   0.19311731180042002
10.453717785993465   0.8484854041325107   0.19311731180042002
10.290421785508798   0.576223269845549   -0.14254318072399524
10.290421785508798   0.576223269845549   -0.14254318072399524
10.290421785508798   0.576223269845549   -0.14254318072399524
10.290421785508798   0.576223269845549   -0.14254318072399524
5.187762556247275   -0.08669406073734054   0.09352645022163586
5.187762556247275   -0.08669406073734054   0.09352645022163586
5.187762556247275   -0.08669406073734054   0.09352645022163586
5.187762556247275   -0.08669406073734054   0.09352645022163586
7.586178380633064   0.189318591480639   0.12428480971136152
7.586178380633064   0.189318591480639   0.12428480971136152
7.586178380633064   0.189318591480639   0.12428480971136152
7.586178380633064   0.189318591480639   0.12428480971136152
5.0432546809056396   -0.4898690936458727   -0.22583789357796152
5.0432546809056396   -0.4898690936458727   -0.22583789357796152
5.0432546809056396   -0.4898690936458727   -0.22583789357796152
5.0432546809056396   -0.4898690936458727   -0.22583789357796152
10.422533488054112   0.9670021299577698   0.1272364718903508
10.422533488054112   0.9670021299577698   0.1272364718903508
10.422533488054112   0.9670021299577698   0.1272364718903508
10.422533488054112   0.9670021299577698   0.1272364718903508
10.269927990497221   0.8783738017625373   -0.2191177232048141
10.269927990497221   0.8783738017625373   -0.2191177232048141
10.269927990497221   0.8783738017625373   -0.2191177232048141
10.269927990497221   0.8783738017625373   -0.2191177232048141
5.079460462491641   0.18015756522778748   0.051327101157765315
5.079460462491641   0.18015756522778748   0.051327101157765315
5.079460462491641   0.18015756522778748   0.051327101157765315
5.079460462491641   0.18015756522778748   0.051327101157765315
7.3899236401825865   0.33062546876041576   0.09098212604385902
7.3899236401825865   0.33062546876041576   0.09098212604385902
7.3899236401825865   0.33062546876041576   0.09098212604385902
7.3899236401825865   0.33062546876041576   0.09098212604385902
-11.05896714178709   -0.5033571253702718   0.5647167505464648
-11.05896714178709   -0.5033571253702718   0.5647167505464648
-11.05896714178709   -0.5033571253702718   0.5647167505464648
-11.05896714178709   -0.5033571253702718   0.5647167505464648
-7.337345972945236   -0.2757987920272631   -0.14694383097973307
-7.337345972945236   -0.2757987920272631   -0.14694383097973307
-7.337345972945236   -0.2757987920272631   -0.14694383097973307
-7.337345972945236   -0.2757987920272631   -0.14694383097973307
-7.075304229385248   0.5932456709465632   0.47426499450099613
-7.075304229385248   0.5932456709465632   0.47426499450099613
-7.075304229385248   0.5932456709465632   0.47426499450099613
-7.075304229385248   0.5932456709465632   0.47426499450099613
-11.110793249765818   -0.7921849594339736   -0.23053230944844644
-11.110793249765818   -0.7921849594339736   -0.23053230944844644
-11.110793249765818   -0.7921849594339736   -0.23053230944844644
-11.110793249765818   -0.7921849594339736   -0.23053230944844644
-8.773764673403527   -0.13572064803885064   -0.014119868937019608
-8.773764673403527   -0.13572064803885064   -0.014119868937019608
-8.773764673403527   -0.13572064803885064   -0.014119868937019608
-8.773764673403527   -0.13572064803885064   -0.014119868937019608
-10.803657426391297   -0.12057133146400778   0.63353317945419
-10.803657426391297   -0.12057133146400778   0.63353317945419
-10.803657426391297   -0.12057133146400778   0.63353317945419
-10.803657426391297   -0.12057133146400778   0.63353317945419
-7.334020300469217   -0.029948204732851424   -0.196121485239436
-7.334020300469217   -0.029948204732851424   -0.196121485239436
-7.334020300469217   -0.029948204732851424   -0.196121485239436
-7.334020300469217   -0.029948204732851424   -0.196121485239436
-7.047348267223287   0.7354259472832294   0.4399790474962184
-7.047348267223287   0.7354259472832294   0.4399790474962184
-7.047348267223287   0.7354259472832294   0.4399790474962184
-7.047348267223287   0.7354259472832294   0.4399790474962184
-10.940774017221969   -0.6634043977990569   -0.31596426653140536
-10.940774017221969   -0.6634043977990569   -0.31596426653140536
-10.940774017221969   -0.6634043977990569   -0.31596426653140536
-10.940774017221969   -0.6634043977990569   -0.31596426653140536
-8.794146140483326   0.03135569368769553   0.10237466011531832
-8.794146140483326   0.03135569368769553   0.10237466011531832
-8.794146140483326   0.03135569368769553   0.10237466011531832
-8.794146140483326   0.03135569368769553   0.10237466011531832
-10.654636578896055   0.013530150757712356   0.437788376541399
-10.654636578896055   0.013530150757712356   0.437788376541399
-10.654636578896055   0.013530150757712356   0.437788376541399
-10.654636578896055   0.013530150757712356   0.437788376541399
-7.3175158977380965   0.0744612065375756   -0.24989436433211526
-7.3175158977380965   0.0744612065375756   -0.24989436433211526
-7.3175158977380965   0.0744612065375756   -0.24989436433211526
-7.3175158977380965   0.0744612065375756   -0.24989436433211526
-7.05498152442394   0.8289793514852066   0.34908445678057454
-7.05498152442394   0.8289793514852066   0.34908445678057454
-7.05498152442394   0.8289793514852066   0.34908445678057454
-7.05498152442394   0.8289793514852066   0.34908445678057454
-10.719523596927807   -0.5270951838493207   -0.40320875764702846
-10.719523596927807   -0.5270951838493207   -0.40320875764702846
-10.719523596927807   -0.5270951838493207   -0.40320875764702846
-10.719523596927807   -0.5270951838493207   -0.40320875764702846
-8.542839578341235   0.18071975593714829   0.21125443905364005
-8.542839578341235   0.18071975593714829   0.21125443905364005
-8.542839578341235   0.18071975593714829   0.21125443905364005
-8.542839578341235   0.18071975593714829   0.21125443905364005
-7.3605992773247975   -0.697971663023814   0.15896251811901063
-7.3605992773247975   -0.697971663023814   0.15896251811901063
-7.3605992773247975   -0.697971663023814   0.15896251811901063
-7.3605992773247975   -0.697971663023814   0.15896251811901063
-3.710545543049472   -0.13249848960469268   0.0074321858501200655
-3.710545543049472   -0.13249848960469268   0.0074321858501200655
-3.710545543049472   -0.13249848960469268   0.0074321858501200655
-3.710545543049472   -0.13249848960469268   0.0074321858501200655
-3.6064909966777026   0.36506093674454565   0.2579137739577366
-3.6064909966777026   0.36506093674454565   0.2579137739577366
-3.6064909966777026   0.36506093674454565   0.2579137739577366
-3.6064909966777026   0.36506093674454565   0.2579137739577366
-7.477989250465671   -0.6883347598968752   -0.25757968005774556
-7.477989250465671   -0.6883347598968752   -0.25757968005774556
-7.477989250465671   -0.6883347598968752   -0.25757968005774556
-7.477989250465671   -0.6883347598968752   -0.25757968005774556
-5.518999553516615   -0.2708031033134315   -0.11085233605680789
-5.518999553516615   -0.2708031033134315   -0.11085233605680789
-5.518999553516615   -0.2708031033134315   -0.11085233605680789
-5.518999553516615   -0.2708031033134315   -0.11085233605680789
-7.338357099201739   -0.4020381460656588   0.15428446243075067
-7.338357099201739   -0.4020381460656588   0.15428446243075067
-7.338357099201739   -0.4020381460656588   0.15428446243075067
-7.338357099201739   -0.4020381460656588   0.15428446243075067
-3.717749700806964   0.10713777004801395   -0.04045657999200669
-3.717749700806964   0.10713777004801395   -0.04045657999200669
-3.717749700806964   0.10713777004801395   -0.04045657999200669
-3.717749700806964   0.10713777004801395   -0.04045657999200669
-3.595813042146944   0.60213401437875   0.2232961517491367
-3.595813042146944   0.60213401437875   0.2232961517491367
-3.595813042146944   0.60213401437875   0.2232961517491367
-3.595813042146944   0.60213401437875   0.2232961517491367
-7.4366140108126215   -0.46689428067139804   -0.3040294424958232
-7.4366140108126215   -0.46689428067139804   -0.3040294424958232
-7.4366140108126215   -0.46689428067139804   -0.3040294424958232
-7.4366140108126215   -0.46689428067139804   -0.3040294424958232
-5.459564816831121   -0.030660481694986697   0.00013534044641894116
-5.459564816831121   -0.030660481694986697   0.00013534044641894116
-5.459564816831121   -0.030660481694986697   0.00013534044641894116
-5.459564816831121   -0.030660481694986697   0.00013534044641894116
-7.294109661358353   -0.1615541124937736   0.1031521365978959
-7.294109661358353   -0.1615541124937736   0.1031521365978959
-7.294109661358353   -0.1615541124937736   0.1031521365978959
-7.294109661358353   -0.1615541124937736   0.1031521365978959
-3.715207579698195   0.3199036581041702   -0.09144617973247005
-3.715207579698195   0.3199036581041702   -0.09144617973247005
-3.715207579698195   0.3199036581041702   -0.09144617973247005
-3.715207579698195   0.3199036581041702   -0.09144617973247005
-3.595472572105179   0.8511084600380069   0.1674476538084283
-3.595472572105179   0.8511084600380069   0.1674476538084283
-3.595472572105179   0.8511084600380069   0.1674476538084283
-3.595472572105179   0.8511084600380069   0.1674476538084283
-7.401675859518922   -0.2281577243444579   -0.32725014286468707
-7.401675859518922   -0.2281577243444579   -0.32725014286468707
-7.401675859518922   -0.2281577243444579   -0.32725014286468707
-7.401675859518922   -0.2281577243444579   -0.32725014286468707
-5.464008247042905   0.18928316576284732   0.08483304532107888
-5.464008247042905   0.18928316576284732   0.08483304532107888
-5.464008247042905   0.18928316576284732   0.08483304532107888
-5.464008247042905   0.18928316576284732   0.08483304532107888
-3.849334715112415   -0.7961208391593323   -0.02289132490998444
-3.849334715112415   -0.7961208391593323   -0.02289132490998444
-3.849334715112415   -0.7961208391593323   -0.02289132490998444
-3.849334715112415   -0.7961208391593323   -0.02289132490998444
-0.11781752018476896   0.0415599248366122   0.1644535198282348
-0.11781752018476896   0.0415599248366122   0.1644535198282348
-0.11781752018476896   0.0415599248366122   0.1644535198282348
-0.11781752018476896   0.0415599248366122   0.1644535198282348
-0.13260742915252632   0.236837822982588   0.07847907491039163
-0.13260742915252632   0.236837822982588   0.07847907491039163
-0.13260742915252632   0.236837822982588   0.07847907491039163
-0.13260742915252632   0.236837822982588   0.07847907491039163
-3.8526521516675967   -0.5111180219121845   -0.09671304233500323
-3.8526521516675967   -0.5111180219121845   -0.09671304233500323
-3.8526521516675967   -0.5111180219121845   -0.09671304233500323
-3.8526521516675967   -0.5111180219121845   -0.09671304233500323
-1.9941520925418643   -0.24894181580981253   -0.06184041603791011
-1.9941520925418643   -0.24894181580981253   -0.06184041603791011
-1.9941520925418643   -0.24894181580981253   -0.06184041603791011
-1.9941520925418643   -0.24894181580981253   -0.06184041603791011
-3.8485134178163474   -0.5328888906087075   -0.054248504382233914
-3.8485134178163474   -0.5328888906087075   -0.054248504382233914
-3.8485134178163474   -0.5328888906087075   -0.054248504382233914
-3.8485134178163474   -0.5328888906087075   -0.054248504382233914
-0.11557855165371676   0.279776303029165   0.12068498235786429
-0.11557855165371676   0.279776303029165   0.12068498235786429
-0.11557855165371676   0.279776303029165   0.12068498235786429
-0.11557855165371676   0.279776303029165   0.12068498235786429
-0.1158024170122037   0.49519832816330056   0.037934237849947774
-0.1158024170122037   0.49519832816330056   0.037934237849947774
-0.1158024170122037   0.49519832816330056   0.037934237849947774
-0.1158024170122037   0.49519832816330056   0.037934237849947774
-3.843724860676926   -0.272541467121986   -0.14158745939999912
-3.843724860676926   -0.272541467121986   -0.14158745939999912
-3.843724860676926   -0.272541467121986   -0.14158745939999912
-3.843724860676926   -0.272541467121986   -0.14158745939999912
-1.9754973772838893   -0.009931153879707832   0.027794359829815513
-1.9754973772838893   -0.009931153879707832   0.027794359829815513
-1.9754973772838893   -0.009931153879707832   0.027794359829815513
-1.9754973772838893   -0.009931153879707832   0.027794359829815513
-3.8379177392423625   -0.27819187310212845   -0.10690144624703843
-3.8379177392423625   -0.27819187310212845   -0.10690144624703843
-3.8379177392423625   -0.27819187310212845   -0.10690144624703843
-3.8379177392423625   -0.27819187310212845   -0.10690144624703843
-0.10412436982813483   0.518333902762086   0.07318889917150855
-0.10412436982813483   0.518333902762086   0.07318889917150855
-0.10412436982813483   0.518333902762086   0.07318889917150855
-0.10412436982813483   0.518333902762086   0.07318889917150855
-0.11282303246563247   0.7613373197156649   -0.005347475582535288
-0.11282303246563247   0.7613373197156649   -0.005347475582535288
-0.11282303246563247   0.7613373197156649   -0.005347475582535288
-0.11282303246563247   0.7613373197156649   -0.005347475582535288
-3.8425269445427777   -0.0298541366827888   -0.18686161165877835
-3.8425269445427777   -0.0298541366827888   -0.18686161165877835
-3.8425269445427777   -0.0298541366827888   -0.18686161165877835
-3.8425269445427777   -0.0298541366827888   -0.18686161165877835
-1.961178938736589   0.22930185120671076   0.10997795207009095
-1.961178938736589   0.22930185120671076   0.10997795207009095
-1.961178938736589   0.22930185120671076   0.10997795207009095
-1.961178938736589   0.22930185120671076   0.10997795207009095
-0.37123262079431585   -0.8703737753070022   -0.1906882830758843
-0.37123262079431585   -0.8703737753070022   -0.1906882830758843
-0.37123262079431585   -0.8703737753070022   -0.1906882830758843
-0.37123262079431585   -0.8703737753070022   -0.1906882830758843
3.4627585454726586   0.24555639641399163   0.3125278119531397
3.4627585454726586   0.24555639641399163   0.3125278119531397
3.4627585454726586   0.24555639641399163   0.3125278119531397
3.4627585454726586   0.24555639641399163   0.3125278119531397
3.349730784557738   0.13193804093459294   -0.12220680062285688
3.349730784557738   0.13193804093459294   -0.12220680062285688
3.349730784557738   0.13193804093459294   -0.12220680062285688
3.349730784557738   0.13193804093459294   -0.12220680062285688
-0.24633540315922825   -0.3198007753387905   0.06647780319826242
-0.24633540315922825   -0.3198007753387905   0.06647780319826242
-0.24633540315922825   -0.3198007753387905   0.06647780319826242
-0.24633540315922825   -0.3198007753387905   0.06647780319826242
1.526885680538204   -0.20015855420432704   -0.03467420954434802
1.526885680538204   -0.20015855420432704   -0.03467420954434802
1.526885680538204   -0.20015855420432704   -0.03467420954434802
1.526885680538204   -0.20015855420432704   -0.03467420954434802
-0.3706097042103164   -0.6355229934780284   -0.23917148391794057
-0.3706097042103164   -0.6355229934780284   -0.23917148391794057
-0.3706097042103164   -0.6355229934780284   -0.23917148391794057
-0.3706097042103164   -0.6355229934780284   -0.23917148391794057
3.4980733664422154   0.4717285399072257   0.2797156098268991
3.4980733664422154   0.4717285399072257   0.2797156098268991
3.4980733664422154   0.4717285399072257   0.2797156098268991
3.4980733664422154   0.4717285399072257   0.2797156098268991
3.402548690491949   0.37220653810555093   -0.17173620316084776
3.402548690491949   0.37220653810555093   -0.17173620316084776
3.402548690491949   0.37220653810555093   -0.17173620316084776
3.402548690491949   0.37220653810555093   -0.17173620316084776
-0.23991513189784947   -0.10607784509848359   0.018646836683508028
-0.23991513189784947   -0.10607784509848359   0.018646836683508028
-0.23991513189784947   -0.10607784509848359   0.018646836683508028
-0.23991513189784947   -0.10607784509848359   0.018646836683508028
1.5391835935865206   0.015849171680854812   0.054309823742448915
1.5391835935865206   0.015849171680854812   0.054309823742448915
1.5391835935865206   0.015849171680854812   0.054309823742448915
1.5391835935865206   0.015849171680854812   0.054309823742448915
-0.36075611479239617   -0.40369530574724244   -0.2879406171404695
-0.36075611479239617   -0.40369530574724244   -0.2879406171404695
-0.36075611479239617   -0.40369530574724244   -0.2879406171404695
-0.36075611479239617   -0.40369530574724244   -0.2879406171404695
3.5496115514136064   0.6960458767814199   0.23973876277156964
3.5496115514136064   0.6960458767814199   0.23973876277156964
3.5496115514136064   0.6960458767814199   0.23973876277156964
3.5496115514136064   0.6960458767814199   0.23973876277156964
3.434726556879135   0.6738136572794463   -0.1788884615544071
3.434726556879135   0.6738136572794463   -0.1788884615544071
3.434726556879135   0.6738136572794463   -0.1788884615544071
3.434726556879135   0.6738136572794463   -0.1788884615544071
-0.2410336129587123   0.14399722639563045   -0.029060284727898067
-0.2410336129587123   0.14399722639563045   -0.029060284727898067
-0.2410336129587123   0.14399722639563045   -0.029060284727898067
-0.2410336129587123   0.14399722639563045   -0.029060284727898067
1.591063975727121   0.25706431991549605   0.16012831026629668
1.591063975727121   0.25706431991549605   0.16012831026629668
1.591063975727121   0.25706431991549605   0.16012831026629668
1.591063975727121   0.25706431991549605   0.16012831026629668
3.10436668505955   -0.86350655415748   -0.3703685395409075
3.10436668505955   -0.86350655415748   -0.3703685395409075
3.10436668505955   -0.86350655415748   -0.3703685395409075
3.10436668505955   -0.86350655415748   -0.3703685395409075
6.814172469322165   0.5061082030324029   0.3461315741785655
6.814172469322165   0.5061082030324029   0.3461315741785655
6.814172469322165   0.5061082030324029   0.3461315741785655
6.814172469322165   0.5061082030324029   0.3461315741785655
6.76074708704413   -0.027316734889726746   -0.4929226843614324
6.76074708704413   -0.027316734889726746   -0.4929226843614324
6.76074708704413   -0.027316734889726746   -0.4929226843614324
6.76074708704413   -0.027316734889726746   -0.4929226843614324
3.3793415604837596   -0.07412334644224616   0.2319084663841124
3.3793415604837596   -0.07412334644224616   0.2319084663841124
3.3793415604837596   -0.07412334644224616   0.2319084663841124
3.3793415604837596   -0.07412334644224616   0.2319084663841124
4.771313940679625   -0.16727611556345057   -0.15566051609770676
4.771313940679625   -0.16727611556345057   -0.15566051609770676
4.771313940679625   -0.16727611556345057   -0.15566051609770676
4.771313940679625   -0.16727611556345057   -0.15566051609770676
3.106547022687479   -0.7506747705805639   -0.4555127984589663
3.106547022687479   -0.7506747705805639   -0.4555127984589663
3.106547022687479   -0.7506747705805639   -0.4555127984589663
3.106547022687479   -0.7506747705805639   -0.4555127984589663
7.053172404894235   0.6688654693024156   0.2730217006969458
7.053172404894235   0.6688654693024156   0.2730217006969458
7.053172404894235   0.6688654693024156   0.2730217006969458
7.053172404894235   0.6688654693024156   0.2730217006969458
6.923986399499218   0.10972938396222442   -0.6605801695324834
6.923986399499218   0.10972938396222442   -0.6605801695324834
6.923986399499218   0.10972938396222442   -0.6605801695324834
6.923986399499218   0.10972938396222442   -0.6605801695324834
3.403018317254028   0.030382980622787548   0.17243548813237392
3.403018317254028   0.030382980622787548   0.17243548813237392
3.403018317254028   0.030382980622787548   0.17243548813237392
3.403018317254028   0.030382980622787548   0.17243548813237392
4.985067240579336   -0.019335416705683395   -0.0479863122493262
4.985067240579336   -0.019335416705683395   -0.0479863122493262
4.985067240579336   -0.019335416705683395   -0.0479863122493262
4.985067240579336   -0.019335416705683395   -0.0479863122493262
3.1406305909985437   -0.6138748136132252   -0.4952453489090567
3.1406305909985437   -0.6138748136132252   -0.4952453489090567
3.1406305909985437   -0.6138748136132252   -0.4952453489090567
3.1406305909985437   -0.6138748136132252   -0.4952453489090567
7.229698286772192   0.7973113392157356   0.1803973115789504
7.229698286772192   0.7973113392157356   0.1803973115789504
7.229698286772192   0.7973113392157356   0.1803973115789504
7.229698286772192   0.7973113392157356   0.1803973115789504
7.183325778842704   0.4665251136226575   -0.6207004732189468
7.183325778842704   0.4665251136226575   -0.6207004732189468
7.183325778842704   0.4665251136226575   -0.6207004732189468
7.183325778842704   0.4665251136226575   -0.6207004732189468
3.4132859720011544   0.2620481665019863   0.12567410483319563
3.4132859720011544   0.2620481665019863   0.12567410483319563
3.4132859720011544   0.2620481665019863   0.12567410483319563
3.4132859720011544   0.2620481665019863   0.12567410483319563
5.019682981559898   0.15016787429711953   0.07082098397885134
5.019682981559898   0.15016787429711953   0.07082098397885134
5.019682981559898   0.15016787429711953   0.07082098397885134
5.019682981559898   0.15016787429711953   0.07082098397885134
-7.924450432575339   -0.2612461131063002   0.5129240232551839
-7.924450432575339   -0.2612461131063002   0.5129240232551839
-7.924450432575339   -0.2612461131063002   0.5129240232551839
-7.924450432575339   -0.2612461131063002   0.5129240232551839
-5.535056246285271   -0.3673119376545553   -0.19429988667584425
-5.535056246285271   -0.3673119376545553   -0.19429988667584425
-5.535056246285271   -0.3673119376545553   -0.19429988667584425
-5.535056246285271   -0.3673119376545553   -0.19429988667584425
-5.211329711670098   0.5213521312614677   0.4376896059330408
-5.211329711670098   0.5213521312614677   0.4376896059330408
-5.211329711670098   0.5213521312614677   0.4376896059330408
-5.211329711670098   0.5213521312614677   0.4376896059330408
-7.925176140481713   -0.6517971791809485   -0.28409280142798576
-7.925176140481713   -0.6517971791809485   -0.28409280142798576
-7.925176140481713   -0.6517971791809485   -0.28409280142798576
-7.925176140481713   -0.6517971791809485   -0.28409280142798576
-6.3760907967946485   -0.10216730658971995   -0.012111753889485821
-6.3760907967946485   -0.10216730658971995   -0.012111753889485821
-6.3760907967946485   -0.10216730658971995   -0.012111753889485821
-6.3760907967946485   -0.10216730658971995   -0.012111753889485821
-7.630844724599451   0.047553856041219644   0.4882132427611536
-7.630844724599451   0.047553856041219644   0.4882132427611536
-7.630844724599451   0.047553856041219644   0.4882132427611536
-7.630844724599451   0.047553856041219644   0.4882132427611536
-5.481759807382557   -0.15409758379088978   -0.23901115757684843
-5.481759807382557   -0.15409758379088978   -0.23901115757684843
-5.481759807382557   -0.15409758379088978   -0.23901115757684843
-5.481759807382557   -0.15409758379088978   -0.23901115757684843
-5.162338646877244   0.6294962779804949   0.37010374202162793
-5.162338646877244   0.6294962779804949   0.37010374202162793
-5.162338646877244   0.6294962779804949   0.37010374202162793
-5.162338646877244   0.6294962779804949   0.37010374202162793
-7.738837119616607   -0.5313023438059885   -0.35944076839514266
-7.738837119616607   -0.5313023438059885   -0.35944076839514266
-7.738837119616607   -0.5313023438059885   -0.35944076839514266
-7.738837119616607   -0.5313023438059885   -0.35944076839514266
-6.332408078513216   0.04059617273383198   0.06819986193717653
-6.332408078513216   0.04059617273383198   0.06819986193717653
-6.332408078513216   0.04059617273383198   0.06819986193717653
-6.332408078513216   0.04059617273383198   0.06819986193717653
-7.446859925345975   0.1769998714273573   0.3921429877246709
-7.446859925345975   0.1769998714273573   0.3921429877246709
-7.446859925345975   0.1769998714273573   0.3921429877246709
-7.446859925345975   0.1769998714273573   0.3921429877246709
-5.432666229313049   -0.057156325417996534   -0.2948815667588631
-5.432666229313049   -0.057156325417996534   -0.2948815667588631
-5.432666229313049   -0.057156325417996534   -0.2948815667588631
-5.432666229313049   -0.057156325417996534   -0.2948815667588631
-5.135170870236323   0.7341183260317863   0.3185060650670816
-5.135170870236323   0.7341183260317863   0.3185060650670816
-5.135170870236323   0.7341183260317863   0.3185060650670816
-5.135170870236323   0.7341183260317863   0.3185060650670816
-7.488908255560993   -0.37230645208932867   -0.43053591979202704
-7.488908255560993   -0.37230645208932867   -0.43053591979202704
-7.488908255560993   -0.37230645208932867   -0.43053591979202704
-7.488908255560993   -0.37230645208932867   -0.43053591979202704
-6.095416758204433   0.17405877498491495   0.1812599477518384
-6.095416758204433   0.17405877498491495   0.1812599477518384
-6.095416758204433   0.17405877498491495   0.1812599477518384
-6.095416758204433   0.17405877498491495   0.1812599477518384
-5.474201728285218   -0.4484866755732513   0.19114744124307304
-5.474201728285218   -0.4484866755732513   0.19114744124307304
-5.474201728285218   -0.4484866755732513   0.19114744124307304
-5.474201728285218   -0.4484866755732513   0.19114744124307304
-3.1656752401408332   -0.2380712916020194   -0.03132325764574846
-3.1656752401408332   -0.2380712916020194   -0.03132325764574846
-3.1656752401408332   -0.2380712916020194   -0.03132325764574846
-3.1656752401408332   -0.2380712916020194   -0.03132325764574846
-3.005036367743762   0.30497760044322475   0.23602923892084549
-3.005036367743762   0.30497760044322475   0.23602923892084549
-3.005036367743762   0.30497760044322475   0.23602923892084549
-3.005036367743762   0.30497760044322475   0.23602923892084549
-5.5560930298948   -0.5331083317184698   -0.23166652221053305
-5.5560930298948   -0.5331083317184698   -0.23166652221053305
-5.5560930298948   -0.5331083317184698   -0.23166652221053305
-5.5560930298948   -0.5331083317184698   -0.23166652221053305
-4.282690985503489   -0.2094223897397356   -0.08660777890873123
-4.282690985503489   -0.2094223897397356   -0.08660777890873123
-4.282690985503489   -0.2094223897397356   -0.08660777890873123
-4.282690985503489   -0.2094223897397356   -0.08660777890873123
-5.410305831785324   -0.19204159402131438   0.15620273063965004
-5.410305831785324   -0.19204159402131438   0.15620273063965004
-5.410305831785324   -0.19204159402131438   0.15620273063965004
-5.410305831785324   -0.19204159402131438   0.15620273063965004
-3.132137625329462   -0.017403196730131132   -0.07709625183429974
-3.132137625329462   -0.017403196730131132   -0.07709625183429974
-3.132137625329462   -0.017403196730131132   -0.07709625183429974
-3.132137625329462   -0.017403196730131132   -0.07709625183429974
-2.9667816626179047   0.5266041377020323   0.19363030117661195
-2.9667816626179047   0.5266041377020323   0.19363030117661195
-2.9667816626179047   0.5266041377020323   0.19363030117661195
-2.9667816626179047   0.5266041377020323   0.19363030117661195
-5.4815711483452905   -0.3236738152724141   -0.2728886720657001
-5.4815711483452905   -0.3236738152724141   -0.2728886720657001
-5.4815711483452905   -0.3236738152724141   -0.2728886720657001
-5.4815711483452905   -0.3236738152724141   -0.2728886720657001
-4.200515529103334   0.008752771159671435   0.0070970374939424985
-4.200515529103334   0.008752771159671435   0.0070970374939424985
-4.200515529103334   0.008752771159671435   0.0070970374939424985
-4.200515529103334   0.008752771159671435   0.0070970374939424985
-5.3247454498923315   0.04483210083096756   0.14273390409571607
-5.3247454498923315   0.04483210083096756   0.14273390409571607
-5.3247454498923315   0.04483210083096756   0.14273390409571607
-5.3247454498923315   0.04483210083096756   0.14273390409571607
-3.1004015818496202   0.18130400081989917   -0.12916915809980412
-3.1004015818496202   0.18130400081989917   -0.12916915809980412
-3.1004015818496202   0.18130400081989917   -0.12916915809980412
-3.1004015818496202   0.18130400081989917   -0.12916915809980412
-2.9298308115178227   0.7624906273804724   0.15414656775886476
-2.9298308115178227   0.7624906273804724   0.15414656775886476
-2.9298308115178227   0.7624906273804724   0.15414656775886476
-2.9298308115178227   0.7624906273804724   0.15414656775886476
-5.42568769839996   -0.09825429518888207   -0.3017054545304224
-5.42568769839996   -0.09825429518888207   -0.3017054545304224
-5.42568769839996   -0.09825429518888207   -0.3017054545304224
-5.42568769839996   -0.09825429518888207   -0.3017054545304224
-4.168815498879757   0.21369325827417662   0.0961955435598082
-4.168815498879757   0.21369325827417662   0.0961955435598082
-4.168815498879757   0.21369325827417662   0.0961955435598082
-4.168815498879757   0.21369325827417662   0.0961955435598082
-3.233031001076733   -0.6130067884107492   0.00683343448345345
-3.233031001076733   -0.6130067884107492   0.00683343448345345
-3.233031001076733   -0.6130067884107492   0.00683343448345345
-3.233031001076733   -0.6130067884107492   0.00683343448345345
-0.8215727584585469   -0.069559002172082   0.13200976529864117
-0.8215727584585469   -0.069559002172082   0.13200976529864117
-0.8215727584585469   -0.069559002172082   0.13200976529864117
-0.8215727584585469   -0.069559002172082   0.13200976529864117
-0.8010143748919903   0.1275547653060734   0.04501311698067971
-0.8010143748919903   0.1275547653060734   0.04501311698067971
-0.8010143748919903   0.1275547653060734   0.04501311698067971
-0.8010143748919903   0.1275547653060734   0.04501311698067971
-3.1975283165779156   -0.35947774182829206   -0.06197516297841946
-3.1975283165779156   -0.35947774182829206   -0.06197516297841946
-3.1975283165779156   -0.35947774182829206   -0.06197516297841946
-3.1975283165779156   -0.35947774182829206   -0.06197516297841946
-2.0166770962974674   -0.21891359747975792   -0.06144831888418363
-2.0166770962974674   -0.21891359747975792   -0.06144831888418363
-2.0166770962974674   -0.21891359747975792   -0.06144831888418363
-2.0166770962974674   -0.21891359747975792   -0.06144831888418363
-3.192369477616159   -0.36570885052873475   -0.029949859469192278
-3.192369477616159   -0.36570885052873475   -0.029949859469192278
-3.192369477616159   -0.36570885052873475   -0.029949859469192278
-3.192369477616159   -0.36570885052873475   -0.029949859469192278
-0.7874419015220647   0.1525171863381986   0.08791306279818284
-0.7874419015220647   0.1525171863381986   0.08791306279818284
-0.7874419015220647   0.1525171863381986   0.08791306279818284
-0.7874419015220647   0.1525171863381986   0.08791306279818284
-0.7548434249538303   0.37596631387607715   0.012070009867220954
-0.7548434249538303   0.37596631387607715   0.012070009867220954
-0.7548434249538303   0.37596631387607715   0.012070009867220954
-0.7548434249538303   0.37596631387607715   0.012070009867220954
-3.1592493600624927   -0.13588840742451413   -0.10621564091978242
-3.1592493600624927   -0.13588840742451413   -0.10621564091978242
-3.1592493600624927   -0.13588840742451413   -0.10621564091978242
-3.1592493600624927   -0.13588840742451413   -0.10621564091978242
-1.9673760261924822   0.004462781346568856   0.02680353309910577
-1.9673760261924822   0.004462781346568856   0.02680353309910577
-1.9673760261924822   0.004462781346568856   0.02680353309910577
-1.9673760261924822   0.004462781346568856   0.02680353309910577
-3.147549611137441   -0.11809165506490371   -0.06551364865413409
-3.147549611137441   -0.11809165506490371   -0.06551364865413409
-3.147549611137441   -0.11809165506490371   -0.06551364865413409
-3.147549611137441   -0.11809165506490371   -0.06551364865413409
-0.749250197015725   0.37546253837961474   0.040539925054217024
-0.749250197015725   0.37546253837961474   0.040539925054217024
-0.749250197015725   0.37546253837961474   0.040539925054217024
-0.749250197015725   0.37546253837961474   0.040539925054217024
-0.7134697462748624   0.6279794103838532   -0.026751074593483554
-0.7134697462748624   0.6279794103838532   -0.026751074593483554
-0.7134697462748624   0.6279794103838532   -0.026751074593483554
-0.7134697462748624   0.6279794103838532   -0.026751074593483554
-3.1255739398062152   0.09032165296038996   -0.152400099263025
-3.1255739398062152   0.09032165296038996   -0.152400099263025
-3.1255739398062152   0.09032165296038996   -0.152400099263025
-3.1255739398062152   0.09032165296038996   -0.152400099263025
-1.922354269144268   0.22890713457367295   0.11182411350785959
-1.922354269144268   0.22890713457367295   0.11182411350785959
-1.922354269144268   0.22890713457367295   0.11182411350785959
-1.922354269144268   0.22890713457367295   0.11182411350785959
-1.0183465223635335   -0.7478781590196151   -0.17353989737876352
-1.0183465223635335   -0.7478781590196151   -0.17353989737876352
-1.0183465223635335   -0.7478781590196151   -0.17353989737876352
-1.0183465223635335   -0.7478781590196151   -0.17353989737876352
1.4933946051376674   0.11957968117502055   0.2863775708769802
1.4933946051376674   0.11957968117502055   0.2863775708769802
1.4933946051376674   0.11957968117502055   0.2863775708769802
1.4933946051376674   0.11957968117502055   0.2863775708769802
1.3915144754790842   -0.037180017204640814   -0.1582682847693016
1.3915144754790842   -0.037180017204640814   -0.1582682847693016
1.3915144754790842   -0.037180017204640814   -0.1582682847693016
1.3915144754790842   -0.037180017204640814   -0.1582682847693016
-0.8492941899078078   -0.17434039352961664   0.10550920073728205
-0.8492941899078078   -0.17434039352961664   0.10550920073728205
-0.8492941899078078   -0.17434039352961664   0.10550920073728205
-0.8492941899078078   -0.17434039352961664   0.10550920073728205
0.24482449342400536   -0.2041524687841348   -0.043662054840316565
0.24482449342400536   -0.2041524687841348   -0.043662054840316565
0.24482449342400536   -0.2041524687841348   -0.043662054840316565
0.24482449342400536   -0.2041524687841348   -0.043662054840316565
-0.982804341294774   -0.5230554279591544   -0.21332652176801103
-0.982804341294774   -0.5230554279591544   -0.21332652176801103
-0.982804341294774   -0.5230554279591544   -0.21332652176801103
-0.982804341294774   -0.5230554279591544   -0.21332652176801103
1.5473254193356187   0.3338358096944603   0.2497706076142398
1.5473254193356187   0.3338358096944603   0.2497706076142398
1.5473254193356187   0.3338358096944603   0.2497706076142398
1.5473254193356187   0.3338358096944603   0.2497706076142398
1.4772598230653784   0.19778043457445588   -0.17923671991502232
1.4772598230653784   0.19778043457445588   -0.17923671991502232
1.4772598230653784   0.19778043457445588   -0.17923671991502232
1.4772598230653784   0.19778043457445588   -0.17923671991502232
-0.8159608915466128   0.02561930271146684   0.05682968806792689
-0.8159608915466128   0.02561930271146684   0.05682968806792689
-0.8159608915466128   0.02561930271146684   0.05682968806792689
-0.8159608915466128   0.02561930271146684   0.05682968806792689
0.29033351061081614   -0.0018099120944623653   0.04604968638019255
0.29033351061081614   -0.0018099120944623653   0.04604968638019255
0.29033351061081614   -0.0018099120944623653   0.04604968638019255
0.29033351061081614   -0.0018099120944623653   0.04604968638019255
-0.9447999867446865   -0.30261123370563403   -0.25913525150534583
-0.9447999867446865   -0.30261123370563403   -0.25913525150534583
-0.9447999867446865   -0.30261123370563403   -0.25913525150534583
-0.9447999867446865   -0.30261123370563403   -0.25913525150534583
1.6254327812079965   0.5453448339360876   0.21406367143642163
1.6254327812079965   0.5453448339360876   0.21406367143642163
1.6254327812079965   0.5453448339360876   0.21406367143642163
1.6254327812079965   0.5453448339360876   0.21406367143642163
1.5462430698266418   0.46587062303943755   -0.20696998429421667
1.5462430698266418   0.46587062303943755   -0.20696998429421667
1.5462430698266418   0.46587062303943755   -0.20696998429421667
1.5462430698266418   0.46587062303943755   -0.20696998429421667
-0.7803195098802398   0.25645496913173704   0.010524548631738545
-0.7803195098802398   0.25645496913173704   0.010524548631738545
-0.7803195098802398   0.25645496913173704   0.010524548631738545
-0.7803195098802398   0.25645496913173704   0.010524548631738545
0.3609719302133388   0.21870460098516853   0.1390812262168029
0.3609719302133388   0.21870460098516853   0.1390812262168029
0.3609719302133388   0.21870460098516853   0.1390812262168029
0.3609719302133388   0.21870460098516853   0.1390812262168029
1.192701343560305   -0.7557617901022085   -0.3417472657325709
1.192701343560305   -0.7557617901022085   -0.3417472657325709
1.192701343560305   -0.7557617901022085   -0.3417472657325709
1.192701343560305   -0.7557617901022085   -0.3417472657325709
3.5573183210944963   0.34955285240113565   0.36964520779676735
3.5573183210944963   0.34955285240113565   0.36964520779676735
3.5573183210944963   0.34955285240113565   0.36964520779676735
3.5573183210944963   0.34955285240113565   0.36964520779676735
3.5226358364162706   -0.18179756576498451   -0.4497569061620909
3.5226358364162706   -0.18179756576498451   -0.4497569061620909
3.5226358364162706   -0.18179756576498451   -0.4497569061620909
3.5226358364162706   -0.18179756576498451   -0.4497569061620909
1.4979991773716796   0.06132721533353325   0.27564799215548513
1.4979991773716796   0.06132721533353325   0.27564799215548513
1.4979991773716796   0.06132721533353325   0.27564799215548513
1.4979991773716796   0.06132721533353325   0.27564799215548513
2.315468956252513   -0.15509941751589507   -0.1211642241647842
2.315468956252513   -0.15509941751589507   -0.1211642241647842
2.315468956252513   -0.15509941751589507   -0.1211642241647842
2.315468956252513   -0.15509941751589507   -0.1211642241647842
1.2254995611768558   -0.6303150118978884   -0.39520786158719573
1.2254995611768558   -0.6303150118978884   -0.39520786158719573
1.2254995611768558   -0.6303150118978884   -0.39520786158719573
1.2254995611768558   -0.6303150118978884   -0.39520786158719573
3.8178735459064765   0.5325827547618533   0.31205132076216524
3.8178735459064765   0.5325827547618533   0.31205132076216524
3.8178735459064765   0.5325827547618533   0.31205132076216524
3.8178735459064765   0.5325827547618533   0.31205132076216524
3.7121104243158163   -0.05008172234080743   -0.5389801337473887
3.7121104243158163   -0.05008172234080743   -0.5389801337473887
3.7121104243158163   -0.05008172234080743   -0.5389801337473887
3.7121104243158163   -0.05008172234080743   -0.5389801337473887
1.5480484006148523   0.15778213372966118   0.21470446867712661
1.5480484006148523   0.15778213372966118   0.21470446867712661
1.5480484006148523   0.15778213372966118   0.21470446867712661
1.5480484006148523   0.15778213372966118   0.21470446867712661
2.5076160552587416   -0.02248720429514872   -0.015283793787685906
2.5076160552587416   -0.02248720429514872   -0.015283793787685906
2.5076160552587416   -0.02248720429514872   -0.015283793787685906
2.5076160552587416   -0.02248720429514872   -0.015283793787685906
1.277806615892237   -0.5207424345977526   -0.45797988660853567
1.277806615892237   -0.5207424345977526   -0.45797988660853567
1.277806615892237   -0.5207424345977526   -0.45797988660853567
1.277806615892237   -0.5207424345977526   -0.45797988660853567
4.006008495035317   0.6520991319835081   0.2283293655258966
4.006008495035317   0.6520991319835081   0.2283293655258966
4.006008495035317   0.6520991319835081   0.2283293655258966
4.006008495035317   0.6520991319835081   0.2283293655258966
4.0026269804372605   0.23946427470451231   -0.5765863625902805
4.0026269804372605   0.23946427470451231   -0.5765863625902805
4.0026269804372605   0.23946427470451231   -0.5765863625902805
4.0026269804372605   0.23946427470451231   -0.5765863625902805
1.5992939071468433   0.3536565795910292   0.17049824575518235
1.5992939071468433   0.3536565795910292   0.17049824575518235
1.5992939071468433   0.3536565795910292   0.17049824575518235
1.5992939071468433   0.3536565795910292   0.17049824575518235
2.6022443825947157   0.12401185551315969   0.07552299843559877
2.6022443825947157   0.12401185551315969   0.07552299843559877
2.6022443825947157   0.12401185551315969   0.07552299843559877
2.6022443825947157   0.12401185551315969   0.07552299843559877
-4.768027424637736   -0.08281970882758294   0.4611324358114826
-4.768027424637736   -0.08281970882758294   0.4611324358114826
-4.768027424637736   -0.08281970882758294   0.4611324358114826
-4.768027424637736   -0.08281970882758294   0.4611324358114826
-3.7066569203800532   -0.46838472109203105   -0.22910732079194013
-3.7066569203800532   -0.46838472109203105   -0.22910732079194013
-3.7066569203800532   -0.46838472109203105   -0.22910732079194013
-3.7066569203800532   -0.46838472109203105   -0.22910732079194013
-3.3556869329051136   0.3978400992981165   0.3946043833907399
-3.3556869329051136   0.3978400992981165   0.3946043833907399
-3.3556869329051136   0.3978400992981165   0.3946043833907399
-3.3556869329051136   0.3978400992981165   0.3946043833907399
-4.747269377004045   -0.5166553171526309   -0.31145317756032176
-4.747269377004045   -0.5166553171526309   -0.31145317756032176
-4.747269377004045   -0.5166553171526309   -0.31145317756032176
-4.747269377004045   -0.5166553171526309   -0.31145317756032176
-3.9852064523724633   -0.11032575170093795   -0.05669715242157622
-3.9852064523724633   -0.11032575170093795   -0.05669715242157622
-3.9852064523724633   -0.11032575170093795   -0.05669715242157622
-3.9852064523724633   -0.11032575170093795   -0.05669715242157622
-4.456096382987625   0.18699052306441244   0.4407659523047307
-4.456096382987625   0.18699052306441244   0.4407659523047307
-4.456096382987625   0.18699052306441244   0.4407659523047307
-4.456096382987625   0.18699052306441244   0.4407659523047307
-3.6267436389232857   -0.2856894529206949   -0.2771495944812769
-3.6267436389232857   -0.2856894529206949   -0.2771495944812769
-3.6267436389232857   -0.2856894529206949   -0.2771495944812769
-3.6267436389232857   -0.2856894529206949   -0.2771495944812769
-3.2717639402851253   0.5007937002703159   0.3339662726548975
-3.2717639402851253   0.5007937002703159   0.3339662726548975
-3.2717639402851253   0.5007937002703159   0.3339662726548975
-3.2717639402851253   0.5007937002703159   0.3339662726548975
-4.530060930885239   -0.40001978627788215   -0.3894705743616863
-4.530060930885239   -0.40001978627788215   -0.3894705743616863
-4.530060930885239   -0.40001978627788215   -0.3894705743616863
-4.530060930885239   -0.40001978627788215   -0.3894705743616863
-3.871679543010586   0.02458221300990715   0.02919914078984892
-3.871679543010586   0.02458221300990715   0.02919914078984892
-3.871679543010586   0.02458221300990715   0.02919914078984892
-3.871679543010586   0.02458221300990715   0.02919914078984892
-4.238497549859696   0.31193252726837617   0.3563940172197701
-4.238497549859696   0.31193252726837617   0.3563940172197701
-4.238497549859696   0.31193252726837617   0.3563940172197701
-4.238497549859696   0.31193252726837617   0.3563940172197701
-3.5442429510375497   -0.19207424300281895   -0.33556083783405977
-3.5442429510375497   -0.19207424300281895   -0.33556083783405977
-3.5442429510375497   -0.19207424300281895   -0.33556083783405977
-3.5442429510375497   -0.19207424300281895   -0.33556083783405977
-3.203581961050612   0.6284784387151835   0.28806223972027567
-3.203581961050612   0.6284784387151835   0.28806223972027567
-3.203581961050612   0.6284784387151835   0.28806223972027567
-3.203581961050612   0.6284784387151835   0.28806223972027567
-4.238151512816177   -0.21339783727845107   -0.4508546984896973
-4.238151512816177   -0.21339783727845107   -0.4508546984896973
-4.238151512816177   -0.21339783727845107   -0.4508546984896973
-4.238151512816177   -0.21339783727845107   -0.4508546984896973
-3.642044126427094   0.15729711850738326   0.13602107169767869
-3.642044126427094   0.15729711850738326   0.13602107169767869
-3.642044126427094   0.15729711850738326   0.13602107169767869
-3.642044126427094   0.15729711850738326   0.13602107169767869
-3.5780921916515673   -0.27101975835279113   0.21635136011124934
-3.5780921916515673   -0.27101975835279113   0.21635136011124934
-3.5780921916515673   -0.27101975835279113   0.21635136011124934
-3.5780921916515673   -0.27101975835279113   0.21635136011124934
-2.6157330542882975   -0.3552759230109094   -0.06790266194544853
-2.6157330542882975   -0.3552759230109094   -0.06790266194544853
-2.6157330542882975   -0.3552759230109094   -0.06790266194544853
-2.6157330542882975   -0.3552759230109094   -0.06790266194544853
-2.419537270697866   0.18087483695382656   0.20169356195401425
-2.419537270697866   0.18087483695382656   0.20169356195401425
-2.419537270697866   0.18087483695382656   0.20169356195401425
-2.419537270697866   0.18087483695382656   0.20169356195401425
-3.629813732826695   -0.3817731482134616   -0.19641636870555462
-3.629813732826695   -0.3817731482134616   -0.19641636870555462
-3.629813732826695   -0.3817731482134616   -0.19641636870555462
-3.629813732826695   -0.3817731482134616   -0.19641636870555462
-3.052065858165944   -0.19067775031147738   -0.08153909894323197
-3.052065858165944   -0.19067775031147738   -0.08153909894323197
-3.052065858165944   -0.19067775031147738   -0.08153909894323197
-3.052065858165944   -0.19067775031147738   -0.08153909894323197
-3.4844720606697446   -0.03562255388182278   0.18414139774752442
-3.4844720606697446   -0.03562255388182278   0.18414139774752442
-3.4844720606697446   -0.03562255388182278   0.18414139774752442
-3.4844720606697446   -0.03562255388182278   0.18414139774752442
-2.548650546471393   -0.1490473609943539   -0.11395061896544073
-2.548650546471393   -0.1490473609943539   -0.11395061896544073
-2.548650546471393   -0.1490473609943539   -0.11395061896544073
-2.548650546471393   -0.1490473609943539   -0.11395061896544073
-2.347096076263788   0.3900807010646077   0.16140883753778296
-2.347096076263788   0.3900807010646077   0.16140883753778296
-2.347096076263788   0.3900807010646077   0.16140883753778296
-2.347096076263788   0.3900807010646077   0.16140883753778296
-3.521791147663173   -0.18029571526654375   -0.235080348698421
-3.521791147663173   -0.18029571526654375   -0.235080348698421
-3.521791147663173   -0.18029571526654375   -0.235080348698421
-3.521791147663173   -0.18029571526654375   -0.235080348698421
-2.9476527555360312   0.011380882239379275   0.008966361583050225
-2.9476527555360312   0.011380882239379275   0.008966361583050225
-2.9476527555360312   0.011380882239379275   0.008966361583050225
-2.9476527555360312   0.011380882239379275   0.008966361583050225
-3.367934068467651   0.18701100126564207   0.16689833074694105
-3.367934068467651   0.18701100126564207   0.16689833074694105
-3.367934068467651   0.18701100126564207   0.16689833074694105
-3.367934068467651   0.18701100126564207   0.16689833074694105
-2.482216374587687   0.04151076540401122   -0.16562271842113227
-2.482216374587687   0.04151076540401122   -0.16562271842113227
-2.482216374587687   0.04151076540401122   -0.16562271842113227
-2.482216374587687   0.04151076540401122   -0.16562271842113227
-2.2748984395452316   0.6168528974245487   0.12304124968200347
-2.2748984395452316   0.6168528974245487   0.12304124968200347
-2.2748984395452316   0.6168528974245487   0.12304124968200347
-2.2748984395452316   0.6168528974245487   0.12304124968200347
-3.4323762676141962   0.039451498472018454   -0.2668823528544217
-3.4323762676141962   0.039451498472018454   -0.2668823528544217
-3.4323762676141962   0.039451498472018454   -0.2668823528544217
-3.4323762676141962   0.039451498472018454   -0.2668823528544217
-2.8720377608011805   0.20909197086940112   0.09735778382492391
-2.8720377608011805   0.20909197086940112   0.09735778382492391
-2.8720377608011805   0.20909197086940112   0.09735778382492391
-2.8720377608011805   0.20909197086940112   0.09735778382492391
-2.612947140007045   -0.4467380285429457   0.037489014992820854
-2.612947140007045   -0.4467380285429457   0.037489014992820854
-2.612947140007045   -0.4467380285429457   0.037489014992820854
-2.612947140007045   -0.4467380285429457   0.037489014992820854
-1.5403741418818797   -0.18584772252008103   0.09633642558549117
-1.5403741418818797   -0.18584772252008103   0.09633642558549117
-1.5403741418818797   -0.18584772252008103   0.09633642558549117
-1.5403741418818797   -0.18584772252008103   0.09633642558549117
-1.4861855561879942   -0.0023066207470994193   0.012537682037745107
-1.4861855561879942   -0.0023066207470994193   0.012537682037745107
-1.4861855561879942   -0.0023066207470994193   0.012537682037745107
-1.4861855561879942   -0.0023066207470994193   0.012537682037745107
-2.541515144495643   -0.2044308955802553   -0.022890074500789864
-2.541515144495643   -0.2044308955802553   -0.022890074500789864
-2.541515144495643   -0.2044308955802553   -0.022890074500789864
-2.541515144495643   -0.2044308955802553   -0.022890074500789864
-2.048485360603433   -0.20005481349794732   -0.05927727678902029
-2.048485360603433   -0.20005481349794732   -0.05927727678902029
-2.048485360603433   -0.20005481349794732   -0.05927727678902029
-2.048485360603433   -0.20005481349794732   -0.05927727678902029
-2.538602482015876   -0.21487422821389168   0.0021165705316653904
-2.538602482015876   -0.21487422821389168   0.0021165705316653904
-2.538602482015876   -0.21487422821389168   0.0021165705316653904
-2.538602482015876   -0.21487422821389168   0.0021165705316653904
-1.4729681999877373   0.024266730566558314   0.05205111172537244
-1.4729681999877373   0.024266730566558314   0.05205111172537244
-1.4729681999877373   0.024266730566558314   0.05205111172537244
-1.4729681999877373   0.024266730566558314   0.05205111172537244
-1.4075958926809626   0.23162622884948036   -0.020295926931340386
-1.4075958926809626   0.23162622884948036   -0.020295926931340386
-1.4075958926809626   0.23162622884948036   -0.020295926931340386
-1.4075958926809626   0.23162622884948036   -0.020295926931340386
-2.4689538440057053   0.008668755138515283   -0.06646805524572941
-2.4689538440057053   0.008668755138515283   -0.06646805524572941
-2.4689538440057053   0.008668755138515283   -0.06646805524572941
-2.4689538440057053   0.008668755138515283   -0.06646805524572941
-1.9656401314330079   0.010416689480821917   0.02842010326485063
-1.9656401314330079   0.010416689480821917   0.02842010326485063
-1.9656401314330079   0.010416689480821917   0.02842010326485063
-1.9656401314330079   0.010416689480821917   0.02842010326485063
-2.4604780514052633   0.01835409589156778   -0.0337744329966021
-2.4604780514052633   0.01835409589156778   -0.0337744329966021
-2.4604780514052633   0.01835409589156778   -0.0337744329966021
-2.4604780514052633   0.01835409589156778   -0.0337744329966021
-1.401489973968915   0.23652259940893483   0.005337296069455516
-1.401489973968915   0.23652259940893483   0.005337296069455516
-1.401489973968915   0.23652259940893483   0.005337296069455516
-1.401489973968915   0.23652259940893483   0.005337296069455516
-1.333380060556199   0.4676716016635558   -0.057844234997089516
-1.333380060556199   0.4676716016635558   -0.057844234997089516
-1.333380060556199   0.4676716016635558   -0.057844234997089516
-1.333380060556199   0.4676716016635558   -0.057844234997089516
-2.4007834666916437   0.2234227510810164   -0.11295373970652262
-2.4007834666916437   0.2234227510810164   -0.11295373970652262
-2.4007834666916437   0.2234227510810164   -0.11295373970652262
-2.4007834666916437   0.2234227510810164   -0.11295373970652262
-1.887218738651727   0.2216393502673033   0.11259599434086662
-1.887218738651727   0.2216393502673033   0.11259599434086662
-1.887218738651727   0.2216393502673033   0.11259599434086662
-1.887218738651727   0.2216393502673033   0.11259599434086662
-1.6711183796063807   -0.5993707725505077   -0.14386171300661382
-1.6711183796063807   -0.5993707725505077   -0.14386171300661382
-1.6711183796063807   -0.5993707725505077   -0.14386171300661382
-1.6711183796063807   -0.5993707725505077   -0.14386171300661382
-0.49305453917529385   -0.00590620868442053   0.252759867182365
-0.49305453917529385   -0.00590620868442053   0.252759867182365
-0.49305453917529385   -0.00590620868442053   0.252759867182365
-0.49305453917529385   -0.00590620868442053   0.252759867182365
-0.5634247504767314   -0.17505082613233175   -0.18391240170737005
-0.5634247504767314   -0.17505082613233175   -0.18391240170737005
-0.5634247504767314   -0.17505082613233175   -0.18391240170737005
-0.5634247504767314   -0.17505082613233175   -0.18391240170737005
-1.4639870081494555   -0.02296632946055399   0.14419013094388144
-1.4639870081494555   -0.02296632946055399   0.14419013094388144
-1.4639870081494555   -0.02296632946055399   0.14419013094388144
-1.4639870081494555   -0.02296632946055399   0.14419013094388144
-1.0479572983403125   -0.1920259068505026   -0.04274959864136299
-1.0479572983403125   -0.1920259068505026   -0.04274959864136299
-1.0479572983403125   -0.1920259068505026   -0.04274959864136299
-1.0479572983403125   -0.1920259068505026   -0.04274959864136299
-1.6010034621236184   -0.3821298181647792   -0.1817286502227204
-1.6010034621236184   -0.3821298181647792   -0.1817286502227204
-1.6010034621236184   -0.3821298181647792   -0.1817286502227204
-1.6010034621236184   -0.3821298181647792   -0.1817286502227204
-0.4083204772287313   0.20220048184575146   0.21435765655456185
-0.4083204772287313   0.20220048184575146   0.21435765655456185
-0.4083204772287313   0.20220048184575146   0.21435765655456185
-0.4083204772287313   0.20220048184575146   0.21435765655456185
-0.4489637883248505   0.04625198601131261   -0.2070039986544836
-0.4489637883248505   0.04625198601131261   -0.2070039986544836
-0.4489637883248505   0.04625198601131261   -0.2070039986544836
-0.4489637883248505   0.04625198601131261   -0.2070039986544836
-1.3969658748322025   0.1684018004323139   0.09607859072962746
-1.3969658748322025   0.1684018004323139   0.09607859072962746
-1.3969658748322025   0.1684018004323139   0.09607859072962746
-1.3969658748322025   0.1684018004323139   0.09607859072962746
-0.9600329459237361   0.003837887285278979   0.04656610536200106
-0.9600329459237361   0.003837887285278979   0.04656610536200106
-0.9600329459237361   0.003837887285278979   0.04656610536200106
-0.9600329459237361   0.003837887285278979   0.04656610536200106
-1.5296402255749248   -0.17355064518178617   -0.22534071736990313
-1.5296402255749248   -0.17355064518178617   -0.22534071736990313
-1.5296402255749248   -0.17355064518178617   -0.22534071736990313
-1.5296402255749248   -0.17355064518178617   -0.22534071736990313
-0.2994566417034368   0.40503722750410354   0.18174649295980994
-0.2994566417034368   0.40503722750410354   0.18174649295980994
-0.2994566417034368   0.40503722750410354   0.18174649295980994
-0.2994566417034368   0.40503722750410354   0.18174649295980994
-0.35210401339497105   0.2936360706751721   -0.231785440136355
-0.35210401339497105   0.2936360706751721   -0.231785440136355
-0.35210401339497105   0.2936360706751721   -0.231785440136355
-0.35210401339497105   0.2936360706751721   -0.231785440136355
-1.3283598903092528   0.38522452081799907   0.04970369708319772
-1.3283598903092528   0.38522452081799907   0.04970369708319772
-1.3283598903092528   0.38522452081799907   0.04970369708319772
-1.3283598903092528   0.38522452081799907   0.04970369708319772
-0.8687918214137516   0.20837556820637165   0.1360208990298598
-0.8687918214137516   0.20837556820637165   0.1360208990298598
-0.8687918214137516   0.20837556820637165   0.1360208990298598
-0.8687918214137516   0.20837556820637165   0.1360208990298598
-0.7338217286839382   -0.6450005474358053   -0.3119817416095031
-0.7338217286839382   -0.6450005474358053   -0.3119817416095031
-0.7338217286839382   -0.6450005474358053   -0.3119817416095031
-0.7338217286839382   -0.6450005474358053   -0.3119817416095031
0.30581621888558386   0.19438114009204333   0.3841998455689871
0.30581621888558386   0.19438114009204333   0.3841998455689871
0.30581621888558386   0.19438114009204333   0.3841998455689871
0.30581621888558386   0.19438114009204333   0.3841998455689871
0.3088568224787281   -0.3141899859973453   -0.41279565960607945
0.3088568224787281   -0.3141899859973453   -0.41279565960607945
0.3088568224787281   -0.3141899859973453   -0.41279565960607945
0.3088568224787281   -0.3141899859973453   -0.41279565960607945
-0.3890834898345404   0.1983397971532085   0.31440327821804454
-0.3890834898345404   0.1983397971532085   0.31440327821804454
-0.3890834898345404   0.1983397971532085   0.31440327821804454
-0.3890834898345404   0.1983397971532085   0.31440327821804454
-0.13734022034846294   -0.13571172193208358   -0.07396239224283693
-0.13734022034846294   -0.13571172193208358   -0.07396239224283693
-0.13734022034846294   -0.13571172193208358   -0.07396239224283693
-0.13734022034846294   -0.13571172193208358   -0.07396239224283693
-0.6628867434441154   -0.4976951714966854   -0.3585780211799362
-0.6628867434441154   -0.4976951714966854   -0.3585780211799362
-0.6628867434441154   -0.4976951714966854   -0.3585780211799362
-0.6628867434441154   -0.4976951714966854   -0.3585780211799362
0.6020159997951914   0.4012009063594215   0.3376093346195005
0.6020159997951914   0.4012009063594215   0.3376093346195005
0.6020159997951914   0.4012009063594215   0.3376093346195005
0.6020159997951914   0.4012009063594215   0.3376093346195005
0.5272640858507099   -0.1873260910404844   -0.4900523404094587
0.5272640858507099   -0.1873260910404844   -0.4900523404094587
0.5272640858507099   -0.1873260910404844   -0.4900523404094587
0.5272640858507099   -0.1873260910404844   -0.4900523404094587
-0.30833877117492964   0.2903826430919   0.25199043001454885
-0.30833877117492964   0.2903826430919   0.25199043001454885
-0.30833877117492964   0.2903826430919   0.25199043001454885
-0.30833877117492964   0.2903826430919   0.25199043001454885
0.04300733279450215   -0.005357813825401639   0.02301856267951901
0.04300733279450215   -0.005357813825401639   0.02301856267951901
0.04300733279450215   -0.005357813825401639   0.02301856267951901
0.04300733279450215   -0.005357813825401639   0.02301856267951901
-0.5783649541405542   -0.39332749941765277   -0.41443034230403664
-0.5783649541405542   -0.39332749941765277   -0.41443034230403664
-0.5783649541405542   -0.39332749941765277   -0.41443034230403664
-0.5783649541405542   -0.39332749941765277   -0.41443034230403664
0.8166336838384758   0.515727466491207   0.25374209199767894
0.8166336838384758   0.515727466491207   0.25374209199767894
0.8166336838384758   0.515727466491207   0.25374209199767894
0.8166336838384758   0.515727466491207   0.25374209199767894
0.8326249522968201   0.061322609985715246   -0.5245026474213644
0.8326249522968201   0.061322609985715246   -0.5245026474213644
0.8326249522968201   0.061322609985715246   -0.5245026474213644
0.8326249522968201   0.061322609985715246   -0.5245026474213644
-0.23284664361894225   0.45339702695256084   0.20474045246640027
-0.23284664361894225   0.45339702695256084   0.20474045246640027
-0.23284664361894225   0.45339702695256084   0.20474045246640027
-0.23284664361894225   0.45339702695256084   0.20474045246640027
0.20426060605331042   0.13191871096987073   0.11754266933018324
0.20426060605331042   0.13191871096987073   0.11754266933018324
0.20426060605331042   0.13191871096987073   0.11754266933018324
0.20426060605331042   0.13191871096987073   0.11754266933018324
-1.599425553884752   0.08663786090023934   0.4387742226741108
-1.599425553884752   0.08663786090023934   0.4387742226741108
-1.599425553884752   0.08663786090023934   0.4387742226741108
-1.599425553884752   0.08663786090023934   0.4387742226741108
-1.8775670852207107   -0.5732109481834026   -0.2597094536608676
-1.8775670852207107   -0.5732109481834026   -0.2597094536608676
-1.8775670852207107   -0.5732109481834026   -0.2597094536608676
-1.8775670852207107   -0.5732109481834026   -0.2597094536608676
-1.498976020047202   0.2672032817181089   0.3595464598366581
-1.498976020047202   0.2672032817181089   0.3595464598366581
-1.498976020047202   0.2672032817181089   0.3595464598366581
-1.498976020047202   0.2672032817181089   0.3595464598366581
-1.5524859144965155   -0.38012442179765965   -0.3341579254521217
-1.5524859144965155   -0.38012442179765965   -0.3341579254521217
-1.5524859144965155   -0.38012442179765965   -0.3341579254521217
-1.5524859144965155   -0.38012442179765965   -0.3341579254521217
-1.5900895656000162   -0.12244164645924188   -0.11892745156843537
-1.5900895656000162   -0.12244164645924188   -0.11892745156843537
-1.5900895656000162   -0.12244164645924188   -0.11892745156843537
-1.5900895656000162   -0.12244164645924188   -0.11892745156843537
-1.2630230603764117   0.3242424719625693   0.4087894513881695
-1.2630230603764117   0.3242424719625693   0.4087894513881695
-1.2630230603764117   0.3242424719625693   0.4087894513881695
-1.2630230603764117   0.3242424719625693   0.4087894513881695
-1.7704636422105393   -0.4191883800853124   -0.31149998917660743
-1.7704636422105393   -0.4191883800853124   -0.31149998917660743
-1.7704636422105393   -0.4191883800853124   -0.31149998917660743
-1.7704636422105393   -0.4191883800853124   -0.31149998917660743
-1.3810063364052336   0.36824208209557363   0.30278417302558724
-1.3810063364052336   0.36824208209557363   0.30278417302558724
-1.3810063364052336   0.36824208209557363   0.30278417302558724
-1.3810063364052336   0.36824208209557363   0.30278417302558724
-1.3017424461480362   -0.26593747352774993   -0.4166537765956687
-1.3017424461480362   -0.26593747352774993   -0.4166537765956687
-1.3017424461480362   -0.26593747352774993   -0.4166537765956687
-1.3017424461480362   -0.26593747352774993   -0.4166537765956687
-1.4050665062890364   0.006817909157719959   -0.023715511060693167
-1.4050665062890364   0.006817909157719959   -0.023715511060693167
-1.4050665062890364   0.006817909157719959   -0.023715511060693167
-1.4050665062890364   0.006817909157719959   -0.023715511060693167
-1.0104319717201815   0.4471602873588594   0.32680083465696386
-1.0104319717201815   0.4471602873588594   0.32680083465696386
-1.0104319717201815   0.4471602873588594   0.32680083465696386
-1.0104319717201815   0.4471602873588594   0.32680083465696386
-1.6553135216551655   -0.3278523896130772   -0.37265728151542127
-1.6553135216551655   -0.3278523896130772   -0.37265728151542127
-1.6553135216551655   -0.3278523896130772   -0.37265728151542127
-1.6553135216551655   -0.3278523896130772   -0.37265728151542127
-1.2729101980573545   0.5221307058789181   0.2615467025383266
-1.2729101980573545   0.5221307058789181   0.2615467025383266
-1.2729101980573545   0.5221307058789181   0.2615467025383266
-1.2729101980573545   0.5221307058789181   0.2615467025383266
-0.9671303803710501   -0.04884132738798597   -0.4694957844062987
-0.9671303803710501   -0.04884132738798597   -0.4694957844062987
-0.9671303803710501   -0.04884132738798597   -0.4694957844062987
-0.9671303803710501   -0.04884132738798597   -0.4694957844062987
-1.1821338179732728   0.1415739212596785   0.07842814954307366
-1.1821338179732728   0.1415739212596785   0.07842814954307366
-1.1821338179732728   0.1415739212596785   0.07842814954307366
-1.1821338179732728   0.1415739212596785   0.07842814954307366
-1.682383275463635   -0.10535475455722623   0.24835340149830448
-1.682383275463635   -0.10535475455722623   0.24835340149830448
-1.682383275463635   -0.10535475455722623   0.24835340149830448
-1.682383275463635   -0.10535475455722623   0.24835340149830448
-2.0724626448321177   -0.4674553962815633   -0.10150311640480245
-2.0724626448321177   -0.4674553962815633   -0.10150311640480245
-2.0724626448321177   -0.4674553962815633   -0.10150311640480245
-2.0724626448321177   -0.4674553962815633   -0.10150311640480245
-1.845384810869354   0.047750358528381054   0.1667722430461952
-1.845384810869354   0.047750358528381054   0.1667722430461952
-1.845384810869354   0.047750358528381054   0.1667722430461952
-1.845384810869354   0.047750358528381054   0.1667722430461952
-1.6998215593070123   -0.2232998299190343   -0.15417812482525123
-1.6998215593070123   -0.2232998299190343   -0.15417812482525123
-1.6998215593070123   -0.2232998299190343   -0.15417812482525123
-1.6998215593070123   -0.2232998299190343   -0.15417812482525123
-1.8260541982494225   -0.1728936008889254   -0.08426702554264257
-1.8260541982494225   -0.1728936008889254   -0.08426702554264257
-1.8260541982494225   -0.1728936008889254   -0.08426702554264257
-1.8260541982494225   -0.1728936008889254   -0.08426702554264257
-1.5579149937366847   0.11525070663928372   0.21680416646803907
-1.5579149937366847   0.11525070663928372   0.21680416646803907
-1.5579149937366847   0.11525070663928372   0.21680416646803907
-1.5579149937366847   0.11525070663928372   0.21680416646803907
-1.9732315838942163   -0.27674038548447666   -0.14797087806525883
-1.9732315838942163   -0.27674038548447666   -0.14797087806525883
-1.9732315838942163   -0.27674038548447666   -0.14797087806525883
-1.9732315838942163   -0.27674038548447666   -0.14797087806525883
-1.7399494937345998   0.24855051876563838   0.12730916753391633
-1.7399494937345998   0.24855051876563838   0.12730916753391633
-1.7399494937345998   0.24855051876563838   0.12730916753391633
-1.7399494937345998   0.24855051876563838   0.12730916753391633
-1.5593553973657923   -0.029398654575837846   -0.1913203951057631
-1.5593553973657923   -0.029398654575837846   -0.1913203951057631
-1.5593553973657923   -0.029398654575837846   -0.1913203951057631
-1.5593553973657923   -0.029398654575837846   -0.1913203951057631
-1.7003572539415766   0.014806105603141995   0.0037199311991687467
-1.7003572539415766   0.014806105603141995   0.0037199311991687467
-1.7003572539415766   0.014806105603141995   0.0037199311991687467
-1.7003572539415766   0.014806105603141995   0.0037199311991687467
-1.4105736568716942   0.3280014859909861   0.1951881667978723
-1.4105736568716942   0.3280014859909861   0.1951881667978723
-1.4105736568716942   0.3280014859909861   0.1951881667978723
-1.4105736568716942   0.3280014859909861   0.1951881667978723
-1.873751290258364   -0.09386967783092043   -0.1992796184883589
-1.873751290258364   -0.09386967783092043   -0.1992796184883589
-1.873751290258364   -0.09386967783092043   -0.1992796184883589
-1.873751290258364   -0.09386967783092043   -0.1992796184883589
-1.6340308276084792   0.4704578173154455   0.08980380135699612
-1.6340308276084792   0.4704578173154455   0.08980380135699612
-1.6340308276084792   0.4704578173154455   0.08980380135699612
-1.6340308276084792   0.4704578173154455   0.08980380135699612
-1.4378552413540762   0.18545611622185681   -0.22650392428821964
-1.4378552413540762   0.18545611622185681   -0.22650392428821964
-1.4378552413540762   0.18545611622185681   -0.22650392428821964
-1.4378552413540762   0.18545611622185681   -0.22650392428821964
-1.58155343595161   0.2082622093709936   0.0931358146973526
-1.58155343595161   0.2082622093709936   0.0931358146973526
-1.58155343595161   0.2082622093709936   0.0931358146973526
-1.58155343595161   0.2082622093709936   0.0931358146973526
-2.001506893034932   -0.2834812571732385   0.06930150347275572
-2.001506893034932   -0.2834812571732385   0.06930150347275572
-2.001506893034932   -0.2834812571732385   0.06930150347275572
-2.001506893034932   -0.2834812571732385   0.06930150347275572
-2.2675604695812424   -0.2932968525574211   0.06160490552026513
-2.2675604695812424   -0.2932968525574211   0.06160490552026513
-2.2675604695812424   -0.2932968525574211   0.06160490552026513
-2.2675604695812424   -0.2932968525574211   0.06160490552026513
-2.182733325969554   -0.13238509408383847   -0.02144288554479515
-2.182733325969554   -0.13238509408383847   -0.02144288554479515
-2.182733325969554   -0.13238509408383847   -0.02144288554479515
-2.182733325969554   -0.13238509408383847   -0.02144288554479515
-1.8924592946872638   -0.04069870866287795   0.01984889114790539
-1.8924592946872638   -0.04069870866287795   0.01984889114790539
-1.8924592946872638   -0.04069870866287795   0.01984889114790539
-1.8924592946872638   -0.04069870866287795   0.01984889114790539
-2.0891892025453305   -0.17682771216167364   -0.055733989424113575
-2.0891892025453305   -0.17682771216167364   -0.055733989424113575
-2.0891892025453305   -0.17682771216167364   -0.055733989424113575
-2.0891892025453305   -0.17682771216167364   -0.055733989424113575
-1.894199503886208   -0.06358327105014733   0.034032407540437556
-1.894199503886208   -0.06358327105014733   0.034032407540437556
-1.894199503886208   -0.06358327105014733   0.034032407540437556
-1.894199503886208   -0.06358327105014733   0.034032407540437556
-2.1677599650486443   -0.09626737997462392   0.01730620495055607
-2.1677599650486443   -0.09626737997462392   0.01730620495055607
-2.1677599650486443   -0.09626737997462392   0.01730620495055607
-2.1677599650486443   -0.09626737997462392   0.01730620495055607
-2.0720790298141707   0.09042963432846135   -0.054538473487533656
-2.0720790298141707   0.09042963432846135   -0.054538473487533656
-2.0720790298141707   0.09042963432846135   -0.054538473487533656
-2.0720790298141707   0.09042963432846135   -0.054538473487533656
-1.787382625488902   0.16178919734612096   -0.02309516981807641
-1.787382625488902   0.16178919734612096   -0.02309516981807641
-1.787382625488902   0.16178919734612096   -0.02309516981807641
-1.787382625488902   0.16178919734612096   -0.02309516981807641
-1.9736585827155495   0.02249107341653761   0.031055564757040077
-1.9736585827155495   0.02249107341653761   0.031055564757040077
-1.9736585827155495   0.02249107341653761   0.031055564757040077
-1.9736585827155495   0.02249107341653761   0.031055564757040077
-1.7839483848815563   0.1584470867712227   -0.0025818562064638673
-1.7839483848815563   0.1584470867712227   -0.0025818562064638673
-1.7839483848815563   0.1584470867712227   -0.0025818562064638673
-1.7839483848815563   0.1584470867712227   -0.0025818562064638673
-2.063985262526867   0.10529975279802717   -0.028939755520580424
-2.063985262526867   0.10529975279802717   -0.028939755520580424
-2.063985262526867   0.10529975279802717   -0.028939755520580424
-2.063985262526867   0.10529975279802717   -0.028939755520580424
-1.9661359956578988   0.3145455287490039   -0.09198732240033047
-1.9661359956578988   0.3145455287490039   -0.09198732240033047
-1.9661359956578988   0.3145455287490039   -0.09198732240033047
-1.9661359956578988   0.3145455287490039   -0.09198732240033047
-1.6870925947054856   0.3651056058325202   -0.07015282264509512
-1.6870925947054856   0.3651056058325202   -0.07015282264509512
-1.6870925947054856   0.3651056058325202   -0.07015282264509512
-1.6870925947054856   0.3651056058325202   -0.07015282264509512
-1.863389905200777   0.22216052233618072   0.11379360425427437
-1.863389905200777   0.22216052233618072   0.11379360425427437
-1.863389905200777   0.22216052233618072   0.11379360425427437
-1.863389905200777   0.22216052233618072   0.11379360425427437
-2.333654110143102   -0.44750843856979494   -0.11465171127669913
-2.333654110143102   -0.44750843856979494   -0.11465171127669913
-2.333654110143102   -0.44750843856979494   -0.11465171127669913
-2.333654110143102   -0.44750843856979494   -0.11465171127669913
-2.478264019810804   -0.1227972972203733   0.21768106411703608
-2.478264019810804   -0.1227972972203733   0.21768106411703608
-2.478264019810804   -0.1227972972203733   0.21768106411703608
-2.478264019810804   -0.1227972972203733   0.21768106411703608
-2.5170126636484063   -0.3047704061918443   -0.21180459721374217
-2.5170126636484063   -0.3047704061918443   -0.21180459721374217
-2.5170126636484063   -0.3047704061918443   -0.21180459721374217
-2.5170126636484063   -0.3047704061918443   -0.21180459721374217
-2.08843567923141   0.1346425166336429   0.18301773742844443
-2.08843567923141   0.1346425166336429   0.18301773742844443
-2.08843567923141   0.1346425166336429   0.18301773742844443
-2.08843567923141   0.1346425166336429   0.18301773742844443
-2.344726415205525   -0.17301167645427235   -0.03495265381340111
-2.344726415205525   -0.17301167645427235   -0.03495265381340111
-2.344726415205525   -0.17301167645427235   -0.03495265381340111
-2.344726415205525   -0.17301167645427235   -0.03495265381340111
-2.229190685718084   -0.23505670569774345   -0.1510580726735603
-2.229190685718084   -0.23505670569774345   -0.1510580726735603
-2.229190685718084   -0.23505670569774345   -0.1510580726735603
-2.229190685718084   -0.23505670569774345   -0.1510580726735603
-2.362377667556396   0.07880880574487481   0.17779117130959024
-2.362377667556396   0.07880880574487481   0.17779117130959024
-2.362377667556396   0.07880880574487481   0.17779117130959024
-2.362377667556396   0.07880880574487481   0.17779117130959024
-2.372527764229161   -0.09344903649579445   -0.23761370451383323
-2.372527764229161   -0.09344903649579445   -0.23761370451383323
-2.372527764229161   -0.09344903649579445   -0.23761370451383323
-2.372527764229161   -0.09344903649579445   -0.23761370451383323
-1.9886238955338353   0.31731661449512516   0.13585021774746459
-1.9886238955338353   0.31731661449512516   0.13585021774746459
-1.9886238955338353   0.31731661449512516   0.13585021774746459
-1.9886238955338353   0.31731661449512516   0.13585021774746459
-2.213832829636706   0.018803678704849336   0.054573115621784074
-2.213832829636706   0.018803678704849336   0.054573115621784074
-2.213832829636706   0.018803678704849336   0.054573115621784074
-2.213832829636706   0.018803678704849336   0.054573115621784074
-2.1250330610264196   -0.03516929499710575   -0.19370970022325354
-2.1250330610264196   -0.03516929499710575   -0.19370970022325354
-2.1250330610264196   -0.03516929499710575   -0.19370970022325354
-2.1250330610264196   -0.03516929499710575   -0.19370970022325354
-2.222089996425449   0.2730654753075838   0.1480606227013717
-2.222089996425449   0.2730654753075838   0.1480606227013717
-2.222089996425449   0.2730654753075838   0.1480606227013717
-2.222089996425449   0.2730654753075838   0.1480606227013717
-2.2460139301193403   0.13962342853594134   -0.2606477245170033
-2.2460139301193403   0.13962342853594134   -0.2606477245170033
-2.2460139301193403   0.13962342853594134   -0.2606477245170033
-2.2460139301193403   0.13962342853594134   -0.2606477245170033
-1.8885315529769553   0.5212411532696635   0.08933926648372606
-1.8885315529769553   0.5212411532696635   0.08933926648372606
-1.8885315529769553   0.5212411532696635   0.08933926648372606
-1.8885315529769553   0.5212411532696635   0.08933926648372606
-2.1021630871842647   0.20950904908480683   0.1402996223482783
-2.1021630871842647   0.20950904908480683   0.1402996223482783
-2.1021630871842647   0.20950904908480683   0.1402996223482783
-2.1021630871842647   0.20950904908480683   0.1402996223482783
-2.6611203191125217   -0.5331047354531402   -0.28629299415882453
-2.6611203191125217   -0.5331047354531402   -0.28629299415882453
-2.6611203191125217   -0.5331047354531402   -0.28629299415882453
-2.6611203191125217   -0.5331047354531402   -0.28629299415882453
-2.9265743815602865   0.04497824917446325   0.3900833380168789
-2.9265743815602865   0.04497824917446325   0.3900833380168789
-2.9265743815602865   0.04497824917446325   0.3900833380168789
-2.9265743815602865   0.04497824917446325   0.3900833380168789
-2.8847063581074766   -0.4398141788693948   -0.3807437336219127
-2.8847063581074766   -0.4398141788693948   -0.3807437336219127
-2.8847063581074766   -0.4398141788693948   -0.3807437336219127
-2.8847063581074766   -0.4398141788693948   -0.3807437336219127
-2.276632580532527   0.3356321672975282   0.34969324487627174
-2.276632580532527   0.3356321672975282   0.34969324487627174
-2.276632580532527   0.3356321672975282   0.34969324487627174
-2.276632580532527   0.3356321672975282   0.34969324487627174
-2.5799253847854664   -0.11323865266012512   -0.018602619589958153
-2.5799253847854664   -0.11323865266012512   -0.018602619589958153
-2.5799253847854664   -0.11323865266012512   -0.018602619589958153
-2.5799253847854664   -0.11323865266012512   -0.018602619589958153
-2.5516480991004102   -0.3625035137306081   -0.3272486669350459
-2.5516480991004102   -0.3625035137306081   -0.3272486669350459
-2.5516480991004102   -0.3625035137306081   -0.3272486669350459
-2.5516480991004102   -0.3625035137306081   -0.3272486669350459
-2.5950101889843222   0.2730021527140015   0.3549207804104334
-2.5950101889843222   0.2730021527140015   0.3549207804104334
-2.5950101889843222   0.2730021527140015   0.3549207804104334
-2.5950101889843222   0.2730021527140015   0.3549207804104334
-2.6362576257216324   -0.3163086751786458   -0.45354730679147764
-2.6362576257216324   -0.3163086751786458   -0.45354730679147764
-2.6362576257216324   -0.3163086751786458   -0.45354730679147764
-2.6362576257216324   -0.3163086751786458   -0.45354730679147764
-2.1645694769028454   0.4226147061088563   0.28611398951309364
-2.1645694769028454   0.4226147061088563   0.28611398951309364
-2.1645694769028454   0.4226147061088563   0.28611398951309364
-2.1645694769028454   0.4226147061088563   0.28611398951309364
-2.4106109620241236   0.015664794593689746   0.06746612541253441
-2.4106109620241236   0.015664794593689746   0.06746612541253441
-2.4106109620241236   0.015664794593689746   0.06746612541253441
-2.4106109620241236   0.015664794593689746   0.06746612541253441
-2.4341606047181363   -0.26085433192546037   -0.3783726115290459
-2.4341606047181363   -0.26085433192546037   -0.3783726115290459
-2.4341606047181363   -0.26085433192546037   -0.3783726115290459
-2.4341606047181363   -0.26085433192546037   -0.3783726115290459
-2.3512956331659525   0.38253122759601854   0.2724227532122573
-2.3512956331659525   0.38253122759601854   0.2724227532122573
-2.3512956331659525   0.38253122759601854   0.2724227532122573
-2.3512956331659525   0.38253122759601854   0.2724227532122573
-2.3109767033475355   -0.10225226170209922   -0.4953759310781847
-2.3109767033475355   -0.10225226170209922   -0.4953759310781847
-2.3109767033475355   -0.10225226170209922   -0.4953759310781847
-2.3109767033475355   -0.10225226170209922   -0.4953759310781847
-2.0640582793245414   0.5530834057774023   0.23567055221551692
-2.0640582793245414   0.5530834057774023   0.23567055221551692
-2.0640582793245414   0.5530834057774023   0.23567055221551692
-2.0640582793245414   0.5530834057774023   0.23567055221551692
-2.1813313258202904   0.14477071192203494   0.16681079265169424
-2.1813313258202904   0.14477071192203494   0.16681079265169424
-2.1813313258202904   0.14477071192203494   0.16681079265169424
-2.1813313258202904   0.14477071192203494   0.16681079265169424
1.6072592171235447   0.26089520839990255   0.42599502691140273
1.6072592171235447   0.26089520839990255   0.42599502691140273
1.6072592171235447   0.26089520839990255   0.42599502691140273
1.6072592171235447   0.26089520839990255   0.42599502691140273
-0.04580385020418393   -0.6856885881834313   -0.2822603091670064
-0.04580385020418393   -0.6856885881834313   -0.2822603091670064
-0.04580385020418393   -0.6856885881834313   -0.2822603091670064
-0.04580385020418393   -0.6856885881834313   -0.2822603091670064
0.3597008815656693   0.13502269622069646   0.3293908685772282
0.3597008815656693   0.13502269622069646   0.3293908685772282
0.3597008815656693   0.13502269622069646   0.3293908685772282
0.3597008815656693   0.13502269622069646   0.3293908685772282
1.6799764498273217   -0.24372740392234826   -0.3527946796185156
1.6799764498273217   -0.24372740392234826   -0.3527946796185156
1.6799764498273217   -0.24372740392234826   -0.3527946796185156
1.6799764498273217   -0.24372740392234826   -0.3527946796185156
0.8194789362140388   -0.13456289718306996   -0.20224316318876015
0.8194789362140388   -0.13456289718306996   -0.20224316318876015
0.8194789362140388   -0.13456289718306996   -0.20224316318876015
0.8194789362140388   -0.13456289718306996   -0.20224316318876015
1.9697805610204466   0.46805012740096025   0.38444834502376984
1.9697805610204466   0.46805012740096025   0.38444834502376984
1.9697805610204466   0.46805012740096025   0.38444834502376984
1.9697805610204466   0.46805012740096025   0.38444834502376984
0.08754407189210517   -0.5591075335830564   -0.3372629499868398
0.08754407189210517   -0.5591075335830564   -0.3372629499868398
0.08754407189210517   -0.5591075335830564   -0.3372629499868398
0.08754407189210517   -0.5591075335830564   -0.3372629499868398
0.5088948255512576   0.23454438771854735   0.2751182579365239
0.5088948255512576   0.23454438771854735   0.2751182579365239
0.5088948255512576   0.23454438771854735   0.2751182579365239
0.5088948255512576   0.23454438771854735   0.2751182579365239
1.963665060244755   -0.13125307285514914   -0.4418846166418314
1.963665060244755   -0.13125307285514914   -0.4418846166418314
1.963665060244755   -0.13125307285514914   -0.4418846166418314
1.963665060244755   -0.13125307285514914   -0.4418846166418314
1.0752645413222979   -0.010264468703432172   -0.0944612137359837
1.0752645413222979   -0.010264468703432172   -0.0944612137359837
1.0752645413222979   -0.010264468703432172   -0.0944612137359837
1.0752645413222979   -0.010264468703432172   -0.0944612137359837
2.2568363113175294   0.5897106220482289   0.3030079438186602
2.2568363113175294   0.5897106220482289   0.3030079438186602
2.2568363113175294   0.5897106220482289   0.3030079438186602
2.2568363113175294   0.5897106220482289   0.3030079438186602
0.23306579850412756   -0.46907708315918684   -0.4004054064213922
0.23306579850412756   -0.46907708315918684   -0.4004054064213922
0.23306579850412756   -0.46907708315918684   -0.4004054064213922
0.23306579850412756   -0.46907708315918684   -0.4004054064213922
0.6537694699856315   0.4168580817830009   0.23810141109195376
0.6537694699856315   0.4168580817830009   0.23810141109195376
0.6537694699856315   0.4168580817830009   0.23810141109195376
0.6537694699856315   0.4168580817830009   0.23810141109195376
2.34002859507414   0.12061513699070758   -0.4874990983400577
2.34002859507414   0.12061513699070758   -0.4874990983400577
2.34002859507414   0.12061513699070758   -0.4874990983400577
2.34002859507414   0.12061513699070758   -0.4874990983400577
1.2910259418699017   0.12873259930591627   0.007706483221565648
1.2910259418699017   0.12873259930591627   0.007706483221565648
1.2910259418699017   0.12873259930591627   0.007706483221565648
1.2910259418699017   0.12873259930591627   0.007706483221565648
0.21914656279151773   0.06877308504148444   0.2880300825865555
0.21914656279151773   0.06877308504148444   0.2880300825865555
0.21914656279151773   0.06877308504148444   0.2880300825865555
0.21914656279151773   0.06877308504148444   0.2880300825865555
-1.5445053830119693   -0.5816469326196925   -0.12938765032035504
-1.5445053830119693   -0.5816469326196925   -0.12938765032035504
-1.5445053830119693   -0.5816469326196925   -0.12938765032035504
-1.5445053830119693   -0.5816469326196925   -0.12938765032035504
-1.2878385323509627   -0.0836302525971103   0.13218673482831916
-1.2878385323509627   -0.0836302525971103   0.13218673482831916
-1.2878385323509627   -0.0836302525971103   0.13218673482831916
-1.2878385323509627   -0.0836302525971103   0.13218673482831916
0.23224493302256943   -0.06946111919384043   -0.10340505872373451
0.23224493302256943   -0.06946111919384043   -0.10340505872373451
0.23224493302256943   -0.06946111919384043   -0.10340505872373451
0.23224493302256943   -0.06946111919384043   -0.10340505872373451
-0.6078257288319674   -0.15158776914123936   -0.0975130380073157
-0.6078257288319674   -0.15158776914123936   -0.0975130380073157
-0.6078257288319674   -0.15158776914123936   -0.0975130380073157
-0.6078257288319674   -0.15158776914123936   -0.0975130380073157
0.3725564435039775   0.2731247254217558   0.25556664906770954
0.3725564435039775   0.2731247254217558   0.25556664906770954
0.3725564435039775   0.2731247254217558   0.25556664906770954
0.3725564435039775   0.2731247254217558   0.25556664906770954
-1.4153586381097198   -0.41342469249001473   -0.1756193540725624
-1.4153586381097198   -0.41342469249001473   -0.1756193540725624
-1.4153586381097198   -0.41342469249001473   -0.1756193540725624
-1.4153586381097198   -0.41342469249001473   -0.1756193540725624
-1.1516976661453897   0.10909767417252764   0.09350351741590736
-1.1516976661453897   0.10909767417252764   0.09350351741590736
-1.1516976661453897   0.10909767417252764   0.09350351741590736
-1.1516976661453897   0.10909767417252764   0.09350351741590736
0.40175878954950056   0.11381747115419634   -0.13983500550791023
0.40175878954950056   0.11381747115419634   -0.13983500550791023
0.40175878954950056   0.11381747115419634   -0.13983500550791023
0.40175878954950056   0.11381747115419634   -0.13983500550791023
-0.4635836165914311   0.018719833242822892   -0.011578566581649012
-0.4635836165914311   0.018719833242822892   -0.011578566581649012
-0.4635836165914311   0.018719833242822892   -0.011578566581649012
-0.4635836165914311   0.018719833242822892   -0.011578566581649012
0.5479337750937983   0.47607894800898987   0.22877844535878494
0.5479337750937983   0.47607894800898987   0.22877844535878494
0.5479337750937983   0.47607894800898987   0.22877844535878494
0.5479337750937983   0.47607894800898987   0.22877844535878494
-1.2855855336224389   -0.24087668461497624   -0.2259614611818339
-1.2855855336224389   -0.24087668461497624   -0.2259614611818339
-1.2855855336224389   -0.24087668461497624   -0.2259614611818339
-1.2855855336224389   -0.24087668461497624   -0.2259614611818339
-1.01479387049352   0.3266940994351779   0.05662462091782958
-1.01479387049352   0.3266940994351779   0.05662462091782958
-1.01479387049352   0.3266940994351779   0.05662462091782958
-1.01479387049352   0.3266940994351779   0.05662462091782958
0.5512937172940572   0.3212709462071871   -0.17869021679013458
0.5512937172940572   0.3212709462071871   -0.17869021679013458
0.5512937172940572   0.3212709462071871   -0.17869021679013458
0.5512937172940572   0.3212709462071871   -0.17869021679013458
-0.3044404049902616   0.2063839798212156   0.07989971757528806
-0.3044404049902616   0.2063839798212156   0.07989971757528806
-0.3044404049902616   0.2063839798212156   0.07989971757528806
-0.3044404049902616   0.2063839798212156   0.07989971757528806
-1.4041164204508765   -0.11228914821859301   0.10319937808403981
-1.4041164204508765   -0.11228914821859301   0.10319937808403981
-1.4041164204508765   -0.11228914821859301   0.10319937808403981
-1.4041164204508765   -0.11228914821859301   0.10319937808403981
-3.016335158299468   -0.4112744949248057   0.027313801734575538
-3.016335158299468   -0.4112744949248057   0.027313801734575538
-3.016335158299468   -0.4112744949248057   0.027313801734575538
-3.016335158299468   -0.4112744949248057   0.027313801734575538
-2.8967498754726555   -0.2569180459154625   -0.056957214329625805
-2.8967498754726555   -0.2569180459154625   -0.056957214329625805
-2.8967498754726555   -0.2569180459154625   -0.056957214329625805
-2.8967498754726555   -0.2569180459154625   -0.056957214329625805
-1.2632394856884637   0.10696399989619554   0.06458771564752366
-1.2632394856884637   0.10696399989619554   0.06458771564752366
-1.2632394856884637   0.10696399989619554   0.06458771564752366
-1.2632394856884637   0.10696399989619554   0.06458771564752366
-2.1482592151909667   -0.15449571327262085   -0.0565113553175189
-2.1482592151909667   -0.15449571327262085   -0.0565113553175189
-2.1482592151909667   -0.15449571327262085   -0.0565113553175189
-2.1482592151909667   -0.15449571327262085   -0.0565113553175189
-1.265097896481488   0.09437977088701305   0.06787989069158479
-1.265097896481488   0.09437977088701305   0.06787989069158479
-1.265097896481488   0.09437977088701305   0.06787989069158479
-1.265097896481488   0.09437977088701305   0.06787989069158479
-2.883969390446366   -0.23341174267305614   -0.01656109244058669
-2.883969390446366   -0.23341174267305614   -0.01656109244058669
-2.883969390446366   -0.23341174267305614   -0.01656109244058669
-2.883969390446366   -0.23341174267305614   -0.01656109244058669
-2.7536868482160726   -0.04476849205551958   -0.08957939409910876
-2.7536868482160726   -0.04476849205551958   -0.08957939409910876
-2.7536868482160726   -0.04476849205551958   -0.08957939409910876
-2.7536868482160726   -0.04476849205551958   -0.08957939409910876
-1.128429304882164   0.29540962236135604   0.02353337554322288
-1.128429304882164   0.29540962236135604   0.02353337554322288
-1.128429304882164   0.29540962236135604   0.02353337554322288
-1.128429304882164   0.29540962236135604   0.02353337554322288
-2.0006176388366352   0.031975306833674055   0.02997089759450758
-2.0006176388366352   0.031975306833674055   0.02997089759450758
-2.0006176388366352   0.031975306833674055   0.02997089759450758
-2.0006176388366352   0.031975306833674055   0.02997089759450758
-1.1252061906431403   0.30487936008235683   0.030179209017341252
-1.1252061906431403   0.30487936008235683   0.030179209017341252
-1.1252061906431403   0.30487936008235683   0.030179209017341252
-1.1252061906431403   0.30487936008235683   0.030179209017341252
-2.748219179785867   -0.04554744710729486   -0.0614620968963287
-2.748219179785867   -0.04554744710729486   -0.0614620968963287
-2.748219179785867   -0.04554744710729486   -0.0614620968963287
-2.748219179785867   -0.04554744710729486   -0.0614620968963287
-2.6164197752817704   0.1678889713750502   -0.12690881435615967
-2.6164197752817704   0.1678889713750502   -0.12690881435615967
-2.6164197752817704   0.1678889713750502   -0.12690881435615967
-2.6164197752817704   0.1678889713750502   -0.12690881435615967
-0.9993047397252154   0.4844119497282698   -0.02364757553374
-0.9993047397252154   0.4844119497282698   -0.02364757553374
-0.9993047397252154   0.4844119497282698   -0.02364757553374
-0.9993047397252154   0.4844119497282698   -0.02364757553374
-1.8605864930201437   0.21789913154683271   0.11080530050504289
-1.8605864930201437   0.21789913154683271   0.11080530050504289
-1.8605864930201437   0.21789913154683271   0.11080530050504289
-1.8605864930201437   0.21789913154683271   0.11080530050504289
-3.015299004105383   -0.2912470761222512   -0.08753284609752901
-3.015299004105383   -0.2912470761222512   -0.08753284609752901
-3.015299004105383   -0.2912470761222512   -0.08753284609752901
-3.015299004105383   -0.2912470761222512   -0.08753284609752901
-4.47007377782941   -0.2512477502587873   0.18139026496169836
-4.47007377782941   -0.2512477502587873   0.18139026496169836
-4.47007377782941   -0.2512477502587873   0.18139026496169836
-4.47007377782941   -0.2512477502587873   0.18139026496169836
-4.469180867783097   -0.42635274767609677   -0.2412133955685671
-4.469180867783097   -0.42635274767609677   -0.2412133955685671
-4.469180867783097   -0.42635274767609677   -0.2412133955685671
-4.469180867783097   -0.42635274767609677   -0.2412133955685671
-2.734898960585003   0.27460281160895494   0.22077650258422074
-2.734898960585003   0.27460281160895494   0.22077650258422074
-2.734898960585003   0.27460281160895494   0.22077650258422074
-2.734898960585003   0.27460281160895494   0.22077650258422074
-3.651941724433839   -0.15545026434297282   -0.02358522316221942
-3.651941724433839   -0.15545026434297282   -0.02358522316221942
-3.651941724433839   -0.15545026434297282   -0.02358522316221942
-3.651941724433839   -0.15545026434297282   -0.02358522316221942
-2.8750170874292147   -0.08359964708102363   -0.121611672946838
-2.8750170874292147   -0.08359964708102363   -0.121611672946838
-2.8750170874292147   -0.08359964708102363   -0.121611672946838
-2.8750170874292147   -0.08359964708102363   -0.121611672946838
-4.320099688893225   -0.05918723694048922   0.13702698814522238
-4.320099688893225   -0.05918723694048922   0.13702698814522238
-4.320099688893225   -0.05918723694048922   0.13702698814522238
-4.320099688893225   -0.05918723694048922   0.13702698814522238
-4.290446056395317   -0.2238903278626021   -0.26836233317968944
-4.290446056395317   -0.2238903278626021   -0.26836233317968944
-4.290446056395317   -0.2238903278626021   -0.26836233317968944
-4.290446056395317   -0.2238903278626021   -0.26836233317968944
-2.602446196274144   0.4461912321887874   0.17566414136622643
-2.602446196274144   0.4461912321887874   0.17566414136622643
-2.602446196274144   0.4461912321887874   0.17566414136622643
-2.602446196274144   0.4461912321887874   0.17566414136622643
-3.475440265846123   0.03244962902128612   0.065428540910412
-3.475440265846123   0.03244962902128612   0.065428540910412
-3.475440265846123   0.03244962902128612   0.065428540910412
-3.475440265846123   0.03244962902128612   0.065428540910412
-2.7379445520730537   0.1076292987915658   -0.1632657042311132
-2.7379445520730537   0.1076292987915658   -0.1632657042311132
-2.7379445520730537   0.1076292987915658   -0.1632657042311132
-2.7379445520730537   0.1076292987915658   -0.1632657042311132
-4.144852727608735   0.12476657852224948   0.11094740436837186
-4.144852727608735   0.12476657852224948   0.11094740436837186
-4.144852727608735   0.12476657852224948   0.11094740436837186
-4.144852727608735   0.12476657852224948   0.11094740436837186
-4.130474502520259   -0.002772046512045656   -0.2887837828815162
-4.130474502520259   -0.002772046512045656   -0.2887837828815162
-4.130474502520259   -0.002772046512045656   -0.2887837828815162
-4.130474502520259   -0.002772046512045656   -0.2887837828815162
-2.471352204050433   0.6360810212528013   0.13023699192277727
-2.471352204050433   0.6360810212528013   0.13023699192277727
-2.471352204050433   0.6360810212528013   0.13023699192277727
-2.471352204050433   0.6360810212528013   0.13023699192277727
-3.342462735395732   0.20804145373436944   0.14531336332093744
-3.342462735395732   0.20804145373436944   0.14531336332093744
-3.342462735395732   0.20804145373436944   0.14531336332093744
-3.342462735395732   0.20804145373436944   0.14531336332093744
-4.592844260464875   -0.4191953115872613   -0.2645145868871557
-4.592844260464875   -0.4191953115872613   -0.2645145868871557
-4.592844260464875   -0.4191953115872613   -0.2645145868871557
-4.592844260464875   -0.4191953115872613   -0.2645145868871557
-6.124699010393254   -0.10456355291889641   0.3906453329589514
-6.124699010393254   -0.10456355291889641   0.3906453329589514
-6.124699010393254   -0.10456355291889641   0.3906453329589514
-6.124699010393254   -0.10456355291889641   0.3906453329589514
-6.035961441120126   -0.556593956813794   -0.35210851509274055
-6.035961441120126   -0.556593956813794   -0.35210851509274055
-6.035961441120126   -0.556593956813794   -0.35210851509274055
-6.035961441120126   -0.556593956813794   -0.35210851509274055
-4.165988491824846   0.4632823869435194   0.3851133496030725
-4.165988491824846   0.4632823869435194   0.3851133496030725
-4.165988491824846   0.4632823869435194   0.3851133496030725
-4.165988491824846   0.4632823869435194   0.3851133496030725
-5.0046726601162135   -0.08843007989612084   0.040449594849713166
-5.0046726601162135   -0.08843007989612084   0.040449594849713166
-5.0046726601162135   -0.08843007989612084   0.040449594849713166
-5.0046726601162135   -0.08843007989612084   0.040449594849713166
-4.4408737717877775   -0.22696737715198811   -0.2990632861160588
-4.4408737717877775   -0.22696737715198811   -0.2990632861160588
-4.4408737717877775   -0.22696737715198811   -0.2990632861160588
-4.4408737717877775   -0.22696737715198811   -0.2990632861160588
-5.752987992335072   0.14174397610382172   0.36442079591480975
-5.752987992335072   0.14174397610382172   0.36442079591480975
-5.752987992335072   0.14174397610382172   0.36442079591480975
-5.752987992335072   0.14174397610382172   0.36442079591480975
-5.7543888208502425   -0.4363364957128667   -0.41882267564812414
-5.7543888208502425   -0.4363364957128667   -0.41882267564812414
-5.7543888208502425   -0.4363364957128667   -0.41882267564812414
-5.7543888208502425   -0.4363364957128667   -0.41882267564812414
-4.020063712457333   0.5423228565225804   0.31733620212501185
-4.020063712457333   0.5423228565225804   0.31733620212501185
-4.020063712457333   0.5423228565225804   0.31733620212501185
-4.020063712457333   0.5423228565225804   0.31733620212501185
-4.843278378231786   0.0375893775597389   0.11249104659755399
-4.843278378231786   0.0375893775597389   0.11249104659755399
-4.843278378231786   0.0375893775597389   0.11249104659755399
-4.843278378231786   0.0375893775597389   0.11249104659755399
-4.286614101732148   -0.128029661920801   -0.3450632258056451
-4.286614101732148   -0.128029661920801   -0.3450632258056451
-4.286614101732148   -0.128029661920801   -0.3450632258056451
-4.286614101732148   -0.128029661920801   -0.3450632258056451
-5.477900568759112   0.24395388554678843   0.2833282035478308
-5.477900568759112   0.24395388554678843   0.2833282035478308
-5.477900568759112   0.24395388554678843   0.2833282035478308
-5.477900568759112   0.24395388554678843   0.2833282035478308
-5.408311947660433   -0.2562487389312993   -0.46673650299209934
-5.408311947660433   -0.2562487389312993   -0.46673650299209934
-5.408311947660433   -0.2562487389312993   -0.46673650299209934
-5.408311947660433   -0.2562487389312993   -0.46673650299209934
-3.8915683418272553   0.6386033402093682   0.26437163386209156
-3.8915683418272553   0.6386033402093682   0.26437163386209156
-3.8915683418272553   0.6386033402093682   0.26437163386209156
-3.8915683418272553   0.6386033402093682   0.26437163386209156
-4.545547613774413   0.1559415798219046   0.21359579301085352
-4.545547613774413   0.1559415798219046   0.21359579301085352
-4.545547613774413   0.1559415798219046   0.21359579301085352
-4.545547613774413   0.1559415798219046   0.21359579301085352
4.89300811773179   0.44399718144435696   0.4273565710357159
4.89300811773179   0.44399718144435696   0.4273565710357159
4.89300811773179   0.44399718144435696   0.4273565710357159
4.89300811773179   0.44399718144435696   0.4273565710357159
1.7955420228973131   -0.8192497247604352   -0.28145047746174734
1.7955420228973131   -0.8192497247604352   -0.28145047746174734
1.7955420228973131   -0.8192497247604352   -0.28145047746174734
1.7955420228973131   -0.8192497247604352   -0.28145047746174734
2.221946705658282   -0.0032176176083518193   0.3077839961205058
2.221946705658282   -0.0032176176083518193   0.3077839961205058
2.221946705658282   -0.0032176176083518193   0.3077839961205058
2.221946705658282   -0.0032176176083518193   0.3077839961205058
4.9845704202254835   -0.11803116610448239   -0.3591159377874822
4.9845704202254835   -0.11803116610448239   -0.3591159377874822
4.9845704202254835   -0.11803116610448239   -0.3591159377874822
4.9845704202254835   -0.11803116610448239   -0.3591159377874822
3.2600443900836846   -0.14960482709493894   -0.31613396740421695
3.2600443900836846   -0.14960482709493894   -0.31613396740421695
3.2600443900836846   -0.14960482709493894   -0.31613396740421695
3.2600443900836846   -0.14960482709493894   -0.31613396740421695
5.2784634977587945   0.620827165285469   0.3714911184890972
5.2784634977587945   0.620827165285469   0.3714911184890972
5.2784634977587945   0.620827165285469   0.3714911184890972
5.2784634977587945   0.620827165285469   0.3714911184890972
1.9487226533226705   -0.7214069238006081   -0.3401469593652976
1.9487226533226705   -0.7214069238006081   -0.3401469593652976
1.9487226533226705   -0.7214069238006081   -0.3401469593652976
1.9487226533226705   -0.7214069238006081   -0.3401469593652976
2.3914168359203525   0.09348002866194782   0.25402911526781047
2.3914168359203525   0.09348002866194782   0.25402911526781047
2.3914168359203525   0.09348002866194782   0.25402911526781047
2.3914168359203525   0.09348002866194782   0.25402911526781047
5.29182349907828   -0.008027820899283666   -0.4530183656080021
5.29182349907828   -0.008027820899283666   -0.4530183656080021
5.29182349907828   -0.008027820899283666   -0.4530183656080021
5.29182349907828   -0.008027820899283666   -0.4530183656080021
3.580272240777665   -0.030611835118391606   -0.19108555351426146
3.580272240777665   -0.030611835118391606   -0.19108555351426146
3.580272240777665   -0.030611835118391606   -0.19108555351426146
3.580272240777665   -0.030611835118391606   -0.19108555351426146
5.589137205330628   0.7394356237011049   0.28608672105331945
5.589137205330628   0.7394356237011049   0.28608672105331945
5.589137205330628   0.7394356237011049   0.28608672105331945
5.589137205330628   0.7394356237011049   0.28608672105331945
2.116215340941144   -0.6318712046652544   -0.3966271263009662
2.116215340941144   -0.6318712046652544   -0.3966271263009662
2.116215340941144   -0.6318712046652544   -0.3966271263009662
2.116215340941144   -0.6318712046652544   -0.3966271263009662
2.5606231904788   0.30626893068825667   0.22017527474302784
2.5606231904788   0.30626893068825667   0.22017527474302784
2.5606231904788   0.30626893068825667   0.22017527474302784
2.5606231904788   0.30626893068825667   0.22017527474302784
5.694981012418957   0.27894214209560486   -0.48888926111241987
5.694981012418957   0.27894214209560486   -0.48888926111241987
5.694981012418957   0.27894214209560486   -0.48888926111241987
5.694981012418957   0.27894214209560486   -0.48888926111241987
3.7794953378776586   0.11383678693764554   -0.08254922939141376
3.7794953378776586   0.11383678693764554   -0.08254922939141376
3.7794953378776586   0.11383678693764554   -0.08254922939141376
3.7794953378776586   0.11383678693764554   -0.08254922939141376
2.1333050294234   0.24784637167754525   0.3402684587307088
2.1333050294234   0.24784637167754525   0.3402684587307088
2.1333050294234   0.24784637167754525   0.3402684587307088
2.1333050294234   0.24784637167754525   0.3402684587307088
-1.0328792478776574   -0.7641615007864027   -0.14721023843904604
-1.0328792478776574   -0.7641615007864027   -0.14721023843904604
-1.0328792478776574   -0.7641615007864027   -0.14721023843904604
-1.0328792478776574   -0.7641615007864027   -0.14721023843904604
-0.7387823829361506   -0.22225864937191564   0.10363460634436406
-0.7387823829361506   -0.22225864937191564   0.10363460634436406
-0.7387823829361506   -0.22225864937191564   0.10363460634436406
-0.7387823829361506   -0.22225864937191564   0.10363460634436406
2.152253543536151   0.0019656635694887403   -0.045865095667991865
2.152253543536151   0.0019656635694887403   -0.045865095667991865
2.152253543536151   0.0019656635694887403   -0.045865095667991865
2.152253543536151   0.0019656635694887403   -0.045865095667991865
0.6004512107628374   -0.1628054706670794   -0.13517260557991279
0.6004512107628374   -0.1628054706670794   -0.13517260557991279
0.6004512107628374   -0.1628054706670794   -0.13517260557991279
0.6004512107628374   -0.1628054706670794   -0.13517260557991279
2.307209546700333   0.4269907766924913   0.30388980702991525
2.307209546700333   0.4269907766924913   0.30388980702991525
2.307209546700333   0.4269907766924913   0.30388980702991525
2.307209546700333   0.4269907766924913   0.30388980702991525
-0.8813961540042765   -0.6349415303988621   -0.19675136796931897
-0.8813961540042765   -0.6349415303988621   -0.19675136796931897
-0.8813961540042765   -0.6349415303988621   -0.19675136796931897
-0.8813961540042765   -0.6349415303988621   -0.19675136796931897
-0.5808157115448626   -0.04159957709938736   0.06565425431853451
-0.5808157115448626   -0.04159957709938736   0.06565425431853451
-0.5808157115448626   -0.04159957709938736   0.06565425431853451
-0.5808157115448626   -0.04159957709938736   0.06565425431853451
2.337735024706098   0.16430265682253342   -0.0852025689639869
2.337735024706098   0.16430265682253342   -0.0852025689639869
2.337735024706098   0.16430265682253342   -0.0852025689639869
2.337735024706098   0.16430265682253342   -0.0852025689639869
0.7532376084695904   -0.01991681855147795   -0.05382157784254259
0.7532376084695904   -0.01991681855147795   -0.05382157784254259
0.7532376084695904   -0.01991681855147795   -0.05382157784254259
0.7532376084695904   -0.01991681855147795   -0.05382157784254259
2.498858220386972   0.6151229763965362   0.2695930898663182
2.498858220386972   0.6151229763965362   0.2695930898663182
2.498858220386972   0.6151229763965362   0.2695930898663182
2.498858220386972   0.6151229763965362   0.2695930898663182
-0.7295508352881339   -0.48003182473579786   -0.2395891167614115
-0.7295508352881339   -0.48003182473579786   -0.2395891167614115
-0.7295508352881339   -0.48003182473579786   -0.2395891167614115
-0.7295508352881339   -0.48003182473579786   -0.2395891167614115
-0.4249104992894269   0.16733116955220728   0.02781511651820516
-0.4249104992894269   0.16733116955220728   0.02781511651820516
-0.4249104992894269   0.16733116955220728   0.02781511651820516
-0.4249104992894269   0.16733116955220728   0.02781511651820516
2.5024838765109556   0.35728901153837456   -0.12154137594627817
2.5024838765109556   0.35728901153837456   -0.12154137594627817
2.5024838765109556   0.35728901153837456   -0.12154137594627817
2.5024838765109556   0.35728901153837456   -0.12154137594627817
0.9412248239585126   0.1550109370657516   0.04105994586634931
0.9412248239585126   0.1550109370657516   0.04105994586634931
0.9412248239585126   0.1550109370657516   0.04105994586634931
0.9412248239585126   0.1550109370657516   0.04105994586634931
-0.8111241697044609   0.05315472731286108   0.14424892432765732
-0.8111241697044609   0.05315472731286108   0.14424892432765732
-0.8111241697044609   0.05315472731286108   0.14424892432765732
-0.8111241697044609   0.05315472731286108   0.14424892432765732
-3.8050030424941417   -0.6739365465003617   -0.0189475702763704
-3.8050030424941417   -0.6739365465003617   -0.0189475702763704
-3.8050030424941417   -0.6739365465003617   -0.0189475702763704
-3.8050030424941417   -0.6739365465003617   -0.0189475702763704
-3.617341253814145   -0.3946879172240886   -0.08957010182821637
-3.617341253814145   -0.3946879172240886   -0.08957010182821637
-3.617341253814145   -0.3946879172240886   -0.08957010182821637
-3.617341253814145   -0.3946879172240886   -0.08957010182821637
-0.6764279707473912   0.09686308397662877   0.09628493393961654
-0.6764279707473912   0.09686308397662877   0.09628493393961654
-0.6764279707473912   0.09686308397662877   0.09628493393961654
-0.6764279707473912   0.09686308397662877   0.09628493393961654
-2.2314364806506033   -0.2076076946426278   -0.08428144730165607
-2.2314364806506033   -0.2076076946426278   -0.08428144730165607
-2.2314364806506033   -0.2076076946426278   -0.08428144730165607
-2.2314364806506033   -0.2076076946426278   -0.08428144730165607
-0.6453885087141091   0.2394047648150774   0.10894056326757814
-0.6453885087141091   0.2394047648150774   0.10894056326757814
-0.6453885087141091   0.2394047648150774   0.10894056326757814
-0.6453885087141091   0.2394047648150774   0.10894056326757814
-3.6402385009630853   -0.5290873831781963   -0.06965687161881406
-3.6402385009630853   -0.5290873831781963   -0.06965687161881406
-3.6402385009630853   -0.5290873831781963   -0.06965687161881406
-3.6402385009630853   -0.5290873831781963   -0.06965687161881406
-3.4433051555051377   -0.1964806273493549   -0.12104202238760392
-3.4433051555051377   -0.1964806273493549   -0.12104202238760392
-3.4433051555051377   -0.1964806273493549   -0.12104202238760392
-3.4433051555051377   -0.1964806273493549   -0.12104202238760392
-0.5226359438715882   0.26080377954044254   0.05414973604507656
-0.5226359438715882   0.26080377954044254   0.05414973604507656
-0.5226359438715882   0.26080377954044254   0.05414973604507656
-0.5226359438715882   0.26080377954044254   0.05414973604507656
-2.0559549360239937   -0.041724157373710935   -0.0013524441307386087
-2.0559549360239937   -0.041724157373710935   -0.0013524441307386087
-2.0559549360239937   -0.041724157373710935   -0.0013524441307386087
-2.0559549360239937   -0.041724157373710935   -0.0013524441307386087
-0.4852185547944375   0.43312765788709284   0.06891280308418017
-0.4852185547944375   0.43312765788709284   0.06891280308418017
-0.4852185547944375   0.43312765788709284   0.06891280308418017
-0.4852185547944375   0.43312765788709284   0.06891280308418017
-3.4731385003515847   -0.361220461465342   -0.10546891250384964
-3.4731385003515847   -0.361220461465342   -0.10546891250384964
-3.4731385003515847   -0.361220461465342   -0.10546891250384964
-3.4731385003515847   -0.361220461465342   -0.10546891250384964
-3.281345639498281   0.000976776038473015   -0.15878254420965796
-3.281345639498281   0.000976776038473015   -0.15878254420965796
-3.281345639498281   0.000976776038473015   -0.15878254420965796
-3.281345639498281   0.000976776038473015   -0.15878254420965796
-0.3757021511903978   0.42833420130023186   0.01285382526534165
-0.3757021511903978   0.42833420130023186   0.01285382526534165
-0.3757021511903978   0.42833420130023186   0.01285382526534165
-0.3757021511903978   0.42833420130023186   0.01285382526534165
-1.8946722898881032   0.12351322482022403   0.07760284115052019
-1.8946722898881032   0.12351322482022403   0.07760284115052019
-1.8946722898881032   0.12351322482022403   0.07760284115052019
-1.8946722898881032   0.12351322482022403   0.07760284115052019
-3.707327831072507   -0.14656518819454245   -0.05794287147397964
-3.707327831072507   -0.14656518819454245   -0.05794287147397964
-3.707327831072507   -0.14656518819454245   -0.05794287147397964
-3.707327831072507   -0.14656518819454245   -0.05794287147397964
-6.51039282409124   -0.5445980967048007   0.1279331245095981
-6.51039282409124   -0.5445980967048007   0.1279331245095981
-6.51039282409124   -0.5445980967048007   0.1279331245095981
-6.51039282409124   -0.5445980967048007   0.1279331245095981
-6.417312440469218   -0.5599966337371184   -0.2698072442619297
-6.417312440469218   -0.5599966337371184   -0.2698072442619297
-6.417312440469218   -0.5599966337371184   -0.2698072442619297
-6.417312440469218   -0.5599966337371184   -0.2698072442619297
-3.421636179913323   0.2514618657599751   0.24280548469186078
-3.421636179913323   0.2514618657599751   0.24280548469186078
-3.421636179913323   0.2514618657599751   0.24280548469186078
-3.421636179913323   0.2514618657599751   0.24280548469186078
-4.979464541822752   -0.21812669068244128   -0.029270934230819168
-4.979464541822752   -0.21812669068244128   -0.029270934230819168
-4.979464541822752   -0.21812669068244128   -0.029270934230819168
-4.979464541822752   -0.21812669068244128   -0.029270934230819168
-3.527115600728444   0.05448186028218238   -0.08761161390595462
-3.527115600728444   0.05448186028218238   -0.08761161390595462
-3.527115600728444   0.05448186028218238   -0.08761161390595462
-3.527115600728444   0.05448186028218238   -0.08761161390595462
-6.311708485904285   -0.36289209450954585   0.06110798933521819
-6.311708485904285   -0.36289209450954585   0.06110798933521819
-6.311708485904285   -0.36289209450954585   0.06110798933521819
-6.311708485904285   -0.36289209450954585   0.06110798933521819
-6.190261977347911   -0.36618578826118187   -0.29840517980985337
-6.190261977347911   -0.36618578826118187   -0.29840517980985337
-6.190261977347911   -0.36618578826118187   -0.29840517980985337
-6.190261977347911   -0.36618578826118187   -0.29840517980985337
-3.2594272355066374   0.4079534101228848   0.19391354013268874
-3.2594272355066374   0.4079534101228848   0.19391354013268874
-3.2594272355066374   0.4079534101228848   0.19391354013268874
-3.2594272355066374   0.4079534101228848   0.19391354013268874
-4.748875105130302   -0.034684307864893515   0.05375959042088885
-4.748875105130302   -0.034684307864893515   0.05375959042088885
-4.748875105130302   -0.034684307864893515   0.05375959042088885
-4.748875105130302   -0.034684307864893515   0.05375959042088885
-3.358434341827313   0.23435588211278813   -0.1275244634606013
-3.358434341827313   0.23435588211278813   -0.1275244634606013
-3.358434341827313   0.23435588211278813   -0.1275244634606013
-3.358434341827313   0.23435588211278813   -0.1275244634606013
-6.086318704703032   -0.18765209392688376   0.04277748908024087
-6.086318704703032   -0.18765209392688376   0.04277748908024087
-6.086318704703032   -0.18765209392688376   0.04277748908024087
-6.086318704703032   -0.18765209392688376   0.04277748908024087
-5.987199450117233   -0.15586549740903077   -0.3136483553195837
-5.987199450117233   -0.15586549740903077   -0.3136483553195837
-5.987199450117233   -0.15586549740903077   -0.3136483553195837
-5.987199450117233   -0.15586549740903077   -0.3136483553195837
-3.1023176162311152   0.5803291596261386   0.1570051885385404
-3.1023176162311152   0.5803291596261386   0.1570051885385404
-3.1023176162311152   0.5803291596261386   0.1570051885385404
-3.1023176162311152   0.5803291596261386   0.1570051885385404
-4.591806980429183   0.12237779267710325   0.12547073485307225
-4.591806980429183   0.12237779267710325   0.12547073485307225
-4.591806980429183   0.12237779267710325   0.12547073485307225
-4.591806980429183   0.12237779267710325   0.12547073485307225
-6.53898265707262   -0.3145601468891088   -0.24505399021298974
-6.53898265707262   -0.3145601468891088   -0.24505399021298974
-6.53898265707262   -0.3145601468891088   -0.24505399021298974
-6.53898265707262   -0.3145601468891088   -0.24505399021298974
-9.312688875360163   -0.3348201785181657   0.4250770726643061
-9.312688875360163   -0.3348201785181657   0.4250770726643061
-9.312688875360163   -0.3348201785181657   0.4250770726643061
-9.312688875360163   -0.3348201785181657   0.4250770726643061
-9.129013634566384   -0.6710482164414391   -0.3235145245801803
-9.129013634566384   -0.6710482164414391   -0.3235145245801803
-9.129013634566384   -0.6710482164414391   -0.3235145245801803
-9.129013634566384   -0.6710482164414391   -0.3235145245801803
-6.0603993248888335   0.5232585468431994   0.43150315305967657
-6.0603993248888335   0.5232585468431994   0.43150315305967657
-6.0603993248888335   0.5232585468431994   0.43150315305967657
-6.0603993248888335   0.5232585468431994   0.43150315305967657
-7.416339663985242   -0.0917831376911975   0.08441240949663081
-7.416339663985242   -0.0917831376911975   0.08441240949663081
-7.416339663985242   -0.0917831376911975   0.08441240949663081
-7.416339663985242   -0.0917831376911975   0.08441240949663081
-6.325851352993833   -0.10017711944609275   -0.27232132117600144
-6.325851352993833   -0.10017711944609275   -0.27232132117600144
-6.325851352993833   -0.10017711944609275   -0.27232132117600144
-6.325851352993833   -0.10017711944609275   -0.27232132117600144
-8.859430452334385   -0.04348139602519829   0.3968345661634849
-8.859430452334385   -0.04348139602519829   0.3968345661634849
-8.859430452334385   -0.04348139602519829   0.3968345661634849
-8.859430452334385   -0.04348139602519829   0.3968345661634849
-8.786638970172055   -0.5506157025208707   -0.38078133537752207
-8.786638970172055   -0.5506157025208707   -0.38078133537752207
-8.786638970172055   -0.5506157025208707   -0.38078133537752207
-8.786638970172055   -0.5506157025208707   -0.38078133537752207
-5.869499737860098   0.5975767262683893   0.34164350309964264
-5.869499737860098   0.5975767262683893   0.34164350309964264
-5.869499737860098   0.5975767262683893   0.34164350309964264
-5.869499737860098   0.5975767262683893   0.34164350309964264
-7.237344625741907   0.039568296529054026   0.15391778141794227
-7.237344625741907   0.039568296529054026   0.15391778141794227
-7.237344625741907   0.039568296529054026   0.15391778141794227
-7.237344625741907   0.039568296529054026   0.15391778141794227
-6.119872817266692   -0.0030293653310671242   -0.3096158023338674
-6.119872817266692   -0.0030293653310671242   -0.3096158023338674
-6.119872817266692   -0.0030293653310671242   -0.3096158023338674
-6.119872817266692   -0.0030293653310671242   -0.3096158023338674
-8.532200542871957   0.05405573697202448   0.28673936162992103
-8.532200542871957   0.05405573697202448   0.28673936162992103
-8.532200542871957   0.05405573697202448   0.28673936162992103
-8.532200542871957   0.05405573697202448   0.28673936162992103
-8.413139417090134   -0.4052992398553874   -0.4335701911988062
-8.413139417090134   -0.4052992398553874   -0.4335701911988062
-8.413139417090134   -0.4052992398553874   -0.4335701911988062
-8.413139417090134   -0.4052992398553874   -0.4335701911988062
-5.701384580130189   0.6685548036886775   0.29100569351792177
-5.701384580130189   0.6685548036886775   0.29100569351792177
-5.701384580130189   0.6685548036886775   0.29100569351792177
-5.701384580130189   0.6685548036886775   0.29100569351792177
-6.8615814604242935   0.14905519723581673   0.2582854208310836
-6.8615814604242935   0.14905519723581673   0.2582854208310836
-6.8615814604242935   0.14905519723581673   0.2582854208310836
-6.8615814604242935   0.14905519723581673   0.2582854208310836
8.246778380525326   0.6152854372460346   0.43998897494258704
8.246778380525326   0.6152854372460346   0.43998897494258704
8.246778380525326   0.6152854372460346   0.43998897494258704
8.246778380525326   0.6152854372460346   0.43998897494258704
3.6429127280175657   -0.9770757704682986   -0.20086048848841698
3.6429127280175657   -0.9770757704682986   -0.20086048848841698
3.6429127280175657   -0.9770757704682986   -0.20086048848841698
3.6429127280175657   -0.9770757704682986   -0.20086048848841698
4.0664376560202795   -0.16929042975525022   0.30272050816388296
4.0664376560202795   -0.16929042975525022   0.30272050816388296
4.0664376560202795   -0.16929042975525022   0.30272050816388296
4.0664376560202795   -0.16929042975525022   0.30272050816388296
8.340322273909   -0.021200962260570666   -0.31574819595102355
8.340322273909   -0.021200962260570666   -0.31574819595102355
8.340322273909   -0.021200962260570666   -0.31574819595102355
8.340322273909   -0.021200962260570666   -0.31574819595102355
5.718068414332593   -0.17573780594923982   -0.4493639525066431
5.718068414332593   -0.17573780594923982   -0.4493639525066431
5.718068414332593   -0.17573780594923982   -0.4493639525066431
5.718068414332593   -0.17573780594923982   -0.4493639525066431
8.63276357176929   0.7570684316497778   0.3681888994400122
8.63276357176929   0.7570684316497778   0.3681888994400122
8.63276357176929   0.7570684316497778   0.3681888994400122
8.63276357176929   0.7570684316497778   0.3681888994400122
3.80202566549286   -0.919530516332729   -0.2690993578956744
3.80202566549286   -0.919530516332729   -0.2690993578956744
3.80202566549286   -0.919530516332729   -0.2690993578956744
3.80202566549286   -0.919530516332729   -0.2690993578956744
4.233053327646797   -0.08018548959583427   0.24496346234048239
4.233053327646797   -0.08018548959583427   0.24496346234048239
4.233053327646797   -0.08018548959583427   0.24496346234048239
4.233053327646797   -0.08018548959583427   0.24496346234048239
8.630004572057535   0.0771490483785513   -0.3951506887659052
8.630004572057535   0.0771490483785513   -0.3951506887659052
8.630004572057535   0.0771490483785513   -0.3951506887659052
8.630004572057535   0.0771490483785513   -0.3951506887659052
6.080843221223736   -0.07041082537243337   -0.3052908418138896
6.080843221223736   -0.07041082537243337   -0.3052908418138896
6.080843221223736   -0.07041082537243337   -0.3052908418138896
6.080843221223736   -0.07041082537243337   -0.3052908418138896
8.920821350258723   0.8629932271518101   0.27308902346677755
8.920821350258723   0.8629932271518101   0.27308902346677755
8.920821350258723   0.8629932271518101   0.27308902346677755
8.920821350258723   0.8629932271518101   0.27308902346677755
3.9668251736638034   -0.8414410441508978   -0.32492175301941983
3.9668251736638034   -0.8414410441508978   -0.32492175301941983
3.9668251736638034   -0.8414410441508978   -0.32492175301941983
3.9668251736638034   -0.8414410441508978   -0.32492175301941983
4.3838554037040955   0.15744781042922007   0.2147646892705189
4.3838554037040955   0.15744781042922007   0.2147646892705189
4.3838554037040955   0.15744781042922007   0.2147646892705189
4.3838554037040955   0.15744781042922007   0.2147646892705189
8.9859209550658   0.36471152524103645   -0.4140250955316344
8.9859209550658   0.36471152524103645   -0.4140250955316344
8.9859209550658   0.36471152524103645   -0.4140250955316344
8.9859209550658   0.36471152524103645   -0.4140250955316344
6.218462477788562   0.07101471464854958   -0.20522235890397672
6.218462477788562   0.07101471464854958   -0.20522235890397672
6.218462477788562   0.07101471464854958   -0.20522235890397672
6.218462477788562   0.07101471464854958   -0.20522235890397672
4.030318716284299   0.35811573017431797   0.4009779522026006
4.030318716284299   0.35811573017431797   0.4009779522026006
4.030318716284299   0.35811573017431797   0.4009779522026006
4.030318716284299   0.35811573017431797   0.4009779522026006
-0.487969286459095   -1.206257239244985   -0.11402760831697689
-0.487969286459095   -1.206257239244985   -0.11402760831697689
-0.487969286459095   -1.206257239244985   -0.11402760831697689
-0.487969286459095   -1.206257239244985   -0.11402760831697689
-0.12214517541469061   -0.4231117560885043   0.10314652499313004
-0.12214517541469061   -0.4231117560885043   0.10314652499313004
-0.12214517541469061   -0.4231117560885043   0.10314652499313004
-0.12214517541469061   -0.4231117560885043   0.10314652499313004
3.9972755973503835   -0.23150621201054333   0.019125997069697642
3.9972755973503835   -0.23150621201054333   0.019125997069697642
3.9972755973503835   -0.23150621201054333   0.019125997069697642
3.9972755973503835   -0.23150621201054333   0.019125997069697642
1.8041764076569697   -0.33886201850751285   -0.21528837499385786
1.8041764076569697   -0.33886201850751285   -0.21528837499385786
1.8041764076569697   -0.33886201850751285   -0.21528837499385786
1.8041764076569697   -0.33886201850751285   -0.21528837499385786
4.209467897244523   0.49358150862557437   0.3549997759043095
4.209467897244523   0.49358150862557437   0.3549997759043095
4.209467897244523   0.49358150862557437   0.3549997759043095
4.209467897244523   0.49358150862557437   0.3549997759043095
-0.319674857471884   -1.1335368588876706   -0.17407678249367067
-0.319674857471884   -1.1335368588876706   -0.17407678249367067
-0.319674857471884   -1.1335368588876706   -0.17407678249367067
-0.319674857471884   -1.1335368588876706   -0.17407678249367067
0.04781424669715856   -0.2639845638919891   0.06328210547233959
0.04781424669715856   -0.2639845638919891   0.06328210547233959
0.04781424669715856   -0.2639845638919891   0.06328210547233959
0.04781424669715856   -0.2639845638919891   0.06328210547233959
4.171044402159725   -0.11156428949579134   -0.033702365194913764
4.171044402159725   -0.11156428949579134   -0.033702365194913764
4.171044402159725   -0.11156428949579134   -0.033702365194913764
4.171044402159725   -0.11156428949579134   -0.033702365194913764
1.9522053200361138   -0.24125393886758084   -0.13976826448352522
1.9522053200361138   -0.24125393886758084   -0.13976826448352522
1.9522053200361138   -0.24125393886758084   -0.13976826448352522
1.9522053200361138   -0.24125393886758084   -0.13976826448352522
4.394636429030399   0.6560517895106022   0.3166416901520559
4.394636429030399   0.6560517895106022   0.3166416901520559
4.394636429030399   0.6560517895106022   0.3166416901520559
4.394636429030399   0.6560517895106022   0.3166416901520559
-0.16715164594536774   -1.0229745086702362   -0.2525574129620447
-0.16715164594536774   -1.0229745086702362   -0.2525574129620447
-0.16715164594536774   -1.0229745086702362   -0.2525574129620447
-0.16715164594536774   -1.0229745086702362   -0.2525574129620447
0.1811640353561461   -0.07807774691714582   0.022944672931174907
0.1811640353561461   -0.07807774691714582   0.022944672931174907
0.1811640353561461   -0.07807774691714582   0.022944672931174907
0.1811640353561461   -0.07807774691714582   0.022944672931174907
4.301334525568438   0.04111648569142412   -0.08150837667003152
4.301334525568438   0.04111648569142412   -0.08150837667003152
4.301334525568438   0.04111648569142412   -0.08150837667003152
4.301334525568438   0.04111648569142412   -0.08150837667003152
2.1324060616566247   -0.0954369532670844   -0.05903767742866037
2.1324060616566247   -0.0954369532670844   -0.05903767742866037
2.1324060616566247   -0.0954369532670844   -0.05903767742866037
2.1324060616566247   -0.0954369532670844   -0.05903767742866037
-0.16461049456647245   0.09769441626723041   0.19881469563392062
-0.16461049456647245   0.09769441626723041   0.19881469563392062
-0.16461049456647245   0.09769441626723041   0.19881469563392062
-0.16461049456647245   0.09769441626723041   0.19881469563392062
-4.587432159610581   -1.5163341274572717   -0.09237261918893558
-4.587432159610581   -1.5163341274572717   -0.09237261918893558
-4.587432159610581   -1.5163341274572717   -0.09237261918893558
-4.587432159610581   -1.5163341274572717   -0.09237261918893558
-4.216072101401015   -0.649580774472401   -0.09629022765215303
-4.216072101401015   -0.649580774472401   -0.09629022765215303
-4.216072101401015   -0.649580774472401   -0.09629022765215303
-4.216072101401015   -0.649580774472401   -0.09629022765215303
-0.14674317248009014   -0.5320202322918275   0.08906501586945556
-0.14674317248009014   -0.5320202322918275   0.08906501586945556
-0.14674317248009014   -0.5320202322918275   0.08906501586945556
-0.14674317248009014   -0.5320202322918275   0.08906501586945556
-2.289298424014979   -0.6152553655672133   -0.19262743206554214
-2.289298424014979   -0.6152553655672133   -0.19262743206554214
-2.289298424014979   -0.6152553655672133   -0.19262743206554214
-2.289298424014979   -0.6152553655672133   -0.19262743206554214
0.024110928740854305   0.24998077918572809   0.16133451049662217
0.024110928740854305   0.24998077918572809   0.16133451049662217
0.024110928740854305   0.24998077918572809   0.16133451049662217
0.024110928740854305   0.24998077918572809   0.16133451049662217
-4.376378843435853   -1.4210344267638497   -0.1263702855348924
-4.376378843435853   -1.4210344267638497   -0.1263702855348924
-4.376378843435853   -1.4210344267638497   -0.1263702855348924
-4.376378843435853   -1.4210344267638497   -0.1263702855348924
-4.005363942186964   -0.47285902497628945   -0.13143628822320824
-4.005363942186964   -0.47285902497628945   -0.13143628822320824
-4.005363942186964   -0.47285902497628945   -0.13143628822320824
-4.005363942186964   -0.47285902497628945   -0.13143628822320824
0.01169370489121635   -0.41684122433820336   0.03553605688884284
0.01169370489121635   -0.41684122433820336   0.03553605688884284
0.01169370489121635   -0.41684122433820336   0.03553605688884284
0.01169370489121635   -0.41684122433820336   0.03553605688884284
-2.084754228903624   -0.48836584427667334   -0.10735544225016931
-2.084754228903624   -0.48836584427667334   -0.10735544225016931
-2.084754228903624   -0.48836584427667334   -0.10735544225016931
-2.084754228903624   -0.48836584427667334   -0.10735544225016931
0.19684649718707597   0.418968399457623   0.12549039457231465
0.19684649718707597   0.418968399457623   0.12549039457231465
0.19684649718707597   0.418968399457623   0.12549039457231465
0.19684649718707597   0.418968399457623   0.12549039457231465
-4.190821244330903   -1.308973158620191   -0.222608665298976
-4.190821244330903   -1.308973158620191   -0.222608665298976
-4.190821244330903   -1.308973158620191   -0.222608665298976
-4.190821244330903   -1.308973158620191   -0.222608665298976
-3.856519019829798   -0.30456262739791795   -0.17081344958600747
-3.856519019829798   -0.30456262739791795   -0.17081344958600747
-3.856519019829798   -0.30456262739791795   -0.17081344958600747
-3.856519019829798   -0.30456262739791795   -0.17081344958600747
0.11587042274231783   -0.3252025329705433   -0.05639860408456898
0.11587042274231783   -0.3252025329705433   -0.05639860408456898
0.11587042274231783   -0.3252025329705433   -0.05639860408456898
0.11587042274231783   -0.3252025329705433   -0.05639860408456898
-1.9346670557861818   -0.37022758087091634   -0.05425847267206199
-1.9346670557861818   -0.37022758087091634   -0.05425847267206199
-1.9346670557861818   -0.37022758087091634   -0.05425847267206199
-1.9346670557861818   -0.37022758087091634   -0.05425847267206199
-4.292785847330911   -0.12813196942019256   -0.00734321582769043
-4.292785847330911   -0.12813196942019256   -0.00734321582769043
-4.292785847330911   -0.12813196942019256   -0.00734321582769043
-4.292785847330911   -0.12813196942019256   -0.00734321582769043
-8.703510063114509   -1.6302417536164022   -0.07493142107794998
-8.703510063114509   -1.6302417536164022   -0.07493142107794998
-8.703510063114509   -1.6302417536164022   -0.07493142107794998
-8.703510063114509   -1.6302417536164022   -0.07493142107794998
-8.303377450778546   -0.8310378350508564   -0.28795174849707394
-8.303377450778546   -0.8310378350508564   -0.28795174849707394
-8.303377450778546   -0.8310378350508564   -0.28795174849707394
-8.303377450778546   -0.8310378350508564   -0.28795174849707394
-4.139351233995731   -0.5523142137697119   0.19004754867154655
-4.139351233995731   -0.5523142137697119   0.19004754867154655
-4.139351233995731   -0.5523142137697119   0.19004754867154655
-4.139351233995731   -0.5523142137697119   0.19004754867154655
-6.303701713372069   -0.7383382314811638   -0.1359430894426751
-6.303701713372069   -0.7383382314811638   -0.1359430894426751
-6.303701713372069   -0.7383382314811638   -0.1359430894426751
-6.303701713372069   -0.7383382314811638   -0.1359430894426751
-4.060043137191856   0.06839511762511519   -0.03412129870390582
-4.060043137191856   0.06839511762511519   -0.03412129870390582
-4.060043137191856   0.06839511762511519   -0.03412129870390582
-4.060043137191856   0.06839511762511519   -0.03412129870390582
-8.38642190124831   -1.4554835201115177   -0.07872831578515023
-8.38642190124831   -1.4554835201115177   -0.07872831578515023
-8.38642190124831   -1.4554835201115177   -0.07872831578515023
-8.38642190124831   -1.4554835201115177   -0.07872831578515023
-8.002545115062475   -0.6461969347226277   -0.33372030453903617
-8.002545115062475   -0.6461969347226277   -0.33372030453903617
-8.002545115062475   -0.6461969347226277   -0.33372030453903617
-8.002545115062475   -0.6461969347226277   -0.33372030453903617
-3.93445092675553   -0.41329368266353916   0.16356344662123434
-3.93445092675553   -0.41329368266353916   0.16356344662123434
-3.93445092675553   -0.41329368266353916   0.16356344662123434
-3.93445092675553   -0.41329368266353916   0.16356344662123434
-5.995147763940257   -0.5610247726978682   -0.045495044398245615
-5.995147763940257   -0.5610247726978682   -0.045495044398245615
-5.995147763940257   -0.5610247726978682   -0.045495044398245615
-5.995147763940257   -0.5610247726978682   -0.045495044398245615
-3.848766802536396   0.23920072141754856   -0.06051033636423381
-3.848766802536396   0.23920072141754856   -0.06051033636423381
-3.848766802536396   0.23920072141754856   -0.06051033636423381
-3.848766802536396   0.23920072141754856   -0.06051033636423381
-8.103055097110966   -1.313517196633113   -0.1689499528709529
-8.103055097110966   -1.313517196633113   -0.1689499528709529
-8.103055097110966   -1.313517196633113   -0.1689499528709529
-8.103055097110966   -1.313517196633113   -0.1689499528709529
-7.757838739042991   -0.45101596087960427   -0.34419929117829795
-7.757838739042991   -0.45101596087960427   -0.34419929117829795
-7.757838739042991   -0.45101596087960427   -0.34419929117829795
-7.757838739042991   -0.45101596087960427   -0.34419929117829795
-3.8166178021214234   -0.32491386942415146   0.04904388098212767
-3.8166178021214234   -0.32491386942415146   0.04904388098212767
-3.8166178021214234   -0.32491386942415146   0.04904388098212767
-3.8166178021214234   -0.32491386942415146   0.04904388098212767
-5.823255752816611   -0.45280529685702053   -0.01615929109816225
-5.823255752816611   -0.45280529685702053   -0.01615929109816225
-5.823255752816611   -0.45280529685702053   -0.01615929109816225
-5.823255752816611   -0.45280529685702053   -0.01615929109816225
-8.463407839447958   -0.2924264976173807   -0.21223555874421846
-8.463407839447958   -0.2924264976173807   -0.21223555874421846
-8.463407839447958   -0.2924264976173807   -0.21223555874421846
-8.463407839447958   -0.2924264976173807   -0.21223555874421846
-12.760372223181987   -1.0965376016616657   0.4887638221810429
-12.760372223181987   -1.0965376016616657   0.4887638221810429
-12.760372223181987   -1.0965376016616657   0.4887638221810429
-12.760372223181987   -1.0965376016616657   0.4887638221810429
-12.314964883366255   -0.8704562646988796   -0.28250534617305223
-12.314964883366255   -0.8704562646988796   -0.28250534617305223
-12.314964883366255   -0.8704562646988796   -0.28250534617305223
-12.314964883366255   -0.8704562646988796   -0.28250534617305223
-7.9449618938091096   0.22521803149398356   0.44787016980520394
-7.9449618938091096   0.22521803149398356   0.44787016980520394
-7.9449618938091096   0.22521803149398356   0.44787016980520394
-7.9449618938091096   0.22521803149398356   0.44787016980520394
-9.907613584630592   -0.34580834485797274   0.043958189208392784
-9.907613584630592   -0.34580834485797274   0.043958189208392784
-9.907613584630592   -0.34580834485797274   0.043958189208392784
-9.907613584630592   -0.34580834485797274   0.043958189208392784
-8.13145895823578   -0.024277862170783315   -0.23511925866328898
-8.13145895823578   -0.024277862170783315   -0.23511925866328898
-8.13145895823578   -0.024277862170783315   -0.23511925866328898
-8.13145895823578   -0.024277862170783315   -0.23511925866328898
-12.09836391176252   -0.5908564638569922   0.5208997110037352
-12.09836391176252   -0.5908564638569922   0.5208997110037352
-12.09836391176252   -0.5908564638569922   0.5208997110037352
-12.09836391176252   -0.5908564638569922   0.5208997110037352
-11.83758751158967   -0.7316558774937074   -0.3364317419812678
-11.83758751158967   -0.7316558774937074   -0.3364317419812678
-11.83758751158967   -0.7316558774937074   -0.3364317419812678
-11.83758751158967   -0.7316558774937074   -0.3364317419812678
-7.64715920180107   0.3639928324322983   0.4330194946130608
-7.64715920180107   0.3639928324322983   0.4330194946130608
-7.64715920180107   0.3639928324322983   0.4330194946130608
-7.64715920180107   0.3639928324322983   0.4330194946130608
-9.622726480659203   -0.13953823280236932   0.19637666533249842
-9.622726480659203   -0.13953823280236932   0.19637666533249842
-9.622726480659203   -0.13953823280236932   0.19637666533249842
-9.622726480659203   -0.13953823280236932   0.19637666533249842
-7.840424179670521   0.08433385402167404   -0.25364641632351137
-7.840424179670521   0.08433385402167404   -0.25364641632351137
-7.840424179670521   0.08433385402167404   -0.25364641632351137
-7.840424179670521   0.08433385402167404   -0.25364641632351137
-11.63844129141515   -0.44611565677806064   0.37375913817559103
-11.63844129141515   -0.44611565677806064   0.37375913817559103
-11.63844129141515   -0.44611565677806064   0.37375913817559103
-11.63844129141515   -0.44611565677806064   0.37375913817559103
-11.344209390501927   -0.5994854251534891   -0.4063706403211728
-11.344209390501927   -0.5994854251534891   -0.4063706403211728
-11.344209390501927   -0.5994854251534891   -0.4063706403211728
-11.344209390501927   -0.5994854251534891   -0.4063706403211728
-7.425311193455016   0.5317668405792584   0.33565563530270826
-7.425311193455016   0.5317668405792584   0.33565563530270826
-7.425311193455016   0.5317668405792584   0.33565563530270826
-7.425311193455016   0.5317668405792584   0.33565563530270826
-9.093974097640626   0.03717951122717045   0.34805692689123935
-9.093974097640626   0.03717951122717045   0.34805692689123935
-9.093974097640626   0.03717951122717045   0.34805692689123935
-9.093974097640626   0.03717951122717045   0.34805692689123935
11.286341155046056   0.6742928824799823   0.41255434922449796
11.286341155046056   0.6742928824799823   0.41255434922449796
11.286341155046056   0.6742928824799823   0.41255434922449796
11.286341155046056   0.6742928824799823   0.41255434922449796
5.3869318098073204   -1.0128889379697092   0.09577802377484534
5.3869318098073204   -1.0128889379697092   0.09577802377484534
5.3869318098073204   -1.0128889379697092   0.09577802377484534
5.3869318098073204   -1.0128889379697092   0.09577802377484534
5.687284416500463   -0.4249719728038639   0.31843460874104923
5.687284416500463   -0.4249719728038639   0.31843460874104923
5.687284416500463   -0.4249719728038639   0.31843460874104923
5.687284416500463   -0.4249719728038639   0.31843460874104923
11.347711369601031   0.08958808471383284   -0.0888772197862483
11.347711369601031   0.08958808471383284   -0.0888772197862483
11.347711369601031   0.08958808471383284   -0.0888772197862483
11.347711369601031   0.08958808471383284   -0.0888772197862483
7.938884443178833   -0.21955433516739586   -0.5298460607021918
7.938884443178833   -0.21955433516739586   -0.5298460607021918
7.938884443178833   -0.21955433516739586   -0.5298460607021918
7.938884443178833   -0.21955433516739586   -0.5298460607021918
11.56321655437688   0.751812408987147   0.3264243798196862
11.56321655437688   0.751812408987147   0.3264243798196862
11.56321655437688   0.751812408987147   0.3264243798196862
11.56321655437688   0.751812408987147   0.3264243798196862
5.523720358462598   -1.0352551703391935   0.11089751608705445
5.523720358462598   -1.0352551703391935   0.11089751608705445
5.523720358462598   -1.0352551703391935   0.11089751608705445
5.523720358462598   -1.0352551703391935   0.11089751608705445
5.8018135186635496   -0.3609439180688152   0.2425755323912463
5.8018135186635496   -0.3609439180688152   0.2425755323912463
5.8018135186635496   -0.3609439180688152   0.2425755323912463
5.8018135186635496   -0.3609439180688152   0.2425755323912463
11.548920689581765   0.1619045527737728   -0.02435888270064801
11.548920689581765   0.1619045527737728   -0.02435888270064801
11.548920689581765   0.1619045527737728   -0.02435888270064801
11.548920689581765   0.1619045527737728   -0.02435888270064801
8.268750652315621   -0.17412184822204502   -0.361292293357391
8.268750652315621   -0.17412184822204502   -0.361292293357391
8.268750652315621   -0.17412184822204502   -0.361292293357391
8.268750652315621   -0.17412184822204502   -0.361292293357391
11.731020250665493   0.8216591807930653   0.2263842946987068
11.731020250665493   0.8216591807930653   0.2263842946987068
11.731020250665493   0.8216591807930653   0.2263842946987068
11.731020250665493   0.8216591807930653   0.2263842946987068
5.655852374844214   -0.9845601288237151   0.1363860240494622
5.655852374844214   -0.9845601288237151   0.1363860240494622
5.655852374844214   -0.9845601288237151   0.1363860240494622
5.655852374844214   -0.9845601288237151   0.1363860240494622
5.970015078567091   -0.11131639957718287   0.22174115687597756
5.970015078567091   -0.11131639957718287   0.22174115687597756
5.970015078567091   -0.11131639957718287   0.22174115687597756
5.970015078567091   -0.11131639957718287   0.22174115687597756
11.757647918137252   0.3263450153868144   -0.0009095225346986702
11.757647918137252   0.3263450153868144   -0.0009095225346986702
11.757647918137252   0.3263450153868144   -0.0009095225346986702
11.757647918137252   0.3263450153868144   -0.0009095225346986702
8.311864046023842   -0.08171200859603478   -0.2691384956146377
8.311864046023842   -0.08171200859603478   -0.2691384956146377
8.311864046023842   -0.08171200859603478   -0.2691384956146377
8.311864046023842   -0.08171200859603478   -0.2691384956146377
5.683758397304758   0.13691518652470558   0.43010683676762235
5.683758397304758   0.13691518652470558   0.43010683676762235
5.683758397304758   0.13691518652470558   0.43010683676762235
5.683758397304758   0.13691518652470558   0.43010683676762235
0.31508388496996476   -2.026823649648599   0.2112914440777921
0.31508388496996476   -2.026823649648599   0.2112914440777921
0.31508388496996476   -2.026823649648599   0.2112914440777921
0.31508388496996476   -2.026823649648599   0.2112914440777921
0.7077982193797964   -0.8541160613319174   0.1955541284334149
0.7077982193797964   -0.8541160613319174   0.1955541284334149
0.7077982193797964   -0.8541160613319174   0.1955541284334149
0.7077982193797964   -0.8541160613319174   0.1955541284334149
5.537047920694658   -0.9884157305317942   0.1306958874398928
5.537047920694658   -0.9884157305317942   0.1306958874398928
5.537047920694658   -0.9884157305317942   0.1306958874398928
5.537047920694658   -0.9884157305317942   0.1306958874398928
2.961095209273716   -0.913503932877987   -0.3411156405744933
2.961095209273716   -0.913503932877987   -0.3411156405744933
2.961095209273716   -0.913503932877987   -0.3411156405744933
2.961095209273716   -0.913503932877987   -0.3411156405744933
5.820550732952717   0.20106871611302424   0.3587255020854476
5.820550732952717   0.20106871611302424   0.3587255020854476
5.820550732952717   0.20106871611302424   0.3587255020854476
5.820550732952717   0.20106871611302424   0.3587255020854476
0.49910823198561305   -1.9687876831129265   0.2667758132435225
0.49910823198561305   -1.9687876831129265   0.2667758132435225
0.49910823198561305   -1.9687876831129265   0.2667758132435225
0.49910823198561305   -1.9687876831129265   0.2667758132435225
0.8661529938419794   -0.7373363189698237   0.14232889575267138
0.8661529938419794   -0.7373363189698237   0.14232889575267138
0.8661529938419794   -0.7373363189698237   0.14232889575267138
0.8661529938419794   -0.7373363189698237   0.14232889575267138
5.672386003405441   -0.9276563675929836   0.16215040562486494
5.672386003405441   -0.9276563675929836   0.16215040562486494
5.672386003405441   -0.9276563675929836   0.16215040562486494
5.672386003405441   -0.9276563675929836   0.16215040562486494
3.0963837183675436   -0.8691150450078379   -0.17051707642663527
3.0963837183675436   -0.8691150450078379   -0.17051707642663527
3.0963837183675436   -0.8691150450078379   -0.17051707642663527
3.0963837183675436   -0.8691150450078379   -0.17051707642663527
5.948032640940417   0.31093273036723534   0.3017944953395295
5.948032640940417   0.31093273036723534   0.3017944953395295
5.948032640940417   0.31093273036723534   0.3017944953395295
5.948032640940417   0.31093273036723534   0.3017944953395295
0.6625224081896428   -1.9039093650474026   0.29074901356856775
0.6625224081896428   -1.9039093650474026   0.29074901356856775
0.6625224081896428   -1.9039093650474026   0.29074901356856775
0.6625224081896428   -1.9039093650474026   0.29074901356856775
1.1088958284242625   -0.5621043559106448   0.09482611246379968
1.1088958284242625   -0.5621043559106448   0.09482611246379968
1.1088958284242625   -0.5621043559106448   0.09482611246379968
1.1088958284242625   -0.5621043559106448   0.09482611246379968
5.820757974209803   -0.83511661181246   0.19925584732483126
5.820757974209803   -0.83511661181246   0.19925584732483126
5.820757974209803   -0.83511661181246   0.19925584732483126
5.820757974209803   -0.83511661181246   0.19925584732483126
3.3318912965167584   -0.7610519790893645   0.027825945775656502
3.3318912965167584   -0.7610519790893645   0.027825945775656502
3.3318912965167584   -0.7610519790893645   0.027825945775656502
3.3318912965167584   -0.7610519790893645   0.027825945775656502
0.6547793970730351   -0.39402351774491784   0.2769688726894626
0.6547793970730351   -0.39402351774491784   0.2769688726894626
0.6547793970730351   -0.39402351774491784   0.2769688726894626
0.6547793970730351   -0.39402351774491784   0.2769688726894626
-4.801023507336095   -3.488343146084435   0.30377037785060546
-4.801023507336095   -3.488343146084435   0.30377037785060546
-4.801023507336095   -3.488343146084435   0.30377037785060546
-4.801023507336095   -3.488343146084435   0.30377037785060546
-4.178928211554249   -1.3518242126018682   0.022230153393411584
-4.178928211554249   -1.3518242126018682   0.022230153393411584
-4.178928211554249   -1.3518242126018682   0.022230153393411584
-4.178928211554249   -1.3518242126018682   0.022230153393411584
0.3511915927767514   -2.554560651235484   0.11296558532177248
0.3511915927767514   -2.554560651235484   0.11296558532177248
0.3511915927767514   -2.554560651235484   0.11296558532177248
0.3511915927767514   -2.554560651235484   0.11296558532177248
-2.057359865618114   -1.9613014665794564   -0.40944820369026935
-2.057359865618114   -1.9613014665794564   -0.40944820369026935
-2.057359865618114   -1.9613014665794564   -0.40944820369026935
-2.057359865618114   -1.9613014665794564   -0.40944820369026935
0.8205898287906985   -0.31273951031696345   0.21813562447298726
0.8205898287906985   -0.31273951031696345   0.21813562447298726
0.8205898287906985   -0.31273951031696345   0.21813562447298726
0.8205898287906985   -0.31273951031696345   0.21813562447298726
-4.5404361696336055   -3.485755075585793   0.34862122598058554
-4.5404361696336055   -3.485755075585793   0.34862122598058554
-4.5404361696336055   -3.485755075585793   0.34862122598058554
-4.5404361696336055   -3.485755075585793   0.34862122598058554
-3.9390446860408153   -1.2135785704614597   0.0025877172045932206
-3.9390446860408153   -1.2135785704614597   0.0025877172045932206
-3.9390446860408153   -1.2135785704614597   0.0025877172045932206
-3.9390446860408153   -1.2135785704614597   0.0025877172045932206
0.5180055605915773   -2.500047837547055   0.16430324807789265
0.5180055605915773   -2.500047837547055   0.16430324807789265
0.5180055605915773   -2.500047837547055   0.16430324807789265
0.5180055605915773   -2.500047837547055   0.16430324807789265
-1.8147293600080492   -1.8959631383262698   -0.15365193663534654
-1.8147293600080492   -1.8959631383262698   -0.15365193663534654
-1.8147293600080492   -1.8959631383262698   -0.15365193663534654
-1.8147293600080492   -1.8959631383262698   -0.15365193663534654
0.9721662653356953   -0.20403511398065882   0.1390940482320865
0.9721662653356953   -0.20403511398065882   0.1390940482320865
0.9721662653356953   -0.20403511398065882   0.1390940482320865
0.9721662653356953   -0.20403511398065882   0.1390940482320865
-4.295477883026848   -3.41186378626972   0.4187069480827508
-4.295477883026848   -3.41186378626972   0.4187069480827508
-4.295477883026848   -3.41186378626972   0.4187069480827508
-4.295477883026848   -3.41186378626972   0.4187069480827508
-3.543286275062682   -1.054182874644676   -0.04214361465023207
-3.543286275062682   -1.054182874644676   -0.04214361465023207
-3.543286275062682   -1.054182874644676   -0.04214361465023207
-3.543286275062682   -1.054182874644676   -0.04214361465023207
0.7785035564309144   -2.3449722663665886   0.225732662952988
0.7785035564309144   -2.3449722663665886   0.225732662952988
0.7785035564309144   -2.3449722663665886   0.225732662952988
0.7785035564309144   -2.3449722663665886   0.225732662952988
-1.4994806711767743   -1.7472278332876836   0.11505437610317759
-1.4994806711767743   -1.7472278332876836   0.11505437610317759
-1.4994806711767743   -1.7472278332876836   0.11505437610317759
-1.4994806711767743   -1.7472278332876836   0.11505437610317759
-4.278502398141821   -0.703872817382313   0.1319055951198082
-4.278502398141821   -0.703872817382313   0.1319055951198082
-4.278502398141821   -0.703872817382313   0.1319055951198082
-4.278502398141821   -0.703872817382313   0.1319055951198082
-10.713936070897235   -5.439834657824614   -0.2632581616555367
-10.713936070897235   -5.439834657824614   -0.2632581616555367
-10.713936070897235   -5.439834657824614   -0.2632581616555367
-10.713936070897235   -5.439834657824614   -0.2632581616555367
-9.685992866326048   -1.7590916418432088   -0.29719795936561927
-9.685992866326048   -1.7590916418432088   -0.29719795936561927
-9.685992866326048   -1.7590916418432088   -0.29719795936561927
-9.685992866326048   -1.7590916418432088   -0.29719795936561927
-4.80732670971728   -4.559804097179053   0.08821754715544206
-4.80732670971728   -4.559804097179053   0.08821754715544206
-4.80732670971728   -4.559804097179053   0.08821754715544206
-4.80732670971728   -4.559804097179053   0.08821754715544206
-7.362847117141984   -3.216962465778086   -0.42936944744065547
-7.362847117141984   -3.216962465778086   -0.42936944744065547
-7.362847117141984   -3.216962465778086   -0.42936944744065547
-7.362847117141984   -3.216962465778086   -0.42936944744065547
-3.9948274186250026   -0.5360308161185594   0.1269407215563358
-3.9948274186250026   -0.5360308161185594   0.1269407215563358
-3.9948274186250026   -0.5360308161185594   0.1269407215563358
-3.9948274186250026   -0.5360308161185594   0.1269407215563358
-10.475587909459737   -5.759960674945071   -0.2443041419321923
-10.475587909459737   -5.759960674945071   -0.2443041419321923
-10.475587909459737   -5.759960674945071   -0.2443041419321923
-10.475587909459737   -5.759960674945071   -0.2443041419321923
-9.367486636723678   -1.5931066934927087   -0.30246589755646514
-9.367486636723678   -1.5931066934927087   -0.30246589755646514
-9.367486636723678   -1.5931066934927087   -0.30246589755646514
-9.367486636723678   -1.5931066934927087   -0.30246589755646514
-4.575334786991498   -4.5260282296970145   0.13358687168675676
-4.575334786991498   -4.5260282296970145   0.13358687168675676
-4.575334786991498   -4.5260282296970145   0.13358687168675676
-4.575334786991498   -4.5260282296970145   0.13358687168675676
-7.029906279091516   -3.1324237424807952   -0.3046458888456636
-7.029906279091516   -3.1324237424807952   -0.3046458888456636
-7.029906279091516   -3.1324237424807952   -0.3046458888456636
-7.029906279091516   -3.1324237424807952   -0.3046458888456636
-3.7692088980286735   -0.4044336240680344   0.04262171087190114
-3.7692088980286735   -0.4044336240680344   0.04262171087190114
-3.7692088980286735   -0.4044336240680344   0.04262171087190114
-3.7692088980286735   -0.4044336240680344   0.04262171087190114
-10.174378425796675   -5.715467199231847   -0.21456433718222856
-10.174378425796675   -5.715467199231847   -0.21456433718222856
-10.174378425796675   -5.715467199231847   -0.21456433718222856
-10.174378425796675   -5.715467199231847   -0.21456433718222856
-8.871391224341162   -1.4142292477735405   -0.34275958854508026
-8.871391224341162   -1.4142292477735405   -0.34275958854508026
-8.871391224341162   -1.4142292477735405   -0.34275958854508026
-8.871391224341162   -1.4142292477735405   -0.34275958854508026
-4.07354543074684   -4.077573719590278   0.3299514518746375
-4.07354543074684   -4.077573719590278   0.3299514518746375
-4.07354543074684   -4.077573719590278   0.3299514518746375
-4.07354543074684   -4.077573719590278   0.3299514518746375
-6.6573899246630415   -2.8437605878882835   -0.17378860723974437
-6.6573899246630415   -2.8437605878882835   -0.17378860723974437
-6.6573899246630415   -2.8437605878882835   -0.17378860723974437
-6.6573899246630415   -2.8437605878882835   -0.17378860723974437
-9.706574168666128   -0.5973228473830223   -0.06896046094159786
-9.706574168666128   -0.5973228473830223   -0.06896046094159786
-9.706574168666128   -0.5973228473830223   -0.06896046094159786
-9.706574168666128   -0.5973228473830223   -0.06896046094159786
-17.163228481654173   -3.397725249892269   0.17460223219283044
-17.163228481654173   -3.397725249892269   0.17460223219283044
-17.163228481654173   -3.397725249892269   0.17460223219283044
-17.163228481654173   -3.397725249892269   0.17460223219283044
-16.482620088109428   -1.644961757730773   -0.3653705820182604
-16.482620088109428   -1.644961757730773   -0.3653705820182604
-16.482620088109428   -1.644961757730773   -0.3653705820182604
-16.482620088109428   -1.644961757730773   -0.3653705820182604
-9.480956611180066   -1.7520108227765094   0.720902497297518
-9.480956611180066   -1.7520108227765094   0.720902497297518
-9.480956611180066   -1.7520108227765094   0.720902497297518
-9.480956611180066   -1.7520108227765094   0.720902497297518
-12.67252248923004   -1.9735407002126832   0.18583133608077262
-12.67252248923004   -1.9735407002126832   0.18583133608077262
-12.67252248923004   -1.9735407002126832   0.18583133608077262
-12.67252248923004   -1.9735407002126832   0.18583133608077262
-9.301291844320978   -0.13514907567177814   0.0023645844882638767
-9.301291844320978   -0.13514907567177814   0.0023645844882638767
-9.301291844320978   -0.13514907567177814   0.0023645844882638767
-9.301291844320978   -0.13514907567177814   0.0023645844882638767
-16.728057268690225   -3.327595918557229   0.09007767590407845
-16.728057268690225   -3.327595918557229   0.09007767590407845
-16.728057268690225   -3.327595918557229   0.09007767590407845
-16.728057268690225   -3.327595918557229   0.09007767590407845
-16.104822645437068   -1.5068623998015807   -0.463593222920086
-16.104822645437068   -1.5068623998015807   -0.463593222920086
-16.104822645437068   -1.5068623998015807   -0.463593222920086
-16.104822645437068   -1.5068623998015807   -0.463593222920086
-9.152967471974076   -1.6626573732125252   0.839680605911449
-9.152967471974076   -1.6626573732125252   0.839680605911449
-9.152967471974076   -1.6626573732125252   0.839680605911449
-9.152967471974076   -1.6626573732125252   0.839680605911449
-12.47067594767636   -1.624247288210996   0.17766898209273185
-12.47067594767636   -1.624247288210996   0.17766898209273185
-12.47067594767636   -1.624247288210996   0.17766898209273185
-12.47067594767636   -1.624247288210996   0.17766898209273185
-9.00897310952991   -0.01297903254344357   -0.09002592253680786
-9.00897310952991   -0.01297903254344357   -0.09002592253680786
-9.00897310952991   -0.01297903254344357   -0.09002592253680786
-9.00897310952991   -0.01297903254344357   -0.09002592253680786
-16.27381114826453   -3.1815348808539445   0.3661367439948098
-16.27381114826453   -3.1815348808539445   0.3661367439948098
-16.27381114826453   -3.1815348808539445   0.3661367439948098
-16.27381114826453   -3.1815348808539445   0.3661367439948098
-15.320590174869615   -1.2178224835376454   -0.5170120038672155
-15.320590174869615   -1.2178224835376454   -0.5170120038672155
-15.320590174869615   -1.2178224835376454   -0.5170120038672155
-15.320590174869615   -1.2178224835376454   -0.5170120038672155
-8.64349140013509   -1.5434968525705477   0.9260071372823515
-8.64349140013509   -1.5434968525705477   0.9260071372823515
-8.64349140013509   -1.5434968525705477   0.9260071372823515
-8.64349140013509   -1.5434968525705477   0.9260071372823515
-11.716793453412931   -1.240909606416419   0.3601235646143139
-11.716793453412931   -1.240909606416419   0.3601235646143139
-11.716793453412931   -1.240909606416419   0.3601235646143139
-11.716793453412931   -1.240909606416419   0.3601235646143139
12.361258394374222   0.39792050816023616   0.1754986698576705
12.361258394374222   0.39792050816023616   0.1754986698576705
12.361258394374222   0.39792050816023616   0.1754986698576705
12.361258394374222   0.39792050816023616   0.1754986698576705
6.322492676954337   -0.3285296643850262   0.1320719767580637
6.322492676954337   -0.3285296643850262   0.1320719767580637
6.322492676954337   -0.3285296643850262   0.1320719767580637
6.322492676954337   -0.3285296643850262   0.1320719767580637
6.072038697490675   -0.8965578833019763   0.25606561224506286
6.072038697490675   -0.8965578833019763   0.25606561224506286
6.072038697490675   -0.8965578833019763   0.25606561224506286
6.072038697490675   -0.8965578833019763   0.25606561224506286
12.271086571538051   0.6919002219519443   0.0966497153615935
12.271086571538051   0.6919002219519443   0.0966497153615935
12.271086571538051   0.6919002219519443   0.0966497153615935
12.271086571538051   0.6919002219519443   0.0966497153615935
8.763302403626126   -0.12632243338141302   -0.322959463278939
8.763302403626126   -0.12632243338141302   -0.322959463278939
8.763302403626126   -0.12632243338141302   -0.322959463278939
8.763302403626126   -0.12632243338141302   -0.322959463278939
12.201334349966805   0.3050382421964146   0.1347505872608884
12.201334349966805   0.3050382421964146   0.1347505872608884
12.201334349966805   0.3050382421964146   0.1347505872608884
12.201334349966805   0.3050382421964146   0.1347505872608884
6.121104269753427   -0.5303825528549411   0.13521814311179026
6.121104269753427   -0.5303825528549411   0.13521814311179026
6.121104269753427   -0.5303825528549411   0.13521814311179026
6.121104269753427   -0.5303825528549411   0.13521814311179026
5.91289562113929   -0.9179916289964023   0.212185276890951
5.91289562113929   -0.9179916289964023   0.212185276890951
5.91289562113929   -0.9179916289964023   0.212185276890951
5.91289562113929   -0.9179916289964023   0.212185276890951
12.12519318684091   0.6610845991034724   0.16536043051322447
12.12519318684091   0.6610845991034724   0.16536043051322447
12.12519318684091   0.6610845991034724   0.16536043051322447
12.12519318684091   0.6610845991034724   0.16536043051322447
8.734557348759921   -0.1743964832630489   -0.3755592529837972
8.734557348759921   -0.1743964832630489   -0.3755592529837972
8.734557348759921   -0.1743964832630489   -0.3755592529837972
8.734557348759921   -0.1743964832630489   -0.3755592529837972
12.021916890507894   0.26949023257452254   0.0405733153769714
12.021916890507894   0.26949023257452254   0.0405733153769714
12.021916890507894   0.26949023257452254   0.0405733153769714
12.021916890507894   0.26949023257452254   0.0405733153769714
5.9792615446691455   -0.5633076352706332   0.18933090081446335
5.9792615446691455   -0.5633076352706332   0.18933090081446335
5.9792615446691455   -0.5633076352706332   0.18933090081446335
5.9792615446691455   -0.5633076352706332   0.18933090081446335
5.744663398887376   -0.8394353469079723   0.18317318524124315
5.744663398887376   -0.8394353469079723   0.18317318524124315
5.744663398887376   -0.8394353469079723   0.18317318524124315
5.744663398887376   -0.8394353469079723   0.18317318524124315
11.899987116334168   0.6661829375453288   0.23628846908587647
11.899987116334168   0.6661829375453288   0.23628846908587647
11.899987116334168   0.6661829375453288   0.23628846908587647
11.899987116334168   0.6661829375453288   0.23628846908587647
8.40387016505036   -0.17666153074190483   -0.5085883702672149
8.40387016505036   -0.17666153074190483   -0.5085883702672149
8.40387016505036   -0.17666153074190483   -0.5085883702672149
8.40387016505036   -0.17666153074190483   -0.5085883702672149
6.260002108852246   -0.8182336660959861   0.30932313795857524
6.260002108852246   -0.8182336660959861   0.30932313795857524
6.260002108852246   -0.8182336660959861   0.30932313795857524
6.260002108852246   -0.8182336660959861   0.30932313795857524
1.2419463892661136   -0.7459801416282184   0.06945991479291913
1.2419463892661136   -0.7459801416282184   0.06945991479291913
1.2419463892661136   -0.7459801416282184   0.06945991479291913
1.2419463892661136   -0.7459801416282184   0.06945991479291913
0.8103390338044716   -1.8924533798364338   0.3372165278071265
0.8103390338044716   -1.8924533798364338   0.3372165278071265
0.8103390338044716   -1.8924533798364338   0.3372165278071265
0.8103390338044716   -1.8924533798364338   0.3372165278071265
6.2955396475741985   0.23718764633471956   0.23982483302598534
6.2955396475741985   0.23718764633471956   0.23982483302598534
6.2955396475741985   0.23718764633471956   0.23982483302598534
6.2955396475741985   0.23718764633471956   0.23982483302598534
3.595949771998528   -0.8080382775806465   -0.013279490480046952
3.595949771998528   -0.8080382775806465   -0.013279490480046952
3.595949771998528   -0.8080382775806465   -0.013279490480046952
3.595949771998528   -0.8080382775806465   -0.013279490480046952
6.081052386975535   -0.8540323162417722   0.2586084926091261
6.081052386975535   -0.8540323162417722   0.2586084926091261
6.081052386975535   -0.8540323162417722   0.2586084926091261
6.081052386975535   -0.8540323162417722   0.2586084926091261
0.9707169972419358   -0.8553427144211059   0.10199567957911981
0.9707169972419358   -0.8553427144211059   0.10199567957911981
0.9707169972419358   -0.8553427144211059   0.10199567957911981
0.9707169972419358   -0.8553427144211059   0.10199567957911981
0.6174529562367095   -1.910658957508789   0.3020705032145694
0.6174529562367095   -1.910658957508789   0.3020705032145694
0.6174529562367095   -1.910658957508789   0.3020705032145694
0.6174529562367095   -1.910658957508789   0.3020705032145694
6.1487256827530965   0.1887708497340621   0.2845731062295248
6.1487256827530965   0.1887708497340621   0.2845731062295248
6.1487256827530965   0.1887708497340621   0.2845731062295248
6.1487256827530965   0.1887708497340621   0.2845731062295248
3.3343907388689873   -0.8616596958706992   -0.17371231565416373
3.3343907388689873   -0.8616596958706992   -0.17371231565416373
3.3343907388689873   -0.8616596958706992   -0.17371231565416373
3.3343907388689873   -0.8616596958706992   -0.17371231565416373
5.923275414357732   -0.8672417031085051   0.21333431709520811
5.923275414357732   -0.8672417031085051   0.21333431709520811
5.923275414357732   -0.8672417031085051   0.21333431709520811
5.923275414357732   -0.8672417031085051   0.21333431709520811
0.7841514352692501   -0.9133981940290963   0.13830213489758003
0.7841514352692501   -0.9133981940290963   0.13830213489758003
0.7841514352692501   -0.9133981940290963   0.13830213489758003
0.7841514352692501   -0.9133981940290963   0.13830213489758003
0.40149947274817843   -1.9114106475747918   0.23704416997479705
0.40149947274817843   -1.9114106475747918   0.23704416997479705
0.40149947274817843   -1.9114106475747918   0.23704416997479705
0.40149947274817843   -1.9114106475747918   0.23704416997479705
5.98211096450496   0.19034446215458223   0.3406312042666633
5.98211096450496   0.19034446215458223   0.3406312042666633
5.98211096450496   0.19034446215458223   0.3406312042666633
5.98211096450496   0.19034446215458223   0.3406312042666633
3.1738158527598066   -0.8564310942775571   -0.31053479341045936
3.1738158527598066   -0.8564310942775571   -0.31053479341045936
3.1738158527598066   -0.8564310942775571   -0.31053479341045936
3.1738158527598066   -0.8564310942775571   -0.31053479341045936
0.9649301709330235   -2.340188958084071   0.27858763958330635
0.9649301709330235   -2.340188958084071   0.27858763958330635
0.9649301709330235   -2.340188958084071   0.27858763958330635
0.9649301709330235   -2.340188958084071   0.27858763958330635
-3.6403293507042864   -1.1613513994735554   0.006886716398009252
-3.6403293507042864   -1.1613513994735554   0.006886716398009252
-3.6403293507042864   -1.1613513994735554   0.006886716398009252
-3.6403293507042864   -1.1613513994735554   0.006886716398009252
-4.421203170166743   -3.454325110404443   0.38653805242047434
-4.421203170166743   -3.454325110404443   0.38653805242047434
-4.421203170166743   -3.454325110404443   0.38653805242047434
-4.421203170166743   -3.454325110404443   0.38653805242047434
1.1101367998705207   -0.20711837244876824   0.15087035074969057
1.1101367998705207   -0.20711837244876824   0.15087035074969057
1.1101367998705207   -0.20711837244876824   0.15087035074969057
1.1101367998705207   -0.20711837244876824   0.15087035074969057
-1.476075755223857   -1.7656233621383461   0.06578668435726326
-1.476075755223857   -1.7656233621383461   0.06578668435726326
-1.476075755223857   -1.7656233621383461   0.06578668435726326
-1.476075755223857   -1.7656233621383461   0.06578668435726326
0.6663514537375367   -2.474297288817065   0.19912253645308264
0.6663514537375367   -2.474297288817065   0.19912253645308264
0.6663514537375367   -2.474297288817065   0.19912253645308264
0.6663514537375367   -2.474297288817065   0.19912253645308264
-4.0528878233657135   -1.2626161933681037   0.03640586938924817
-4.0528878233657135   -1.2626161933681037   0.03640586938924817
-4.0528878233657135   -1.2626161933681037   0.03640586938924817
-4.0528878233657135   -1.2626161933681037   0.03640586938924817
-4.690325532274952   -3.5118914916895787   0.31341607023155915
-4.690325532274952   -3.5118914916895787   0.31341607023155915
-4.690325532274952   -3.5118914916895787   0.31341607023155915
-4.690325532274952   -3.5118914916895787   0.31341607023155915
0.9295127281973818   -0.26092746928773936   0.2126378747968823
0.9295127281973818   -0.26092746928773936   0.2126378747968823
0.9295127281973818   -0.26092746928773936   0.2126378747968823
0.9295127281973818   -0.26092746928773936   0.2126378747968823
-1.8121302459485618   -1.874167631784992   -0.1589790665145296
-1.8121302459485618   -1.874167631784992   -0.1589790665145296
-1.8121302459485618   -1.874167631784992   -0.1589790665145296
-1.8121302459485618   -1.874167631784992   -0.1589790665145296
0.460888720567051   -2.5188448180800345   0.12743518543752297
0.460888720567051   -2.5188448180800345   0.12743518543752297
0.460888720567051   -2.5188448180800345   0.12743518543752297
0.460888720567051   -2.5188448180800345   0.12743518543752297
-4.311093905803724   -1.343366524056433   0.04104923495452001
-4.311093905803724   -1.343366524056433   0.04104923495452001
-4.311093905803724   -1.343366524056433   0.04104923495452001
-4.311093905803724   -1.343366524056433   0.04104923495452001
-4.981449969971162   -3.4888879652583697   0.26610769489615804
-4.981449969971162   -3.4888879652583697   0.26610769489615804
-4.981449969971162   -3.4888879652583697   0.26610769489615804
-4.981449969971162   -3.4888879652583697   0.26610769489615804
0.7284187008283061   -0.29133797001212386   0.2515676328127826
0.7284187008283061   -0.29133797001212386   0.2515676328127826
0.7284187008283061   -0.29133797001212386   0.2515676328127826
0.7284187008283061   -0.29133797001212386   0.2515676328127826
-2.08438103864874   -1.915918944535035   -0.3826857736909448
-2.08438103864874   -1.915918944535035   -0.3826857736909448
-2.08438103864874   -1.915918944535035   -0.3826857736909448
-2.08438103864874   -1.915918944535035   -0.3826857736909448
-4.144582710871133   -4.0070488752251965   0.3313173913154486
-4.144582710871133   -4.0070488752251965   0.3313173913154486
-4.144582710871133   -4.0070488752251965   0.3313173913154486
-4.144582710871133   -4.0070488752251965   0.3313173913154486
-9.20461688188235   -1.4470685226421576   -0.21516249222302603
-9.20461688188235   -1.4470685226421576   -0.21516249222302603
-9.20461688188235   -1.4470685226421576   -0.21516249222302603
-9.20461688188235   -1.4470685226421576   -0.21516249222302603
-10.568127314558827   -5.79045169098233   -0.3042198170193986
-10.568127314558827   -5.79045169098233   -0.3042198170193986
-10.568127314558827   -5.79045169098233   -0.3042198170193986
-10.568127314558827   -5.79045169098233   -0.3042198170193986
-3.8487032466207505   -0.3356413811362209   0.13035394088218333
-3.8487032466207505   -0.3356413811362209   0.13035394088218333
-3.8487032466207505   -0.3356413811362209   0.13035394088218333
-3.8487032466207505   -0.3356413811362209   0.13035394088218333
-6.875707686663315   -2.7848658026777713   -0.24501265731283212
-6.875707686663315   -2.7848658026777713   -0.24501265731283212
-6.875707686663315   -2.7848658026777713   -0.24501265731283212
-6.875707686663315   -2.7848658026777713   -0.24501265731283212
-4.692418284422784   -4.532698706170064   0.1088360769058927
-4.692418284422784   -4.532698706170064   0.1088360769058927
-4.692418284422784   -4.532698706170064   0.1088360769058927
-4.692418284422784   -4.532698706170064   0.1088360769058927
-9.701881318573237   -1.5708634077649264   -0.19257812030885557
-9.701881318573237   -1.5708634077649264   -0.19257812030885557
-9.701881318573237   -1.5708634077649264   -0.19257812030885557
-9.701881318573237   -1.5708634077649264   -0.19257812030885557
-10.887733498070016   -5.885597469982413   -0.35186061866171636
-10.887733498070016   -5.885597469982413   -0.35186061866171636
-10.887733498070016   -5.885597469982413   -0.35186061866171636
-10.887733498070016   -5.885597469982413   -0.35186061866171636
-4.096182875121129   -0.42336019450060164   0.19559805881166564
-4.096182875121129   -0.42336019450060164   0.19559805881166564
-4.096182875121129   -0.42336019450060164   0.19559805881166564
-4.096182875121129   -0.42336019450060164   0.19559805881166564
-7.265713282558908   -3.0832119282032764   -0.3421272768666403
-7.265713282558908   -3.0832119282032764   -0.3421272768666403
-7.265713282558908   -3.0832119282032764   -0.3421272768666403
-7.265713282558908   -3.0832119282032764   -0.3421272768666403
-4.966673654618708   -4.622547153495984   0.0423311203191199
-4.966673654618708   -4.622547153495984   0.0423311203191199
-4.966673654618708   -4.622547153495984   0.0423311203191199
-4.966673654618708   -4.622547153495984   0.0423311203191199
-10.017081107078335   -1.6862488994929479   -0.1979472341928608
-10.017081107078335   -1.6862488994929479   -0.1979472341928608
-10.017081107078335   -1.6862488994929479   -0.1979472341928608
-10.017081107078335   -1.6862488994929479   -0.1979472341928608
-11.16094656516672   -5.6404178561366205   -0.3968680964371921
-11.16094656516672   -5.6404178561366205   -0.3968680964371921
-11.16094656516672   -5.6404178561366205   -0.3968680964371921
-11.16094656516672   -5.6404178561366205   -0.3968680964371921
-4.410188459544579   -0.5469802893725222   0.1805075711431313
-4.410188459544579   -0.5469802893725222   0.1805075711431313
-4.410188459544579   -0.5469802893725222   0.1805075711431313
-4.410188459544579   -0.5469802893725222   0.1805075711431313
-7.623695428215659   -3.1858078966073413   -0.43395199898946707
-7.623695428215659   -3.1858078966073413   -0.43395199898946707
-7.623695428215659   -3.1858078966073413   -0.43395199898946707
-7.623695428215659   -3.1858078966073413   -0.43395199898946707
-9.033662980985639   -1.6401874152279041   0.8327259048461184
-9.033662980985639   -1.6401874152279041   0.8327259048461184
-9.033662980985639   -1.6401874152279041   0.8327259048461184
-9.033662980985639   -1.6401874152279041   0.8327259048461184
-15.959312922638597   -1.2002424670045166   -0.2890786180241598
-15.959312922638597   -1.2002424670045166   -0.2890786180241598
-15.959312922638597   -1.2002424670045166   -0.2890786180241598
-15.959312922638597   -1.2002424670045166   -0.2890786180241598
-16.944940902134295   -3.3431533550122996   0.22917412707279983
-16.944940902134295   -3.3431533550122996   0.22917412707279983
-16.944940902134295   -3.3431533550122996   0.22917412707279983
-16.944940902134295   -3.3431533550122996   0.22917412707279983
-9.307482831999758   0.1290607354263349   0.07949016936718445
-9.307482831999758   0.1290607354263349   0.07949016936718445
-9.307482831999758   0.1290607354263349   0.07949016936718445
-9.307482831999758   0.1290607354263349   0.07949016936718445
-12.20113084810939   -1.1747771578010586   0.24646827741526278
-12.20113084810939   -1.1747771578010586   0.24646827741526278
-12.20113084810939   -1.1747771578010586   0.24646827741526278
-12.20113084810939   -1.1747771578010586   0.24646827741526278
-9.553879576912518   -1.762885399447137   0.7394525796768319
-9.553879576912518   -1.762885399447137   0.7394525796768319
-9.553879576912518   -1.762885399447137   0.7394525796768319
-9.553879576912518   -1.762885399447137   0.7394525796768319
-16.65441479887663   -1.4070778617938986   -0.25427084985711146
-16.65441479887663   -1.4070778617938986   -0.25427084985711146
-16.65441479887663   -1.4070778617938986   -0.25427084985711146
-16.65441479887663   -1.4070778617938986   -0.25427084985711146
-17.366598860736822   -3.487231316568878   -0.06955772210757072
-17.366598860736822   -3.487231316568878   -0.06955772210757072
-17.366598860736822   -3.487231316568878   -0.06955772210757072
-17.366598860736822   -3.487231316568878   -0.06955772210757072
-9.604508422548742   0.03133179042761203   0.1473354985345483
-9.604508422548742   0.03133179042761203   0.1473354985345483
-9.604508422548742   0.03133179042761203   0.1473354985345483
-9.604508422548742   0.03133179042761203   0.1473354985345483
-12.939114061710104   -1.5527149744556852   0.10271691638507424
-12.939114061710104   -1.5527149744556852   0.10271691638507424
-12.939114061710104   -1.5527149744556852   0.10271691638507424
-12.939114061710104   -1.5527149744556852   0.10271691638507424
-9.888211870428115   -1.8546769701438048   0.6148270197090917
-9.888211870428115   -1.8546769701438048   0.6148270197090917
-9.888211870428115   -1.8546769701438048   0.6148270197090917
-9.888211870428115   -1.8546769701438048   0.6148270197090917
-16.995355594634784   -1.5136827377747464   -0.1868899703912037
-16.995355594634784   -1.5136827377747464   -0.1868899703912037
-16.995355594634784   -1.5136827377747464   -0.1868899703912037
-16.995355594634784   -1.5136827377747464   -0.1868899703912037
-17.736884453855073   -3.5473032072515798   0.0003684175971745418
-17.736884453855073   -3.5473032072515798   0.0003684175971745418
-17.736884453855073   -3.5473032072515798   0.0003684175971745418
-17.736884453855073   -3.5473032072515798   0.0003684175971745418
-10.02090891214201   -0.3963622267860547   0.05926453933578546
-10.02090891214201   -0.3963622267860547   0.05926453933578546
-10.02090891214201   -0.3963622267860547   0.05926453933578546
-10.02090891214201   -0.3963622267860547   0.05926453933578546
-13.102268163925766   -1.8781869685518524   0.16256336992362086
-13.102268163925766   -1.8781869685518524   0.16256336992362086
-13.102268163925766   -1.8781869685518524   0.16256336992362086
-13.102268163925766   -1.8781869685518524   0.16256336992362086
10.795912182509689   0.49206958334118545   -0.2383512901662307
10.795912182509689   0.49206958334118545   -0.2383512901662307
10.795912182509689   0.49206958334118545   -0.2383512901662307
10.795912182509689   0.49206958334118545   -0.2383512901662307
5.442922013146534   -0.10406754892434233   0.11887998921281073
5.442922013146534   -0.10406754892434233   0.11887998921281073
5.442922013146534   -0.10406754892434233   0.11887998921281073
5.442922013146534   -0.10406754892434233   0.11887998921281073
5.0919667981099535   -0.8051240927424534   -0.20935208468229827
5.0919667981099535   -0.8051240927424534   -0.20935208468229827
5.0919667981099535   -0.8051240927424534   -0.20935208468229827
5.0919667981099535   -0.8051240927424534   -0.20935208468229827
10.669608081150173   0.7817314392816215   0.13908913910323117
10.669608081150173   0.7817314392816215   0.13908913910323117
10.669608081150173   0.7817314392816215   0.13908913910323117
10.669608081150173   0.7817314392816215   0.13908913910323117
7.580696940140797   0.01848653045778481   -0.29297014183112974
7.580696940140797   0.01848653045778481   -0.29297014183112974
7.580696940140797   0.01848653045778481   -0.29297014183112974
7.580696940140797   0.01848653045778481   -0.29297014183112974
10.491176027719197   0.2686001936348883   -0.23993988240483222
10.491176027719197   0.2686001936348883   -0.23993988240483222
10.491176027719197   0.2686001936348883   -0.23993988240483222
10.491176027719197   0.2686001936348883   -0.23993988240483222
5.260355431736353   -0.3020362669002914   0.12950325760748727
5.260355431736353   -0.3020362669002914   0.12950325760748727
5.260355431736353   -0.3020362669002914   0.12950325760748727
5.260355431736353   -0.3020362669002914   0.12950325760748727
4.903196683756049   -0.8508793336661298   -0.1724627302499232
4.903196683756049   -0.8508793336661298   -0.1724627302499232
4.903196683756049   -0.8508793336661298   -0.1724627302499232
4.903196683756049   -0.8508793336661298   -0.1724627302499232
10.40698162523055   0.7172101394827015   0.20228818839446272
10.40698162523055   0.7172101394827015   0.20228818839446272
10.40698162523055   0.7172101394827015   0.20228818839446272
10.40698162523055   0.7172101394827015   0.20228818839446272
7.475454419375395   -0.0773713324395735   -0.3512683742119047
7.475454419375395   -0.0773713324395735   -0.3512683742119047
7.475454419375395   -0.0773713324395735   -0.3512683742119047
7.475454419375395   -0.0773713324395735   -0.3512683742119047
10.227321159045303   0.2105644223599108   -0.18936842540897414
10.227321159045303   0.2105644223599108   -0.18936842540897414
10.227321159045303   0.2105644223599108   -0.18936842540897414
10.227321159045303   0.2105644223599108   -0.18936842540897414
5.069080600587619   -0.35801016589701407   0.16408768613881541
5.069080600587619   -0.35801016589701407   0.16408768613881541
5.069080600587619   -0.35801016589701407   0.16408768613881541
5.069080600587619   -0.35801016589701407   0.16408768613881541
4.720061820482303   -0.8406555404541414   -0.11797862505960682
4.720061820482303   -0.8406555404541414   -0.11797862505960682
4.720061820482303   -0.8406555404541414   -0.11797862505960682
4.720061820482303   -0.8406555404541414   -0.11797862505960682
10.081515211134079   0.67156167382322   0.2622260422408593
10.081515211134079   0.67156167382322   0.2622260422408593
10.081515211134079   0.67156167382322   0.2622260422408593
10.081515211134079   0.67156167382322   0.2622260422408593
7.102021677381628   -0.1354300925609564   -0.46236446347155336
7.102021677381628   -0.1354300925609564   -0.46236446347155336
7.102021677381628   -0.1354300925609564   -0.46236446347155336
7.102021677381628   -0.1354300925609564   -0.46236446347155336
5.468015575599882   0.09449813599248569   0.045782116562672004
5.468015575599882   0.09449813599248569   0.045782116562672004
5.468015575599882   0.09449813599248569   0.045782116562672004
5.468015575599882   0.09449813599248569   0.045782116562672004
0.542690284451442   -0.32451780100090794   -0.010593388521217134
0.542690284451442   -0.32451780100090794   -0.010593388521217134
0.542690284451442   -0.32451780100090794   -0.010593388521217134
0.542690284451442   -0.32451780100090794   -0.010593388521217134
0.2120291348705502   -1.0676509628784552   -0.20085770033624092
0.2120291348705502   -1.0676509628784552   -0.20085770033624092
0.2120291348705502   -1.0676509628784552   -0.20085770033624092
0.2120291348705502   -1.0676509628784552   -0.20085770033624092
5.475390503647177   0.6303792943029228   0.2722630559583926
5.475390503647177   0.6303792943029228   0.2722630559583926
5.475390503647177   0.6303792943029228   0.2722630559583926
5.475390503647177   0.6303792943029228   0.2722630559583926
2.870828998880735   -0.15258139742377885   -0.11509725189359005
2.870828998880735   -0.15258139742377885   -0.11509725189359005
2.870828998880735   -0.15258139742377885   -0.11509725189359005
2.870828998880735   -0.15258139742377885   -0.11509725189359005
5.3129546345351155   0.008998565051593133   0.08146443964943484
5.3129546345351155   0.008998565051593133   0.08146443964943484
5.3129546345351155   0.008998565051593133   0.08146443964943484
5.3129546345351155   0.008998565051593133   0.08146443964943484
0.38050949768651987   -0.440225739923214   0.014118890788365701
0.38050949768651987   -0.440225739923214   0.014118890788365701
0.38050949768651987   -0.440225739923214   0.014118890788365701
0.38050949768651987   -0.440225739923214   0.014118890788365701
0.0300264577484588   -1.1196858266665008   -0.13901105076865153
0.0300264577484588   -1.1196858266665008   -0.13901105076865153
0.0300264577484588   -1.1196858266665008   -0.13901105076865153
0.0300264577484588   -1.1196858266665008   -0.13901105076865153
5.275520984820223   0.5377798498337487   0.30049959157106915
5.275520984820223   0.5377798498337487   0.30049959157106915
5.275520984820223   0.5377798498337487   0.30049959157106915
5.275520984820223   0.5377798498337487   0.30049959157106915
2.6619491079939808   -0.23755394302498478   -0.16298765052413966
2.6619491079939808   -0.23755394302498478   -0.16298765052413966
2.6619491079939808   -0.23755394302498478   -0.16298765052413966
2.6619491079939808   -0.23755394302498478   -0.16298765052413966
5.122142110285917   -0.04931956021551054   0.12070462894884215
5.122142110285917   -0.04931956021551054   0.12070462894884215
5.122142110285917   -0.04931956021551054   0.12070462894884215
5.122142110285917   -0.04931956021551054   0.12070462894884215
0.1824700076068455   -0.5335217412931537   0.03704261314993462
0.1824700076068455   -0.5335217412931537   0.03704261314993462
0.1824700076068455   -0.5335217412931537   0.03704261314993462
0.1824700076068455   -0.5335217412931537   0.03704261314993462
-0.16554457688752466   -1.1261503882529575   -0.09418750637855028
-0.16554457688752466   -1.1261503882529575   -0.09418750637855028
-0.16554457688752466   -1.1261503882529575   -0.09418750637855028
-0.16554457688752466   -1.1261503882529575   -0.09418750637855028
5.0738936048251935   0.4782270300291612   0.3322977261715653
5.0738936048251935   0.4782270300291612   0.3322977261715653
5.0738936048251935   0.4782270300291612   0.3322977261715653
5.0738936048251935   0.4782270300291612   0.3322977261715653
2.497482079919373   -0.2723624588282264   -0.2045263437163483
2.497482079919373   -0.2723624588282264   -0.2045263437163483
2.497482079919373   -0.2723624588282264   -0.2045263437163483
2.497482079919373   -0.2723624588282264   -0.2045263437163483
0.5484594116879187   -0.32185341745222035   0.015587864112479755
0.5484594116879187   -0.32185341745222035   0.015587864112479755
0.5484594116879187   -0.32185341745222035   0.015587864112479755
0.5484594116879187   -0.32185341745222035   0.015587864112479755
-4.192020632673195   -0.4855979047107172   -0.1322177936182266
-4.192020632673195   -0.4855979047107172   -0.1322177936182266
-4.192020632673195   -0.4855979047107172   -0.1322177936182266
-4.192020632673195   -0.4855979047107172   -0.1322177936182266
-4.5596053822994005   -1.4168547094145323   -0.22806915190920884
-4.5596053822994005   -1.4168547094145323   -0.22806915190920884
-4.5596053822994005   -1.4168547094145323   -0.22806915190920884
-4.5596053822994005   -1.4168547094145323   -0.22806915190920884
0.5888538953720373   0.4600602045247125   0.155554934768026
0.5888538953720373   0.4600602045247125   0.155554934768026
0.5888538953720373   0.4600602045247125   0.155554934768026
0.5888538953720373   0.4600602045247125   0.155554934768026
-1.9094404952607034   -0.41987490386505   -0.11464027960042739
-1.9094404952607034   -0.41987490386505   -0.11464027960042739
-1.9094404952607034   -0.41987490386505   -0.11464027960042739
-1.9094404952607034   -0.41987490386505   -0.11464027960042739
0.41181235847114006   -0.3590631999341099   0.0894706547223629
0.41181235847114006   -0.3590631999341099   0.0894706547223629
0.41181235847114006   -0.3590631999341099   0.0894706547223629
0.41181235847114006   -0.3590631999341099   0.0894706547223629
-4.369119390707536   -0.5842868502647025   -0.1082070530997206
-4.369119390707536   -0.5842868502647025   -0.1082070530997206
-4.369119390707536   -0.5842868502647025   -0.1082070530997206
-4.369119390707536   -0.5842868502647025   -0.1082070530997206
-4.773182343737443   -1.4739791852461734   -0.14992563306070866
-4.773182343737443   -1.4739791852461734   -0.14992563306070866
-4.773182343737443   -1.4739791852461734   -0.14992563306070866
-4.773182343737443   -1.4739791852461734   -0.14992563306070866
0.3891479920892969   0.3608492138462286   0.17606158042280964
0.3891479920892969   0.3608492138462286   0.17606158042280964
0.3891479920892969   0.3608492138462286   0.17606158042280964
0.3891479920892969   0.3608492138462286   0.17606158042280964
-2.085987203321024   -0.4793069670380066   -0.13763601540336917
-2.085987203321024   -0.4793069670380066   -0.13763601540336917
-2.085987203321024   -0.4793069670380066   -0.13763601540336917
-2.085987203321024   -0.4793069670380066   -0.13763601540336917
0.22273811936247617   -0.41986473323925844   0.12472616387419277
0.22273811936247617   -0.41986473323925844   0.12472616387419277
0.22273811936247617   -0.41986473323925844   0.12472616387419277
0.22273811936247617   -0.41986473323925844   0.12472616387419277
-4.604027208835326   -0.690519975985435   -0.08760916781088579
-4.604027208835326   -0.690519975985435   -0.08760916781088579
-4.604027208835326   -0.690519975985435   -0.08760916781088579
-4.604027208835326   -0.690519975985435   -0.08760916781088579
-5.010321234581844   -1.5160667383902853   -0.13333627366787434
-5.010321234581844   -1.5160667383902853   -0.13333627366787434
-5.010321234581844   -1.5160667383902853   -0.13333627366787434
-5.010321234581844   -1.5160667383902853   -0.13333627366787434
0.17315803980435784   0.27607551748319725   0.19709967134470724
0.17315803980435784   0.27607551748319725   0.19709967134470724
0.17315803980435784   0.27607551748319725   0.19709967134470724
0.17315803980435784   0.27607551748319725   0.19709967134470724
-2.315532395203479   -0.5504804287450766   -0.19283827420572613
-2.315532395203479   -0.5504804287450766   -0.19283827420572613
-2.315532395203479   -0.5504804287450766   -0.19283827420572613
-2.315532395203479   -0.5504804287450766   -0.19283827420572613
-4.130477709282523   -0.376023671627264   0.06592259025161401
-4.130477709282523   -0.376023671627264   0.06592259025161401
-4.130477709282523   -0.376023671627264   0.06592259025161401
-4.130477709282523   -0.376023671627264   0.06592259025161401
-8.807621138242437   -0.5680055092825957   -0.23417711637044447
-8.807621138242437   -0.5680055092825957   -0.23417711637044447
-8.807621138242437   -0.5680055092825957   -0.23417711637044447
-8.807621138242437   -0.5680055092825957   -0.23417711637044447
-9.225956911175786   -1.4824648551399178   -0.22650976458126515
-9.225956911175786   -1.4824648551399178   -0.22650976458126515
-9.225956911175786   -1.4824648551399178   -0.22650976458126515
-9.225956911175786   -1.4824648551399178   -0.22650976458126515
-4.152048010849991   0.3499722368622392   0.04289075906100542
-4.152048010849991   0.3499722368622392   0.04289075906100542
-4.152048010849991   0.3499722368622392   0.04289075906100542
-4.152048010849991   0.3499722368622392   0.04289075906100542
-6.524561110124872   -0.4950150285713075   -0.09712294182791759
-6.524561110124872   -0.4950150285713075   -0.09712294182791759
-6.524561110124872   -0.4950150285713075   -0.09712294182791759
-6.524561110124872   -0.4950150285713075   -0.09712294182791759
-4.281929802053077   -0.4163888936812947   0.15984293358914037
-4.281929802053077   -0.4163888936812947   0.15984293358914037
-4.281929802053077   -0.4163888936812947   0.15984293358914037
-4.281929802053077   -0.4163888936812947   0.15984293358914037
-9.06953601822992   -0.6895646228536154   -0.23730553213833744
-9.06953601822992   -0.6895646228536154   -0.23730553213833744
-9.06953601822992   -0.6895646228536154   -0.23730553213833744
-9.06953601822992   -0.6895646228536154   -0.23730553213833744
-9.521803419591372   -1.579251965571753   -0.1582402520738478
-9.521803419591372   -1.579251965571753   -0.1582402520738478
-9.521803419591372   -1.579251965571753   -0.1582402520738478
-9.521803419591372   -1.579251965571753   -0.1582402520738478
-4.389567603931699   0.24134017201118763   0.052828708710624894
-4.389567603931699   0.24134017201118763   0.052828708710624894
-4.389567603931699   0.24134017201118763   0.052828708710624894
-4.389567603931699   0.24134017201118763   0.052828708710624894
-6.7125994109740015   -0.5492144342592804   -0.09780009999835965
-6.7125994109740015   -0.5492144342592804   -0.09780009999835965
-6.7125994109740015   -0.5492144342592804   -0.09780009999835965
-6.7125994109740015   -0.5492144342592804   -0.09780009999835965
-4.518029841837887   -0.5137313844734286   0.16558907566428854
-4.518029841837887   -0.5137313844734286   0.16558907566428854
-4.518029841837887   -0.5137313844734286   0.16558907566428854
-4.518029841837887   -0.5137313844734286   0.16558907566428854
-9.375590515768334   -0.8064297431703304   -0.1999979553600833
-9.375590515768334   -0.8064297431703304   -0.1999979553600833
-9.375590515768334   -0.8064297431703304   -0.1999979553600833
-9.375590515768334   -0.8064297431703304   -0.1999979553600833
-9.85687757531475   -1.7064072670244719   -0.1699382013464458
-9.85687757531475   -1.7064072670244719   -0.1699382013464458
-9.85687757531475   -1.7064072670244719   -0.1699382013464458
-9.85687757531475   -1.7064072670244719   -0.1699382013464458
-4.646193983983948   0.10764314047897106   0.06359010045227087
-4.646193983983948   0.10764314047897106   0.06359010045227087
-4.646193983983948   0.10764314047897106   0.06359010045227087
-4.646193983983948   0.10764314047897106   0.06359010045227087
-7.043552789675478   -0.6788873741396672   -0.1579741650643872
-7.043552789675478   -0.6788873741396672   -0.1579741650643872
-7.043552789675478   -0.6788873741396672   -0.1579741650643872
-7.043552789675478   -0.6788873741396672   -0.1579741650643872
-8.506702228510393   0.40714815002282667   0.2952637729843528
-8.506702228510393   0.40714815002282667   0.2952637729843528
-8.506702228510393   0.40714815002282667   0.2952637729843528
-8.506702228510393   0.40714815002282667   0.2952637729843528
-13.194607319011036   -0.6578508869670903   -0.18067057969202638
-13.194607319011036   -0.6578508869670903   -0.18067057969202638
-13.194607319011036   -0.6578508869670903   -0.18067057969202638
-13.194607319011036   -0.6578508869670903   -0.18067057969202638
-13.524969797492371   -0.6695489494421114   0.3039287105175664
-13.524969797492371   -0.6695489494421114   0.3039287105175664
-13.524969797492371   -0.6695489494421114   0.3039287105175664
-13.524969797492371   -0.6695489494421114   0.3039287105175664
-8.844785817560961   0.2707414989420518   -0.07386065058921376
-8.844785817560961   0.2707414989420518   -0.07386065058921376
-8.844785817560961   0.2707414989420518   -0.07386065058921376
-8.844785817560961   0.2707414989420518   -0.07386065058921376
-10.504616765603188   0.009339219388348141   0.26589392332680994
-10.504616765603188   0.009339219388348141   0.26589392332680994
-10.504616765603188   0.009339219388348141   0.26589392332680994
-10.504616765603188   0.009339219388348141   0.26589392332680994
-8.75000496000402   0.29901275264962535   0.3717723834878982
-8.75000496000402   0.29901275264962535   0.3717723834878982
-8.75000496000402   0.29901275264962535   0.3717723834878982
-8.75000496000402   0.29901275264962535   0.3717723834878982
-13.613688567499281   -0.6917581155996979   -0.11745597335939739
-13.613688567499281   -0.6917581155996979   -0.11745597335939739
-13.613688567499281   -0.6917581155996979   -0.11745597335939739
-13.613688567499281   -0.6917581155996979   -0.11745597335939739
-13.942666440441107   -0.7831958687708513   0.4128552204345963
-13.942666440441107   -0.7831958687708513   0.4128552204345963
-13.942666440441107   -0.7831958687708513   0.4128552204345963
-13.942666440441107   -0.7831958687708513   0.4128552204345963
-9.1509735954274   0.19361418848441447   -0.07695728531022739
-9.1509735954274   0.19361418848441447   -0.07695728531022739
-9.1509735954274   0.19361418848441447   -0.07695728531022739
-9.1509735954274   0.19361418848441447   -0.07695728531022739
-11.040507854506293   -0.1239943654297071   0.14296074617264887
-11.040507854506293   -0.1239943654297071   0.14296074617264887
-11.040507854506293   -0.1239943654297071   0.14296074617264887
-11.040507854506293   -0.1239943654297071   0.14296074617264887
-9.06437076719364   0.18318869221693368   0.3664823521260545
-9.06437076719364   0.18318869221693368   0.3664823521260545
-9.06437076719364   0.18318869221693368   0.3664823521260545
-9.06437076719364   0.18318869221693368   0.3664823521260545
-14.045572228059966   -0.7890733318884684   -0.09579625454207785
-14.045572228059966   -0.7890733318884684   -0.09579625454207785
-14.045572228059966   -0.7890733318884684   -0.09579625454207785
-14.045572228059966   -0.7890733318884684   -0.09579625454207785
-14.53570560485589   -1.239186623095922   0.3599392505003277
-14.53570560485589   -1.239186623095922   0.3599392505003277
-14.53570560485589   -1.239186623095922   0.3599392505003277
-14.53570560485589   -1.239186623095922   0.3599392505003277
-9.50395389383051   -0.039451982176176514   -0.07227507877369066
-9.50395389383051   -0.039451982176176514   -0.07227507877369066
-9.50395389383051   -0.039451982176176514   -0.07227507877369066
-9.50395389383051   -0.039451982176176514   -0.07227507877369066
-11.27334530003072   -0.29106615462475016   0.03363357233557818
-11.27334530003072   -0.29106615462475016   0.03363357233557818
-11.27334530003072   -0.29106615462475016   0.03363357233557818
-11.27334530003072   -0.29106615462475016   0.03363357233557818
8.715176214635639   0.4635193636663719   -0.3154396493227254
8.715176214635639   0.4635193636663719   -0.3154396493227254
8.715176214635639   0.4635193636663719   -0.3154396493227254
8.715176214635639   0.4635193636663719   -0.3154396493227254
4.327919513175856   0.0007105334551577025   0.11563056940981814
4.327919513175856   0.0007105334551577025   0.11563056940981814
4.327919513175856   0.0007105334551577025   0.11563056940981814
4.327919513175856   0.0007105334551577025   0.11563056940981814
3.9504111052633784   -0.6475911669085141   -0.28832691596065163
3.9504111052633784   -0.6475911669085141   -0.28832691596065163
3.9504111052633784   -0.6475911669085141   -0.28832691596065163
3.9504111052633784   -0.6475911669085141   -0.28832691596065163
8.548507943094195   0.7071460729179837   0.14484516936293396
8.548507943094195   0.7071460729179837   0.14484516936293396
8.548507943094195   0.7071460729179837   0.14484516936293396
8.548507943094195   0.7071460729179837   0.14484516936293396
6.055383785977848   0.053722864783691815   -0.19915100457696627
6.055383785977848   0.053722864783691815   -0.19915100457696627
6.055383785977848   0.053722864783691815   -0.19915100457696627
6.055383785977848   0.053722864783691815   -0.19915100457696627
8.363855724787427   0.23209097528154832   -0.30336082453438906
8.363855724787427   0.23209097528154832   -0.30336082453438906
8.363855724787427   0.23209097528154832   -0.30336082453438906
8.363855724787427   0.23209097528154832   -0.30336082453438906
4.127049709031911   -0.18054968381031244   0.1278246197837371
4.127049709031911   -0.18054968381031244   0.1278246197837371
4.127049709031911   -0.18054968381031244   0.1278246197837371
4.127049709031911   -0.18054968381031244   0.1278246197837371
3.761548072152019   -0.7024004177060015   -0.25033104447052157
3.761548072152019   -0.7024004177060015   -0.25033104447052157
3.761548072152019   -0.7024004177060015   -0.25033104447052157
3.761548072152019   -0.7024004177060015   -0.25033104447052157
8.265854451902799   0.6320576063062806   0.19732601709635628
8.265854451902799   0.6320576063062806   0.19732601709635628
8.265854451902799   0.6320576063062806   0.19732601709635628
8.265854451902799   0.6320576063062806   0.19732601709635628
5.905779823950725   -0.044518310504308545   -0.2631445382088121
5.905779823950725   -0.044518310504308545   -0.2631445382088121
5.905779823950725   -0.044518310504308545   -0.2631445382088121
5.905779823950725   -0.044518310504308545   -0.2631445382088121
8.085243819693352   0.1647258609728992   -0.2383953986173506
8.085243819693352   0.1647258609728992   -0.2383953986173506
8.085243819693352   0.1647258609728992   -0.2383953986173506
8.085243819693352   0.1647258609728992   -0.2383953986173506
3.9350571263305985   -0.24217025040346962   0.15698405911980368
3.9350571263305985   -0.24217025040346962   0.15698405911980368
3.9350571263305985   -0.24217025040346962   0.15698405911980368
3.9350571263305985   -0.24217025040346962   0.15698405911980368
3.5888605935648936   -0.7202972026625567   -0.20441372261883828
3.5888605935648936   -0.7202972026625567   -0.20441372261883828
3.5888605935648936   -0.7202972026625567   -0.20441372261883828
3.5888605935648936   -0.7202972026625567   -0.20441372261883828
7.947201570948552   0.5649730145298963   0.2448914402865483
7.947201570948552   0.5649730145298963   0.2448914402865483
7.947201570948552   0.5649730145298963   0.2448914402865483
7.947201570948552   0.5649730145298963   0.2448914402865483
5.562994130415848   -0.11270482420683359   -0.3581218201118141
5.562994130415848   -0.11270482420683359   -0.3581218201118141
5.562994130415848   -0.11270482420683359   -0.3581218201118141
5.562994130415848   -0.11270482420683359   -0.3581218201118141
4.399660301831351   0.453336574506506   0.021708471635943888
4.399660301831351   0.453336574506506   0.021708471635943888
4.399660301831351   0.453336574506506   0.021708471635943888
4.399660301831351   0.453336574506506   0.021708471635943888
0.1613238579757036   -0.14045349478484564   -0.016574558673265228
0.1613238579757036   -0.14045349478484564   -0.016574558673265228
0.1613238579757036   -0.14045349478484564   -0.016574558673265228
0.1613238579757036   -0.14045349478484564   -0.016574558673265228
-0.12316225633954862   -0.5828707668561954   -0.19543448985047274
-0.12316225633954862   -0.5828707668561954   -0.19543448985047274
-0.12316225633954862   -0.5828707668561954   -0.19543448985047274
-0.12316225633954862   -0.5828707668561954   -0.19543448985047274
4.313562852147966   0.6393529342004081   0.2404877173532901
4.313562852147966   0.6393529342004081   0.2404877173532901
4.313562852147966   0.6393529342004081   0.2404877173532901
4.313562852147966   0.6393529342004081   0.2404877173532901
2.153809217714859   0.09100119930191508   -0.025217583583339698
2.153809217714859   0.09100119930191508   -0.025217583583339698
2.153809217714859   0.09100119930191508   -0.025217583583339698
2.153809217714859   0.09100119930191508   -0.025217583583339698
4.213629692880826   0.3330079100013147   0.04716694521670303
4.213629692880826   0.3330079100013147   0.04716694521670303
4.213629692880826   0.3330079100013147   0.04716694521670303
4.213629692880826   0.3330079100013147   0.04716694521670303
-0.02149344298513299   -0.2747900885698231   0.004828898635233184
-0.02149344298513299   -0.2747900885698231   0.004828898635233184
-0.02149344298513299   -0.2747900885698231   0.004828898635233184
-0.02149344298513299   -0.2747900885698231   0.004828898635233184
-0.3020900459943583   -0.6715765089958486   -0.16867117176233687
-0.3020900459943583   -0.6715765089958486   -0.16867117176233687
-0.3020900459943583   -0.6715765089958486   -0.16867117176233687
-0.3020900459943583   -0.6715765089958486   -0.16867117176233687
4.110910833202685   0.5278129680806766   0.2662693749960898
4.110910833202685   0.5278129680806766   0.2662693749960898
4.110910833202685   0.5278129680806766   0.2662693749960898
4.110910833202685   0.5278129680806766   0.2662693749960898
1.9357617461765735   -0.01872573508020342   -0.08764828741031809
1.9357617461765735   -0.01872573508020342   -0.08764828741031809
1.9357617461765735   -0.01872573508020342   -0.08764828741031809
1.9357617461765735   -0.01872573508020342   -0.08764828741031809
4.01467410891819   0.24007525055832857   0.07282347109600112
4.01467410891819   0.24007525055832857   0.07282347109600112
4.01467410891819   0.24007525055832857   0.07282347109600112
4.01467410891819   0.24007525055832857   0.07282347109600112
-0.20566703179450033   -0.3836525015580905   0.025519891799194824
-0.20566703179450033   -0.3836525015580905   0.025519891799194824
-0.20566703179450033   -0.3836525015580905   0.025519891799194824
-0.20566703179450033   -0.3836525015580905   0.025519891799194824
-0.4792836083662253   -0.7256132397923389   -0.1337264097445166
-0.4792836083662253   -0.7256132397923389   -0.1337264097445166
-0.4792836083662253   -0.7256132397923389   -0.1337264097445166
-0.4792836083662253   -0.7256132397923389   -0.1337264097445166
3.918189909964284   0.43324249232356543   0.28869316439194775
3.918189909964284   0.43324249232356543   0.28869316439194775
3.918189909964284   0.43324249232356543   0.28869316439194775
3.918189909964284   0.43324249232356543   0.28869316439194775
1.7737199012377816   -0.08961167223994765   -0.13389852198238272
1.7737199012377816   -0.08961167223994765   -0.13389852198238272
1.7737199012377816   -0.08961167223994765   -0.13389852198238272
1.7737199012377816   -0.08961167223994765   -0.13389852198238272
0.30442771389042955   0.45986130712396395   0.09862991899155477
0.30442771389042955   0.45986130712396395   0.09862991899155477
0.30442771389042955   0.45986130712396395   0.09862991899155477
0.30442771389042955   0.45986130712396395   0.09862991899155477
-3.8745123240757424   -0.24827947115255655   -0.13363906343111412
-3.8745123240757424   -0.24827947115255655   -0.13363906343111412
-3.8745123240757424   -0.24827947115255655   -0.13363906343111412
-3.8745123240757424   -0.24827947115255655   -0.13363906343111412
-4.096491591675582   -0.5326232924309162   -0.12251706296274394
-4.096491591675582   -0.5326232924309162   -0.12251706296274394
-4.096491591675582   -0.5326232924309162   -0.12251706296274394
-4.096491591675582   -0.5326232924309162   -0.12251706296274394
0.16035168455797794   0.5232856184840075   0.11597882929695719
0.16035168455797794   0.5232856184840075   0.11597882929695719
0.16035168455797794   0.5232856184840075   0.11597882929695719
0.16035168455797794   0.5232856184840075   0.11597882929695719
-1.874241964681407   0.05970476742116004   0.006791268098871275
-1.874241964681407   0.05970476742116004   0.006791268098871275
-1.874241964681407   0.05970476742116004   0.006791268098871275
-1.874241964681407   0.05970476742116004   0.006791268098871275
0.1297877104832204   0.36202074672902373   0.12442383067815337
0.1297877104832204   0.36202074672902373   0.12442383067815337
0.1297877104832204   0.36202074672902373   0.12442383067815337
0.1297877104832204   0.36202074672902373   0.12442383067815337
-4.061071968033887   -0.3665027711089943   -0.11153946607618748
-4.061071968033887   -0.3665027711089943   -0.11153946607618748
-4.061071968033887   -0.3665027711089943   -0.11153946607618748
-4.061071968033887   -0.3665027711089943   -0.11153946607618748
-4.288558512323833   -0.6301582339530909   -0.10126915416065763
-4.288558512323833   -0.6301582339530909   -0.10126915416065763
-4.288558512323833   -0.6301582339530909   -0.10126915416065763
-4.288558512323833   -0.6301582339530909   -0.10126915416065763
-0.02414779620867727   0.40850626872144224   0.14095729944877738
-0.02414779620867727   0.40850626872144224   0.14095729944877738
-0.02414779620867727   0.40850626872144224   0.14095729944877738
-0.02414779620867727   0.40850626872144224   0.14095729944877738
-2.0582057714822257   -0.03544574039332926   -0.04029142560370319
-2.0582057714822257   -0.03544574039332926   -0.04029142560370319
-2.0582057714822257   -0.03544574039332926   -0.04029142560370319
-2.0582057714822257   -0.03544574039332926   -0.04029142560370319
-0.05030605003885591   0.2679004576165845   0.15077184140274194
-0.05030605003885591   0.2679004576165845   0.15077184140274194
-0.05030605003885591   0.2679004576165845   0.15077184140274194
-0.05030605003885591   0.2679004576165845   0.15077184140274194
-4.258191403120534   -0.4853435674751031   -0.09424827462209226
-4.258191403120534   -0.4853435674751031   -0.09424827462209226
-4.258191403120534   -0.4853435674751031   -0.09424827462209226
-4.258191403120534   -0.4853435674751031   -0.09424827462209226
-4.479395807024969   -0.7070530881269854   -0.0659895098771246
-4.479395807024969   -0.7070530881269854   -0.0659895098771246
-4.479395807024969   -0.7070530881269854   -0.0659895098771246
-4.479395807024969   -0.7070530881269854   -0.0659895098771246
-0.2152580787370231   0.30037984657237005   0.16040815203678543
-0.2152580787370231   0.30037984657237005   0.16040815203678543
-0.2152580787370231   0.30037984657237005   0.16040815203678543
-0.2152580787370231   0.30037984657237005   0.16040815203678543
-2.2561219077965955   -0.13223596060510728   -0.09165675723729279
-2.2561219077965955   -0.13223596060510728   -0.09165675723729279
-2.2561219077965955   -0.13223596060510728   -0.09165675723729279
-2.2561219077965955   -0.13223596060510728   -0.09165675723729279
-3.6524595592048774   0.5462760731276265   0.1820692166431056
-3.6524595592048774   0.5462760731276265   0.1820692166431056
-3.6524595592048774   0.5462760731276265   0.1820692166431056
-3.6524595592048774   0.5462760731276265   0.1820692166431056
-7.771478876665167   -0.3422614039159173   -0.21960324550587934
-7.771478876665167   -0.3422614039159173   -0.21960324550587934
-7.771478876665167   -0.3422614039159173   -0.21960324550587934
-7.771478876665167   -0.3422614039159173   -0.21960324550587934
-7.944706631483933   -0.4236836059470772   -0.032729834351633735
-7.944706631483933   -0.4236836059470772   -0.032729834351633735
-7.944706631483933   -0.4236836059470772   -0.032729834351633735
-7.944706631483933   -0.4236836059470772   -0.032729834351633735
-3.8880086727235916   0.39496389858043446   -0.007689659214082767
-3.8880086727235916   0.39496389858043446   -0.007689659214082767
-3.8880086727235916   0.39496389858043446   -0.007689659214082767
-3.8880086727235916   0.39496389858043446   -0.007689659214082767
-5.772232991730824   0.06207227692104356   0.04179868824174049
-5.772232991730824   0.06207227692104356   0.04179868824174049
-5.772232991730824   0.06207227692104356   0.04179868824174049
-5.772232991730824   0.06207227692104356   0.04179868824174049
-3.8354378333535246   0.44561817316055763   0.2045102630561308
-3.8354378333535246   0.44561817316055763   0.2045102630561308
-3.8354378333535246   0.44561817316055763   0.2045102630561308
-3.8354378333535246   0.44561817316055763   0.2045102630561308
-7.990570928608227   -0.4676313382813895   -0.2181035876388127
-7.990570928608227   -0.4676313382813895   -0.2181035876388127
-7.990570928608227   -0.4676313382813895   -0.2181035876388127
-7.990570928608227   -0.4676313382813895   -0.2181035876388127
-8.18132336615386   -0.533257018339427   -0.028401480820287428
-8.18132336615386   -0.533257018339427   -0.028401480820287428
-8.18132336615386   -0.533257018339427   -0.028401480820287428
-8.18132336615386   -0.533257018339427   -0.028401480820287428
-4.082265452637895   0.285429599242658   0.014608311073344316
-4.082265452637895   0.285429599242658   0.014608311073344316
-4.082265452637895   0.285429599242658   0.014608311073344316
-4.082265452637895   0.285429599242658   0.014608311073344316
-5.938595666550802   -0.025374780874699132   0.0031085177609597725
-5.938595666550802   -0.025374780874699132   0.0031085177609597725
-5.938595666550802   -0.025374780874699132   0.0031085177609597725
-5.938595666550802   -0.025374780874699132   0.0031085177609597725
-4.02475108849882   0.3510497329648854   0.2365599980464796
-4.02475108849882   0.3510497329648854   0.2365599980464796
-4.02475108849882   0.3510497329648854   0.2365599980464796
-4.02475108849882   0.3510497329648854   0.2365599980464796
-8.225371051078529   -0.585410472847302   -0.1964864509358209
-8.225371051078529   -0.585410472847302   -0.1964864509358209
-8.225371051078529   -0.585410472847302   -0.1964864509358209
-8.225371051078529   -0.585410472847302   -0.1964864509358209
-8.399350285208838   -0.6504155541450882   0.02645292855686454
-8.399350285208838   -0.6504155541450882   0.02645292855686454
-8.399350285208838   -0.6504155541450882   0.02645292855686454
-8.399350285208838   -0.6504155541450882   0.02645292855686454
-4.288113828712252   0.1554427831708094   0.027924510388746715
-4.288113828712252   0.1554427831708094   0.027924510388746715
-4.288113828712252   0.1554427831708094   0.027924510388746715
-4.288113828712252   0.1554427831708094   0.027924510388746715
-6.196369380817392   -0.14716690181880576   -0.04856462669525452
-6.196369380817392   -0.14716690181880576   -0.04856462669525452
-6.196369380817392   -0.14716690181880576   -0.04856462669525452
-6.196369380817392   -0.14716690181880576   -0.04856462669525452
-7.493964133670851   0.5696280659577397   0.25608099959193986
-7.493964133670851   0.5696280659577397   0.25608099959193986
-7.493964133670851   0.5696280659577397   0.25608099959193986
-7.493964133670851   0.5696280659577397   0.25608099959193986
-11.467263013200109   -0.529714877242697   -0.20459616549789683
-11.467263013200109   -0.529714877242697   -0.20459616549789683
-11.467263013200109   -0.529714877242697   -0.20459616549789683
-11.467263013200109   -0.529714877242697   -0.20459616549789683
-11.628052233176012   -0.22739326155149575   0.2187319625580969
-11.628052233176012   -0.22739326155149575   0.2187319625580969
-11.628052233176012   -0.22739326155149575   0.2187319625580969
-11.628052233176012   -0.22739326155149575   0.2187319625580969
-7.829977920790837   0.23340073892883484   -0.11617062576206294
-7.829977920790837   0.23340073892883484   -0.11617062576206294
-7.829977920790837   0.23340073892883484   -0.11617062576206294
-7.829977920790837   0.23340073892883484   -0.11617062576206294
-9.180942074088188   0.1199255942669124   0.2095832741416802
-9.180942074088188   0.1199255942669124   0.2095832741416802
-9.180942074088188   0.1199255942669124   0.2095832741416802
-9.180942074088188   0.1199255942669124   0.2095832741416802
-7.6790862180684   0.5774927285951512   0.29419589818372016
-7.6790862180684   0.5774927285951512   0.29419589818372016
-7.6790862180684   0.5774927285951512   0.29419589818372016
-7.6790862180684   0.5774927285951512   0.29419589818372016
-11.770022164932627   -0.5625634802519675   -0.15594747752428462
-11.770022164932627   -0.5625634802519675   -0.15594747752428462
-11.770022164932627   -0.5625634802519675   -0.15594747752428462
-11.770022164932627   -0.5625634802519675   -0.15594747752428462
-11.921807088509258   -0.28469444162312785   0.30233305723391823
-11.921807088509258   -0.28469444162312785   0.30233305723391823
-11.921807088509258   -0.28469444162312785   0.30233305723391823
-11.921807088509258   -0.28469444162312785   0.30233305723391823
-8.055607497327049   0.17042123225052186   -0.10350038727618882
-8.055607497327049   0.17042123225052186   -0.10350038727618882
-8.055607497327049   0.17042123225052186   -0.10350038727618882
-8.055607497327049   0.17042123225052186   -0.10350038727618882
-9.582191981001014   0.0588820498664977   0.13318377161756279
-9.582191981001014   0.0588820498664977   0.13318377161756279
-9.582191981001014   0.0588820498664977   0.13318377161756279
-9.582191981001014   0.0588820498664977   0.13318377161756279
-7.8889889456188955   0.5345044135093584   0.3655091900057422
-7.8889889456188955   0.5345044135093584   0.3655091900057422
-7.8889889456188955   0.5345044135093584   0.3655091900057422
-7.8889889456188955   0.5345044135093584   0.3655091900057422
-12.079870959148296   -0.6402229418127718   -0.13245779577141148
-12.079870959148296   -0.6402229418127718   -0.13245779577141148
-12.079870959148296   -0.6402229418127718   -0.13245779577141148
-12.079870959148296   -0.6402229418127718   -0.13245779577141148
-12.320132108383907   -0.5279284606020336   0.3015207436504207
-12.320132108383907   -0.5279284606020336   0.3015207436504207
-12.320132108383907   -0.5279284606020336   0.3015207436504207
-12.320132108383907   -0.5279284606020336   0.3015207436504207
-8.297254910190185   -0.01642051858855731   -0.09706523190639998
-8.297254910190185   -0.01642051858855731   -0.09706523190639998
-8.297254910190185   -0.01642051858855731   -0.09706523190639998
-8.297254910190185   -0.01642051858855731   -0.09706523190639998
-9.702884017716702   -0.02808746141003704   0.10704988794358206
-9.702884017716702   -0.02808746141003704   0.10704988794358206
-9.702884017716702   -0.02808746141003704   0.10704988794358206
-9.702884017716702   -0.02808746141003704   0.10704988794358206
6.574402171183257   0.36312490755635873   -0.31878021809157714
6.574402171183257   0.36312490755635873   -0.31878021809157714
6.574402171183257   0.36312490755635873   -0.31878021809157714
6.574402171183257   0.36312490755635873   -0.31878021809157714
3.13141969280384   0.06741504752739702   0.12264063531931554
3.13141969280384   0.06741504752739702   0.12264063531931554
3.13141969280384   0.06741504752739702   0.12264063531931554
3.13141969280384   0.06741504752739702   0.12264063531931554
2.776709391800643   -0.5365972745047032   -0.30207301645719353
2.776709391800643   -0.5365972745047032   -0.30207301645719353
2.776709391800643   -0.5365972745047032   -0.30207301645719353
2.776709391800643   -0.5365972745047032   -0.30207301645719353
6.429166695375903   0.6067720205069048   0.15149058964435688
6.429166695375903   0.6067720205069048   0.15149058964435688
6.429166695375903   0.6067720205069048   0.15149058964435688
6.429166695375903   0.6067720205069048   0.15149058964435688
4.483749616437954   0.060823447153946164   -0.13246167475287735
4.483749616437954   0.060823447153946164   -0.13246167475287735
4.483749616437954   0.060823447153946164   -0.13246167475287735
4.483749616437954   0.060823447153946164   -0.13246167475287735
6.248965485906597   0.158099883474061   -0.3008433206693262
6.248965485906597   0.158099883474061   -0.3008433206693262
6.248965485906597   0.158099883474061   -0.3008433206693262
6.248965485906597   0.158099883474061   -0.3008433206693262
2.9533234982489183   -0.09151224049289342   0.13591248177234957
2.9533234982489183   -0.09151224049289342   0.13591248177234957
2.9533234982489183   -0.09151224049289342   0.13591248177234957
2.9533234982489183   -0.09151224049289342   0.13591248177234957
2.610780678061849   -0.5898814602196072   -0.25729554169213414
2.610780678061849   -0.5898814602196072   -0.25729554169213414
2.610780678061849   -0.5898814602196072   -0.25729554169213414
2.610780678061849   -0.5898814602196072   -0.25729554169213414
6.171224151548951   0.5307722420141462   0.1986387911639443
6.171224151548951   0.5307722420141462   0.1986387911639443
6.171224151548951   0.5307722420141462   0.1986387911639443
6.171224151548951   0.5307722420141462   0.1986387911639443
4.333693955887368   -0.03116034510347676   -0.18732635075233983
4.333693955887368   -0.03116034510347676   -0.18732635075233983
4.333693955887368   -0.03116034510347676   -0.18732635075233983
4.333693955887368   -0.03116034510347676   -0.18732635075233983
5.995346059819612   0.09041236614721826   -0.24039179161576935
5.995346059819612   0.09041236614721826   -0.24039179161576935
5.995346059819612   0.09041236614721826   -0.24039179161576935
5.995346059819612   0.09041236614721826   -0.24039179161576935
2.7822205226051113   -0.15395983153875126   0.1639820523432963
2.7822205226051113   -0.15395983153875126   0.1639820523432963
2.7822205226051113   -0.15395983153875126   0.1639820523432963
2.7822205226051113   -0.15395983153875126   0.1639820523432963
2.4610264136589803   -0.6240811579709301   -0.21420426492801214
2.4610264136589803   -0.6240811579709301   -0.21420426492801214
2.4610264136589803   -0.6240811579709301   -0.21420426492801214
2.4610264136589803   -0.6240811579709301   -0.21420426492801214
5.880540871982357   0.44749121124057134   0.2354597814761818
5.880540871982357   0.44749121124057134   0.2354597814761818
5.880540871982357   0.44749121124057134   0.2354597814761818
5.880540871982357   0.44749121124057134   0.2354597814761818
4.041739269907662   -0.1011523995382122   -0.26770454377015457
4.041739269907662   -0.1011523995382122   -0.26770454377015457
4.041739269907662   -0.1011523995382122   -0.26770454377015457
4.041739269907662   -0.1011523995382122   -0.26770454377015457
3.181704286215606   0.462694360482382   -0.021215710576783807
3.181704286215606   0.462694360482382   -0.021215710576783807
3.181704286215606   0.462694360482382   -0.021215710576783807
3.181704286215606   0.462694360482382   -0.021215710576783807
-0.20287522369848962   -0.04180205520828992   -0.00031083012716581683
-0.20287522369848962   -0.04180205520828992   -0.00031083012716581683
-0.20287522369848962   -0.04180205520828992   -0.00031083012716581683
-0.20287522369848962   -0.04180205520828992   -0.00031083012716581683
-0.4527151979424269   -0.4002693265295445   -0.19134553620583417
-0.4527151979424269   -0.4002693265295445   -0.19134553620583417
-0.4527151979424269   -0.4002693265295445   -0.19134553620583417
-0.4527151979424269   -0.4002693265295445   -0.19134553620583417
3.0971063279503817   0.5508495307863571   0.21246485900041592
3.0971063279503817   0.5508495307863571   0.21246485900041592
3.0971063279503817   0.5508495307863571   0.21246485900041592
3.0971063279503817   0.5508495307863571   0.21246485900041592
1.384210955441271   0.1365393281822785   0.009522625331862135
1.384210955441271   0.1365393281822785   0.009522625331862135
1.384210955441271   0.1365393281822785   0.009522625331862135
1.384210955441271   0.1365393281822785   0.009522625331862135
3.012455898614335   0.3325387072035747   0.007523535902999395
3.012455898614335   0.3325387072035747   0.007523535902999395
3.012455898614335   0.3325387072035747   0.007523535902999395
3.012455898614335   0.3325387072035747   0.007523535902999395
-0.3665906285381457   -0.1804843628784808   0.019492347164507928
-0.3665906285381457   -0.1804843628784808   0.019492347164507928
-0.3665906285381457   -0.1804843628784808   0.019492347164507928
-0.3665906285381457   -0.1804843628784808   0.019492347164507928
-0.6090546738853718   -0.5010198690648685   -0.15792930364382368
-0.6090546738853718   -0.5010198690648685   -0.15792930364382368
-0.6090546738853718   -0.5010198690648685   -0.15792930364382368
-0.6090546738853718   -0.5010198690648685   -0.15792930364382368
2.9128886082165195   0.43102891416428213   0.23233373469730495
2.9128886082165195   0.43102891416428213   0.23233373469730495
2.9128886082165195   0.43102891416428213   0.23233373469730495
2.9128886082165195   0.43102891416428213   0.23233373469730495
1.1919838484319218   0.018208392265971318   -0.04993553113045861
1.1919838484319218   0.018208392265971318   -0.04993553113045861
1.1919838484319218   0.018208392265971318   -0.04993553113045861
1.1919838484319218   0.018208392265971318   -0.04993553113045861
2.8310133122644694   0.22448068559507262   0.029505483506286206
2.8310133122644694   0.22448068559507262   0.029505483506286206
2.8310133122644694   0.22448068559507262   0.029505483506286206
2.8310133122644694   0.22448068559507262   0.029505483506286206
-0.5283182437583085   -0.29561050632068286   0.04034348424730804
-0.5283182437583085   -0.29561050632068286   0.04034348424730804
-0.5283182437583085   -0.29561050632068286   0.04034348424730804
-0.5283182437583085   -0.29561050632068286   0.04034348424730804
-0.7634144347408743   -0.586121694991196   -0.1265234274767011
-0.7634144347408743   -0.586121694991196   -0.1265234274767011
-0.7634144347408743   -0.586121694991196   -0.1265234274767011
-0.7634144347408743   -0.586121694991196   -0.1265234274767011
2.7428111176221543   0.3197882993853851   0.25084979753153225
2.7428111176221543   0.3197882993853851   0.25084979753153225
2.7428111176221543   0.3197882993853851   0.25084979753153225
2.7428111176221543   0.3197882993853851   0.25084979753153225
1.0438557681015992   -0.0720825619289196   -0.09966929652044228
1.0438557681015992   -0.0720825619289196   -0.09966929652044228
1.0438557681015992   -0.0720825619289196   -0.09966929652044228
1.0438557681015992   -0.0720825619289196   -0.09966929652044228
-0.06811344763562999   0.5550560965145068   0.07663989846433548
-0.06811344763562999   0.5550560965145068   0.07663989846433548
-0.06811344763562999   0.5550560965145068   0.07663989846433548
-0.06811344763562999   0.5550560965145068   0.07663989846433548
-3.4658416940441095   -0.14732617496681466   -0.11499633974792897
-3.4658416940441095   -0.14732617496681466   -0.11499633974792897
-3.4658416940441095   -0.14732617496681466   -0.11499633974792897
-3.4658416940441095   -0.14732617496681466   -0.11499633974792897
-3.626918252992941   -0.275267714460808   -0.08951789787620112
-3.626918252992941   -0.275267714460808   -0.08951789787620112
-3.626918252992941   -0.275267714460808   -0.08951789787620112
-3.626918252992941   -0.275267714460808   -0.08951789787620112
-0.2269531632371476   0.4449677648202273   0.09222754597080604
-0.2269531632371476   0.4449677648202273   0.09222754597080604
-0.2269531632371476   0.4449677648202273   0.09222754597080604
-0.2269531632371476   0.4449677648202273   0.09222754597080604
-1.8426006845749807   0.14545649933806193   0.03620582421338159
-1.8426006845749807   0.14545649933806193   0.03620582421338159
-1.8426006845749807   0.14545649933806193   0.03620582421338159
-1.8426006845749807   0.14545649933806193   0.03620582421338159
-0.2237399391450478   0.4449365117785977   0.10832491947293438
-0.2237399391450478   0.4449365117785977   0.10832491947293438
-0.2237399391450478   0.4449365117785977   0.10832491947293438
-0.2237399391450478   0.4449365117785977   0.10832491947293438
-3.627087484632675   -0.27219246896685345   -0.09343930156882474
-3.627087484632675   -0.27219246896685345   -0.09343930156882474
-3.627087484632675   -0.27219246896685345   -0.09343930156882474
-3.627087484632675   -0.27219246896685345   -0.09343930156882474
-3.7870389037275496   -0.3843227838236576   -0.06029685575784968
-3.7870389037275496   -0.3843227838236576   -0.06029685575784968
-3.7870389037275496   -0.3843227838236576   -0.06029685575784968
-3.7870389037275496   -0.3843227838236576   -0.06029685575784968
-0.3899017146267505   0.3215738508849404   0.11524177269947428
-0.3899017146267505   0.3215738508849404   0.11524177269947428
-0.3899017146267505   0.3215738508849404   0.11524177269947428
-0.3899017146267505   0.3215738508849404   0.11524177269947428
-2.004366819614307   0.03810419708995205   -0.012138676829822531
-2.004366819614307   0.03810419708995205   -0.012138676829822531
-2.004366819614307   0.03810419708995205   -0.012138676829822531
-2.004366819614307   0.03810419708995205   -0.012138676829822531
-0.3834808863420551   0.3351934531721579   0.13372631183573352
-0.3834808863420551   0.3351934531721579   0.13372631183573352
-0.3834808863420551   0.3351934531721579   0.13372631183573352
-0.3834808863420551   0.3351934531721579   0.13372631183573352
-3.7925227630785963   -0.3970054171772266   -0.07503351915951498
-3.7925227630785963   -0.3970054171772266   -0.07503351915951498
-3.7925227630785963   -0.3970054171772266   -0.07503351915951498
-3.7925227630785963   -0.3970054171772266   -0.07503351915951498
-3.9453483201491313   -0.4840021052332483   -0.03141136557944378
-3.9453483201491313   -0.4840021052332483   -0.03141136557944378
-3.9453483201491313   -0.4840021052332483   -0.03141136557944378
-3.9453483201491313   -0.4840021052332483   -0.03141136557944378
-0.5534632794324159   0.20222839641482274   0.13488225765958767
-0.5534632794324159   0.20222839641482274   0.13488225765958767
-0.5534632794324159   0.20222839641482274   0.13488225765958767
-0.5534632794324159   0.20222839641482274   0.13488225765958767
-2.1734880841216913   -0.0701849949778603   -0.06593422406429152
-2.1734880841216913   -0.0701849949778603   -0.06593422406429152
-2.1734880841216913   -0.0701849949778603   -0.06593422406429152
-2.1734880841216913   -0.0701849949778603   -0.06593422406429152
-3.2518429022977227   0.639267274051821   0.1684041699653684
-3.2518429022977227   0.639267274051821   0.1684041699653684
-3.2518429022977227   0.639267274051821   0.1684041699653684
-3.2518429022977227   0.639267274051821   0.1684041699653684
-6.650692571184695   -0.2548773383047003   -0.20800147374381228
-6.650692571184695   -0.2548773383047003   -0.20800147374381228
-6.650692571184695   -0.2548773383047003   -0.20800147374381228
-6.650692571184695   -0.2548773383047003   -0.20800147374381228
-6.738870662980955   -0.16937128335978358   0.02149642134218982
-6.738870662980955   -0.16937128335978358   0.02149642134218982
-6.738870662980955   -0.16937128335978358   0.02149642134218982
-6.738870662980955   -0.16937128335978358   0.02149642134218982
-3.4956912051688223   0.31904219480257845   -0.027692568018992947
-3.4956912051688223   0.31904219480257845   -0.027692568018992947
-3.4956912051688223   0.31904219480257845   -0.027692568018992947
-3.4956912051688223   0.31904219480257845   -0.027692568018992947
-5.001758836714922   0.14007522541098982   0.06142505058365766
-5.001758836714922   0.14007522541098982   0.06142505058365766
-5.001758836714922   0.14007522541098982   0.06142505058365766
-5.001758836714922   0.14007522541098982   0.06142505058365766
-3.4077126320505   0.5323412808607575   0.19890121151444023
-3.4077126320505   0.5323412808607575   0.19890121151444023
-3.4077126320505   0.5323412808607575   0.19890121151444023
-3.4077126320505   0.5323412808607575   0.19890121151444023
-6.8259473732477955   -0.38176850656648087   -0.20148990678531625
-6.8259473732477955   -0.38176850656648087   -0.20148990678531625
-6.8259473732477955   -0.38176850656648087   -0.20148990678531625
-6.8259473732477955   -0.38176850656648087   -0.20148990678531625
-6.925272052192902   -0.2795800956488601   0.032566436170761326
-6.925272052192902   -0.2795800956488601   0.032566436170761326
-6.925272052192902   -0.2795800956488601   0.032566436170761326
-6.925272052192902   -0.2795800956488601   0.032566436170761326
-3.6580042744541847   0.20478139377091897   -0.004227886985572249
-3.6580042744541847   0.20478139377091897   -0.004227886985572249
-3.6580042744541847   0.20478139377091897   -0.004227886985572249
-3.6580042744541847   0.20478139377091897   -0.004227886985572249
-5.139141419836493   0.04398484182648743   0.016353810375111577
-5.139141419836493   0.04398484182648743   0.016353810375111577
-5.139141419836493   0.04398484182648743   0.016353810375111577
-5.139141419836493   0.04398484182648743   0.016353810375111577
-3.5664000433867753   0.43116329275223797   0.22741136937012468
-3.5664000433867753   0.43116329275223797   0.22741136937012468
-3.5664000433867753   0.43116329275223797   0.22741136937012468
-3.5664000433867753   0.43116329275223797   0.22741136937012468
-7.0121266505384705   -0.5012123619083431   -0.1800742892975971
-7.0121266505384705   -0.5012123619083431   -0.1800742892975971
-7.0121266505384705   -0.5012123619083431   -0.1800742892975971
-7.0121266505384705   -0.5012123619083431   -0.1800742892975971
-7.094517874535159   -0.3979892419615185   0.06716843055001304
-7.094517874535159   -0.3979892419615185   0.06716843055001304
-7.094517874535159   -0.3979892419615185   0.06716843055001304
-7.094517874535159   -0.3979892419615185   0.06716843055001304
-3.8248365032756646   0.07436733109846194   0.01277828245621207
-3.8248365032756646   0.07436733109846194   0.01277828245621207
-3.8248365032756646   0.07436733109846194   0.01277828245621207
-3.8248365032756646   0.07436733109846194   0.01277828245621207
-5.346859908816945   -0.07585192985822253   -0.04060790285861915
-5.346859908816945   -0.07585192985822253   -0.04060790285861915
-5.346859908816945   -0.07585192985822253   -0.04060790285861915
-5.346859908816945   -0.07585192985822253   -0.04060790285861915
-6.395740407220204   0.5732377321730437   0.2386442756009025
-6.395740407220204   0.5732377321730437   0.2386442756009025
-6.395740407220204   0.5732377321730437   0.2386442756009025
-6.395740407220204   0.5732377321730437   0.2386442756009025
-9.67253808479787   -0.4453951798926188   -0.23110262545681043
-9.67253808479787   -0.4453951798926188   -0.23110262545681043
-9.67253808479787   -0.4453951798926188   -0.23110262545681043
-9.67253808479787   -0.4453951798926188   -0.23110262545681043
-9.78247065825572   -0.08979440335820232   0.22034640026787977
-9.78247065825572   -0.08979440335820232   0.22034640026787977
-9.78247065825572   -0.08979440335820232   0.22034640026787977
-9.78247065825572   -0.08979440335820232   0.22034640026787977
-6.7048772376461665   0.15829600335958993   -0.13620373870324554
-6.7048772376461665   0.15829600335958993   -0.13620373870324554
-6.7048772376461665   0.15829600335958993   -0.13620373870324554
-6.7048772376461665   0.15829600335958993   -0.13620373870324554
-7.779323010513008   0.13028069808207499   0.18950628404365483
-7.779323010513008   0.13028069808207499   0.18950628404365483
-7.779323010513008   0.13028069808207499   0.18950628404365483
-7.779323010513008   0.13028069808207499   0.18950628404365483
-6.53917095786979   0.5707674911442071   0.2798561723939973
-6.53917095786979   0.5707674911442071   0.2798561723939973
-6.53917095786979   0.5707674911442071   0.2798561723939973
-6.53917095786979   0.5707674911442071   0.2798561723939973
-9.945293631092921   -0.4993825842036328   -0.18418028307260648
-9.945293631092921   -0.4993825842036328   -0.18418028307260648
-9.945293631092921   -0.4993825842036328   -0.18418028307260648
-9.945293631092921   -0.4993825842036328   -0.18418028307260648
-10.026282269814901   -0.1478656305020114   0.2757400714492425
-10.026282269814901   -0.1478656305020114   0.2757400714492425
-10.026282269814901   -0.1478656305020114   0.2757400714492425
-10.026282269814901   -0.1478656305020114   0.2757400714492425
-6.88011098642331   0.09563383123082003   -0.11684216186095903
-6.88011098642331   0.09563383123082003   -0.11684216186095903
-6.88011098642331   0.09563383123082003   -0.11684216186095903
-6.88011098642331   0.09563383123082003   -0.11684216186095903
-8.117657908375422   0.06530507456083745   0.11403413225746661
-8.117657908375422   0.06530507456083745   0.11403413225746661
-8.117657908375422   0.06530507456083745   0.11403413225746661
-8.117657908375422   0.06530507456083745   0.11403413225746661
-6.70432350504685   0.5274366028434856   0.3302924734086755
-6.70432350504685   0.5274366028434856   0.3302924734086755
-6.70432350504685   0.5274366028434856   0.3302924734086755
-6.70432350504685   0.5274366028434856   0.3302924734086755
-10.197403452160415   -0.5750021030837205   -0.1527293676965576
-10.197403452160415   -0.5750021030837205   -0.1527293676965576
-10.197403452160415   -0.5750021030837205   -0.1527293676965576
-10.197403452160415   -0.5750021030837205   -0.1527293676965576
-10.348008483165357   -0.3528815929632987   0.27138296919506516
-10.348008483165357   -0.3528815929632987   0.27138296919506516
-10.348008483165357   -0.3528815929632987   0.27138296919506516
-10.348008483165357   -0.3528815929632987   0.27138296919506516
-7.06493925772781   -0.07711115751747388   -0.10581656985729126
-7.06493925772781   -0.07711115751747388   -0.10581656985729126
-7.06493925772781   -0.07711115751747388   -0.10581656985729126
-7.06493925772781   -0.07711115751747388   -0.10581656985729126
-8.207845606715376   -0.014972222439020078   0.08834047144523144
-8.207845606715376   -0.014972222439020078   0.08834047144523144
-8.207845606715376   -0.014972222439020078   0.08834047144523144
-8.207845606715376   -0.014972222439020078   0.08834047144523144
4.485561196616998   0.25208149831714   -0.30816861454537253
4.485561196616998   0.25208149831714   -0.30816861454537253
4.485561196616998   0.25208149831714   -0.30816861454537253
4.485561196616998   0.25208149831714   -0.30816861454537253
1.9162292410354016   0.12692484386953407   0.1331518648721685
1.9162292410354016   0.12692484386953407   0.1331518648721685
1.9162292410354016   0.12692484386953407   0.1331518648721685
1.9162292410354016   0.12692484386953407   0.1331518648721685
1.59791444374972   -0.4471721172360423   -0.2869778474441963
1.59791444374972   -0.4471721172360423   -0.2869778474441963
1.59791444374972   -0.4471721172360423   -0.2869778474441963
1.59791444374972   -0.4471721172360423   -0.2869778474441963
4.3777901661010645   0.5127035593861891   0.16167081698012292
4.3777901661010645   0.5127035593861891   0.16167081698012292
4.3777901661010645   0.5127035593861891   0.16167081698012292
4.3777901661010645   0.5127035593861891   0.16167081698012292
2.93039376874534   0.06523166979640738   -0.0801499532790885
2.93039376874534   0.06523166979640738   -0.0801499532790885
2.93039376874534   0.06523166979640738   -0.0801499532790885
2.93039376874534   0.06523166979640738   -0.0801499532790885
4.200150344240396   0.07325473813626393   -0.2870794710733414
4.200150344240396   0.07325473813626393   -0.2870794710733414
4.200150344240396   0.07325473813626393   -0.2870794710733414
4.200150344240396   0.07325473813626393   -0.2870794710733414
1.7722243190203368   -0.011053242576171518   0.14845265424904752
1.7722243190203368   -0.011053242576171518   0.14845265424904752
1.7722243190203368   -0.011053242576171518   0.14845265424904752
1.7722243190203368   -0.011053242576171518   0.14845265424904752
1.4620787510135123   -0.4995743752510007   -0.24394889462635158
1.4620787510135123   -0.4995743752510007   -0.24394889462635158
1.4620787510135123   -0.4995743752510007   -0.24394889462635158
1.4620787510135123   -0.4995743752510007   -0.24394889462635158
4.1544657899021615   0.43840148187818934   0.20784131896986802
4.1544657899021615   0.43840148187818934   0.20784131896986802
4.1544657899021615   0.43840148187818934   0.20784131896986802
4.1544657899021615   0.43840148187818934   0.20784131896986802
2.7888283020116167   -0.02091244421956684   -0.13168577329112804
2.7888283020116167   -0.02091244421956684   -0.13168577329112804
2.7888283020116167   -0.02091244421956684   -0.13168577329112804
2.7888283020116167   -0.02091244421956684   -0.13168577329112804
3.9798672047870522   0.006185891236228147   -0.23293601596374783
3.9798672047870522   0.006185891236228147   -0.23293601596374783
3.9798672047870522   0.006185891236228147   -0.23293601596374783
3.9798672047870522   0.006185891236228147   -0.23293601596374783
1.6318186636055936   -0.07221745713207012   0.1773937502151397
1.6318186636055936   -0.07221745713207012   0.1773937502151397
1.6318186636055936   -0.07221745713207012   0.1773937502151397
1.6318186636055936   -0.07221745713207012   0.1773937502151397
1.3404997253464612   -0.5482531276478968   -0.20322076633026281
1.3404997253464612   -0.5482531276478968   -0.20322076633026281
1.3404997253464612   -0.5482531276478968   -0.20322076633026281
1.3404997253464612   -0.5482531276478968   -0.20322076633026281
3.894042114479576   0.33997364873445435   0.23680558723888026
3.894042114479576   0.33997364873445435   0.23680558723888026
3.894042114479576   0.33997364873445435   0.23680558723888026
3.894042114479576   0.33997364873445435   0.23680558723888026
2.552652683974986   -0.0920152577953196   -0.20188707015505994
2.552652683974986   -0.0920152577953196   -0.20188707015505994
2.552652683974986   -0.0920152577953196   -0.20188707015505994
2.552652683974986   -0.0920152577953196   -0.20188707015505994
1.9273790110994955   0.37289672465763957   -0.05707116559550335
1.9273790110994955   0.37289672465763957   -0.05707116559550335
1.9273790110994955   0.37289672465763957   -0.05707116559550335
1.9273790110994955   0.37289672465763957   -0.05707116559550335
-0.5973929534027868   0.03504295745144531   0.018993360174938738
-0.5973929534027868   0.03504295745144531   0.018993360174938738
-0.5973929534027868   0.03504295745144531   0.018993360174938738
-0.5973929534027868   0.03504295745144531   0.018993360174938738
-0.8149884910226582   -0.3093093951232839   -0.1762349515749953
-0.8149884910226582   -0.3093093951232839   -0.1762349515749953
-0.8149884910226582   -0.3093093951232839   -0.1762349515749953
-0.8149884910226582   -0.3093093951232839   -0.1762349515749953
1.872273099089351   0.44888970359074615   0.18875360842720085
1.872273099089351   0.44888970359074615   0.18875360842720085
1.872273099089351   0.44888970359074615   0.18875360842720085
1.872273099089351   0.44888970359074615   0.18875360842720085
0.5836749027485257   0.1302813782236696   0.022241626220650058
0.5836749027485257   0.1302813782236696   0.022241626220650058
0.5836749027485257   0.1302813782236696   0.022241626220650058
0.5836749027485257   0.1302813782236696   0.022241626220650058
1.7865175751001132   0.2400099556921393   -0.031144263620404924
1.7865175751001132   0.2400099556921393   -0.031144263620404924
1.7865175751001132   0.2400099556921393   -0.031144263620404924
1.7865175751001132   0.2400099556921393   -0.031144263620404924
-0.7304546996639484   -0.10165137985525236   0.03877598995050774
-0.7304546996639484   -0.10165137985525236   0.03877598995050774
-0.7304546996639484   -0.10165137985525236   0.03877598995050774
-0.7304546996639484   -0.10165137985525236   0.03877598995050774
-0.9413845215884403   -0.41475663594806444   -0.1423208860594677
-0.9413845215884403   -0.41475663594806444   -0.1423208860594677
-0.9413845215884403   -0.41475663594806444   -0.1423208860594677
-0.9413845215884403   -0.41475663594806444   -0.1423208860594677
1.7173372024251399   0.32756925644629864   0.20519973073450215
1.7173372024251399   0.32756925644629864   0.20519973073450215
1.7173372024251399   0.32756925644629864   0.20519973073450215
1.7173372024251399   0.32756925644629864   0.20519973073450215
0.42814544792540293   0.011518001334671082   -0.03481605885671526
0.42814544792540293   0.011518001334671082   -0.03481605885671526
0.42814544792540293   0.011518001334671082   -0.03481605885671526
0.42814544792540293   0.011518001334671082   -0.03481605885671526
1.6342911054631903   0.12695863929029969   -0.009420136919277684
1.6342911054631903   0.12695863929029969   -0.009420136919277684
1.6342911054631903   0.12695863929029969   -0.009420136919277684
1.6342911054631903   0.12695863929029969   -0.009420136919277684
-0.8614835582510508   -0.21729115241662836   0.05971844709605798
-0.8614835582510508   -0.21729115241662836   0.05971844709605798
-0.8614835582510508   -0.21729115241662836   0.05971844709605798
-0.8614835582510508   -0.21729115241662836   0.05971844709605798
-1.0661471685498816   -0.5143680804632316   -0.11097381553951477
-1.0661471685498816   -0.5143680804632316   -0.11097381553951477
-1.0661471685498816   -0.5143680804632316   -0.11097381553951477
-1.0661471685498816   -0.5143680804632316   -0.11097381553951477
1.5775170226450128   0.21052973255432622   0.22308285996030278
1.5775170226450128   0.21052973255432622   0.22308285996030278
1.5775170226450128   0.21052973255432622   0.22308285996030278
1.5775170226450128   0.21052973255432622   0.22308285996030278
0.3027498981510541   -0.08761340871718784   -0.0853826913461716
0.3027498981510541   -0.08761340871718784   -0.0853826913461716
0.3027498981510541   -0.08761340871718784   -0.0853826913461716
0.3027498981510541   -0.08761340871718784   -0.0853826913461716
-0.5042596695184642   0.47660837108124954   0.04309436596674715
-0.5042596695184642   0.47660837108124954   0.04309436596674715
-0.5042596695184642   0.47660837108124954   0.04309436596674715
-0.5042596695184642   0.47660837108124954   0.04309436596674715
-3.0742441301726604   -0.07474419190407411   -0.09316519438588342
-3.0742441301726604   -0.07474419190407411   -0.09316519438588342
-3.0742441301726604   -0.07474419190407411   -0.09316519438588342
-3.0742441301726604   -0.07474419190407411   -0.09316519438588342
-3.198748450786684   -0.18152009698380978   -0.06841647549984298
-3.198748450786684   -0.18152009698380978   -0.06841647549984298
-3.198748450786684   -0.18152009698380978   -0.06841647549984298
-3.198748450786684   -0.18152009698380978   -0.06841647549984298
-0.634802077582071   0.3424039805465423   0.07298373995809973
-0.634802077582071   0.3424039805465423   0.07298373995809973
-0.634802077582071   0.3424039805465423   0.07298373995809973
-0.634802077582071   0.3424039805465423   0.07298373995809973
-1.848542191356334   0.13862667969429987   0.03630795175412349
-1.848542191356334   0.13862667969429987   0.03630795175412349
-1.848542191356334   0.13862667969429987   0.03630795175412349
-1.848542191356334   0.13862667969429987   0.03630795175412349
-0.6307495147252028   0.360744243571838   0.07490629121716028
-0.6307495147252028   0.360744243571838   0.07490629121716028
-0.6307495147252028   0.360744243571838   0.07490629121716028
-0.6307495147252028   0.360744243571838   0.07490629121716028
-3.203102272030734   -0.20016161839632574   -0.07154406030757712
-3.203102272030734   -0.20016161839632574   -0.07154406030757712
-3.203102272030734   -0.20016161839632574   -0.07154406030757712
-3.203102272030734   -0.20016161839632574   -0.07154406030757712
-3.3264151518830487   -0.29640672849095817   -0.03814768692372042
-3.3264151518830487   -0.29640672849095817   -0.03814768692372042
-3.3264151518830487   -0.29640672849095817   -0.03814768692372042
-3.3264151518830487   -0.29640672849095817   -0.03814768692372042
-0.7674165218812767   0.21754047920849418   0.09522199731979138
-0.7674165218812767   0.21754047920849418   0.09522199731979138
-0.7674165218812767   0.21754047920849418   0.09522199731979138
-0.7674165218812767   0.21754047920849418   0.09522199731979138
-1.9798174697277837   0.026934813486260256   -0.012827742258671823
-1.9798174697277837   0.026934813486260256   -0.012827742258671823
-1.9798174697277837   0.026934813486260256   -0.012827742258671823
-1.9798174697277837   0.026934813486260256   -0.012827742258671823
-0.7606224986706237   0.24477321504382   0.10195937753774556
-0.7606224986706237   0.24477321504382   0.10195937753774556
-0.7606224986706237   0.24477321504382   0.10195937753774556
-0.7606224986706237   0.24477321504382   0.10195937753774556
-3.3351715143507703   -0.32560180358330904   -0.052734424169976785
-3.3351715143507703   -0.32560180358330904   -0.052734424169976785
-3.3351715143507703   -0.32560180358330904   -0.052734424169976785
-3.3351715143507703   -0.32560180358330904   -0.052734424169976785
-3.4519981452023085   -0.4062088861467034   -0.008769289378149872
-3.4519981452023085   -0.4062088861467034   -0.008769289378149872
-3.4519981452023085   -0.4062088861467034   -0.008769289378149872
-3.4519981452023085   -0.4062088861467034   -0.008769289378149872
-0.8988526343323835   0.09618992726800885   0.1149408478167189
-0.8988526343323835   0.09618992726800885   0.1149408478167189
-0.8988526343323835   0.09618992726800885   0.1149408478167189
-0.8988526343323835   0.09618992726800885   0.1149408478167189
-2.1164415129498746   -0.08490565487973456   -0.06605285523902987
-2.1164415129498746   -0.08490565487973456   -0.06605285523902987
-2.1164415129498746   -0.08490565487973456   -0.06605285523902987
-2.1164415129498746   -0.08490565487973456   -0.06605285523902987
-2.899486196367617   0.5651169066287747   0.14076337610648426
-2.899486196367617   0.5651169066287747   0.14076337610648426
-2.899486196367617   0.5651169066287747   0.14076337610648426
-2.899486196367617   0.5651169066287747   0.14076337610648426
-5.504751503985323   -0.18363624339931928   -0.190453938779566
-5.504751503985323   -0.18363624339931928   -0.190453938779566
-5.504751503985323   -0.18363624339931928   -0.190453938779566
-5.504751503985323   -0.18363624339931928   -0.190453938779566
-5.551722489726397   -0.0771582775660209   0.047336354695586225
-5.551722489726397   -0.0771582775660209   0.047336354695586225
-5.551722489726397   -0.0771582775660209   0.047336354695586225
-5.551722489726397   -0.0771582775660209   0.047336354695586225
-3.112449327061427   0.2228470346045205   -0.04128798846191936
-3.112449327061427   0.2228470346045205   -0.04128798846191936
-3.112449327061427   0.2228470346045205   -0.04128798846191936
-3.112449327061427   0.2228470346045205   -0.04128798846191936
-4.242021076240604   0.13315086748132798   0.05289425780100615
-4.242021076240604   0.13315086748132798   0.05289425780100615
-4.242021076240604   0.13315086748132798   0.05289425780100615
-4.242021076240604   0.13315086748132798   0.05289425780100615
-3.0235858073801642   0.45348093072824813   0.17239571382069768
-3.0235858073801642   0.45348093072824813   0.17239571382069768
-3.0235858073801642   0.45348093072824813   0.17239571382069768
-3.0235858073801642   0.45348093072824813   0.17239571382069768
-5.644384151508743   -0.3115903157908321   -0.1815399159913653
-5.644384151508743   -0.3115903157908321   -0.1815399159913653
-5.644384151508743   -0.3115903157908321   -0.1815399159913653
-5.644384151508743   -0.3115903157908321   -0.1815399159913653
-5.70212329493293   -0.19090740717658838   0.06144712875563546
-5.70212329493293   -0.19090740717658838   0.06144712875563546
-5.70212329493293   -0.19090740717658838   0.06144712875563546
-5.70212329493293   -0.19090740717658838   0.06144712875563546
-3.2414609213421626   0.10783350315023954   -0.017616765860551414
-3.2414609213421626   0.10783350315023954   -0.017616765860551414
-3.2414609213421626   0.10783350315023954   -0.017616765860551414
-3.2414609213421626   0.10783350315023954   -0.017616765860551414
-4.35296035233561   0.03163224106438278   0.0035660215166647413
-4.35296035233561   0.03163224106438278   0.0035660215166647413
-4.35296035233561   0.03163224106438278   0.0035660215166647413
-4.35296035233561   0.03163224106438278   0.0035660215166647413
-3.14942142562498   0.3478553200908392   0.2025588957848244
-3.14942142562498   0.3478553200908392   0.2025588957848244
-3.14942142562498   0.3478553200908392   0.2025588957848244
-3.14942142562498   0.3478553200908392   0.2025588957848244
-5.794449260621331   -0.43121569408836113   -0.1598744127746326
-5.794449260621331   -0.43121569408836113   -0.1598744127746326
-5.794449260621331   -0.43121569408836113   -0.1598744127746326
-5.794449260621331   -0.43121569408836113   -0.1598744127746326
-5.836203854406917   -0.3118658824551609   0.09297956581934999
-5.836203854406917   -0.3118658824551609   0.09297956581934999
-5.836203854406917   -0.3118658824551609   0.09297956581934999
-5.836203854406917   -0.3118658824551609   0.09297956581934999
-3.3726954997105634   -0.019455072950758434   0.0009901248845730903
-3.3726954997105634   -0.019455072950758434   0.0009901248845730903
-3.3726954997105634   -0.019455072950758434   0.0009901248845730903
-3.3726954997105634   -0.019455072950758434   0.0009901248845730903
-4.518294293920548   -0.08566592773622805   -0.05347604650865026
-4.518294293920548   -0.08566592773622805   -0.05347604650865026
-4.518294293920548   -0.08566592773622805   -0.05347604650865026
-4.518294293920548   -0.08566592773622805   -0.05347604650865026
-5.280913444412722   0.5234752470104971   0.2216248686736218
-5.280913444412722   0.5234752470104971   0.2216248686736218
-5.280913444412722   0.5234752470104971   0.2216248686736218
-5.280913444412722   0.5234752470104971   0.2216248686736218
-7.78461024763048   -0.35735222396457433   -0.24917186840164773
-7.78461024763048   -0.35735222396457433   -0.24917186840164773
-7.78461024763048   -0.35735222396457433   -0.24917186840164773
-7.78461024763048   -0.35735222396457433   -0.24917186840164773
-7.861363498717975   -0.0017898287151918435   0.21985336199465388
-7.861363498717975   -0.0017898287151918435   0.21985336199465388
-7.861363498717975   -0.0017898287151918435   0.21985336199465388
-7.861363498717975   -0.0017898287151918435   0.21985336199465388
-5.56103697953478   0.07382451108096455   -0.15021888299340047
-5.56103697953478   0.07382451108096455   -0.15021888299340047
-5.56103697953478   0.07382451108096455   -0.15021888299340047
-5.56103697953478   0.07382451108096455   -0.15021888299340047
-6.331030794075933   0.12279153341735638   0.1593951774388045
-6.331030794075933   0.12279153341735638   0.1593951774388045
-6.331030794075933   0.12279153341735638   0.1593951774388045
-6.331030794075933   0.12279153341735638   0.1593951774388045
-5.393463042445064   0.5000955440397552   0.26137976949647723
-5.393463042445064   0.5000955440397552   0.26137976949647723
-5.393463042445064   0.5000955440397552   0.26137976949647723
-5.393463042445064   0.5000955440397552   0.26137976949647723
-8.032152894395447   -0.4312763202617136   -0.20460712484612198
-8.032152894395447   -0.4312763202617136   -0.20460712484612198
-8.032152894395447   -0.4312763202617136   -0.20460712484612198
-8.032152894395447   -0.4312763202617136   -0.20460712484612198
-8.073577105062178   -0.06425317951032139   0.2771889030722016
-8.073577105062178   -0.06425317951032139   0.2771889030722016
-8.073577105062178   -0.06425317951032139   0.2771889030722016
-8.073577105062178   -0.06425317951032139   0.2771889030722016
-5.699711929086711   0.010736632632367238   -0.12814008182232217
-5.699711929086711   0.010736632632367238   -0.12814008182232217
-5.699711929086711   0.010736632632367238   -0.12814008182232217
-5.699711929086711   0.010736632632367238   -0.12814008182232217
-6.615633940767128   0.05084214281700872   0.08229684452259106
-6.615633940767128   0.05084214281700872   0.08229684452259106
-6.615633940767128   0.05084214281700872   0.08229684452259106
-6.615633940767128   0.05084214281700872   0.08229684452259106
-5.524251939698754   0.4517944770815896   0.30810202066833264
-5.524251939698754   0.4517944770815896   0.30810202066833264
-5.524251939698754   0.4517944770815896   0.30810202066833264
-5.524251939698754   0.4517944770815896   0.30810202066833264
-8.251372149706675   -0.5076460792160691   -0.1683934204445401
-8.251372149706675   -0.5076460792160691   -0.1683934204445401
-8.251372149706675   -0.5076460792160691   -0.1683934204445401
-8.251372149706675   -0.5076460792160691   -0.1683934204445401
-8.357484236245872   -0.2587561041969355   0.2785036752637079
-8.357484236245872   -0.2587561041969355   0.2785036752637079
-8.357484236245872   -0.2587561041969355   0.2785036752637079
-8.357484236245872   -0.2587561041969355   0.2785036752637079
-5.844677370535001   -0.14798083444721777   -0.1132730628291379
-5.844677370535001   -0.14798083444721777   -0.1132730628291379
-5.844677370535001   -0.14798083444721777   -0.1132730628291379
-5.844677370535001   -0.14798083444721777   -0.1132730628291379
-6.698372825371503   -0.030841737686744475   0.04520919203922774
-6.698372825371503   -0.030841737686744475   0.04520919203922774
-6.698372825371503   -0.030841737686744475   0.04520919203922774
-6.698372825371503   -0.030841737686744475   0.04520919203922774
2.4370078912835296   0.14442180309645997   -0.30014198924132995
2.4370078912835296   0.14442180309645997   -0.30014198924132995
2.4370078912835296   0.14442180309645997   -0.30014198924132995
2.4370078912835296   0.14442180309645997   -0.30014198924132995
0.6993015090420164   0.18183439255351347   0.14432910391749298
0.6993015090420164   0.18183439255351347   0.14432910391749298
0.6993015090420164   0.18183439255351347   0.14432910391749298
0.6993015090420164   0.18183439255351347   0.14432910391749298
0.41945316124190174   -0.3641829884934955   -0.26442491755913733
0.41945316124190174   -0.3641829884934955   -0.26442491755913733
0.41945316124190174   -0.3641829884934955   -0.26442491755913733
0.41945316124190174   -0.3641829884934955   -0.26442491755913733
2.367715460771977   0.42109820603325815   0.1736908686889161
2.367715460771977   0.42109820603325815   0.1736908686889161
2.367715460771977   0.42109820603325815   0.1736908686889161
2.367715460771977   0.42109820603325815   0.1736908686889161
1.3939735889640463   0.07002880614902285   -0.03254169066331944
1.3939735889640463   0.07002880614902285   -0.03254169066331944
1.3939735889640463   0.07002880614902285   -0.03254169066331944
1.3939735889640463   0.07002880614902285   -0.03254169066331944
2.191419391859423   -0.01186917735523696   -0.2748220924853659
2.191419391859423   -0.01186917735523696   -0.2748220924853659
2.191419391859423   -0.01186917735523696   -0.2748220924853659
2.191419391859423   -0.01186917735523696   -0.2748220924853659
0.5902420897782998   0.06327725451884317   0.1620594821105184
0.5902420897782998   0.06327725451884317   0.1620594821105184
0.5902420897782998   0.06327725451884317   0.1620594821105184
0.5902420897782998   0.06327725451884317   0.1620594821105184
0.3136996555017478   -0.41617534873312867   -0.22427669968606173
0.3136996555017478   -0.41617534873312867   -0.22427669968606173
0.3136996555017478   -0.41617534873312867   -0.22427669968606173
0.3136996555017478   -0.41617534873312867   -0.22427669968606173
2.1776489863752704   0.34931160931679744   0.22270243026064684
2.1776489863752704   0.34931160931679744   0.22270243026064684
2.1776489863752704   0.34931160931679744   0.22270243026064684
2.1776489863752704   0.34931160931679744   0.22270243026064684
1.260362939192253   -0.01100642380830913   -0.08538371928622251
1.260362939192253   -0.01100642380830913   -0.08538371928622251
1.260362939192253   -0.01100642380830913   -0.08538371928622251
1.260362939192253   -0.01100642380830913   -0.08538371928622251
2.00247978014971   -0.07860865181366761   -0.22522333973671882
2.00247978014971   -0.07860865181366761   -0.22522333973671882
2.00247978014971   -0.07860865181366761   -0.22522333973671882
2.00247978014971   -0.07860865181366761   -0.22522333973671882
0.48152903081142207   0.004405081481446804   0.19428974664774185
0.48152903081142207   0.004405081481446804   0.19428974664774185
0.48152903081142207   0.004405081481446804   0.19428974664774185
0.48152903081142207   0.004405081481446804   0.19428974664774185
0.21905237464591068   -0.47971731240638676   -0.18665947863166024
0.21905237464591068   -0.47971731240638676   -0.18665947863166024
0.21905237464591068   -0.47971731240638676   -0.18665947863166024
0.21905237464591068   -0.47971731240638676   -0.18665947863166024
1.9425302458043576   0.23391149916658538   0.24690404955242828
1.9425302458043576   0.23391149916658538   0.24690404955242828
1.9425302458043576   0.23391149916658538   0.24690404955242828
1.9425302458043576   0.23391149916658538   0.24690404955242828
1.077859609414471   -0.08352791851896815   -0.14960037983251118
1.077859609414471   -0.08352791851896815   -0.14960037983251118
1.077859609414471   -0.08352791851896815   -0.14960037983251118
1.077859609414471   -0.08352791851896815   -0.14960037983251118
0.6698664341609617   0.2670781561186271   -0.0880900340529008
0.6698664341609617   0.2670781561186271   -0.0880900340529008
0.6698664341609617   0.2670781561186271   -0.0880900340529008
0.6698664341609617   0.2670781561186271   -0.0880900340529008
-1.0139463566868132   0.08843865021433295   0.03566830580001909
-1.0139463566868132   0.08843865021433295   0.03566830580001909
-1.0139463566868132   0.08843865021433295   0.03566830580001909
-1.0139463566868132   0.08843865021433295   0.03566830580001909
-1.1941158508650556   -0.2329278856741005   -0.15394538794262574
-1.1941158508650556   -0.2329278856741005   -0.15394538794262574
-1.1941158508650556   -0.2329278856741005   -0.15394538794262574
-1.1941158508650556   -0.2329278856741005   -0.15394538794262574
0.6442002264764786   0.33182120935547266   0.16330621076478263
0.6442002264764786   0.33182120935547266   0.16330621076478263
0.6442002264764786   0.33182120935547266   0.16330621076478263
0.6442002264764786   0.33182120935547266   0.16330621076478263
-0.22926144456505035   0.1088568973860931   0.027025885869325826
-0.22926144456505035   0.1088568973860931   0.027025885869325826
-0.22926144456505035   0.1088568973860931   0.027025885869325826
-0.22926144456505035   0.1088568973860931   0.027025885869325826
0.559333825238157   0.13559184160066315   -0.06479642767201998
0.559333825238157   0.13559184160066315   -0.06479642767201998
0.559333825238157   0.13559184160066315   -0.06479642767201998
0.559333825238157   0.13559184160066315   -0.06479642767201998
-1.1139080634786174   -0.04135713177121586   0.0555227950866814
-1.1139080634786174   -0.04135713177121586   0.0555227950866814
-1.1139080634786174   -0.04135713177121586   0.0555227950866814
-1.1139080634786174   -0.04135713177121586   0.0555227950866814
-1.2887525570093057   -0.3387492736427016   -0.12030316027605359
-1.2887525570093057   -0.3387492736427016   -0.12030316027605359
-1.2887525570093057   -0.3387492736427016   -0.12030316027605359
-1.2887525570093057   -0.3387492736427016   -0.12030316027605359
0.5200231982940953   0.21317117719386725   0.17799448834868767
0.5200231982940953   0.21317117719386725   0.17799448834868767
0.5200231982940953   0.21317117719386725   0.17799448834868767
0.5200231982940953   0.21317117719386725   0.17799448834868767
-0.34601540583411533   -0.0049522981889956325   -0.027472250432872998
-0.34601540583411533   -0.0049522981889956325   -0.027472250432872998
-0.34601540583411533   -0.0049522981889956325   -0.027472250432872998
-0.34601540583411533   -0.0049522981889956325   -0.027472250432872998
0.4376932331880964   0.022086403712083397   -0.042570563699530585
0.4376932331880964   0.022086403712083397   -0.042570563699530585
0.4376932331880964   0.022086403712083397   -0.042570563699530585
0.4376932331880964   0.022086403712083397   -0.042570563699530585
-1.2124471255903353   -0.15368903384794508   0.07616375702405674
-1.2124471255903353   -0.15368903384794508   0.07616375702405674
-1.2124471255903353   -0.15368903384794508   0.07616375702405674
-1.2124471255903353   -0.15368903384794508   0.07616375702405674
-1.38268788857637   -0.44410485351994466   -0.08988515918966908
-1.38268788857637   -0.44410485351994466   -0.08988515918966908
-1.38268788857637   -0.44410485351994466   -0.08988515918966908
-1.38268788857637   -0.44410485351994466   -0.08988515918966908
0.4113072235731501   0.09627757057862853   0.19861988301952918
0.4113072235731501   0.09627757057862853   0.19861988301952918
0.4113072235731501   0.09627757057862853   0.19861988301952918
0.4113072235731501   0.09627757057862853   0.19861988301952918
-0.4473895792517571   -0.1073161928767647   -0.07906402469060277
-0.4473895792517571   -0.1073161928767647   -0.07906402469060277
-0.4473895792517571   -0.1073161928767647   -0.07906402469060277
-0.4473895792517571   -0.1073161928767647   -0.07906402469060277
-0.9624638775516373   0.3687906398627946   0.012728711827436928
-0.9624638775516373   0.3687906398627946   0.012728711827436928
-0.9624638775516373   0.3687906398627946   0.012728711827436928
-0.9624638775516373   0.3687906398627946   0.012728711827436928
-2.7053536595499583   -0.030178955375767313   -0.07384195860120707
-2.7053536595499583   -0.030178955375767313   -0.07384195860120707
-2.7053536595499583   -0.030178955375767313   -0.07384195860120707
-2.7053536595499583   -0.030178955375767313   -0.07384195860120707
-2.790454098210118   -0.11209879322208205   -0.04387810825697494
-2.790454098210118   -0.11209879322208205   -0.04387810825697494
-2.790454098210118   -0.11209879322208205   -0.04387810825697494
-2.790454098210118   -0.11209879322208205   -0.04387810825697494
-1.0627118086186258   0.2182662102038468   0.051880727411559316
-1.0627118086186258   0.2182662102038468   0.051880727411559316
-1.0627118086186258   0.2182662102038468   0.051880727411559316
-1.0627118086186258   0.2182662102038468   0.051880727411559316
-1.8758442020274992   0.10896509869024806   0.028170957418131193
-1.8758442020274992   0.10896509869024806   0.028170957418131193
-1.8758442020274992   0.10896509869024806   0.028170957418131193
-1.8758442020274992   0.10896509869024806   0.028170957418131193
-1.0574999807336547   0.2520907227772177   0.044115354263060486
-1.0574999807336547   0.2520907227772177   0.044115354263060486
-1.0574999807336547   0.2520907227772177   0.044115354263060486
-1.0574999807336547   0.2520907227772177   0.044115354263060486
-2.7997320152583156   -0.14998939495864083   -0.05237709176143446
-2.7997320152583156   -0.14998939495864083   -0.05237709176143446
-2.7997320152583156   -0.14998939495864083   -0.05237709176143446
-2.7997320152583156   -0.14998939495864083   -0.05237709176143446
-2.884651374917804   -0.22762000239986013   -0.013345557685698034
-2.884651374917804   -0.22762000239986013   -0.013345557685698034
-2.884651374917804   -0.22762000239986013   -0.013345557685698034
-2.884651374917804   -0.22762000239986013   -0.013345557685698034
-1.162627460926193   0.09793558712116668   0.07363745937564124
-1.162627460926193   0.09793558712116668   0.07363745937564124
-1.162627460926193   0.09793558712116668   0.07363745937564124
-1.162627460926193   0.09793558712116668   0.07363745937564124
-1.974155937354861   -0.0006738609289901887   -0.020738142065025722
-1.974155937354861   -0.0006738609289901887   -0.020738142065025722
-1.974155937354861   -0.0006738609289901887   -0.020738142065025722
-1.974155937354861   -0.0006738609289901887   -0.020738142065025722
-1.1556431965421659   0.1351246820798327   0.07136968633712723
-1.1556431965421659   0.1351246820798327   0.07136968633712723
-1.1556431965421659   0.1351246820798327   0.07136968633712723
-1.1556431965421659   0.1351246820798327   0.07136968633712723
-2.897421570226641   -0.2705950282833381   -0.03422150834643496
-2.897421570226641   -0.2705950282833381   -0.03422150834643496
-2.897421570226641   -0.2705950282833381   -0.03422150834643496
-2.897421570226641   -0.2705950282833381   -0.03422150834643496
-2.9770908454136196   -0.3392140317132908   0.01615926399145698
-2.9770908454136196   -0.3392140317132908   0.01615926399145698
-2.9770908454136196   -0.3392140317132908   0.01615926399145698
-2.9770908454136196   -0.3392140317132908   0.01615926399145698
-1.260770878744601   -0.018034813927968324   0.09362985037719818
-1.260770878744601   -0.018034813927968324   0.09362985037719818
-1.260770878744601   -0.018034813927968324   0.09362985037719818
-1.260770878744601   -0.018034813927968324   0.09362985037719818
-2.077553247714604   -0.11060201371931355   -0.07381791035970162
-2.077553247714604   -0.11060201371931355   -0.07381791035970162
-2.077553247714604   -0.11060201371931355   -0.07381791035970162
-2.077553247714604   -0.11060201371931355   -0.07381791035970162
-2.5683779421764257   0.464917326080426   0.1159403468102635
-2.5683779421764257   0.464917326080426   0.1159403468102635
-2.5683779421764257   0.464917326080426   0.1159403468102635
-2.5683779421764257   0.464917326080426   0.1159403468102635
-4.357807057728452   -0.12692486473539377   -0.1693079772289542
-4.357807057728452   -0.12692486473539377   -0.1693079772289542
-4.357807057728452   -0.12692486473539377   -0.1693079772289542
-4.357807057728452   -0.12692486473539377   -0.1693079772289542
-4.366300343718103   -0.005075898587168504   0.07294836223631143
-4.366300343718103   -0.005075898587168504   0.07294836223631143
-4.366300343718103   -0.005075898587168504   0.07294836223631143
-4.366300343718103   -0.005075898587168504   0.07294836223631143
-2.747652318326414   0.11191491435062162   -0.05388291641122189
-2.747652318326414   0.11191491435062162   -0.05388291641122189
-2.747652318326414   0.11191491435062162   -0.05388291641122189
-2.747652318326414   0.11191491435062162   -0.05388291641122189
-3.492403522623446   0.11109164292129825   0.037365523854316574
-3.492403522623446   0.11109164292129825   0.037365523854316574
-3.492403522623446   0.11109164292129825   0.037365523854316574
-3.492403522623446   0.11109164292129825   0.037365523854316574
-2.659536571158389   0.35117444186119084   0.14743629191839516
-2.659536571158389   0.35117444186119084   0.14743629191839516
-2.659536571158389   0.35117444186119084   0.14743629191839516
-2.659536571158389   0.35117444186119084   0.14743629191839516
-4.462248381853176   -0.252167717064822   -0.15970000996143274
-4.462248381853176   -0.252167717064822   -0.15970000996143274
-4.462248381853176   -0.252167717064822   -0.15970000996143274
-4.462248381853176   -0.252167717064822   -0.15970000996143274
-4.482209546152585   -0.11890651561679955   0.0894317651146744
-4.482209546152585   -0.11890651561679955   0.0894317651146744
-4.482209546152585   -0.11890651561679955   0.0894317651146744
-4.482209546152585   -0.11890651561679955   0.0894317651146744
-2.842344795623401   0.0012242543575974318   -0.030656917971202458
-2.842344795623401   0.0012242543575974318   -0.030656917971202458
-2.842344795623401   0.0012242543575974318   -0.030656917971202458
-2.842344795623401   0.0012242543575974318   -0.030656917971202458
-3.5761898684212445   0.00878019151509013   -0.013952159327137253
-3.5761898684212445   0.00878019151509013   -0.013952159327137253
-3.5761898684212445   0.00878019151509013   -0.013952159327137253
-3.5761898684212445   0.00878019151509013   -0.013952159327137253
-2.75187882544309   0.24487726079980066   0.17801992648818118
-2.75187882544309   0.24487726079980066   0.17801992648818118
-2.75187882544309   0.24487726079980066   0.17801992648818118
-2.75187882544309   0.24487726079980066   0.17801992648818118
-4.577550642097357   -0.36743464782347934   -0.13874558240263107
-4.577550642097357   -0.36743464782347934   -0.13874558240263107
-4.577550642097357   -0.36743464782347934   -0.13874558240263107
-4.577550642097357   -0.36743464782347934   -0.13874558240263107
-4.582459131435309   -0.23734632697559688   0.12129748648512631
-4.582459131435309   -0.23734632697559688   0.12129748648512631
-4.582459131435309   -0.23734632697559688   0.12129748648512631
-4.582459131435309   -0.23734632697559688   0.12129748648512631
-2.938191924022951   -0.11691965609959964   -0.011640504668949198
-2.938191924022951   -0.11691965609959964   -0.011640504668949198
-2.938191924022951   -0.11691965609959964   -0.011640504668949198
-2.938191924022951   -0.11691965609959964   -0.011640504668949198
-3.700108217606331   -0.1022998388341606   -0.06972706161007039
-3.700108217606331   -0.1022998388341606   -0.06972706161007039
-3.700108217606331   -0.1022998388341606   -0.06972706161007039
-3.700108217606331   -0.1022998388341606   -0.06972706161007039
-4.166003929834197   0.4572999773137153   0.2054828201932707
-4.166003929834197   0.4572999773137153   0.2054828201932707
-4.166003929834197   0.4572999773137153   0.2054828201932707
-4.166003929834197   0.4572999773137153   0.2054828201932707
-5.8522892726269236   -0.26811529259872424   -0.25871861365679205
-5.8522892726269236   -0.26811529259872424   -0.25871861365679205
-5.8522892726269236   -0.26811529259872424   -0.25871861365679205
-5.8522892726269236   -0.26811529259872424   -0.25871861365679205
-5.895822741664606   0.0801274487193413   0.2160815673283104
-5.895822741664606   0.0801274487193413   0.2160815673283104
-5.895822741664606   0.0801274487193413   0.2160815673283104
-5.895822741664606   0.0801274487193413   0.2160815673283104
-4.414619320197189   -0.015364134975605959   -0.1583582837707439
-4.414619320197189   -0.015364134975605959   -0.1583582837707439
-4.414619320197189   -0.015364134975605959   -0.1583582837707439
-4.414619320197189   -0.015364134975605959   -0.1583582837707439
-4.864195837553237   0.11090383029643736   0.11686141292366192
-4.864195837553237   0.11090383029643736   0.11686141292366192
-4.864195837553237   0.11090383029643736   0.11686141292366192
-4.864195837553237   0.11090383029643736   0.11686141292366192
-4.248269079093479   0.415023020935287   0.24300576583691147
-4.248269079093479   0.415023020935287   0.24300576583691147
-4.248269079093479   0.415023020935287   0.24300576583691147
-4.248269079093479   0.415023020935287   0.24300576583691147
-6.070487993752785   -0.35857471817595943   -0.21854252621716033
-6.070487993752785   -0.35857471817595943   -0.21854252621716033
-6.070487993752785   -0.35857471817595943   -0.21854252621716033
-6.070487993752785   -0.35857471817595943   -0.21854252621716033
-6.076105180632426   0.01630993237443068   0.2761196684337097
-6.076105180632426   0.01630993237443068   0.2761196684337097
-6.076105180632426   0.01630993237443068   0.2761196684337097
-6.076105180632426   0.01630993237443068   0.2761196684337097
-4.518948015833009   -0.07713392129994523   -0.1360331776044256
-4.518948015833009   -0.07713392129994523   -0.1360331776044256
-4.518948015833009   -0.07713392129994523   -0.1360331776044256
-4.518948015833009   -0.07713392129994523   -0.1360331776044256
-5.093658068602369   0.03528616569107035   0.04087841402073933
-5.093658068602369   0.03528616569107035   0.04087841402073933
-5.093658068602369   0.03528616569107035   0.04087841402073933
-5.093658068602369   0.03528616569107035   0.04087841402073933
-4.345470214229759   0.3650478114921295   0.2891740976197816
-4.345470214229759   0.3650478114921295   0.2891740976197816
-4.345470214229759   0.3650478114921295   0.2891740976197816
-4.345470214229759   0.3650478114921295   0.2891740976197816
-6.257492552708242   -0.4337813708901941   -0.18072588868068168
-6.257492552708242   -0.4337813708901941   -0.18072588868068168
-6.257492552708242   -0.4337813708901941   -0.18072588868068168
-6.257492552708242   -0.4337813708901941   -0.18072588868068168
-6.325616905222557   -0.1644341249580754   0.2854000193038824
-6.325616905222557   -0.1644341249580754   0.2854000193038824
-6.325616905222557   -0.1644341249580754   0.2854000193038824
-6.325616905222557   -0.1644341249580754   0.2854000193038824
-4.626535657315367   -0.2178131783410684   -0.11861829154975084
-4.626535657315367   -0.2178131783410684   -0.11861829154975084
-4.626535657315367   -0.2178131783410684   -0.11861829154975084
-4.626535657315367   -0.2178131783410684   -0.11861829154975084
-5.169906426446656   -0.044833529385400306   -0.004632423413995002
-5.169906426446656   -0.044833529385400306   -0.004632423413995002
-5.169906426446656   -0.044833529385400306   -0.004632423413995002
-5.169906426446656   -0.044833529385400306   -0.004632423413995002
0.39636179022736556   0.03272992362682614   -0.298253521901293
0.39636179022736556   0.03272992362682614   -0.298253521901293
0.39636179022736556   0.03272992362682614   -0.298253521901293
0.39636179022736556   0.03272992362682614   -0.298253521901293
-0.5109578688295433   0.22466575726646576   0.15315317036859144
-0.5109578688295433   0.22466575726646576   0.15315317036859144
-0.5109578688295433   0.22466575726646576   0.15315317036859144
-0.5109578688295433   0.22466575726646576   0.15315317036859144
-0.7539538832215815   -0.28594959074205484   -0.23987877119433562
-0.7539538832215815   -0.28594959074205484   -0.23987877119433562
-0.7539538832215815   -0.28594959074205484   -0.23987877119433562
-0.7539538832215815   -0.28594959074205484   -0.23987877119433562
0.359536760892819   0.31230082949721444   0.18839358879589385
0.359536760892819   0.31230082949721444   0.18839358879589385
0.359536760892819   0.31230082949721444   0.18839358879589385
0.359536760892819   0.31230082949721444   0.18839358879589385
-0.13567173818046704   0.06847324667188107   0.026157624409766475
-0.13567173818046704   0.06847324667188107   0.026157624409766475
-0.13567173818046704   0.06847324667188107   0.026157624409766475
-0.13567173818046704   0.06847324667188107   0.026157624409766475
0.18547743338893083   -0.10334001418862644   -0.26626220503770615
0.18547743338893083   -0.10334001418862644   -0.26626220503770615
0.18547743338893083   -0.10334001418862644   -0.26626220503770615
0.18547743338893083   -0.10334001418862644   -0.26626220503770615
-0.5902663439507121   0.11931946471076729   0.17328986970718935
-0.5902663439507121   0.11931946471076729   0.17328986970718935
-0.5902663439507121   0.11931946471076729   0.17328986970718935
-0.5902663439507121   0.11931946471076729   0.17328986970718935
-0.8338246134928927   -0.33813068604011487   -0.20303544665550635
-0.8338246134928927   -0.33813068604011487   -0.20303544665550635
-0.8338246134928927   -0.33813068604011487   -0.20303544665550635
-0.8338246134928927   -0.33813068604011487   -0.20303544665550635
0.1946305094507702   0.24129219743218105   0.25801104598703967
0.1946305094507702   0.24129219743218105   0.25801104598703967
0.1946305094507702   0.24129219743218105   0.25801104598703967
0.1946305094507702   0.24129219743218105   0.25801104598703967
-0.26645633140073716   -0.009656047576602107   -0.034294371903418025
-0.26645633140073716   -0.009656047576602107   -0.034294371903418025
-0.26645633140073716   -0.009656047576602107   -0.034294371903418025
-0.26645633140073716   -0.009656047576602107   -0.034294371903418025
0.016649019337641367   -0.17129142631015956   -0.21931278083626396
0.016649019337641367   -0.17129142631015956   -0.21931278083626396
0.016649019337641367   -0.17129142631015956   -0.21931278083626396
0.016649019337641367   -0.17129142631015956   -0.21931278083626396
-0.6701975297459349   0.06009853133605349   0.21687075470310682
-0.6701975297459349   0.06009853133605349   0.21687075470310682
-0.6701975297459349   0.06009853133605349   0.21687075470310682
-0.6701975297459349   0.06009853133605349   0.21687075470310682
-0.9070026818685111   -0.41899522782846943   -0.16809665775022264
-0.9070026818685111   -0.41899522782846943   -0.16809665775022264
-0.9070026818685111   -0.41899522782846943   -0.16809665775022264
-0.9070026818685111   -0.41899522782846943   -0.16809665775022264
-0.03436464059129096   0.09200638654861956   0.2938092905772925
-0.03436464059129096   0.09200638654861956   0.2938092905772925
-0.03436464059129096   0.09200638654861956   0.2938092905772925
-0.03436464059129096   0.09200638654861956   0.2938092905772925
-0.405464890327021   -0.08859906528874073   -0.10372261869021321
-0.405464890327021   -0.08859906528874073   -0.10372261869021321
-0.405464890327021   -0.08859906528874073   -0.10372261869021321
-0.405464890327021   -0.08859906528874073   -0.10372261869021321
-0.581636231510024   0.14387703078022226   -0.1194499165475687
-0.581636231510024   0.14387703078022226   -0.1194499165475687
-0.581636231510024   0.14387703078022226   -0.1194499165475687
-0.581636231510024   0.14387703078022226   -0.1194499165475687
-1.4344996592201915   0.060203962491633956   0.04029252252400399
-1.4344996592201915   0.060203962491633956   0.04029252252400399
-1.4344996592201915   0.060203962491633956   0.04029252252400399
-1.4344996592201915   0.060203962491633956   0.04029252252400399
-1.5594907347951237   -0.16646238023406904   -0.12442077591132342
-1.5594907347951237   -0.16646238023406904   -0.12442077591132342
-1.5594907347951237   -0.16646238023406904   -0.12442077591132342
-1.5594907347951237   -0.16646238023406904   -0.12442077591132342
-0.5973282112115504   0.1386283730623903   0.11867162505137491
-0.5973282112115504   0.1386283730623903   0.11867162505137491
-0.5973282112115504   0.1386283730623903   0.11867162505137491
-0.5973282112115504   0.1386283730623903   0.11867162505137491
-1.0409693422738349   0.04123116079116884   0.021719015133680727
-1.0409693422738349   0.04123116079116884   0.021719015133680727
-1.0409693422738349   0.04123116079116884   0.021719015133680727
-1.0409693422738349   0.04123116079116884   0.021719015133680727
-0.6648548078274725   0.01773530279046459   -0.09806828775630644
-0.6648548078274725   0.01773530279046459   -0.09806828775630644
-0.6648548078274725   0.01773530279046459   -0.09806828775630644
-0.6648548078274725   0.01773530279046459   -0.09806828775630644
-1.5004219238179353   -0.05402709560087893   0.05848799434141344
-1.5004219238179353   -0.05402709560087893   0.05848799434141344
-1.5004219238179353   -0.05402709560087893   0.05848799434141344
-1.5004219238179353   -0.05402709560087893   0.05848799434141344
-1.6215859348303092   -0.2690602267360774   -0.09155339817663079
-1.6215859348303092   -0.2690602267360774   -0.09155339817663079
-1.6215859348303092   -0.2690602267360774   -0.09155339817663079
-1.6215859348303092   -0.2690602267360774   -0.09155339817663079
-0.6937755965127669   0.025295688293645924   0.1337832639113541
-0.6937755965127669   0.025295688293645924   0.1337832639113541
-0.6937755965127669   0.025295688293645924   0.1337832639113541
-0.6937755965127669   0.025295688293645924   0.1337832639113541
-1.1194324549833672   -0.06151268028089815   -0.029746389772364462
-1.1194324549833672   -0.06151268028089815   -0.029746389772364462
-1.1194324549833672   -0.06151268028089815   -0.029746389772364462
-1.1194324549833672   -0.06151268028089815   -0.029746389772364462
-0.7588041621557193   -0.09283830647315346   -0.0732255695366011
-0.7588041621557193   -0.09283830647315346   -0.0732255695366011
-0.7588041621557193   -0.09283830647315346   -0.0732255695366011
-0.7588041621557193   -0.09283830647315346   -0.0732255695366011
-1.5656239265084775   -0.1599927892903974   0.07918920598684799
-1.5656239265084775   -0.1599927892903974   0.07918920598684799
-1.5656239265084775   -0.1599927892903974   0.07918920598684799
-1.5656239265084775   -0.1599927892903974   0.07918920598684799
-1.6840910106370424   -0.3750119744900572   -0.06242960811370708
-1.6840910106370424   -0.3750119744900572   -0.06242960811370708
-1.6840910106370424   -0.3750119744900572   -0.06242960811370708
-1.6840910106370424   -0.3750119744900572   -0.06242960811370708
-0.7743803618960975   -0.08999563976874259   0.1660153540521151
-0.7743803618960975   -0.08999563976874259   0.1660153540521151
-0.7743803618960975   -0.08999563976874259   0.1660153540521151
-0.7743803618960975   -0.08999563976874259   0.1660153540521151
-1.1980622561442387   -0.16358718804861455   -0.08220705473609645
-1.1980622561442387   -0.16358718804861455   -0.08220705473609645
-1.1980622561442387   -0.16358718804861455   -0.08220705473609645
-1.1980622561442387   -0.16358718804861455   -0.08220705473609645
-1.4088793915400786   0.2413365455247396   -0.012738722108552647
-1.4088793915400786   0.2413365455247396   -0.012738722108552647
-1.4088793915400786   0.2413365455247396   -0.012738722108552647
-1.4088793915400786   0.2413365455247396   -0.012738722108552647
-2.3512333479058745   -0.07969786905792448   -0.06592650711346153
-2.3512333479058745   -0.07969786905792448   -0.06592650711346153
-2.3512333479058745   -0.07969786905792448   -0.06592650711346153
-2.3512333479058745   -0.07969786905792448   -0.06592650711346153
-2.375622944794675   -0.05735850773815121   -0.013331726122627119
-2.375622944794675   -0.05735850773815121   -0.013331726122627119
-2.375622944794675   -0.05735850773815121   -0.013331726122627119
-2.375622944794675   -0.05735850773815121   -0.013331726122627119
-1.4954789440363476   0.010933270488355074   0.018242527160116997
-1.4954789440363476   0.010933270488355074   0.018242527160116997
-1.4954789440363476   0.010933270488355074   0.018242527160116997
-1.4954789440363476   0.010933270488355074   0.018242527160116997
-1.9038729944425472   0.02703278500175138   0.006942262405306557
-1.9038729944425472   0.02703278500175138   0.006942262405306557
-1.9038729944425472   0.02703278500175138   0.006942262405306557
-1.9038729944425472   0.02703278500175138   0.006942262405306557
-1.4717355982450586   0.12971984343106746   0.01817268317384979
-1.4717355982450586   0.12971984343106746   0.01817268317384979
-1.4717355982450586   0.12971984343106746   0.01817268317384979
-1.4717355982450586   0.12971984343106746   0.01817268317384979
-2.407481865013757   -0.18426065510865602   -0.045724179847529675
-2.407481865013757   -0.18426065510865602   -0.045724179847529675
-2.407481865013757   -0.18426065510865602   -0.045724179847529675
-2.407481865013757   -0.18426065510865602   -0.045724179847529675
-2.4337960937597125   -0.16756670522360656   0.01729463048529449
-2.4337960937597125   -0.16756670522360656   0.01729463048529449
-2.4337960937597125   -0.16756670522360656   0.01729463048529449
-2.4337960937597125   -0.16756670522360656   0.01729463048529449
-1.5614097646222453   -0.09735718264426296   0.03762440877187462
-1.5614097646222453   -0.09735718264426296   0.03762440877187462
-1.5614097646222453   -0.09735718264426296   0.03762440877187462
-1.5614097646222453   -0.09735718264426296   0.03762440877187462
-1.9670073011392537   -0.07319345534664656   -0.04033788097374155
-1.9670073011392537   -0.07319345534664656   -0.04033788097374155
-1.9670073011392537   -0.07319345534664656   -0.04033788097374155
-1.9670073011392537   -0.07319345534664656   -0.04033788097374155
-1.5368689619578   0.01746170244140377   0.04550953700843356
-1.5368689619578   0.01746170244140377   0.04550953700843356
-1.5368689619578   0.01746170244140377   0.04550953700843356
-1.5368689619578   0.01746170244140377   0.04550953700843356
-2.468113361212717   -0.29216205509783766   -0.029696356905526855
-2.468113361212717   -0.29216205509783766   -0.029696356905526855
-2.468113361212717   -0.29216205509783766   -0.029696356905526855
-2.468113361212717   -0.29216205509783766   -0.029696356905526855
-2.4904758748000524   -0.27337964159936234   0.04661070807567947
-2.4904758748000524   -0.27337964159936234   0.04661070807567947
-2.4904758748000524   -0.27337964159936234   0.04661070807567947
-2.4904758748000524   -0.27337964159936234   0.04661070807567947
-1.6246395433088299   -0.19964073870628674   0.059456492743599626
-1.6246395433088299   -0.19964073870628674   0.059456492743599626
-1.6246395433088299   -0.19964073870628674   0.059456492743599626
-1.6246395433088299   -0.19964073870628674   0.059456492743599626
-2.0349467956660092   -0.17409172157248992   -0.09170306974367906
-2.0349467956660092   -0.17409172157248992   -0.09170306974367906
-2.0349467956660092   -0.17409172157248992   -0.09170306974367906
-2.0349467956660092   -0.17409172157248992   -0.09170306974367906
-2.2324086622351147   0.3514301835379662   0.09706886864450837
-2.2324086622351147   0.3514301835379662   0.09706886864450837
-2.2324086622351147   0.3514301835379662   0.09706886864450837
-2.2324086622351147   0.3514301835379662   0.09706886864450837
-3.230191732469283   -0.13172413979311692   -0.14824077236226244
-3.230191732469283   -0.13172413979311692   -0.14824077236226244
-3.230191732469283   -0.13172413979311692   -0.14824077236226244
-3.230191732469283   -0.13172413979311692   -0.14824077236226244
-3.1860496232819484   0.055310138711713086   0.10149051034976952
-3.1860496232819484   0.055310138711713086   0.10149051034976952
-3.1860496232819484   0.055310138711713086   0.10149051034976952
-3.1860496232819484   0.055310138711713086   0.10149051034976952
-2.384495334961509   -0.04867737831828728   -0.06637480637666172
-2.384495334961509   -0.04867737831828728   -0.06637480637666172
-2.384495334961509   -0.04867737831828728   -0.06637480637666172
-2.384495334961509   -0.04867737831828728   -0.06637480637666172
-2.7489938019790885   0.05707080514827312   0.012682511139000263
-2.7489938019790885   0.05707080514827312   0.012682511139000263
-2.7489938019790885   0.05707080514827312   0.012682511139000263
-2.7489938019790885   0.05707080514827312   0.012682511139000263
-2.2878195668083388   0.2402694826255105   0.1280571734453927
-2.2878195668083388   0.2402694826255105   0.1280571734453927
-2.2878195668083388   0.2402694826255105   0.1280571734453927
-2.2878195668083388   0.2402694826255105   0.1280571734453927
-3.2945691609049415   -0.24548049170193792   -0.14031654735160587
-3.2945691609049415   -0.24548049170193792   -0.14031654735160587
-3.2945691609049415   -0.24548049170193792   -0.14031654735160587
-3.2945691609049415   -0.24548049170193792   -0.14031654735160587
-3.264112630934488   -0.053047700399297515   0.11975114355540967
-3.264112630934488   -0.053047700399297515   0.11975114355540967
-3.264112630934488   -0.053047700399297515   0.11975114355540967
-3.264112630934488   -0.053047700399297515   0.11975114355540967
-2.4421745394299066   -0.1469614328168778   -0.04520287027240405
-2.4421745394299066   -0.1469614328168778   -0.04520287027240405
-2.4421745394299066   -0.1469614328168778   -0.04520287027240405
-2.4421745394299066   -0.1469614328168778   -0.04520287027240405
-2.80208258189326   -0.03954545721155811   -0.038577282361491744
-2.80208258189326   -0.03954545721155811   -0.038577282361491744
-2.80208258189326   -0.03954545721155811   -0.038577282361491744
-2.80208258189326   -0.03954545721155811   -0.038577282361491744
-2.344377863004471   0.13859403356933075   0.15822504546853428
-2.344377863004471   0.13859403356933075   0.15822504546853428
-2.344377863004471   0.13859403356933075   0.15822504546853428
-2.344377863004471   0.13859403356933075   0.15822504546853428
-3.371261571314779   -0.3479554307403667   -0.12108582800497575
-3.371261571314779   -0.3479554307403667   -0.12108582800497575
-3.371261571314779   -0.3479554307403667   -0.12108582800497575
-3.371261571314779   -0.3479554307403667   -0.12108582800497575
-3.3276002866954366   -0.16200723338730938   0.1523299715649886
-3.3276002866954366   -0.16200723338730938   0.1523299715649886
-3.3276002866954366   -0.16200723338730938   0.1523299715649886
-3.3276002866954366   -0.16200723338730938   0.1523299715649886
-2.50003158585523   -0.24741658165425934   -0.02713090714531309
-2.50003158585523   -0.24741658165425934   -0.02713090714531309
-2.50003158585523   -0.24741658165425934   -0.02713090714531309
-2.50003158585523   -0.24741658165425934   -0.02713090714531309
-2.8817664671631924   -0.13779086840212496   -0.0909972167723431
-2.8817664671631924   -0.13779086840212496   -0.0909972167723431
-2.8817664671631924   -0.13779086840212496   -0.0909972167723431
-2.8817664671631924   -0.13779086840212496   -0.0909972167723431
-3.059741752286401   0.38049577662708   0.19178921213195083
-3.059741752286401   0.38049577662708   0.19178921213195083
-3.059741752286401   0.38049577662708   0.19178921213195083
-3.059741752286401   0.38049577662708   0.19178921213195083
-3.923463860803355   -0.1951042271955219   -0.24940672849089685
-3.923463860803355   -0.1951042271955219   -0.24940672849089685
-3.923463860803355   -0.1951042271955219   -0.24940672849089685
-3.923463860803355   -0.1951042271955219   -0.24940672849089685
-3.9260894301572975   0.15629414839364197   0.21140324303560487
-3.9260894301572975   0.15629414839364197   0.21140324303560487
-3.9260894301572975   0.15629414839364197   0.21140324303560487
-3.9260894301572975   0.15629414839364197   0.21140324303560487
-3.2706273948444093   -0.11342094322684892   -0.15266726552403576
-3.2706273948444093   -0.11342094322684892   -0.15266726552403576
-3.2706273948444093   -0.11342094322684892   -0.15266726552403576
-3.2706273948444093   -0.11342094322684892   -0.15266726552403576
-3.4020379341460547   0.09143464115319988   0.06469594574686682
-3.4020379341460547   0.09143464115319988   0.06469594574686682
-3.4020379341460547   0.09143464115319988   0.06469594574686682
-3.4020379341460547   0.09143464115319988   0.06469594574686682
-3.1075623379824266   0.32297194444445865   0.22626513111457167
-3.1075623379824266   0.32297194444445865   0.22626513111457167
-3.1075623379824266   0.32297194444445865   0.22626513111457167
-3.1075623379824266   0.32297194444445865   0.22626513111457167
-4.101413650821119   -0.29235790307947274   -0.216565808810322
-4.101413650821119   -0.29235790307947274   -0.216565808810322
-4.101413650821119   -0.29235790307947274   -0.216565808810322
-4.101413650821119   -0.29235790307947274   -0.216565808810322
-4.068123317798704   0.0947570045308016   0.27259675351500356
-4.068123317798704   0.0947570045308016   0.27259675351500356
-4.068123317798704   0.0947570045308016   0.27259675351500356
-4.068123317798704   0.0947570045308016   0.27259675351500356
-3.3382154774567674   -0.16988423094469784   -0.1339265585105238
-3.3382154774567674   -0.16988423094469784   -0.1339265585105238
-3.3382154774567674   -0.16988423094469784   -0.1339265585105238
-3.3382154774567674   -0.16988423094469784   -0.1339265585105238
-3.5706248662968414   0.01647263244685404   -0.006080337267855673
-3.5706248662968414   0.01647263244685404   -0.006080337267855673
-3.5706248662968414   0.01647263244685404   -0.006080337267855673
-3.5706248662968414   0.01647263244685404   -0.006080337267855673
-3.1682498570260456   0.2745131737683826   0.2715041389300052
-3.1682498570260456   0.2745131737683826   0.2715041389300052
-3.1682498570260456   0.2745131737683826   0.2715041389300052
-3.1682498570260456   0.2745131737683826   0.2715041389300052
-4.250638650860222   -0.3621901128130144   -0.18303279444865136
-4.250638650860222   -0.3621901128130144   -0.18303279444865136
-4.250638650860222   -0.3621901128130144   -0.18303279444865136
-4.250638650860222   -0.3621901128130144   -0.18303279444865136
-4.27858270224127   -0.06680881031057206   0.28845059352863395
-4.27858270224127   -0.06680881031057206   0.28845059352863395
-4.27858270224127   -0.06680881031057206   0.28845059352863395
-4.27858270224127   -0.06680881031057206   0.28845059352863395
-3.4060449815820344   -0.28620776028751244   -0.1156929759678559
-3.4060449815820344   -0.28620776028751244   -0.1156929759678559
-3.4060449815820344   -0.28620776028751244   -0.1156929759678559
-3.4060449815820344   -0.28620776028751244   -0.1156929759678559
-3.636099345030629   -0.05755126473457195   -0.056569495186309215
-3.636099345030629   -0.05755126473457195   -0.056569495186309215
-3.636099345030629   -0.05755126473457195   -0.056569495186309215
-3.636099345030629   -0.05755126473457195   -0.056569495186309215
-1.7346230059105   -0.11383084407946503   -0.3156646992801058
-1.7346230059105   -0.11383084407946503   -0.3156646992801058
-1.7346230059105   -0.11383084407946503   -0.3156646992801058
-1.7346230059105   -0.11383084407946503   -0.3156646992801058
-1.6914025567609936   0.24343879129221357   0.14242082945455817
-1.6914025567609936   0.24343879129221357   0.14242082945455817
-1.6914025567609936   0.24343879129221357   0.14242082945455817
-1.6914025567609936   0.24343879129221357   0.14242082945455817
-1.898938686562221   -0.219737715290854   -0.21332368768940807
-1.898938686562221   -0.219737715290854   -0.21332368768940807
-1.898938686562221   -0.219737715290854   -0.21332368768940807
-1.898938686562221   -0.219737715290854   -0.21332368768940807
-1.7686799072110864   0.12276475178890245   0.21512848954907474
-1.7686799072110864   0.12276475178890245   0.21512848954907474
-1.7686799072110864   0.12276475178890245   0.21512848954907474
-1.7686799072110864   0.12276475178890245   0.21512848954907474
-1.6845156152468372   0.039955413916684335   0.14527238703910456
-1.6845156152468372   0.039955413916684335   0.14527238703910456
-1.6845156152468372   0.039955413916684335   0.14527238703910456
-1.6845156152468372   0.039955413916684335   0.14527238703910456
-1.936525821595785   -0.23738139239731937   -0.26395493818817123
-1.936525821595785   -0.23738139239731937   -0.26395493818817123
-1.936525821595785   -0.23738139239731937   -0.26395493818817123
-1.936525821595785   -0.23738139239731937   -0.26395493818817123
-1.7522179815485406   0.11928321952435395   0.1812589025637862
-1.7522179815485406   0.11928321952435395   0.1812589025637862
-1.7522179815485406   0.11928321952435395   0.1812589025637862
-1.7522179815485406   0.11928321952435395   0.1812589025637862
-1.9606865111632328   -0.2774010700245012   -0.1801382706823685
-1.9606865111632328   -0.2774010700245012   -0.1801382706823685
-1.9606865111632328   -0.2774010700245012   -0.1801382706823685
-1.9606865111632328   -0.2774010700245012   -0.1801382706823685
-1.9297203446932543   0.043983803437930624   0.3986810621313719
-1.9297203446932543   0.043983803437930624   0.3986810621313719
-1.9297203446932543   0.043983803437930624   0.3986810621313719
-1.9297203446932543   0.043983803437930624   0.3986810621313719
-1.83370617402495   -0.059225272625403   0.057572761107242604
-1.83370617402495   -0.059225272625403   0.057572761107242604
-1.83370617402495   -0.059225272625403   0.057572761107242604
-1.83370617402495   -0.059225272625403   0.057572761107242604
-2.122213456527228   -0.3146991197341147   -0.2051015738664412
-2.122213456527228   -0.3146991197341147   -0.2051015738664412
-2.122213456527228   -0.3146991197341147   -0.2051015738664412
-2.122213456527228   -0.3146991197341147   -0.2051015738664412
-1.81779561681128   0.03167963566552501   0.2252354953873695
-1.81779561681128   0.03167963566552501   0.2252354953873695
-1.81779561681128   0.03167963566552501   0.2252354953873695
-1.81779561681128   0.03167963566552501   0.2252354953873695
-2.011091682934986   -0.3903817046624335   -0.1414041231344008
-2.011091682934986   -0.3903817046624335   -0.1414041231344008
-2.011091682934986   -0.3903817046624335   -0.1414041231344008
-2.011091682934986   -0.3903817046624335   -0.1414041231344008
-2.1803795255497707   -0.21633755254059997   0.3733137086213778
-2.1803795255497707   -0.21633755254059997   0.3733137086213778
-2.1803795255497707   -0.21633755254059997   0.3733137086213778
-2.1803795255497707   -0.21633755254059997   0.3733137086213778
-1.9614058084116348   -0.17662374263178754   -0.0807308512390058
-1.9614058084116348   -0.17662374263178754   -0.0807308512390058
-1.9614058084116348   -0.17662374263178754   -0.0807308512390058
-1.9614058084116348   -0.17662374263178754   -0.0807308512390058
-1.8124558169803557   -0.05610592469598741   -0.16330075565406124
-1.8124558169803557   -0.05610592469598741   -0.16330075565406124
-1.8124558169803557   -0.05610592469598741   -0.16330075565406124
-1.8124558169803557   -0.05610592469598741   -0.16330075565406124
-1.8180094896971268   -0.22259734420369107   -0.009378019835439184
-1.8180094896971268   -0.22259734420369107   -0.009378019835439184
-1.8180094896971268   -0.22259734420369107   -0.009378019835439184
-1.8180094896971268   -0.22259734420369107   -0.009378019835439184
-1.829811044385874   -0.14767148748355902   -0.08034484450417106
-1.829811044385874   -0.14767148748355902   -0.08034484450417106
-1.829811044385874   -0.14767148748355902   -0.08034484450417106
-1.829811044385874   -0.14767148748355902   -0.08034484450417106
-1.8744072905414524   -0.3062804560970356   -0.004123966779383415
-1.8744072905414524   -0.3062804560970356   -0.004123966779383415
-1.8744072905414524   -0.3062804560970356   -0.004123966779383415
-1.8744072905414524   -0.3062804560970356   -0.004123966779383415
-1.8180130792856974   -0.19107838980230826   -0.007702389729513322
-1.8180130792856974   -0.19107838980230826   -0.007702389729513322
-1.8180130792856974   -0.19107838980230826   -0.007702389729513322
-1.8180130792856974   -0.19107838980230826   -0.007702389729513322
-1.8742963022264068   -0.1687245553425798   -0.14112492595861903
-1.8742963022264068   -0.1687245553425798   -0.14112492595861903
-1.8742963022264068   -0.1687245553425798   -0.14112492595861903
-1.8742963022264068   -0.1687245553425798   -0.14112492595861903
-1.8415884806719218   -0.2968938362090415   0.009990322791056449
-1.8415884806719218   -0.2968938362090415   0.009990322791056449
-1.8415884806719218   -0.2968938362090415   0.009990322791056449
-1.8415884806719218   -0.2968938362090415   0.009990322791056449
-1.8592500318010337   -0.2448440553888377   -0.05144101921279724
-1.8592500318010337   -0.2448440553888377   -0.05144101921279724
-1.8592500318010337   -0.2448440553888377   -0.05144101921279724
-1.8592500318010337   -0.2448440553888377   -0.05144101921279724
-1.9404034252693843   -0.3965742342936447   0.04045032305601775
-1.9404034252693843   -0.3965742342936447   0.04045032305601775
-1.9404034252693843   -0.3965742342936447   0.04045032305601775
-1.9404034252693843   -0.3965742342936447   0.04045032305601775
-1.8582400398493841   -0.2693587111134159   -0.05240345245227408
-1.8582400398493841   -0.2693587111134159   -0.05240345245227408
-1.8582400398493841   -0.2693587111134159   -0.05240345245227408
-1.8582400398493841   -0.2693587111134159   -0.05240345245227408
-1.9445916285801244   -0.2725309637169887   -0.10453396407433876
-1.9445916285801244   -0.2725309637169887   -0.10453396407433876
-1.9445916285801244   -0.2725309637169887   -0.10453396407433876
-1.9445916285801244   -0.2725309637169887   -0.10453396407433876
-1.870000379381767   -0.38382587685699276   0.033789064351660396
-1.870000379381767   -0.38382587685699276   0.033789064351660396
-1.870000379381767   -0.38382587685699276   0.033789064351660396
-1.870000379381767   -0.38382587685699276   0.033789064351660396
-1.8855004224980163   -0.3499794060105937   -0.022783416555099044
-1.8855004224980163   -0.3499794060105937   -0.022783416555099044
-1.8855004224980163   -0.3499794060105937   -0.022783416555099044
-1.8855004224980163   -0.3499794060105937   -0.022783416555099044
-1.9907221190775417   -0.5118768969255278   0.0819388884159066
-1.9907221190775417   -0.5118768969255278   0.0819388884159066
-1.9907221190775417   -0.5118768969255278   0.0819388884159066
-1.9907221190775417   -0.5118768969255278   0.0819388884159066
-1.914252420546693   -0.36452001733981854   -0.10952758144166676
-1.914252420546693   -0.36452001733981854   -0.10952758144166676
-1.914252420546693   -0.36452001733981854   -0.10952758144166676
-1.914252420546693   -0.36452001733981854   -0.10952758144166676
-1.768769973261547   0.04402045910116126   -0.029798240962360875
-1.768769973261547   0.04402045910116126   -0.029798240962360875
-1.768769973261547   0.04402045910116126   -0.029798240962360875
-1.768769973261547   0.04402045910116126   -0.029798240962360875
-1.9851556054696502   -0.376677798214914   -0.09472268426807182
-1.9851556054696502   -0.376677798214914   -0.09472268426807182
-1.9851556054696502   -0.376677798214914   -0.09472268426807182
-1.9851556054696502   -0.376677798214914   -0.09472268426807182
-1.9027924661522975   -0.06899759453863596   0.025901724141111596
-1.9027924661522975   -0.06899759453863596   0.025901724141111596
-1.9027924661522975   -0.06899759453863596   0.025901724141111596
-1.9027924661522975   -0.06899759453863596   0.025901724141111596
-1.878153758622405   -0.41070208199220365   -0.059027821178196924
-1.878153758622405   -0.41070208199220365   -0.059027821178196924
-1.878153758622405   -0.41070208199220365   -0.059027821178196924
-1.878153758622405   -0.41070208199220365   -0.059027821178196924
-1.8824125962116327   -0.20947133100726878   -0.04333879861997228
-1.8824125962116327   -0.20947133100726878   -0.04333879861997228
-1.8824125962116327   -0.20947133100726878   -0.04333879861997228
-1.8824125962116327   -0.20947133100726878   -0.04333879861997228
-1.7947424332957003   -0.052585490085761966   -8.778645111544303e-05
-1.7947424332957003   -0.052585490085761966   -8.778645111544303e-05
-1.7947424332957003   -0.052585490085761966   -8.778645111544303e-05
-1.7947424332957003   -0.052585490085761966   -8.778645111544303e-05
-1.9967683502564555   -0.43767874522253597   -0.07529654569580817
-1.9967683502564555   -0.43767874522253597   -0.07529654569580817
-1.9967683502564555   -0.43767874522253597   -0.07529654569580817
-1.9967683502564555   -0.43767874522253597   -0.07529654569580817
-1.9235983036996838   -0.16639462450700238   0.054625738535616364
-1.9235983036996838   -0.16639462450700238   0.054625738535616364
-1.9235983036996838   -0.16639462450700238   0.054625738535616364
-1.9235983036996838   -0.16639462450700238   0.054625738535616364
-1.905696675434755   -0.48755478654212875   -0.04096350622812818
-1.905696675434755   -0.48755478654212875   -0.04096350622812818
-1.905696675434755   -0.48755478654212875   -0.04096350622812818
-1.905696675434755   -0.48755478654212875   -0.04096350622812818
-1.904639398233279   -0.28377102634136764   -0.0816603038905493
-1.904639398233279   -0.28377102634136764   -0.0816603038905493
-1.904639398233279   -0.28377102634136764   -0.0816603038905493
-1.904639398233279   -0.28377102634136764   -0.0816603038905493
-1.8245165638473242   -0.15168914267520558   0.02907140784211775
-1.8245165638473242   -0.15168914267520558   0.02907140784211775
-1.8245165638473242   -0.15168914267520558   0.02907140784211775
-1.8245165638473242   -0.15168914267520558   0.02907140784211775
-2.016578139009542   -0.5140599920963347   -0.06260807042437135
-2.016578139009542   -0.5140599920963347   -0.06260807042437135
-2.016578139009542   -0.5140599920963347   -0.06260807042437135
-2.016578139009542   -0.5140599920963347   -0.06260807042437135
-1.9403251497757432   -0.25813585340424705   0.08266652572058833
-1.9403251497757432   -0.25813585340424705   0.08266652572058833
-1.9403251497757432   -0.25813585340424705   0.08266652572058833
-1.9403251497757432   -0.25813585340424705   0.08266652572058833
-1.925847827489548   -0.5615704980207233   -0.012929349502641498
-1.925847827489548   -0.5615704980207233   -0.012929349502641498
-1.925847827489548   -0.5615704980207233   -0.012929349502641498
-1.925847827489548   -0.5615704980207233   -0.012929349502641498
-1.9312909460096648   -0.36153317639839394   -0.12378254615761893
-1.9312909460096648   -0.36153317639839394   -0.12378254615761893
-1.9312909460096648   -0.36153317639839394   -0.12378254615761893
-1.9312909460096648   -0.36153317639839394   -0.12378254615761893
-1.8331333162332564   0.19589824222194802   0.09281272147703587
-1.8331333162332564   0.19589824222194802   0.09281272147703587
-1.8331333162332564   0.19589824222194802   0.09281272147703587
-1.8331333162332564   0.19589824222194802   0.09281272147703587
-2.1527391375761082   -0.2790830996260524   -0.13137734430685266
-2.1527391375761082   -0.2790830996260524   -0.13137734430685266
-2.1527391375761082   -0.2790830996260524   -0.13137734430685266
-2.1527391375761082   -0.2790830996260524   -0.13137734430685266
-2.0347102400437254   0.06041111745512601   0.12928257757249767
-2.0347102400437254   0.06041111745512601   0.12928257757249767
-2.0347102400437254   0.06041111745512601   0.12928257757249767
-2.0347102400437254   0.06041111745512601   0.12928257757249767
-1.9732107475882479   -0.3151576037737224   -0.08002967380355458
-1.9732107475882479   -0.3151576037737224   -0.08002967380355458
-1.9732107475882479   -0.3151576037737224   -0.08002967380355458
-1.9732107475882479   -0.3151576037737224   -0.08002967380355458
-1.9985082535648138   -0.0823157142171721   -0.02590112752024265
-1.9985082535648138   -0.0823157142171721   -0.02590112752024265
-1.9985082535648138   -0.0823157142171721   -0.02590112752024265
-1.9985082535648138   -0.0823157142171721   -0.02590112752024265
-1.850714498379124   0.09567711997267953   0.12161684849566394
-1.850714498379124   0.09567711997267953   0.12161684849566394
-1.850714498379124   0.09567711997267953   0.12161684849566394
-1.850714498379124   0.09567711997267953   0.12161684849566394
-2.171198926316093   -0.36441604335449934   -0.1283336929797168
-2.171198926316093   -0.36441604335449934   -0.1283336929797168
-2.171198926316093   -0.36441604335449934   -0.1283336929797168
-2.171198926316093   -0.36441604335449934   -0.1283336929797168
-2.0715966111656536   -0.034510896793977563   0.14647188157784446
-2.0715966111656536   -0.034510896793977563   0.14647188157784446
-2.0715966111656536   -0.034510896793977563   0.14647188157784446
-2.0715966111656536   -0.034510896793977563   0.14647188157784446
-1.991173266260493   -0.3858349324361274   -0.06380876633933354
-1.991173266260493   -0.3858349324361274   -0.06380876633933354
-1.991173266260493   -0.3858349324361274   -0.06380876633933354
-1.991173266260493   -0.3858349324361274   -0.06380876633933354
-2.0166736884213843   -0.1627451192744876   -0.07080648221687029
-2.0166736884213843   -0.1627451192744876   -0.07080648221687029
-2.0166736884213843   -0.1627451192744876   -0.07080648221687029
-2.0166736884213843   -0.1627451192744876   -0.07080648221687029
-1.8700292584837317   0.00643622120708931   0.14964011890125634
-1.8700292584837317   0.00643622120708931   0.14964011890125634
-1.8700292584837317   0.00643622120708931   0.14964011890125634
-1.8700292584837317   0.00643622120708931   0.14964011890125634
-2.204873296270353   -0.4389147277651316   -0.11550771297449487
-2.204873296270353   -0.4389147277651316   -0.11550771297449487
-2.204873296270353   -0.4389147277651316   -0.11550771297449487
-2.204873296270353   -0.4389147277651316   -0.11550771297449487
-2.0957053698402026   -0.12541860139019645   0.17853277815997437
-2.0957053698402026   -0.12541860139019645   0.17853277815997437
-2.0957053698402026   -0.12541860139019645   0.17853277815997437
-2.0957053698402026   -0.12541860139019645   0.17853277815997437
-2.0064096715210606   -0.4567746315856979   -0.04911730482454772
-2.0064096715210606   -0.4567746315856979   -0.04911730482454772
-2.0064096715210606   -0.4567746315856979   -0.04911730482454772
-2.0064096715210606   -0.4567746315856979   -0.04911730482454772
-2.049020616838404   -0.23833321684878958   -0.11423230660542091
-2.049020616838404   -0.23833321684878958   -0.11423230660542091
-2.049020616838404   -0.23833321684878958   -0.11423230660542091
-2.049020616838404   -0.23833321684878958   -0.11423230660542091
-1.977493306223483   0.28093747665391733   0.1848312361763044
-1.977493306223483   0.28093747665391733   0.1848312361763044
-1.977493306223483   0.28093747665391733   0.1848312361763044
-1.977493306223483   0.28093747665391733   0.1848312361763044
-2.096885236875897   -0.16694427014322644   -0.19092248154341812
-2.096885236875897   -0.16694427014322644   -0.19092248154341812
-2.096885236875897   -0.16694427014322644   -0.19092248154341812
-2.096885236875897   -0.16694427014322644   -0.19092248154341812
-2.0477488394439596   0.20274963041879235   0.20530704730384358
-2.0477488394439596   0.20274963041879235   0.20530704730384358
-2.0477488394439596   0.20274963041879235   0.20530704730384358
-2.0477488394439596   0.20274963041879235   0.20530704730384358
-2.1396956509915723   -0.21856777720573012   -0.11666558250588101
-2.1396956509915723   -0.21856777720573012   -0.11666558250588101
-2.1396956509915723   -0.21856777720573012   -0.11666558250588101
-2.1396956509915723   -0.21856777720573012   -0.11666558250588101
-1.995760660132895   0.05117006550326675   0.006436394006904031
-1.995760660132895   0.05117006550326675   0.006436394006904031
-1.995760660132895   0.05117006550326675   0.006436394006904031
-1.995760660132895   0.05117006550326675   0.006436394006904031
-1.986573484494546   0.21666565541883176   0.21371181735462713
-1.986573484494546   0.21666565541883176   0.21371181735462713
-1.986573484494546   0.21666565541883176   0.21371181735462713
-1.986573484494546   0.21666565541883176   0.21371181735462713
-2.2121883830502935   -0.2438011793150872   -0.17033986099394527
-2.2121883830502935   -0.2438011793150872   -0.17033986099394527
-2.2121883830502935   -0.2438011793150872   -0.17033986099394527
-2.2121883830502935   -0.2438011793150872   -0.17033986099394527
-2.1379894911419357   0.14985874871734883   0.26456235348487744
-2.1379894911419357   0.14985874871734883   0.26456235348487744
-2.1379894911419357   0.14985874871734883   0.26456235348487744
-2.1379894911419357   0.14985874871734883   0.26456235348487744
-2.1673343146473707   -0.26004164220808945   -0.10668589041669035
-2.1673343146473707   -0.26004164220808945   -0.10668589041669035
-2.1673343146473707   -0.26004164220808945   -0.10668589041669035
-2.1673343146473707   -0.26004164220808945   -0.10668589041669035
-2.0927672634931045   -0.01304026306908962   -0.046178271176388216
-2.0927672634931045   -0.01304026306908962   -0.046178271176388216
-2.0927672634931045   -0.01304026306908962   -0.046178271176388216
-2.0927672634931045   -0.01304026306908962   -0.046178271176388216
-2.007959301065235   0.17415151924407785   0.255996016041822
-2.007959301065235   0.17415151924407785   0.255996016041822
-2.007959301065235   0.17415151924407785   0.255996016041822
-2.007959301065235   0.17415151924407785   0.255996016041822
-2.312211193528662   -0.29918110153938826   -0.1575063081920165
-2.312211193528662   -0.29918110153938826   -0.1575063081920165
-2.312211193528662   -0.29918110153938826   -0.1575063081920165
-2.312211193528662   -0.29918110153938826   -0.1575063081920165
-2.2985668773612   0.014989971159350801   0.28281757704562627
-2.2985668773612   0.014989971159350801   0.28281757704562627
-2.2985668773612   0.014989971159350801   0.28281757704562627
-2.2985668773612   0.014989971159350801   0.28281757704562627
-2.192430987072956   -0.3377313365099981   -0.09278257288398961
-2.192430987072956   -0.3377313365099981   -0.09278257288398961
-2.192430987072956   -0.3377313365099981   -0.09278257288398961
-2.192430987072956   -0.3377313365099981   -0.09278257288398961
-2.1388615867998326   -0.07189426435856416   -0.09389197594390346
-2.1388615867998326   -0.07189426435856416   -0.09389197594390346
-2.1388615867998326   -0.07189426435856416   -0.09389197594390346
-2.1388615867998326   -0.07189426435856416   -0.09389197594390346
-4.340880583249335   -0.3955353115621226   -0.40297165832878046
-4.340880583249335   -0.3955353115621226   -0.40297165832878046
-4.340880583249335   -0.3955353115621226   -0.40297165832878046
-4.340880583249335   -0.3955353115621226   -0.40297165832878046
-2.7392744943431717   0.23932243144700127   0.09545146824181333
-2.7392744943431717   0.23932243144700127   0.09545146824181333
-2.7392744943431717   0.23932243144700127   0.09545146824181333
-2.7392744943431717   0.23932243144700127   0.09545146824181333
-2.8748439406268784   -0.17717166033279486   -0.17838953764362023
-2.8748439406268784   -0.17717166033279486   -0.17838953764362023
-2.8748439406268784   -0.17717166033279486   -0.17838953764362023
-2.8748439406268784   -0.17717166033279486   -0.17838953764362023
-4.607523920802048   -0.511038374741428   0.4549103305708789
-4.607523920802048   -0.511038374741428   0.4549103305708789
-4.607523920802048   -0.511038374741428   0.4549103305708789
-4.607523920802048   -0.511038374741428   0.4549103305708789
-3.348656078860312   -0.12474786580073227   0.43946798347347826
-3.348656078860312   -0.12474786580073227   0.43946798347347826
-3.348656078860312   -0.12474786580073227   0.43946798347347826
-3.348656078860312   -0.12474786580073227   0.43946798347347826
-4.771080511713346   -0.5796027223056363   -0.29430827642135915
-4.771080511713346   -0.5796027223056363   -0.29430827642135915
-4.771080511713346   -0.5796027223056363   -0.29430827642135915
-4.771080511713346   -0.5796027223056363   -0.29430827642135915
-2.8261014721089057   -0.22342143516190477   0.11157257977535213
-2.8261014721089057   -0.22342143516190477   0.11157257977535213
-2.8261014721089057   -0.22342143516190477   0.11157257977535213
-2.8261014721089057   -0.22342143516190477   0.11157257977535213
-2.9161485143556782   -0.25845292968888633   -0.12707443384028852
-2.9161485143556782   -0.25845292968888633   -0.12707443384028852
-2.9161485143556782   -0.25845292968888633   -0.12707443384028852
-2.9161485143556782   -0.25845292968888633   -0.12707443384028852
-4.750161904439642   -0.7151412214831401   0.013398388873634093
-4.750161904439642   -0.7151412214831401   0.013398388873634093
-4.750161904439642   -0.7151412214831401   0.013398388873634093
-4.750161904439642   -0.7151412214831401   0.013398388873634093
-3.7019207054777215   -0.43160025431078314   0.1007791601400163
-3.7019207054777215   -0.43160025431078314   0.1007791601400163
-3.7019207054777215   -0.43160025431078314   0.1007791601400163
-3.7019207054777215   -0.43160025431078314   0.1007791601400163
-4.787890157633673   -0.6545526594102961   -0.2358314391693417
-4.787890157633673   -0.6545526594102961   -0.2358314391693417
-4.787890157633673   -0.6545526594102961   -0.2358314391693417
-4.787890157633673   -0.6545526594102961   -0.2358314391693417
-2.913479340838148   -0.35410057143823215   -0.018080924503319773
-2.913479340838148   -0.35410057143823215   -0.018080924503319773
-2.913479340838148   -0.35410057143823215   -0.018080924503319773
-2.913479340838148   -0.35410057143823215   -0.018080924503319773
-2.915512893000814   -0.45641223453313784   -0.09192633389026858
-2.915512893000814   -0.45641223453313784   -0.09192633389026858
-2.915512893000814   -0.45641223453313784   -0.09192633389026858
-2.915512893000814   -0.45641223453313784   -0.09192633389026858
-4.85891955988901   -1.0939755225370267   0.07494363463377246
-4.85891955988901   -1.0939755225370267   0.07494363463377246
-4.85891955988901   -1.0939755225370267   0.07494363463377246
-4.85891955988901   -1.0939755225370267   0.07494363463377246
-3.694752253575906   -0.5939588200347887   0.006634793957874217
-3.694752253575906   -0.5939588200347887   0.006634793957874217
-3.694752253575906   -0.5939588200347887   0.006634793957874217
-3.694752253575906   -0.5939588200347887   0.006634793957874217
-2.9583398213535137   -0.5007486280337319   -0.25980410732913406
-2.9583398213535137   -0.5007486280337319   -0.25980410732913406
-2.9583398213535137   -0.5007486280337319   -0.25980410732913406
-2.9583398213535137   -0.5007486280337319   -0.25980410732913406
-2.021228926926726   -1.2934262508792234   -0.24311178827735078
-2.021228926926726   -1.2934262508792234   -0.24311178827735078
-2.021228926926726   -1.2934262508792234   -0.24311178827735078
-2.021228926926726   -1.2934262508792234   -0.24311178827735078
-1.776093372953099   -0.2886332757840028   -0.014201982802695523
-1.776093372953099   -0.2886332757840028   -0.014201982802695523
-1.776093372953099   -0.2886332757840028   -0.014201982802695523
-1.776093372953099   -0.2886332757840028   -0.014201982802695523
-3.140355721793185   -1.3754090335586322   -0.30771107024931593
-3.140355721793185   -1.3754090335586322   -0.30771107024931593
-3.140355721793185   -1.3754090335586322   -0.30771107024931593
-3.140355721793185   -1.3754090335586322   -0.30771107024931593
-2.445018418984385   -0.9183390287605235   -0.07093151761168533
-2.445018418984385   -0.9183390287605235   -0.07093151761168533
-2.445018418984385   -0.9183390287605235   -0.07093151761168533
-2.445018418984385   -0.9183390287605235   -0.07093151761168533
-2.9549042093862803   -0.5606062957206525   -0.19525624605276215
-2.9549042093862803   -0.5606062957206525   -0.19525624605276215
-2.9549042093862803   -0.5606062957206525   -0.19525624605276215
-2.9549042093862803   -0.5606062957206525   -0.19525624605276215
-1.9735862221281508   -1.1154773503901307   -0.17482215407184298
-1.9735862221281508   -1.1154773503901307   -0.17482215407184298
-1.9735862221281508   -1.1154773503901307   -0.17482215407184298
-1.9735862221281508   -1.1154773503901307   -0.17482215407184298
-1.7937030581856923   -0.3745156151896749   0.004043051492175091
-1.7937030581856923   -0.3745156151896749   0.004043051492175091
-1.7937030581856923   -0.3745156151896749   0.004043051492175091
-1.7937030581856923   -0.3745156151896749   0.004043051492175091
-3.149131288964619   -1.3684101166754146   -0.18203111989849252
-3.149131288964619   -1.3684101166754146   -0.18203111989849252
-3.149131288964619   -1.3684101166754146   -0.18203111989849252
-3.149131288964619   -1.3684101166754146   -0.18203111989849252
-2.4161051056567246   -0.8608728946305451   -0.07533003430282498
-2.4161051056567246   -0.8608728946305451   -0.07533003430282498
-2.4161051056567246   -0.8608728946305451   -0.07533003430282498
-2.4161051056567246   -0.8608728946305451   -0.07533003430282498
-2.9973047468982847   -0.6452552237325576   -0.1460533025096467
-2.9973047468982847   -0.6452552237325576   -0.1460533025096467
-2.9973047468982847   -0.6452552237325576   -0.1460533025096467
-2.9973047468982847   -0.6452552237325576   -0.1460533025096467
-1.970233949584097   -1.1223748574645969   -0.13075216322492617
-1.970233949584097   -1.1223748574645969   -0.13075216322492617
-1.970233949584097   -1.1223748574645969   -0.13075216322492617
-1.970233949584097   -1.1223748574645969   -0.13075216322492617
-1.7900308375404417   -0.48210082154481704   0.030127983782361
-1.7900308375404417   -0.48210082154481704   0.030127983782361
-1.7900308375404417   -0.48210082154481704   0.030127983782361
-1.7900308375404417   -0.48210082154481704   0.030127983782361
-3.1385605710971523   -1.3927499188647134   -0.2708270400404168
-3.1385605710971523   -1.3927499188647134   -0.2708270400404168
-3.1385605710971523   -1.3927499188647134   -0.2708270400404168
-3.1385605710971523   -1.3927499188647134   -0.2708270400404168
-2.4496623057112377   -0.9265690474710109   -0.13964853367953547
-2.4496623057112377   -0.9265690474710109   -0.13964853367953547
-2.4496623057112377   -0.9265690474710109   -0.13964853367953547
-2.4496623057112377   -0.9265690474710109   -0.13964853367953547
-1.7826789082511911   -0.3216629258944899   -0.02212501988441065
-1.7826789082511911   -0.3216629258944899   -0.02212501988441065
-1.7826789082511911   -0.3216629258944899   -0.02212501988441065
-1.7826789082511911   -0.3216629258944899   -0.02212501988441065
-1.4834633939793354   -0.9871490609324625   -0.170440015149326
-1.4834633939793354   -0.9871490609324625   -0.170440015149326
-1.4834633939793354   -0.9871490609324625   -0.170440015149326
-1.4834633939793354   -0.9871490609324625   -0.170440015149326
-1.2778657923753665   -0.2650257884462533   0.06906568030451633
-1.2778657923753665   -0.2650257884462533   0.06906568030451633
-1.2778657923753665   -0.2650257884462533   0.06906568030451633
-1.2778657923753665   -0.2650257884462533   0.06906568030451633
-1.9685846970786962   -1.076161822569   -0.1891300566457013
-1.9685846970786962   -1.076161822569   -0.1891300566457013
-1.9685846970786962   -1.076161822569   -0.1891300566457013
-1.9685846970786962   -1.076161822569   -0.1891300566457013
-1.620812909323571   -0.6721770089274898   -0.07885517905679779
-1.620812909323571   -0.6721770089274898   -0.07885517905679779
-1.620812909323571   -0.6721770089274898   -0.07885517905679779
-1.620812909323571   -0.6721770089274898   -0.07885517905679779
-1.791023406891072   -0.3808062775546779   0.003320849278098793
-1.791023406891072   -0.3808062775546779   0.003320849278098793
-1.791023406891072   -0.3808062775546779   0.003320849278098793
-1.791023406891072   -0.3808062775546779   0.003320849278098793
-1.4660081943530756   -0.970962445250655   -0.16570967277959728
-1.4660081943530756   -0.970962445250655   -0.16570967277959728
-1.4660081943530756   -0.970962445250655   -0.16570967277959728
-1.4660081943530756   -0.970962445250655   -0.16570967277959728
-1.2758266450639686   -0.33552351077594417   0.0893228422320083
-1.2758266450639686   -0.33552351077594417   0.0893228422320083
-1.2758266450639686   -0.33552351077594417   0.0893228422320083
-1.2758266450639686   -0.33552351077594417   0.0893228422320083
-1.9722844070588843   -1.09326082256958   -0.1701184854938799
-1.9722844070588843   -1.09326082256958   -0.1701184854938799
-1.9722844070588843   -1.09326082256958   -0.1701184854938799
-1.9722844070588843   -1.09326082256958   -0.1701184854938799
-1.6157855555096747   -0.6990295831580204   -0.1022662243622651
-1.6157855555096747   -0.6990295831580204   -0.1022662243622651
-1.6157855555096747   -0.6990295831580204   -0.1022662243622651
-1.6157855555096747   -0.6990295831580204   -0.1022662243622651
-1.8033618378874747   -0.45220700852360785   0.033440546317196215
-1.8033618378874747   -0.45220700852360785   0.033440546317196215
-1.8033618378874747   -0.45220700852360785   0.033440546317196215
-1.8033618378874747   -0.45220700852360785   0.033440546317196215
-1.4505309059304872   -0.9823590165170406   -0.13736295635951873
-1.4505309059304872   -0.9823590165170406   -0.13736295635951873
-1.4505309059304872   -0.9823590165170406   -0.13736295635951873
-1.4505309059304872   -0.9823590165170406   -0.13736295635951873
-1.2579793981821639   -0.4031522989860875   0.11129321636315373
-1.2579793981821639   -0.4031522989860875   0.11129321636315373
-1.2579793981821639   -0.4031522989860875   0.11129321636315373
-1.2579793981821639   -0.4031522989860875   0.11129321636315373
-1.9458053597079823   -1.1078783123694913   -0.12296713623068262
-1.9458053597079823   -1.1078783123694913   -0.12296713623068262
-1.9458053597079823   -1.1078783123694913   -0.12296713623068262
-1.9458053597079823   -1.1078783123694913   -0.12296713623068262
-1.6081667087059097   -0.7339929967353259   -0.11814218276817591
-1.6081667087059097   -0.7339929967353259   -0.11814218276817591
-1.6081667087059097   -0.7339929967353259   -0.11814218276817591
-1.6081667087059097   -0.7339929967353259   -0.11814218276817591
-1.2367772560645918   -0.04537244313666036   0.12121405662859064
-1.2367772560645918   -0.04537244313666036   0.12121405662859064
-1.2367772560645918   -0.04537244313666036   0.12121405662859064
-1.2367772560645918   -0.04537244313666036   0.12121405662859064
-1.1574508724444734   -0.5201003261077035   -0.10093006723938142
-1.1574508724444734   -0.5201003261077035   -0.10093006723938142
-1.1574508724444734   -0.5201003261077035   -0.10093006723938142
-1.1574508724444734   -0.5201003261077035   -0.10093006723938142
-0.995590165912519   -0.07547264446630275   0.14077454105781434
-0.995590165912519   -0.07547264446630275   0.14077454105781434
-0.995590165912519   -0.07547264446630275   0.14077454105781434
-0.995590165912519   -0.07547264446630275   0.14077454105781434
-1.3739102008992048   -0.6042354886784329   -0.07194666208249552
-1.3739102008992048   -0.6042354886784329   -0.07194666208249552
-1.3739102008992048   -0.6042354886784329   -0.07194666208249552
-1.3739102008992048   -0.6042354886784329   -0.07194666208249552
-1.1950037367825903   -0.3086166547531865   -0.04263814524438268
-1.1950037367825903   -0.3086166547531865   -0.04263814524438268
-1.1950037367825903   -0.3086166547531865   -0.04263814524438268
-1.1950037367825903   -0.3086166547531865   -0.04263814524438268
-1.23544770252318   -0.12364415981346566   0.13977450093266097
-1.23544770252318   -0.12364415981346566   0.13977450093266097
-1.23544770252318   -0.12364415981346566   0.13977450093266097
-1.23544770252318   -0.12364415981346566   0.13977450093266097
-1.1451802587911784   -0.5671915678339047   -0.11545699996788057
-1.1451802587911784   -0.5671915678339047   -0.11545699996788057
-1.1451802587911784   -0.5671915678339047   -0.11545699996788057
-1.1451802587911784   -0.5671915678339047   -0.11545699996788057
-0.994658206752692   -0.14354024515200817   0.15114961057346166
-0.994658206752692   -0.14354024515200817   0.15114961057346166
-0.994658206752692   -0.14354024515200817   0.15114961057346166
-0.994658206752692   -0.14354024515200817   0.15114961057346166
-1.3709013536107844   -0.6408986630808642   -0.08067554819718142
-1.3709013536107844   -0.6408986630808642   -0.08067554819718142
-1.3709013536107844   -0.6408986630808642   -0.08067554819718142
-1.3709013536107844   -0.6408986630808642   -0.08067554819718142
-1.1875729769075676   -0.36349070743782996   -0.07215647391104968
-1.1875729769075676   -0.36349070743782996   -0.07215647391104968
-1.1875729769075676   -0.36349070743782996   -0.07215647391104968
-1.1875729769075676   -0.36349070743782996   -0.07215647391104968
-1.2326847265389054   -0.18956140533972765   0.1590703294210774
-1.2326847265389054   -0.18956140533972765   0.1590703294210774
-1.2326847265389054   -0.18956140533972765   0.1590703294210774
-1.2326847265389054   -0.18956140533972765   0.1590703294210774
-1.139602360380049   -0.6016050294486224   -0.11550637326670787
-1.139602360380049   -0.6016050294486224   -0.11550637326670787
-1.139602360380049   -0.6016050294486224   -0.11550637326670787
-1.139602360380049   -0.6016050294486224   -0.11550637326670787
-0.9835668672842071   -0.20737011051902682   0.17506249627195442
-0.9835668672842071   -0.20737011051902682   0.17506249627195442
-0.9835668672842071   -0.20737011051902682   0.17506249627195442
-0.9835668672842071   -0.20737011051902682   0.17506249627195442
-1.3462764675551973   -0.6777534700892056   -0.05559095939889511
-1.3462764675551973   -0.6777534700892056   -0.05559095939889511
-1.3462764675551973   -0.6777534700892056   -0.05559095939889511
-1.3462764675551973   -0.6777534700892056   -0.05559095939889511
-1.1812693557489657   -0.4102688778700342   -0.0923609315656305
-1.1812693557489657   -0.4102688778700342   -0.0923609315656305
-1.1812693557489657   -0.4102688778700342   -0.0923609315656305
-1.1812693557489657   -0.4102688778700342   -0.0923609315656305
-0.9687152217850028   0.1345031676447413   0.18814469230552638
-0.9687152217850028   0.1345031676447413   0.18814469230552638
-0.9687152217850028   0.1345031676447413   0.18814469230552638
-0.9687152217850028   0.1345031676447413   0.18814469230552638
-0.6273249540000375   -0.16923057421238938   -0.061273104743161076
-0.6273249540000375   -0.16923057421238938   -0.061273104743161076
-0.6273249540000375   -0.16923057421238938   -0.061273104743161076
-0.6273249540000375   -0.16923057421238938   -0.061273104743161076
-0.5430165853156318   0.16119705519801064   0.18547951383688227
-0.5430165853156318   0.16119705519801064   0.18547951383688227
-0.5430165853156318   0.16119705519801064   0.18547951383688227
-0.5430165853156318   0.16119705519801064   0.18547951383688227
-1.067594170772531   -0.2631495550209127   -0.03156857268763557
-1.067594170772531   -0.2631495550209127   -0.03156857268763557
-1.067594170772531   -0.2631495550209127   -0.03156857268763557
-1.067594170772531   -0.2631495550209127   -0.03156857268763557
-0.7913289693854368   -0.01622184456786402   -0.03492367391002215
-0.7913289693854368   -0.01622184456786402   -0.03492367391002215
-0.7913289693854368   -0.01622184456786402   -0.03492367391002215
-0.7913289693854368   -0.01622184456786402   -0.03492367391002215
-0.9508634473542007   0.08359906491628405   0.20533642446681838
-0.9508634473542007   0.08359906491628405   0.20533642446681838
-0.9508634473542007   0.08359906491628405   0.20533642446681838
-0.9508634473542007   0.08359906491628405   0.20533642446681838
-0.660710899002246   -0.18651515500746002   -0.05527984439065705
-0.660710899002246   -0.18651515500746002   -0.05527984439065705
-0.660710899002246   -0.18651515500746002   -0.05527984439065705
-0.660710899002246   -0.18651515500746002   -0.05527984439065705
-0.5652063105865208   0.128421348499775   0.23350105906178162
-0.5652063105865208   0.128421348499775   0.23350105906178162
-0.5652063105865208   0.128421348499775   0.23350105906178162
-0.5652063105865208   0.128421348499775   0.23350105906178162
-1.060335340244607   -0.27977216612194533   -0.041004135916175175
-1.060335340244607   -0.27977216612194533   -0.041004135916175175
-1.060335340244607   -0.27977216612194533   -0.041004135916175175
-1.060335340244607   -0.27977216612194533   -0.041004135916175175
-0.8123945293302274   -0.05208091534657272   -0.048043062537608885
-0.8123945293302274   -0.05208091534657272   -0.048043062537608885
-0.8123945293302274   -0.05208091534657272   -0.048043062537608885
-0.8123945293302274   -0.05208091534657272   -0.048043062537608885
-0.9379744524196131   0.05447761311514157   0.2365505239717069
-0.9379744524196131   0.05447761311514157   0.2365505239717069
-0.9379744524196131   0.05447761311514157   0.2365505239717069
-0.9379744524196131   0.05447761311514157   0.2365505239717069
-0.6959416689265941   -0.2142029012523915   -0.0775514828864188
-0.6959416689265941   -0.2142029012523915   -0.0775514828864188
-0.6959416689265941   -0.2142029012523915   -0.0775514828864188
-0.6959416689265941   -0.2142029012523915   -0.0775514828864188
-0.647547560571918   0.038389990737968116   0.24294063685480355
-0.647547560571918   0.038389990737968116   0.24294063685480355
-0.647547560571918   0.038389990737968116   0.24294063685480355
-0.647547560571918   0.038389990737968116   0.24294063685480355
-1.042816147214523   -0.29393824096231014   -0.03461577293634139
-1.042816147214523   -0.29393824096231014   -0.03461577293634139
-1.042816147214523   -0.29393824096231014   -0.03461577293634139
-1.042816147214523   -0.29393824096231014   -0.03461577293634139
-0.8216345454837459   -0.07760206768216885   -0.07006934316257529
-0.8216345454837459   -0.07760206768216885   -0.07006934316257529
-0.8216345454837459   -0.07760206768216885   -0.07006934316257529
-0.8216345454837459   -0.07760206768216885   -0.07006934316257529
-10.155511734044419   -1.4307408557994494   -0.8386277282891941
-10.155511734044419   -1.4307408557994494   -0.8386277282891941
-10.155511734044419   -1.4307408557994494   -0.8386277282891941
-10.155511734044419   -1.4307408557994494   -0.8386277282891941
-3.5130517420437606   -5.439940154301396   -0.6581324899749866
-3.5130517420437606   -5.439940154301396   -0.6581324899749866
-3.5130517420437606   -5.439940154301396   -0.6581324899749866
-3.5130517420437606   -5.439940154301396   -0.6581324899749866
-2.7272210722506114   -0.2249586852824283   0.0050059293144400635
-2.7272210722506114   -0.2249586852824283   0.0050059293144400635
-2.7272210722506114   -0.2249586852824283   0.0050059293144400635
-2.7272210722506114   -0.2249586852824283   0.0050059293144400635
-10.81992411495144   -6.412673229230218   -3.446519468836332
-10.81992411495144   -6.412673229230218   -3.446519468836332
-10.81992411495144   -6.412673229230218   -3.446519468836332
-10.81992411495144   -6.412673229230218   -3.446519468836332
-6.634308778867378   -3.192786624566936   -0.4649043777086488
-6.634308778867378   -3.192786624566936   -0.4649043777086488
-6.634308778867378   -3.192786624566936   -0.4649043777086488
-6.634308778867378   -3.192786624566936   -0.4649043777086488
-9.435110817774852   -1.7954692189057504   -1.1396569932779284
-9.435110817774852   -1.7954692189057504   -1.1396569932779284
-9.435110817774852   -1.7954692189057504   -1.1396569932779284
-9.435110817774852   -1.7954692189057504   -1.1396569932779284
-3.7901641997498907   -4.520292525929596   -1.014375867534774
-3.7901641997498907   -4.520292525929596   -1.014375867534774
-3.7901641997498907   -4.520292525929596   -1.014375867534774
-3.7901641997498907   -4.520292525929596   -1.014375867534774
-2.7790480665080217   -0.3025673146728758   0.10515408499333534
-2.7790480665080217   -0.3025673146728758   0.10515408499333534
-2.7790480665080217   -0.3025673146728758   0.10515408499333534
-2.7790480665080217   -0.3025673146728758   0.10515408499333534
-10.12286640842458   -5.7103932069173755   -3.1666519230683914
-10.12286640842458   -5.7103932069173755   -3.1666519230683914
-10.12286640842458   -5.7103932069173755   -3.1666519230683914
-10.12286640842458   -5.7103932069173755   -3.1666519230683914
-6.2469102753587   -2.8758358370825485   0.2553317859090974
-6.2469102753587   -2.8758358370825485   0.2553317859090974
-6.2469102753587   -2.8758358370825485   0.2553317859090974
-6.2469102753587   -2.8758358370825485   0.2553317859090974
-8.858915388044613   -1.709191334663385   -0.8480986934226186
-8.858915388044613   -1.709191334663385   -0.8480986934226186
-8.858915388044613   -1.709191334663385   -0.8480986934226186
-8.858915388044613   -1.709191334663385   -0.8480986934226186
-3.685675716831825   -3.9464458168707113   -0.7841056644278223
-3.685675716831825   -3.9464458168707113   -0.7841056644278223
-3.685675716831825   -3.9464458168707113   -0.7841056644278223
-3.685675716831825   -3.9464458168707113   -0.7841056644278223
-3.186080975068738   -0.807034124908422   -0.16318796204347535
-3.186080975068738   -0.807034124908422   -0.16318796204347535
-3.186080975068738   -0.807034124908422   -0.16318796204347535
-3.186080975068738   -0.807034124908422   -0.16318796204347535
-9.224949827072827   -4.786530367445069   -2.802296038903579
-9.224949827072827   -4.786530367445069   -2.802296038903579
-9.224949827072827   -4.786530367445069   -2.802296038903579
-9.224949827072827   -4.786530367445069   -2.802296038903579
-5.784528225189286   -2.490847519362893   1.0679879255879867
-5.784528225189286   -2.490847519362893   1.0679879255879867
-5.784528225189286   -2.490847519362893   1.0679879255879867
-5.784528225189286   -2.490847519362893   1.0679879255879867
-2.61635141104758   -1.4056188232558517   -0.20895216603963832
-2.61635141104758   -1.4056188232558517   -0.20895216603963832
-2.61635141104758   -1.4056188232558517   -0.20895216603963832
-2.61635141104758   -1.4056188232558517   -0.20895216603963832
-1.1997198722235394   -1.6895929120222728   -0.29595628081856096
-1.1997198722235394   -1.6895929120222728   -0.29595628081856096
-1.1997198722235394   -1.6895929120222728   -0.29595628081856096
-1.1997198722235394   -1.6895929120222728   -0.29595628081856096
-1.064432653190181   -0.8930163150614665   0.02832945363350875
-1.064432653190181   -0.8930163150614665   0.02832945363350875
-1.064432653190181   -0.8930163150614665   0.02832945363350875
-1.064432653190181   -0.8930163150614665   0.02832945363350875
-3.1832089012500817   -2.4964300083411284   -0.0034618926241974934
-3.1832089012500817   -2.4964300083411284   -0.0034618926241974934
-3.1832089012500817   -2.4964300083411284   -0.0034618926241974934
-3.1832089012500817   -2.4964300083411284   -0.0034618926241974934
-1.7143310108212788   -1.2133788799585155   0.54574405931699
-1.7143310108212788   -1.2133788799585155   0.54574405931699
-1.7143310108212788   -1.2133788799585155   0.54574405931699
-1.7143310108212788   -1.2133788799585155   0.54574405931699
-2.971455721707961   -1.3069266834522288   -0.13419931980252314
-2.971455721707961   -1.3069266834522288   -0.13419931980252314
-2.971455721707961   -1.3069266834522288   -0.13419931980252314
-2.971455721707961   -1.3069266834522288   -0.13419931980252314
-1.3649286143257267   -2.1712624215437932   -0.1959042455618768
-1.3649286143257267   -2.1712624215437932   -0.1959042455618768
-1.3649286143257267   -2.1712624215437932   -0.1959042455618768
-1.3649286143257267   -2.1712624215437932   -0.1959042455618768
-1.1467252780835526   -0.9258266557880022   0.028480173657502328
-1.1467252780835526   -0.9258266557880022   0.028480173657502328
-1.1467252780835526   -0.9258266557880022   0.028480173657502328
-1.1467252780835526   -0.9258266557880022   0.028480173657502328
-3.3339397689032744   -2.460666054563543   -0.5112056870922395
-3.3339397689032744   -2.460666054563543   -0.5112056870922395
-3.3339397689032744   -2.460666054563543   -0.5112056870922395
-3.3339397689032744   -2.460666054563543   -0.5112056870922395
-2.0384425754338205   -1.5599649531372624   0.25186752489056335
-2.0384425754338205   -1.5599649531372624   0.25186752489056335
-2.0384425754338205   -1.5599649531372624   0.25186752489056335
-2.0384425754338205   -1.5599649531372624   0.25186752489056335
-3.0625011831220252   -1.3646780283975906   -0.2500007843519664
-3.0625011831220252   -1.3646780283975906   -0.2500007843519664
-3.0625011831220252   -1.3646780283975906   -0.2500007843519664
-3.0625011831220252   -1.3646780283975906   -0.2500007843519664
-1.409732432337746   -2.013383250426902   -0.19899900297456424
-1.409732432337746   -2.013383250426902   -0.19899900297456424
-1.409732432337746   -2.013383250426902   -0.19899900297456424
-1.409732432337746   -2.013383250426902   -0.19899900297456424
-1.2726842989954865   -0.9570444882907976   0.041823840727556794
-1.2726842989954865   -0.9570444882907976   0.041823840727556794
-1.2726842989954865   -0.9570444882907976   0.041823840727556794
-1.2726842989954865   -0.9570444882907976   0.041823840727556794
-3.559099962281483   -2.38817972739333   -0.4471372956222764
-3.559099962281483   -2.38817972739333   -0.4471372956222764
-3.559099962281483   -2.38817972739333   -0.4471372956222764
-3.559099962281483   -2.38817972739333   -0.4471372956222764
-2.128809099140064   -1.4696130604904902   0.267041175427362
-2.128809099140064   -1.4696130604904902   0.267041175427362
-2.128809099140064   -1.4696130604904902   0.267041175427362
-2.128809099140064   -1.4696130604904902   0.267041175427362
-0.9574970184567694   -0.8356289729995698   0.06119404899257122
-0.9574970184567694   -0.8356289729995698   0.06119404899257122
-0.9574970184567694   -0.8356289729995698   0.06119404899257122
-0.9574970184567694   -0.8356289729995698   0.06119404899257122
-0.5765233098974185   -0.5114187657830166   -0.14369659077247163
-0.5765233098974185   -0.5114187657830166   -0.14369659077247163
-0.5765233098974185   -0.5114187657830166   -0.14369659077247163
-0.5765233098974185   -0.5114187657830166   -0.14369659077247163
-0.5620067026968898   -0.7445458180257994   0.06237197168849459
-0.5620067026968898   -0.7445458180257994   0.06237197168849459
-0.5620067026968898   -0.7445458180257994   0.06237197168849459
-0.5620067026968898   -0.7445458180257994   0.06237197168849459
-1.0477446370825896   -0.7113367745867241   -0.0699100063032608
-1.0477446370825896   -0.7113367745867241   -0.0699100063032608
-1.0477446370825896   -0.7113367745867241   -0.0699100063032608
-1.0477446370825896   -0.7113367745867241   -0.0699100063032608
-0.6647594563032567   -0.591976471814981   0.27298671664742
-0.6647594563032567   -0.591976471814981   0.27298671664742
-0.6647594563032567   -0.591976471814981   0.27298671664742
-0.6647594563032567   -0.591976471814981   0.27298671664742
-1.0465581763918481   -0.8408278354914597   0.0655133580551518
-1.0465581763918481   -0.8408278354914597   0.0655133580551518
-1.0465581763918481   -0.8408278354914597   0.0655133580551518
-1.0465581763918481   -0.8408278354914597   0.0655133580551518
-0.571669455375177   -0.6235310491086146   -0.10695656062012622
-0.571669455375177   -0.6235310491086146   -0.10695656062012622
-0.571669455375177   -0.6235310491086146   -0.10695656062012622
-0.571669455375177   -0.6235310491086146   -0.10695656062012622
-0.5660249805940172   -0.7669680712222642   0.055085844777892995
-0.5660249805940172   -0.7669680712222642   0.055085844777892995
-0.5660249805940172   -0.7669680712222642   0.055085844777892995
-0.5660249805940172   -0.7669680712222642   0.055085844777892995
-1.1090334722998247   -0.8320122669699366   0.12312481375807574
-1.1090334722998247   -0.8320122669699366   0.12312481375807574
-1.1090334722998247   -0.8320122669699366   0.12312481375807574
-1.1090334722998247   -0.8320122669699366   0.12312481375807574
-0.7190249732497073   -0.6588422735189234   0.23350312733974746
-0.7190249732497073   -0.6588422735189234   0.23350312733974746
-0.7190249732497073   -0.6588422735189234   0.23350312733974746
-0.7190249732497073   -0.6588422735189234   0.23350312733974746
-1.123898492362226   -0.8718353776968737   0.08862282417299269
-1.123898492362226   -0.8718353776968737   0.08862282417299269
-1.123898492362226   -0.8718353776968737   0.08862282417299269
-1.123898492362226   -0.8718353776968737   0.08862282417299269
-0.5985248785738687   -0.7745098785375719   -0.09987183780605713
-0.5985248785738687   -0.7745098785375719   -0.09987183780605713
-0.5985248785738687   -0.7745098785375719   -0.09987183780605713
-0.5985248785738687   -0.7745098785375719   -0.09987183780605713
-0.5683877260589956   -0.7923894393853333   0.07705959504112042
-0.5683877260589956   -0.7923894393853333   0.07705959504112042
-0.5683877260589956   -0.7923894393853333   0.07705959504112042
-0.5683877260589956   -0.7923894393853333   0.07705959504112042
-1.2910813522870777   -1.0288448142851225   0.021638900263926203
-1.2910813522870777   -1.0288448142851225   0.021638900263926203
-1.2910813522870777   -1.0288448142851225   0.021638900263926203
-1.2910813522870777   -1.0288448142851225   0.021638900263926203
-0.7988116560359064   -0.7529415961687738   0.11346907377647181
-0.7988116560359064   -0.7529415961687738   0.11346907377647181
-0.7988116560359064   -0.7529415961687738   0.11346907377647181
-0.7988116560359064   -0.7529415961687738   0.11346907377647181
-0.4796507268564398   -0.33208730984361623   0.1613348684930216
-0.4796507268564398   -0.33208730984361623   0.1613348684930216
-0.4796507268564398   -0.33208730984361623   0.1613348684930216
-0.4796507268564398   -0.33208730984361623   0.1613348684930216
-0.32913120946033775   0.015115646824130774   -0.0318013238642007
-0.32913120946033775   0.015115646824130774   -0.0318013238642007
-0.32913120946033775   0.015115646824130774   -0.0318013238642007
-0.32913120946033775   0.015115646824130774   -0.0318013238642007
-0.31286399001389625   -0.35753691582418456   0.10049999130343777
-0.31286399001389625   -0.35753691582418456   0.10049999130343777
-0.31286399001389625   -0.35753691582418456   0.10049999130343777
-0.31286399001389625   -0.35753691582418456   0.10049999130343777
-0.4395528934700449   -0.04657170489390574   -0.023333095309174753
-0.4395528934700449   -0.04657170489390574   -0.023333095309174753
-0.4395528934700449   -0.04657170489390574   -0.023333095309174753
-0.4395528934700449   -0.04657170489390574   -0.023333095309174753
-0.3612740777812684   -0.1750761623076527   0.0800653552516431
-0.3612740777812684   -0.1750761623076527   0.0800653552516431
-0.3612740777812684   -0.1750761623076527   0.0800653552516431
-0.3612740777812684   -0.1750761623076527   0.0800653552516431
-0.47101872073851647   -0.37892887294906985   0.15169493640363163
-0.47101872073851647   -0.37892887294906985   0.15169493640363163
-0.47101872073851647   -0.37892887294906985   0.15169493640363163
-0.47101872073851647   -0.37892887294906985   0.15169493640363163
-0.27272095321075346   -0.016502538234349266   -0.03981920227068381
-0.27272095321075346   -0.016502538234349266   -0.03981920227068381
-0.27272095321075346   -0.016502538234349266   -0.03981920227068381
-0.27272095321075346   -0.016502538234349266   -0.03981920227068381
-0.2845788462546799   -0.3890403466135073   0.09229352678349823
-0.2845788462546799   -0.3890403466135073   0.09229352678349823
-0.2845788462546799   -0.3890403466135073   0.09229352678349823
-0.2845788462546799   -0.3890403466135073   0.09229352678349823
-0.44003112694910035   -0.10499189425549933   0.023078936035712344
-0.44003112694910035   -0.10499189425549933   0.023078936035712344
-0.44003112694910035   -0.10499189425549933   0.023078936035712344
-0.44003112694910035   -0.10499189425549933   0.023078936035712344
-0.3288128182815603   -0.2001060893034481   0.09717059891483404
-0.3288128182815603   -0.2001060893034481   0.09717059891483404
-0.3288128182815603   -0.2001060893034481   0.09717059891483404
-0.3288128182815603   -0.2001060893034481   0.09717059891483404
-0.471100665502738   -0.4102129550145113   0.17295230402653616
-0.471100665502738   -0.4102129550145113   0.17295230402653616
-0.471100665502738   -0.4102129550145113   0.17295230402653616
-0.471100665502738   -0.4102129550145113   0.17295230402653616
-0.25545645931536165   -0.0857664374688147   -0.06536844766460315
-0.25545645931536165   -0.0857664374688147   -0.06536844766460315
-0.25545645931536165   -0.0857664374688147   -0.06536844766460315
-0.25545645931536165   -0.0857664374688147   -0.06536844766460315
-0.2340993405094482   -0.42397583904255165   0.10112006878862564
-0.2340993405094482   -0.42397583904255165   0.10112006878862564
-0.2340993405094482   -0.42397583904255165   0.10112006878862564
-0.2340993405094482   -0.42397583904255165   0.10112006878862564
-0.4693584504507379   -0.2508724081908398   0.030688941887915475
-0.4693584504507379   -0.2508724081908398   0.030688941887915475
-0.4693584504507379   -0.2508724081908398   0.030688941887915475
-0.4693584504507379   -0.2508724081908398   0.030688941887915475
-0.31293305237603125   -0.253615449123982   0.08613980722605843
-0.31293305237603125   -0.253615449123982   0.08613980722605843
-0.31293305237603125   -0.253615449123982   0.08613980722605843
-0.31293305237603125   -0.253615449123982   0.08613980722605843
-0.3055853017227754   -0.0603493753989637   0.16139323704670533
-0.3055853017227754   -0.0603493753989637   0.16139323704670533
-0.3055853017227754   -0.0603493753989637   0.16139323704670533
-0.3055853017227754   -0.0603493753989637   0.16139323704670533
-0.0482326820312068   0.03849202453144342   -0.0032541069263389358
-0.0482326820312068   0.03849202453144342   -0.0032541069263389358
-0.0482326820312068   0.03849202453144342   -0.0032541069263389358
-0.0482326820312068   0.03849202453144342   -0.0032541069263389358
0.02419310894010627   -0.01864902083686358   0.09914681851997284
0.02419310894010627   -0.01864902083686358   0.09914681851997284
0.02419310894010627   -0.01864902083686358   0.09914681851997284
0.02419310894010627   -0.01864902083686358   0.09914681851997284
-0.258214404121575   0.030710080918444446   -0.014499075977585037
-0.258214404121575   0.030710080918444446   -0.014499075977585037
-0.258214404121575   0.030710080918444446   -0.014499075977585037
-0.258214404121575   0.030710080918444446   -0.014499075977585037
-0.14976430556093934   -0.010655791372221779   -0.013102004960480609
-0.14976430556093934   -0.010655791372221779   -0.013102004960480609
-0.14976430556093934   -0.010655791372221779   -0.013102004960480609
-0.14976430556093934   -0.010655791372221779   -0.013102004960480609
-0.23947946150298072   -0.05769646251892446   0.16758218055275537
-0.23947946150298072   -0.05769646251892446   0.16758218055275537
-0.23947946150298072   -0.05769646251892446   0.16758218055275537
-0.23947946150298072   -0.05769646251892446   0.16758218055275537
0.014718632897977509   0.07901798917698111   -0.045892571704454266
0.014718632897977509   0.07901798917698111   -0.045892571704454266
0.014718632897977509   0.07901798917698111   -0.045892571704454266
0.014718632897977509   0.07901798917698111   -0.045892571704454266
0.06213483694271739   -0.022665454938833367   0.1220592428120602
0.06213483694271739   -0.022665454938833367   0.1220592428120602
0.06213483694271739   -0.022665454938833367   0.1220592428120602
0.06213483694271739   -0.022665454938833367   0.1220592428120602
-0.22433161878875824   0.026108454365845447   -0.021619136866246193
-0.22433161878875824   0.026108454365845447   -0.021619136866246193
-0.22433161878875824   0.026108454365845447   -0.021619136866246193
-0.22433161878875824   0.026108454365845447   -0.021619136866246193
-0.09462864589760045   -0.0011235990417808976   0.016500405275937685
-0.09462864589760045   -0.0011235990417808976   0.016500405275937685
-0.09462864589760045   -0.0011235990417808976   0.016500405275937685
-0.09462864589760045   -0.0011235990417808976   0.016500405275937685
-0.20213530426263204   -0.06403096143022435   0.17950185156045467
-0.20213530426263204   -0.06403096143022435   0.17950185156045467
-0.20213530426263204   -0.06403096143022435   0.17950185156045467
-0.20213530426263204   -0.06403096143022435   0.17950185156045467
0.04851723003231491   0.07605266847296016   -0.04474691515174578
0.04851723003231491   0.07605266847296016   -0.04474691515174578
0.04851723003231491   0.07605266847296016   -0.04474691515174578
0.04851723003231491   0.07605266847296016   -0.04474691515174578
0.10212254636478216   -0.03442391622366042   0.11801715717760192
0.10212254636478216   -0.03442391622366042   0.11801715717760192
0.10212254636478216   -0.03442391622366042   0.11801715717760192
0.10212254636478216   -0.03442391622366042   0.11801715717760192
-0.1684048367247256   0.030351320268666673   -0.024734571598979654
-0.1684048367247256   0.030351320268666673   -0.024734571598979654
-0.1684048367247256   0.030351320268666673   -0.024734571598979654
-0.1684048367247256   0.030351320268666673   -0.024734571598979654
-0.044887787398822813   0.005642523366807126   0.04324347516571276
-0.044887787398822813   0.005642523366807126   0.04324347516571276
-0.044887787398822813   0.005642523366807126   0.04324347516571276
-0.044887787398822813   0.005642523366807126   0.04324347516571276
              </DataArray>   
             <DataArray type="Float64" NumberOfComponents="3" Name="Displacements" format="ascii">   
0.0   0.0   0.0
-0.02818839605965785   -0.018435083841136075   -0.009439147700137322
0.0   0.0   0.0
0.0   0.0   0.0
-0.02818839605965785   -0.018435083841136075   -0.009439147700137322
-0.01794325334793547   -0.016556267874947433   -0.006934306246951913
0.0   0.0   0.0
-0.01759289432637336   -0.01739052018698758   -0.005808090469881059
0.0   0.0   0.0
0.0   0.0   0.0
-0.01759289432637336   -0.01739052018698758   -0.005808090469881059
0.0   0.0   0.0
0.0   0.0   0.0
-0.01759289432637336   -0.01739052018698758   -0.005808090469881059
-0.02950605582395176   -0.019642725617809973   -0.007576248430143701
-0.02818839605965785   -0.018435083841136075   -0.009439147700137322
0.0   0.0   0.0
-0.01759289432637336   -0.01739052018698758   -0.005808090469881059
-0.02818839605965785   -0.018435083841136075   -0.009439147700137322
0.0   0.0   0.0
0.0   0.0   0.0
-0.02950605582395176   -0.019642725617809973   -0.007576248430143701
0.0   0.0   0.0
0.0   0.0   0.0
-0.02950605582395176   -0.019642725617809973   -0.007576248430143701
-0.01759289432637336   -0.01739052018698758   -0.005808090469881059
0.0   0.0   0.0
-0.017647375878482082   -0.017817488885395874   -0.004682942162654833
0.0   0.0   0.0
0.0   0.0   0.0
-0.017647375878482082   -0.017817488885395874   -0.004682942162654833
0.0   0.0   0.0
0.0   0.0   0.0
-0.017647375878482082   -0.017817488885395874   -0.004682942162654833
-0.030433669468497397   -0.020229714839978364   -0.005790248249975015
-0.02950605582395176   -0.019642725617809973   -0.007576248430143701
0.0   0.0   0.0
-0.017647375878482082   -0.017817488885395874   -0.004682942162654833
-0.02950605582395176   -0.019642725617809973   -0.007576248430143701
0.0   0.0   0.0
0.0   0.0   0.0
-0.030433669468497397   -0.020229714839978364   -0.005790248249975015
0.0   0.0   0.0
0.0   0.0   0.0
-0.030433669468497397   -0.020229714839978364   -0.005790248249975015
-0.017647375878482082   -0.017817488885395874   -0.004682942162654833
0.0   0.0   0.0
-0.017643585906670575   -0.01792643541983989   -0.00351883208908881
0.0   0.0   0.0
0.0   0.0   0.0
-0.017643585906670575   -0.01792643541983989   -0.00351883208908881
0.0   0.0   0.0
0.0   0.0   0.0
-0.017643585906670575   -0.01792643541983989   -0.00351883208908881
-0.032427175362906194   -0.020672354479066513   -0.0037175488339550654
-0.030433669468497397   -0.020229714839978364   -0.005790248249975015
0.0   0.0   0.0
-0.017643585906670575   -0.01792643541983989   -0.00351883208908881
-0.030433669468497397   -0.020229714839978364   -0.005790248249975015
0.0   0.0   0.0
0.0   0.0   0.0
-0.01794325334793547   -0.016556267874947433   -0.006934306246951913
0.0   0.0   0.0
0.0   0.0   0.0
-0.01794325334793547   -0.016556267874947433   -0.006934306246951913
-0.008165826878488533   -0.015866193435024985   -0.005272288882736259
0.0   0.0   0.0
-0.007858519822771283   -0.01640977296797819   -0.004741199490532796
0.0   0.0   0.0
0.0   0.0   0.0
-0.007858519822771283   -0.01640977296797819   -0.004741199490532796
0.0   0.0   0.0
0.0   0.0   0.0
-0.007858519822771283   -0.01640977296797819   -0.004741199490532796
-0.01759289432637336   -0.01739052018698758   -0.005808090469881059
-0.01794325334793547   -0.016556267874947433   -0.006934306246951913
0.0   0.0   0.0
-0.007858519822771283   -0.01640977296797819   -0.004741199490532796
-0.01794325334793547   -0.016556267874947433   -0.006934306246951913
0.0   0.0   0.0
0.0   0.0   0.0
-0.01759289432637336   -0.01739052018698758   -0.005808090469881059
0.0   0.0   0.0
0.0   0.0   0.0
-0.01759289432637336   -0.01739052018698758   -0.005808090469881059
-0.007858519822771283   -0.01640977296797819   -0.004741199490532796
0.0   0.0   0.0
-0.007687916011792182   -0.016616766284885977   -0.00422343266564569
0.0   0.0   0.0
0.0   0.0   0.0
-0.007687916011792182   -0.016616766284885977   -0.00422343266564569
0.0   0.0   0.0
0.0   0.0   0.0
-0.007687916011792182   -0.016616766284885977   -0.00422343266564569
-0.017647375878482082   -0.017817488885395874   -0.004682942162654833
-0.01759289432637336   -0.01739052018698758   -0.005808090469881059
0.0   0.0   0.0
-0.007687916011792182   -0.016616766284885977   -0.00422343266564569
-0.01759289432637336   -0.01739052018698758   -0.005808090469881059
0.0   0.0   0.0
0.0   0.0   0.0
-0.017647375878482082   -0.017817488885395874   -0.004682942162654833
0.0   0.0   0.0
0.0   0.0   0.0
-0.017647375878482082   -0.017817488885395874   -0.004682942162654833
-0.007687916011792182   -0.016616766284885977   -0.00422343266564569
0.0   0.0   0.0
-0.0075333717934325225   -0.01652994713076118   -0.0036875856809865763
0.0   0.0   0.0
0.0   0.0   0.0
-0.0075333717934325225   -0.01652994713076118   -0.0036875856809865763
0.0   0.0   0.0
0.0   0.0   0.0
-0.0075333717934325225   -0.01652994713076118   -0.0036875856809865763
-0.017643585906670575   -0.01792643541983989   -0.00351883208908881
-0.017647375878482082   -0.017817488885395874   -0.004682942162654833
0.0   0.0   0.0
-0.0075333717934325225   -0.01652994713076118   -0.0036875856809865763
-0.017647375878482082   -0.017817488885395874   -0.004682942162654833
0.0   0.0   0.0
0.0   0.0   0.0
-0.008165826878488533   -0.015866193435024985   -0.005272288882736259
0.0   0.0   0.0
0.0   0.0   0.0
-0.008165826878488533   -0.015866193435024985   -0.005272288882736259
0.0010761634430348408   -0.015953850498089287   -0.00421186121533707
0.0   0.0   0.0
0.0012700611456906601   -0.016236230386823845   -0.0042867514740827966
0.0   0.0   0.0
0.0   0.0   0.0
0.0012700611456906601   -0.016236230386823845   -0.0042867514740827966
0.0   0.0   0.0
0.0   0.0   0.0
0.0012700611456906601   -0.016236230386823845   -0.0042867514740827966
-0.007858519822771283   -0.01640977296797819   -0.004741199490532796
-0.008165826878488533   -0.015866193435024985   -0.005272288882736259
0.0   0.0   0.0
0.0012700611456906601   -0.016236230386823845   -0.0042867514740827966
-0.008165826878488533   -0.015866193435024985   -0.005272288882736259
0.0   0.0   0.0
0.0   0.0   0.0
-0.007858519822771283   -0.01640977296797819   -0.004741199490532796
0.0   0.0   0.0
0.0   0.0   0.0
-0.007858519822771283   -0.01640977296797819   -0.004741199490532796
0.0012700611456906601   -0.016236230386823845   -0.0042867514740827966
0.0   0.0   0.0
0.0014224542799491468   -0.01621337572320412   -0.004353928037655872
0.0   0.0   0.0
0.0   0.0   0.0
0.0014224542799491468   -0.01621337572320412   -0.004353928037655872
0.0   0.0   0.0
0.0   0.0   0.0
0.0014224542799491468   -0.01621337572320412   -0.004353928037655872
-0.007687916011792182   -0.016616766284885977   -0.00422343266564569
-0.007858519822771283   -0.01640977296797819   -0.004741199490532796
0.0   0.0   0.0
0.0014224542799491468   -0.01621337572320412   -0.004353928037655872
-0.007858519822771283   -0.01640977296797819   -0.004741199490532796
0.0   0.0   0.0
0.0   0.0   0.0
-0.007687916011792182   -0.016616766284885977   -0.00422343266564569
0.0   0.0   0.0
0.0   0.0   0.0
-0.007687916011792182   -0.016616766284885977   -0.00422343266564569
0.0014224542799491468   -0.01621337572320412   -0.004353928037655872
0.0   0.0   0.0
0.001629115426928562   -0.015860160422393608   -0.004422400591217844
0.0   0.0   0.0
0.0   0.0   0.0
0.001629115426928562   -0.015860160422393608   -0.004422400591217844
0.0   0.0   0.0
0.0   0.0   0.0
0.001629115426928562   -0.015860160422393608   -0.004422400591217844
-0.0075333717934325225   -0.01652994713076118   -0.0036875856809865763
-0.007687916011792182   -0.016616766284885977   -0.00422343266564569
0.0   0.0   0.0
0.001629115426928562   -0.015860160422393608   -0.004422400591217844
-0.007687916011792182   -0.016616766284885977   -0.00422343266564569
0.0   0.0   0.0
0.0   0.0   0.0
0.0010761634430348408   -0.015953850498089287   -0.00421186121533707
0.0   0.0   0.0
0.0   0.0   0.0
0.0010761634430348408   -0.015953850498089287   -0.00421186121533707
0.01110406382044957   -0.016735271074222   -0.003685696684050934
0.0   0.0   0.0
0.011117525792783757   -0.01682614112528333   -0.004398168935578387
0.0   0.0   0.0
0.0   0.0   0.0
0.011117525792783757   -0.01682614112528333   -0.004398168935578387
0.0   0.0   0.0
0.0   0.0   0.0
0.011117525792783757   -0.01682614112528333   -0.004398168935578387
0.0012700611456906601   -0.016236230386823845   -0.0042867514740827966
0.0010761634430348408   -0.015953850498089287   -0.00421186121533707
0.0   0.0   0.0
0.011117525792783757   -0.01682614112528333   -0.004398168935578387
0.0010761634430348408   -0.015953850498089287   -0.00421186121533707
0.0   0.0   0.0
0.0   0.0   0.0
0.0012700611456906601   -0.016236230386823845   -0.0042867514740827966
0.0   0.0   0.0
0.0   0.0   0.0
0.0012700611456906601   -0.016236230386823845   -0.0042867514740827966
0.011117525792783757   -0.01682614112528333   -0.004398168935578387
0.0   0.0   0.0
0.011064496539919809   -0.01658582517129077   -0.00508100996687532
0.0   0.0   0.0
0.0   0.0   0.0
0.011064496539919809   -0.01658582517129077   -0.00508100996687532
0.0   0.0   0.0
0.0   0.0   0.0
0.011064496539919809   -0.01658582517129077   -0.00508100996687532
0.0014224542799491468   -0.01621337572320412   -0.004353928037655872
0.0012700611456906601   -0.016236230386823845   -0.0042867514740827966
0.0   0.0   0.0
0.011064496539919809   -0.01658582517129077   -0.00508100996687532
0.0012700611456906601   -0.016236230386823845   -0.0042867514740827966
0.0   0.0   0.0
0.0   0.0   0.0
0.0014224542799491468   -0.01621337572320412   -0.004353928037655872
0.0   0.0   0.0
0.0   0.0   0.0
0.0014224542799491468   -0.01621337572320412   -0.004353928037655872
0.011064496539919809   -0.01658582517129077   -0.00508100996687532
0.0   0.0   0.0
0.01127357992670726   -0.015940192480521122   -0.005750335650638523
0.0   0.0   0.0
0.0   0.0   0.0
0.01127357992670726   -0.015940192480521122   -0.005750335650638523
0.0   0.0   0.0
0.0   0.0   0.0
0.01127357992670726   -0.015940192480521122   -0.005750335650638523
0.001629115426928562   -0.015860160422393608   -0.004422400591217844
0.0014224542799491468   -0.01621337572320412   -0.004353928037655872
0.0   0.0   0.0
0.01127357992670726   -0.015940192480521122   -0.005750335650638523
0.0014224542799491468   -0.01621337572320412   -0.004353928037655872
0.0   0.0   0.0
0.0   0.0   0.0
0.01110406382044957   -0.016735271074222   -0.003685696684050934
0.0   0.0   0.0
0.0   0.0   0.0
0.01110406382044957   -0.016735271074222   -0.003685696684050934
0.025035789464345405   -0.01871363257040773   -0.0034733193900850505
0.0   0.0   0.0
0.023504485488107445   -0.018511403033305437   -0.00508678732053281
0.0   0.0   0.0
0.0   0.0   0.0
0.023504485488107445   -0.018511403033305437   -0.00508678732053281
0.0   0.0   0.0
0.0   0.0   0.0
0.023504485488107445   -0.018511403033305437   -0.00508678732053281
0.011117525792783757   -0.01682614112528333   -0.004398168935578387
0.01110406382044957   -0.016735271074222   -0.003685696684050934
0.0   0.0   0.0
0.023504485488107445   -0.018511403033305437   -0.00508678732053281
0.01110406382044957   -0.016735271074222   -0.003685696684050934
0.0   0.0   0.0
0.0   0.0   0.0
0.011117525792783757   -0.01682614112528333   -0.004398168935578387
0.0   0.0   0.0
0.0   0.0   0.0
0.011117525792783757   -0.01682614112528333   -0.004398168935578387
0.023504485488107445   -0.018511403033305437   -0.00508678732053281
0.0   0.0   0.0
0.022795894320252585   -0.01812648147988944   -0.006450669647856052
0.0   0.0   0.0
0.0   0.0   0.0
0.022795894320252585   -0.01812648147988944   -0.006450669647856052
0.0   0.0   0.0
0.0   0.0   0.0
0.022795894320252585   -0.01812648147988944   -0.006450669647856052
0.011064496539919809   -0.01658582517129077   -0.00508100996687532
0.011117525792783757   -0.01682614112528333   -0.004398168935578387
0.0   0.0   0.0
0.022795894320252585   -0.01812648147988944   -0.006450669647856052
0.011117525792783757   -0.01682614112528333   -0.004398168935578387
0.0   0.0   0.0
0.0   0.0   0.0
0.011064496539919809   -0.01658582517129077   -0.00508100996687532
0.0   0.0   0.0
0.0   0.0   0.0
0.011064496539919809   -0.01658582517129077   -0.00508100996687532
0.022795894320252585   -0.01812648147988944   -0.006450669647856052
0.0   0.0   0.0
0.021744785815356948   -0.017139968012354276   -0.00789282399512152
0.0   0.0   0.0
0.0   0.0   0.0
0.021744785815356948   -0.017139968012354276   -0.00789282399512152
0.0   0.0   0.0
0.0   0.0   0.0
0.021744785815356948   -0.017139968012354276   -0.00789282399512152
0.01127357992670726   -0.015940192480521122   -0.005750335650638523
0.011064496539919809   -0.01658582517129077   -0.00508100996687532
0.0   0.0   0.0
0.021744785815356948   -0.017139968012354276   -0.00789282399512152
0.011064496539919809   -0.01658582517129077   -0.00508100996687532
0.0   0.0   0.0
-0.02818839605965785   -0.018435083841136075   -0.009439147700137322
-0.052693963364402394   -0.05154590478281354   -0.01271486800362531
-0.01794325334793547   -0.016556267874947433   -0.006934306246951913
-0.02950605582395176   -0.019642725617809973   -0.007576248430143701
-0.052693963364402394   -0.05154590478281354   -0.01271486800362531
-0.033634541660122454   -0.0498545694970773   -0.010461306267371184
-0.01794325334793547   -0.016556267874947433   -0.006934306246951913
-0.033681669189016016   -0.05070900022281621   -0.009418504909191718
-0.02950605582395176   -0.019642725617809973   -0.007576248430143701
-0.01759289432637336   -0.01739052018698758   -0.005808090469881059
-0.033681669189016016   -0.05070900022281621   -0.009418504909191718
-0.01794325334793547   -0.016556267874947433   -0.006934306246951913
-0.02950605582395176   -0.019642725617809973   -0.007576248430143701
-0.033681669189016016   -0.05070900022281621   -0.009418504909191718
-0.05428252603336736   -0.052737396178212055   -0.011020414762177761
-0.052693963364402394   -0.05154590478281354   -0.01271486800362531
-0.02950605582395176   -0.019642725617809973   -0.007576248430143701
-0.033681669189016016   -0.05070900022281621   -0.009418504909191718
-0.052693963364402394   -0.05154590478281354   -0.01271486800362531
-0.01794325334793547   -0.016556267874947433   -0.006934306246951913
-0.02950605582395176   -0.019642725617809973   -0.007576248430143701
-0.05428252603336736   -0.052737396178212055   -0.011020414762177761
-0.01759289432637336   -0.01739052018698758   -0.005808090469881059
-0.030433669468497397   -0.020229714839978364   -0.005790248249975015
-0.05428252603336736   -0.052737396178212055   -0.011020414762177761
-0.033681669189016016   -0.05070900022281621   -0.009418504909191718
-0.01759289432637336   -0.01739052018698758   -0.005808090469881059
-0.033822263928877834   -0.05122919251165484   -0.008415935114442465
-0.030433669468497397   -0.020229714839978364   -0.005790248249975015
-0.017647375878482082   -0.017817488885395874   -0.004682942162654833
-0.033822263928877834   -0.05122919251165484   -0.008415935114442465
-0.01759289432637336   -0.01739052018698758   -0.005808090469881059
-0.030433669468497397   -0.020229714839978364   -0.005790248249975015
-0.033822263928877834   -0.05122919251165484   -0.008415935114442465
-0.05538936571966143   -0.053409651654300054   -0.009360592070172312
-0.05428252603336736   -0.052737396178212055   -0.011020414762177761
-0.030433669468497397   -0.020229714839978364   -0.005790248249975015
-0.033822263928877834   -0.05122919251165484   -0.008415935114442465
-0.05428252603336736   -0.052737396178212055   -0.011020414762177761
-0.01759289432637336   -0.01739052018698758   -0.005808090469881059
-0.030433669468497397   -0.020229714839978364   -0.005790248249975015
-0.05538936571966143   -0.053409651654300054   -0.009360592070172312
-0.017647375878482082   -0.017817488885395874   -0.004682942162654833
-0.032427175362906194   -0.020672354479066513   -0.0037175488339550654
-0.05538936571966143   -0.053409651654300054   -0.009360592070172312
-0.033822263928877834   -0.05122919251165484   -0.008415935114442465
-0.017647375878482082   -0.017817488885395874   -0.004682942162654833
-0.0337297374703824   -0.051498015449683764   -0.007477015861575372
-0.032427175362906194   -0.020672354479066513   -0.0037175488339550654
-0.017643585906670575   -0.01792643541983989   -0.00351883208908881
-0.0337297374703824   -0.051498015449683764   -0.007477015861575372
-0.017647375878482082   -0.017817488885395874   -0.004682942162654833
-0.032427175362906194   -0.020672354479066513   -0.0037175488339550654
-0.0337297374703824   -0.051498015449683764   -0.007477015861575372
-0.05669794480136775   -0.05379853710870908   -0.007849396744984402
-0.05538936571966143   -0.053409651654300054   -0.009360592070172312
-0.032427175362906194   -0.020672354479066513   -0.0037175488339550654
-0.0337297374703824   -0.051498015449683764   -0.007477015861575372
-0.05538936571966143   -0.053409651654300054   -0.009360592070172312
-0.017647375878482082   -0.017817488885395874   -0.004682942162654833
-0.01794325334793547   -0.016556267874947433   -0.006934306246951913
-0.033634541660122454   -0.0498545694970773   -0.010461306267371184
-0.008165826878488533   -0.015866193435024985   -0.005272288882736259
-0.01759289432637336   -0.01739052018698758   -0.005808090469881059
-0.033634541660122454   -0.0498545694970773   -0.010461306267371184
-0.015593525993674385   -0.04906762000363135   -0.00892226263320101
-0.008165826878488533   -0.015866193435024985   -0.005272288882736259
-0.015466543176495751   -0.04961206412957748   -0.008388576069040605
-0.01759289432637336   -0.01739052018698758   -0.005808090469881059
-0.007858519822771283   -0.01640977296797819   -0.004741199490532796
-0.015466543176495751   -0.04961206412957748   -0.008388576069040605
-0.008165826878488533   -0.015866193435024985   -0.005272288882736259
-0.01759289432637336   -0.01739052018698758   -0.005808090469881059
-0.015466543176495751   -0.04961206412957748   -0.008388576069040605
-0.033681669189016016   -0.05070900022281621   -0.009418504909191718
-0.033634541660122454   -0.0498545694970773   -0.010461306267371184
-0.01759289432637336   -0.01739052018698758   -0.005808090469881059
-0.015466543176495751   -0.04961206412957748   -0.008388576069040605
-0.033634541660122454   -0.0498545694970773   -0.010461306267371184
-0.008165826878488533   -0.015866193435024985   -0.005272288882736259
-0.01759289432637336   -0.01739052018698758   -0.005808090469881059
-0.033681669189016016   -0.05070900022281621   -0.009418504909191718
-0.007858519822771283   -0.01640977296797819   -0.004741199490532796
-0.017647375878482082   -0.017817488885395874   -0.004682942162654833
-0.033681669189016016   -0.05070900022281621   -0.009418504909191718
-0.015466543176495751   -0.04961206412957748   -0.008388576069040605
-0.007858519822771283   -0.01640977296797819   -0.004741199490532796
-0.015354866077692443   -0.04987586665392518   -0.007904458308556048
-0.017647375878482082   -0.017817488885395874   -0.004682942162654833
-0.007687916011792182   -0.016616766284885977   -0.00422343266564569
-0.015354866077692443   -0.04987586665392518   -0.007904458308556048
-0.007858519822771283   -0.01640977296797819   -0.004741199490532796
-0.017647375878482082   -0.017817488885395874   -0.004682942162654833
-0.015354866077692443   -0.04987586665392518   -0.007904458308556048
-0.033822263928877834   -0.05122919251165484   -0.008415935114442465
-0.033681669189016016   -0.05070900022281621   -0.009418504909191718
-0.017647375878482082   -0.017817488885395874   -0.004682942162654833
-0.015354866077692443   -0.04987586665392518   -0.007904458308556048
-0.033681669189016016   -0.05070900022281621   -0.009418504909191718
-0.007858519822771283   -0.01640977296797819   -0.004741199490532796
-0.017647375878482082   -0.017817488885395874   -0.004682942162654833
-0.033822263928877834   -0.05122919251165484   -0.008415935114442465
-0.007687916011792182   -0.016616766284885977   -0.00422343266564569
-0.017643585906670575   -0.01792643541983989   -0.00351883208908881
-0.033822263928877834   -0.05122919251165484   -0.008415935114442465
-0.015354866077692443   -0.04987586665392518   -0.007904458308556048
-0.007687916011792182   -0.016616766284885977   -0.00422343266564569
-0.015184689296698344   -0.049868990597707774   -0.007482597015139169
-0.017643585906670575   -0.01792643541983989   -0.00351883208908881
-0.0075333717934325225   -0.01652994713076118   -0.0036875856809865763
-0.015184689296698344   -0.049868990597707774   -0.007482597015139169
-0.007687916011792182   -0.016616766284885977   -0.00422343266564569
-0.017643585906670575   -0.01792643541983989   -0.00351883208908881
-0.015184689296698344   -0.049868990597707774   -0.007482597015139169
-0.0337297374703824   -0.051498015449683764   -0.007477015861575372
-0.033822263928877834   -0.05122919251165484   -0.008415935114442465
-0.017643585906670575   -0.01792643541983989   -0.00351883208908881
-0.015184689296698344   -0.049868990597707774   -0.007482597015139169
-0.033822263928877834   -0.05122919251165484   -0.008415935114442465
-0.007687916011792182   -0.016616766284885977   -0.00422343266564569
-0.008165826878488533   -0.015866193435024985   -0.005272288882736259
-0.015593525993674385   -0.04906762000363135   -0.00892226263320101
0.0010761634430348408   -0.015953850498089287   -0.00421186121533707
-0.007858519822771283   -0.01640977296797819   -0.004741199490532796
-0.015593525993674385   -0.04906762000363135   -0.00892226263320101
0.0018083045330395218   -0.04909059770450222   -0.007947667639580129
0.0010761634430348408   -0.015953850498089287   -0.00421186121533707
0.0019656968885309366   -0.04934952332339619   -0.007913725945737738
-0.007858519822771283   -0.01640977296797819   -0.004741199490532796
0.0012700611456906601   -0.016236230386823845   -0.0042867514740827966
0.0019656968885309366   -0.04934952332339619   -0.007913725945737738
0.0010761634430348408   -0.015953850498089287   -0.00421186121533707
-0.007858519822771283   -0.01640977296797819   -0.004741199490532796
0.0019656968885309366   -0.04934952332339619   -0.007913725945737738
-0.015466543176495751   -0.04961206412957748   -0.008388576069040605
-0.015593525993674385   -0.04906762000363135   -0.00892226263320101
-0.007858519822771283   -0.01640977296797819   -0.004741199490532796
0.0019656968885309366   -0.04934952332339619   -0.007913725945737738
-0.015593525993674385   -0.04906762000363135   -0.00892226263320101
0.0010761634430348408   -0.015953850498089287   -0.00421186121533707
-0.007858519822771283   -0.01640977296797819   -0.004741199490532796
-0.015466543176495751   -0.04961206412957748   -0.008388576069040605
0.0012700611456906601   -0.016236230386823845   -0.0042867514740827966
-0.007687916011792182   -0.016616766284885977   -0.00422343266564569
-0.015466543176495751   -0.04961206412957748   -0.008388576069040605
0.0019656968885309366   -0.04934952332339619   -0.007913725945737738
0.0012700611456906601   -0.016236230386823845   -0.0042867514740827966
0.002069202312573099   -0.0493344122751311   -0.007936072791662516
-0.007687916011792182   -0.016616766284885977   -0.00422343266564569
0.0014224542799491468   -0.01621337572320412   -0.004353928037655872
0.002069202312573099   -0.0493344122751311   -0.007936072791662516
0.0012700611456906601   -0.016236230386823845   -0.0042867514740827966
-0.007687916011792182   -0.016616766284885977   -0.00422343266564569
0.002069202312573099   -0.0493344122751311   -0.007936072791662516
-0.015354866077692443   -0.04987586665392518   -0.007904458308556048
-0.015466543176495751   -0.04961206412957748   -0.008388576069040605
-0.007687916011792182   -0.016616766284885977   -0.00422343266564569
0.002069202312573099   -0.0493344122751311   -0.007936072791662516
-0.015466543176495751   -0.04961206412957748   -0.008388576069040605
0.0012700611456906601   -0.016236230386823845   -0.0042867514740827966
-0.007687916011792182   -0.016616766284885977   -0.00422343266564569
-0.015354866077692443   -0.04987586665392518   -0.007904458308556048
0.0014224542799491468   -0.01621337572320412   -0.004353928037655872
-0.0075333717934325225   -0.01652994713076118   -0.0036875856809865763
-0.015354866077692443   -0.04987586665392518   -0.007904458308556048
0.002069202312573099   -0.0493344122751311   -0.007936072791662516
0.0014224542799491468   -0.01621337572320412   -0.004353928037655872
0.0021808106799291915   -0.04903686541609085   -0.00801560773455565
-0.0075333717934325225   -0.01652994713076118   -0.0036875856809865763
0.001629115426928562   -0.015860160422393608   -0.004422400591217844
0.0021808106799291915   -0.04903686541609085   -0.00801560773455565
0.0014224542799491468   -0.01621337572320412   -0.004353928037655872
-0.0075333717934325225   -0.01652994713076118   -0.0036875856809865763
0.0021808106799291915   -0.04903686541609085   -0.00801560773455565
-0.015184689296698344   -0.049868990597707774   -0.007482597015139169
-0.015354866077692443   -0.04987586665392518   -0.007904458308556048
-0.0075333717934325225   -0.01652994713076118   -0.0036875856809865763
0.0021808106799291915   -0.04903686541609085   -0.00801560773455565
-0.015354866077692443   -0.04987586665392518   -0.007904458308556048
0.0014224542799491468   -0.01621337572320412   -0.004353928037655872
0.0010761634430348408   -0.015953850498089287   -0.00421186121533707
0.0018083045330395218   -0.04909059770450222   -0.007947667639580129
0.01110406382044957   -0.016735271074222   -0.003685696684050934
0.0012700611456906601   -0.016236230386823845   -0.0042867514740827966
0.0018083045330395218   -0.04909059770450222   -0.007947667639580129
0.02024518209063419   -0.04989412024287638   -0.0074905761121553385
0.01110406382044957   -0.016735271074222   -0.003685696684050934
0.020330030522447567   -0.04989394037907009   -0.00797263769385223
0.0012700611456906601   -0.016236230386823845   -0.0042867514740827966
0.011117525792783757   -0.01682614112528333   -0.004398168935578387
0.020330030522447567   -0.04989394037907009   -0.00797263769385223
0.01110406382044957   -0.016735271074222   -0.003685696684050934
0.0012700611456906601   -0.016236230386823845   -0.0042867514740827966
0.020330030522447567   -0.04989394037907009   -0.00797263769385223
0.0019656968885309366   -0.04934952332339619   -0.007913725945737738
0.0018083045330395218   -0.04909059770450222   -0.007947667639580129
0.0012700611456906601   -0.016236230386823845   -0.0042867514740827966
0.020330030522447567   -0.04989394037907009   -0.00797263769385223
0.0018083045330395218   -0.04909059770450222   -0.007947667639580129
0.01110406382044957   -0.016735271074222   -0.003685696684050934
0.0012700611456906601   -0.016236230386823845   -0.0042867514740827966
0.0019656968885309366   -0.04934952332339619   -0.007913725945737738
0.011117525792783757   -0.01682614112528333   -0.004398168935578387
0.0014224542799491468   -0.01621337572320412   -0.004353928037655872
0.0019656968885309366   -0.04934952332339619   -0.007913725945737738
0.020330030522447567   -0.04989394037907009   -0.00797263769385223
0.011117525792783757   -0.01682614112528333   -0.004398168935578387
0.020227740494602523   -0.04962482495289859   -0.008518389901673402
0.0014224542799491468   -0.01621337572320412   -0.004353928037655872
0.011064496539919809   -0.01658582517129077   -0.00508100996687532
0.020227740494602523   -0.04962482495289859   -0.008518389901673402
0.011117525792783757   -0.01682614112528333   -0.004398168935578387
0.0014224542799491468   -0.01621337572320412   -0.004353928037655872
0.020227740494602523   -0.04962482495289859   -0.008518389901673402
0.002069202312573099   -0.0493344122751311   -0.007936072791662516
0.0019656968885309366   -0.04934952332339619   -0.007913725945737738
0.0014224542799491468   -0.01621337572320412   -0.004353928037655872
0.020227740494602523   -0.04962482495289859   -0.008518389901673402
0.0019656968885309366   -0.04934952332339619   -0.007913725945737738
0.011117525792783757   -0.01682614112528333   -0.004398168935578387
0.0014224542799491468   -0.01621337572320412   -0.004353928037655872
0.002069202312573099   -0.0493344122751311   -0.007936072791662516
0.011064496539919809   -0.01658582517129077   -0.00508100996687532
0.001629115426928562   -0.015860160422393608   -0.004422400591217844
0.002069202312573099   -0.0493344122751311   -0.007936072791662516
0.020227740494602523   -0.04962482495289859   -0.008518389901673402
0.011064496539919809   -0.01658582517129077   -0.00508100996687532
0.020166094995990886   -0.04901285901515675   -0.00910766935066405
0.001629115426928562   -0.015860160422393608   -0.004422400591217844
0.01127357992670726   -0.015940192480521122   -0.005750335650638523
0.020166094995990886   -0.04901285901515675   -0.00910766935066405
0.011064496539919809   -0.01658582517129077   -0.00508100996687532
0.001629115426928562   -0.015860160422393608   -0.004422400591217844
0.020166094995990886   -0.04901285901515675   -0.00910766935066405
0.0021808106799291915   -0.04903686541609085   -0.00801560773455565
0.002069202312573099   -0.0493344122751311   -0.007936072791662516
0.001629115426928562   -0.015860160422393608   -0.004422400591217844
0.020166094995990886   -0.04901285901515675   -0.00910766935066405
0.002069202312573099   -0.0493344122751311   -0.007936072791662516
0.011064496539919809   -0.01658582517129077   -0.00508100996687532
0.01110406382044957   -0.016735271074222   -0.003685696684050934
0.02024518209063419   -0.04989412024287638   -0.0074905761121553385
0.025035789464345405   -0.01871363257040773   -0.0034733193900850505
0.011117525792783757   -0.01682614112528333   -0.004398168935578387
0.02024518209063419   -0.04989412024287638   -0.0074905761121553385
0.04248241335218939   -0.05138914446541477   -0.007362806736794565
0.025035789464345405   -0.01871363257040773   -0.0034733193900850505
0.04160589404430335   -0.05125176541309087   -0.008446204118886625
0.011117525792783757   -0.01682614112528333   -0.004398168935578387
0.023504485488107445   -0.018511403033305437   -0.00508678732053281
0.04160589404430335   -0.05125176541309087   -0.008446204118886625
0.025035789464345405   -0.01871363257040773   -0.0034733193900850505
0.011117525792783757   -0.01682614112528333   -0.004398168935578387
0.04160589404430335   -0.05125176541309087   -0.008446204118886625
0.020330030522447567   -0.04989394037907009   -0.00797263769385223
0.02024518209063419   -0.04989412024287638   -0.0074905761121553385
0.011117525792783757   -0.01682614112528333   -0.004398168935578387
0.04160589404430335   -0.05125176541309087   -0.008446204118886625
0.02024518209063419   -0.04989412024287638   -0.0074905761121553385
0.025035789464345405   -0.01871363257040773   -0.0034733193900850505
0.011117525792783757   -0.01682614112528333   -0.004398168935578387
0.020330030522447567   -0.04989394037907009   -0.00797263769385223
0.023504485488107445   -0.018511403033305437   -0.00508678732053281
0.011064496539919809   -0.01658582517129077   -0.00508100996687532
0.020330030522447567   -0.04989394037907009   -0.00797263769385223
0.04160589404430335   -0.05125176541309087   -0.008446204118886625
0.023504485488107445   -0.018511403033305437   -0.00508678732053281
0.04082360769071988   -0.050836434700634765   -0.009663709022434784
0.011064496539919809   -0.01658582517129077   -0.00508100996687532
0.022795894320252585   -0.01812648147988944   -0.006450669647856052
0.04082360769071988   -0.050836434700634765   -0.009663709022434784
0.023504485488107445   -0.018511403033305437   -0.00508678732053281
0.011064496539919809   -0.01658582517129077   -0.00508100996687532
0.04082360769071988   -0.050836434700634765   -0.009663709022434784
0.020227740494602523   -0.04962482495289859   -0.008518389901673402
0.020330030522447567   -0.04989394037907009   -0.00797263769385223
0.011064496539919809   -0.01658582517129077   -0.00508100996687532
0.04082360769071988   -0.050836434700634765   -0.009663709022434784
0.020330030522447567   -0.04989394037907009   -0.00797263769385223
0.023504485488107445   -0.018511403033305437   -0.00508678732053281
0.011064496539919809   -0.01658582517129077   -0.00508100996687532
0.020227740494602523   -0.04962482495289859   -0.008518389901673402
0.022795894320252585   -0.01812648147988944   -0.006450669647856052
0.01127357992670726   -0.015940192480521122   -0.005750335650638523
0.020227740494602523   -0.04962482495289859   -0.008518389901673402
0.04082360769071988   -0.050836434700634765   -0.009663709022434784
0.022795894320252585   -0.01812648147988944   -0.006450669647856052
0.03965658223723977   -0.04990967874749113   -0.010930299512253407
0.01127357992670726   -0.015940192480521122   -0.005750335650638523
0.021744785815356948   -0.017139968012354276   -0.00789282399512152
0.03965658223723977   -0.04990967874749113   -0.010930299512253407
0.022795894320252585   -0.01812648147988944   -0.006450669647856052
0.01127357992670726   -0.015940192480521122   -0.005750335650638523
0.03965658223723977   -0.04990967874749113   -0.010930299512253407
0.020166094995990886   -0.04901285901515675   -0.00910766935066405
0.020227740494602523   -0.04962482495289859   -0.008518389901673402
0.01127357992670726   -0.015940192480521122   -0.005750335650638523
0.03965658223723977   -0.04990967874749113   -0.010930299512253407
0.020227740494602523   -0.04962482495289859   -0.008518389901673402
0.022795894320252585   -0.01812648147988944   -0.006450669647856052
-0.052693963364402394   -0.05154590478281354   -0.01271486800362531
-0.07225445641532524   -0.09678333232043257   -0.014475811394552193
-0.033634541660122454   -0.0498545694970773   -0.010461306267371184
-0.05428252603336736   -0.052737396178212055   -0.011020414762177761
-0.07225445641532524   -0.09678333232043257   -0.014475811394552193
-0.046448671427514396   -0.09548892330761519   -0.012644695085441646
-0.033634541660122454   -0.0498545694970773   -0.010461306267371184
-0.046559418946038565   -0.09622759449182333   -0.011834515390497732
-0.05428252603336736   -0.052737396178212055   -0.011020414762177761
-0.033681669189016016   -0.05070900022281621   -0.009418504909191718
-0.046559418946038565   -0.09622759449182333   -0.011834515390497732
-0.033634541660122454   -0.0498545694970773   -0.010461306267371184
-0.05428252603336736   -0.052737396178212055   -0.011020414762177761
-0.046559418946038565   -0.09622759449182333   -0.011834515390497732
-0.0735515186057867   -0.0977923437699953   -0.013209578572177921
-0.07225445641532524   -0.09678333232043257   -0.014475811394552193
-0.05428252603336736   -0.052737396178212055   -0.011020414762177761
-0.046559418946038565   -0.09622759449182333   -0.011834515390497732
-0.07225445641532524   -0.09678333232043257   -0.014475811394552193
-0.033634541660122454   -0.0498545694970773   -0.010461306267371184
-0.05428252603336736   -0.052737396178212055   -0.011020414762177761
-0.0735515186057867   -0.0977923437699953   -0.013209578572177921
-0.033681669189016016   -0.05070900022281621   -0.009418504909191718
-0.05538936571966143   -0.053409651654300054   -0.009360592070172312
-0.0735515186057867   -0.0977923437699953   -0.013209578572177921
-0.046559418946038565   -0.09622759449182333   -0.011834515390497732
-0.033681669189016016   -0.05070900022281621   -0.009418504909191718
-0.04668874673131455   -0.09674095988749766   -0.011082647183312231
-0.05538936571966143   -0.053409651654300054   -0.009360592070172312
-0.033822263928877834   -0.05122919251165484   -0.008415935114442465
-0.04668874673131455   -0.09674095988749766   -0.011082647183312231
-0.033681669189016016   -0.05070900022281621   -0.009418504909191718
-0.05538936571966143   -0.053409651654300054   -0.009360592070172312
-0.04668874673131455   -0.09674095988749766   -0.011082647183312231
-0.07437328848354108   -0.09842429196412482   -0.01202885335635177
-0.0735515186057867   -0.0977923437699953   -0.013209578572177921
-0.05538936571966143   -0.053409651654300054   -0.009360592070172312
-0.04668874673131455   -0.09674095988749766   -0.011082647183312231
-0.0735515186057867   -0.0977923437699953   -0.013209578572177921
-0.033681669189016016   -0.05070900022281621   -0.009418504909191718
-0.05538936571966143   -0.053409651654300054   -0.009360592070172312
-0.07437328848354108   -0.09842429196412482   -0.01202885335635177
-0.033822263928877834   -0.05122919251165484   -0.008415935114442465
-0.05669794480136775   -0.05379853710870908   -0.007849396744984402
-0.07437328848354108   -0.09842429196412482   -0.01202885335635177
-0.04668874673131455   -0.09674095988749766   -0.011082647183312231
-0.033822263928877834   -0.05122919251165484   -0.008415935114442465
-0.04661064610302745   -0.09707765751426467   -0.010376689248148515
-0.05669794480136775   -0.05379853710870908   -0.007849396744984402
-0.0337297374703824   -0.051498015449683764   -0.007477015861575372
-0.04661064610302745   -0.09707765751426467   -0.010376689248148515
-0.033822263928877834   -0.05122919251165484   -0.008415935114442465
-0.05669794480136775   -0.05379853710870908   -0.007849396744984402
-0.04661064610302745   -0.09707765751426467   -0.010376689248148515
-0.07530830312049941   -0.09887707583977595   -0.010941624264179571
-0.07437328848354108   -0.09842429196412482   -0.01202885335635177
-0.05669794480136775   -0.05379853710870908   -0.007849396744984402
-0.04661064610302745   -0.09707765751426467   -0.010376689248148515
-0.07437328848354108   -0.09842429196412482   -0.01202885335635177
-0.033822263928877834   -0.05122919251165484   -0.008415935114442465
-0.033634541660122454   -0.0498545694970773   -0.010461306267371184
-0.046448671427514396   -0.09548892330761519   -0.012644695085441646
-0.015593525993674385   -0.04906762000363135   -0.00892226263320101
-0.033681669189016016   -0.05070900022281621   -0.009418504909191718
-0.046448671427514396   -0.09548892330761519   -0.012644695085441646
-0.02210506712847748   -0.09484426869789592   -0.011372142209782264
-0.015593525993674385   -0.04906762000363135   -0.00892226263320101
-0.02205856780338296   -0.09531722803294579   -0.010915109823221044
-0.033681669189016016   -0.05070900022281621   -0.009418504909191718
-0.015466543176495751   -0.04961206412957748   -0.008388576069040605
-0.02205856780338296   -0.09531722803294579   -0.010915109823221044
-0.015593525993674385   -0.04906762000363135   -0.00892226263320101
-0.033681669189016016   -0.05070900022281621   -0.009418504909191718
-0.02205856780338296   -0.09531722803294579   -0.010915109823221044
-0.046559418946038565   -0.09622759449182333   -0.011834515390497732
-0.046448671427514396   -0.09548892330761519   -0.012644695085441646
-0.033681669189016016   -0.05070900022281621   -0.009418504909191718
-0.02205856780338296   -0.09531722803294579   -0.010915109823221044
-0.046448671427514396   -0.09548892330761519   -0.012644695085441646
-0.015593525993674385   -0.04906762000363135   -0.00892226263320101
-0.033681669189016016   -0.05070900022281621   -0.009418504909191718
-0.046559418946038565   -0.09622759449182333   -0.011834515390497732
-0.015466543176495751   -0.04961206412957748   -0.008388576069040605
-0.033822263928877834   -0.05122919251165484   -0.008415935114442465
-0.046559418946038565   -0.09622759449182333   -0.011834515390497732
-0.02205856780338296   -0.09531722803294579   -0.010915109823221044
-0.015466543176495751   -0.04961206412957748   -0.008388576069040605
-0.021999564090718113   -0.09559477500058215   -0.010513657640559216
-0.033822263928877834   -0.05122919251165484   -0.008415935114442465
-0.015354866077692443   -0.04987586665392518   -0.007904458308556048
-0.021999564090718113   -0.09559477500058215   -0.010513657640559216
-0.015466543176495751   -0.04961206412957748   -0.008388576069040605
-0.033822263928877834   -0.05122919251165484   -0.008415935114442465
-0.021999564090718113   -0.09559477500058215   -0.010513657640559216
-0.04668874673131455   -0.09674095988749766   -0.011082647183312231
-0.046559418946038565   -0.09622759449182333   -0.011834515390497732
-0.033822263928877834   -0.05122919251165484   -0.008415935114442465
-0.021999564090718113   -0.09559477500058215   -0.010513657640559216
-0.046559418946038565   -0.09622759449182333   -0.011834515390497732
-0.015466543176495751   -0.04961206412957748   -0.008388576069040605
-0.033822263928877834   -0.05122919251165484   -0.008415935114442465
-0.04668874673131455   -0.09674095988749766   -0.011082647183312231
-0.015354866077692443   -0.04987586665392518   -0.007904458308556048
-0.0337297374703824   -0.051498015449683764   -0.007477015861575372
-0.04668874673131455   -0.09674095988749766   -0.011082647183312231
-0.021999564090718113   -0.09559477500058215   -0.010513657640559216
-0.015354866077692443   -0.04987586665392518   -0.007904458308556048
-0.02189702815690058   -0.09568087927101492   -0.010167594858117322
-0.0337297374703824   -0.051498015449683764   -0.007477015861575372
-0.015184689296698344   -0.049868990597707774   -0.007482597015139169
-0.02189702815690058   -0.09568087927101492   -0.010167594858117322
-0.015354866077692443   -0.04987586665392518   -0.007904458308556048
-0.0337297374703824   -0.051498015449683764   -0.007477015861575372
-0.02189702815690058   -0.09568087927101492   -0.010167594858117322
-0.04661064610302745   -0.09707765751426467   -0.010376689248148515
-0.04668874673131455   -0.09674095988749766   -0.011082647183312231
-0.0337297374703824   -0.051498015449683764   -0.007477015861575372
-0.02189702815690058   -0.09568087927101492   -0.010167594858117322
-0.04668874673131455   -0.09674095988749766   -0.011082647183312231
-0.015354866077692443   -0.04987586665392518   -0.007904458308556048
-0.015593525993674385   -0.04906762000363135   -0.00892226263320101
-0.02210506712847748   -0.09484426869789592   -0.011372142209782264
0.0018083045330395218   -0.04909059770450222   -0.007947667639580129
-0.015466543176495751   -0.04961206412957748   -0.008388576069040605
-0.02210506712847748   -0.09484426869789592   -0.011372142209782264
0.0015273500999693121   -0.09481009973156244   -0.010581497801307096
0.0018083045330395218   -0.04909059770450222   -0.007947667639580129
0.0016199887458964444   -0.09502172801504295   -0.010475664445065714
-0.015466543176495751   -0.04961206412957748   -0.008388576069040605
0.0019656968885309366   -0.04934952332339619   -0.007913725945737738
0.0016199887458964444   -0.09502172801504295   -0.010475664445065714
0.0018083045330395218   -0.04909059770450222   -0.007947667639580129
-0.015466543176495751   -0.04961206412957748   -0.008388576069040605
0.0016199887458964444   -0.09502172801504295   -0.010475664445065714
-0.02205856780338296   -0.09531722803294579   -0.010915109823221044
-0.02210506712847748   -0.09484426869789592   -0.011372142209782264
-0.015466543176495751   -0.04961206412957748   -0.008388576069040605
0.0016199887458964444   -0.09502172801504295   -0.010475664445065714
-0.02210506712847748   -0.09484426869789592   -0.011372142209782264
0.0018083045330395218   -0.04909059770450222   -0.007947667639580129
-0.015466543176495751   -0.04961206412957748   -0.008388576069040605
-0.02205856780338296   -0.09531722803294579   -0.010915109823221044
0.0019656968885309366   -0.04934952332339619   -0.007913725945737738
-0.015354866077692443   -0.04987586665392518   -0.007904458308556048
-0.02205856780338296   -0.09531722803294579   -0.010915109823221044
0.0016199887458964444   -0.09502172801504295   -0.010475664445065714
0.0019656968885309366   -0.04934952332339619   -0.007913725945737738
0.0016762183369284807   -0.09503874567525346   -0.010423929797196
-0.015354866077692443   -0.04987586665392518   -0.007904458308556048
0.002069202312573099   -0.0493344122751311   -0.007936072791662516
0.0016762183369284807   -0.09503874567525346   -0.010423929797196
0.0019656968885309366   -0.04934952332339619   -0.007913725945737738
-0.015354866077692443   -0.04987586665392518   -0.007904458308556048
0.0016762183369284807   -0.09503874567525346   -0.010423929797196
-0.021999564090718113   -0.09559477500058215   -0.010513657640559216
-0.02205856780338296   -0.09531722803294579   -0.010915109823221044
-0.015354866077692443   -0.04987586665392518   -0.007904458308556048
0.0016762183369284807   -0.09503874567525346   -0.010423929797196
-0.02205856780338296   -0.09531722803294579   -0.010915109823221044
0.0019656968885309366   -0.04934952332339619   -0.007913725945737738
-0.015354866077692443   -0.04987586665392518   -0.007904458308556048
-0.021999564090718113   -0.09559477500058215   -0.010513657640559216
0.002069202312573099   -0.0493344122751311   -0.007936072791662516
-0.015184689296698344   -0.049868990597707774   -0.007482597015139169
-0.021999564090718113   -0.09559477500058215   -0.010513657640559216
0.0016762183369284807   -0.09503874567525346   -0.010423929797196
0.002069202312573099   -0.0493344122751311   -0.007936072791662516
0.00171434247976619   -0.0948582394393285   -0.010429614725002409
-0.015184689296698344   -0.049868990597707774   -0.007482597015139169
0.0021808106799291915   -0.04903686541609085   -0.00801560773455565
0.00171434247976619   -0.0948582394393285   -0.010429614725002409
0.002069202312573099   -0.0493344122751311   -0.007936072791662516
-0.015184689296698344   -0.049868990597707774   -0.007482597015139169
0.00171434247976619   -0.0948582394393285   -0.010429614725002409
-0.02189702815690058   -0.09568087927101492   -0.010167594858117322
-0.021999564090718113   -0.09559477500058215   -0.010513657640559216
-0.015184689296698344   -0.049868990597707774   -0.007482597015139169
0.00171434247976619   -0.0948582394393285   -0.010429614725002409
-0.021999564090718113   -0.09559477500058215   -0.010513657640559216
0.002069202312573099   -0.0493344122751311   -0.007936072791662516
0.0018083045330395218   -0.04909059770450222   -0.007947667639580129
0.0015273500999693121   -0.09481009973156244   -0.010581497801307096
0.02024518209063419   -0.04989412024287638   -0.0074905761121553385
0.0019656968885309366   -0.04934952332339619   -0.007913725945737738
0.0015273500999693121   -0.09481009973156244   -0.010581497801307096
0.02616592715035014   -0.09535020666626685   -0.010258998199290091
0.02024518209063419   -0.04989412024287638   -0.0074905761121553385
0.026244844191167332   -0.09532260708431496   -0.010511727985170062
0.0019656968885309366   -0.04934952332339619   -0.007913725945737738
0.020330030522447567   -0.04989394037907009   -0.00797263769385223
0.026244844191167332   -0.09532260708431496   -0.010511727985170062
0.02024518209063419   -0.04989412024287638   -0.0074905761121553385
0.0019656968885309366   -0.04934952332339619   -0.007913725945737738
0.026244844191167332   -0.09532260708431496   -0.010511727985170062
0.0016199887458964444   -0.09502172801504295   -0.010475664445065714
0.0015273500999693121   -0.09481009973156244   -0.010581497801307096
0.0019656968885309366   -0.04934952332339619   -0.007913725945737738
0.026244844191167332   -0.09532260708431496   -0.010511727985170062
0.0015273500999693121   -0.09481009973156244   -0.010581497801307096
0.02024518209063419   -0.04989412024287638   -0.0074905761121553385
0.0019656968885309366   -0.04934952332339619   -0.007913725945737738
0.0016199887458964444   -0.09502172801504295   -0.010475664445065714
0.020330030522447567   -0.04989394037907009   -0.00797263769385223
0.002069202312573099   -0.0493344122751311   -0.007936072791662516
0.0016199887458964444   -0.09502172801504295   -0.010475664445065714
0.026244844191167332   -0.09532260708431496   -0.010511727985170062
0.020330030522447567   -0.04989394037907009   -0.00797263769385223
0.026168473044961185   -0.09510428368167284   -0.010814581207456864
0.002069202312573099   -0.0493344122751311   -0.007936072791662516
0.020227740494602523   -0.04962482495289859   -0.008518389901673402
0.026168473044961185   -0.09510428368167284   -0.010814581207456864
0.020330030522447567   -0.04989394037907009   -0.00797263769385223
0.002069202312573099   -0.0493344122751311   -0.007936072791662516
0.026168473044961185   -0.09510428368167284   -0.010814581207456864
0.0016762183369284807   -0.09503874567525346   -0.010423929797196
0.0016199887458964444   -0.09502172801504295   -0.010475664445065714
0.002069202312573099   -0.0493344122751311   -0.007936072791662516
0.026168473044961185   -0.09510428368167284   -0.010814581207456864
0.0016199887458964444   -0.09502172801504295   -0.010475664445065714
0.020330030522447567   -0.04989394037907009   -0.00797263769385223
0.002069202312573099   -0.0493344122751311   -0.007936072791662516
0.0016762183369284807   -0.09503874567525346   -0.010423929797196
0.020227740494602523   -0.04962482495289859   -0.008518389901673402
0.0021808106799291915   -0.04903686541609085   -0.00801560773455565
0.0016762183369284807   -0.09503874567525346   -0.010423929797196
0.026168473044961185   -0.09510428368167284   -0.010814581207456864
0.020227740494602523   -0.04962482495289859   -0.008518389901673402
0.026059631246404532   -0.09464832847897554   -0.0111734697368252
0.0021808106799291915   -0.04903686541609085   -0.00801560773455565
0.020166094995990886   -0.04901285901515675   -0.00910766935066405
0.026059631246404532   -0.09464832847897554   -0.0111734697368252
0.020227740494602523   -0.04962482495289859   -0.008518389901673402
0.0021808106799291915   -0.04903686541609085   -0.00801560773455565
0.026059631246404532   -0.09464832847897554   -0.0111734697368252
0.00171434247976619   -0.0948582394393285   -0.010429614725002409
0.0016762183369284807   -0.09503874567525346   -0.010423929797196
0.0021808106799291915   -0.04903686541609085   -0.00801560773455565
0.026059631246404532   -0.09464832847897554   -0.0111734697368252
0.0016762183369284807   -0.09503874567525346   -0.010423929797196
0.020227740494602523   -0.04962482495289859   -0.008518389901673402
0.02024518209063419   -0.04989412024287638   -0.0074905761121553385
0.02616592715035014   -0.09535020666626685   -0.010258998199290091
0.04248241335218939   -0.05138914446541477   -0.007362806736794565
0.020330030522447567   -0.04989394037907009   -0.00797263769385223
0.02616592715035014   -0.09535020666626685   -0.010258998199290091
0.0542204425286558   -0.09633178186662136   -0.010258714710989523
0.04248241335218939   -0.05138914446541477   -0.007362806736794565
0.053734507067084936   -0.09616681911804198   -0.01091709195497795
0.020330030522447567   -0.04989394037907009   -0.00797263769385223
0.04160589404430335   -0.05125176541309087   -0.008446204118886625
0.053734507067084936   -0.09616681911804198   -0.01091709195497795
0.04248241335218939   -0.05138914446541477   -0.007362806736794565
0.020330030522447567   -0.04989394037907009   -0.00797263769385223
0.053734507067084936   -0.09616681911804198   -0.01091709195497795
0.026244844191167332   -0.09532260708431496   -0.010511727985170062
0.02616592715035014   -0.09535020666626685   -0.010258998199290091
0.020330030522447567   -0.04989394037907009   -0.00797263769385223
0.053734507067084936   -0.09616681911804198   -0.01091709195497795
0.02616592715035014   -0.09535020666626685   -0.010258998199290091
0.04248241335218939   -0.05138914446541477   -0.007362806736794565
0.020330030522447567   -0.04989394037907009   -0.00797263769385223
0.026244844191167332   -0.09532260708431496   -0.010511727985170062
0.04160589404430335   -0.05125176541309087   -0.008446204118886625
0.020227740494602523   -0.04962482495289859   -0.008518389901673402
0.026244844191167332   -0.09532260708431496   -0.010511727985170062
0.053734507067084936   -0.09616681911804198   -0.01091709195497795
0.04160589404430335   -0.05125176541309087   -0.008446204118886625
0.05325144612996594   -0.09583012231819704   -0.01166584688674614
0.020227740494602523   -0.04962482495289859   -0.008518389901673402
0.04082360769071988   -0.050836434700634765   -0.009663709022434784
0.05325144612996594   -0.09583012231819704   -0.01166584688674614
0.04160589404430335   -0.05125176541309087   -0.008446204118886625
0.020227740494602523   -0.04962482495289859   -0.008518389901673402
0.05325144612996594   -0.09583012231819704   -0.01166584688674614
0.026168473044961185   -0.09510428368167284   -0.010814581207456864
0.026244844191167332   -0.09532260708431496   -0.010511727985170062
0.020227740494602523   -0.04962482495289859   -0.008518389901673402
0.05325144612996594   -0.09583012231819704   -0.01166584688674614
0.026244844191167332   -0.09532260708431496   -0.010511727985170062
0.04160589404430335   -0.05125176541309087   -0.008446204118886625
0.020227740494602523   -0.04962482495289859   -0.008518389901673402
0.026168473044961185   -0.09510428368167284   -0.010814581207456864
0.04082360769071988   -0.050836434700634765   -0.009663709022434784
0.020166094995990886   -0.04901285901515675   -0.00910766935066405
0.026168473044961185   -0.09510428368167284   -0.010814581207456864
0.05325144612996594   -0.09583012231819704   -0.01166584688674614
0.04082360769071988   -0.050836434700634765   -0.009663709022434784
0.05240244946473441   -0.0951208484601044   -0.012505072218677022
0.020166094995990886   -0.04901285901515675   -0.00910766935066405
0.03965658223723977   -0.04990967874749113   -0.010930299512253407
0.05240244946473441   -0.0951208484601044   -0.012505072218677022
0.04082360769071988   -0.050836434700634765   -0.009663709022434784
0.020166094995990886   -0.04901285901515675   -0.00910766935066405
0.05240244946473441   -0.0951208484601044   -0.012505072218677022
0.026059631246404532   -0.09464832847897554   -0.0111734697368252
0.026168473044961185   -0.09510428368167284   -0.010814581207456864
0.020166094995990886   -0.04901285901515675   -0.00910766935066405
0.05240244946473441   -0.0951208484601044   -0.012505072218677022
0.026168473044961185   -0.09510428368167284   -0.010814581207456864
0.04082360769071988   -0.050836434700634765   -0.009663709022434784
-0.07225445641532524   -0.09678333232043257   -0.014475811394552193
-0.08634418435632368   -0.15049079040005303   -0.015429364163309518
-0.046448671427514396   -0.09548892330761519   -0.012644695085441646
-0.0735515186057867   -0.0977923437699953   -0.013209578572177921
-0.08634418435632368   -0.15049079040005303   -0.015429364163309518
-0.056029473338149   -0.14966546253192123   -0.013933440639198299
-0.046448671427514396   -0.09548892330761519   -0.012644695085441646
-0.05610559926248556   -0.15030204152629092   -0.013352655156211184
-0.0735515186057867   -0.0977923437699953   -0.013209578572177921
-0.046559418946038565   -0.09622759449182333   -0.011834515390497732
-0.05610559926248556   -0.15030204152629092   -0.013352655156211184
-0.046448671427514396   -0.09548892330761519   -0.012644695085441646
-0.0735515186057867   -0.0977923437699953   -0.013209578572177921
-0.05610559926248556   -0.15030204152629092   -0.013352655156211184
-0.08722289341914345   -0.15135157150070894   -0.014586430204237345
-0.08634418435632368   -0.15049079040005303   -0.015429364163309518
-0.0735515186057867   -0.0977923437699953   -0.013209578572177921
-0.05610559926248556   -0.15030204152629092   -0.013352655156211184
-0.08634418435632368   -0.15049079040005303   -0.015429364163309518
-0.046448671427514396   -0.09548892330761519   -0.012644695085441646
-0.0735515186057867   -0.0977923437699953   -0.013209578572177921
-0.08722289341914345   -0.15135157150070894   -0.014586430204237345
-0.046559418946038565   -0.09622759449182333   -0.011834515390497732
-0.07437328848354108   -0.09842429196412482   -0.01202885335635177
-0.08722289341914345   -0.15135157150070894   -0.014586430204237345
-0.05610559926248556   -0.15030204152629092   -0.013352655156211184
-0.046559418946038565   -0.09622759449182333   -0.011834515390497732
-0.05616270194487933   -0.15080599798492056   -0.012829592540982773
-0.07437328848354108   -0.09842429196412482   -0.01202885335635177
-0.04668874673131455   -0.09674095988749766   -0.011082647183312231
-0.05616270194487933   -0.15080599798492056   -0.012829592540982773
-0.046559418946038565   -0.09622759449182333   -0.011834515390497732
-0.07437328848354108   -0.09842429196412482   -0.01202885335635177
-0.05616270194487933   -0.15080599798492056   -0.012829592540982773
-0.08773139536901171   -0.1519597293281676   -0.013824011403124638
-0.08722289341914345   -0.15135157150070894   -0.014586430204237345
-0.07437328848354108   -0.09842429196412482   -0.01202885335635177
-0.05616270194487933   -0.15080599798492056   -0.012829592540982773
-0.08722289341914345   -0.15135157150070894   -0.014586430204237345
-0.046559418946038565   -0.09622759449182333   -0.011834515390497732
-0.07437328848354108   -0.09842429196412482   -0.01202885335635177
-0.08773139536901171   -0.1519597293281676   -0.013824011403124638
-0.04668874673131455   -0.09674095988749766   -0.011082647183312231
-0.07530830312049941   -0.09887707583977595   -0.010941624264179571
-0.08773139536901171   -0.1519597293281676   -0.013824011403124638
-0.05616270194487933   -0.15080599798492056   -0.012829592540982773
-0.04668874673131455   -0.09674095988749766   -0.011082647183312231
-0.0560553382381089   -0.15121904640325418   -0.012356634387751123
-0.07530830312049941   -0.09887707583977595   -0.010941624264179571
-0.04661064610302745   -0.09707765751426467   -0.010376689248148515
-0.0560553382381089   -0.15121904640325418   -0.012356634387751123
-0.04668874673131455   -0.09674095988749766   -0.011082647183312231
-0.07530830312049941   -0.09887707583977595   -0.010941624264179571
-0.0560553382381089   -0.15121904640325418   -0.012356634387751123
-0.08825589990704485   -0.152503409353411   -0.013151627998096348
-0.08773139536901171   -0.1519597293281676   -0.013824011403124638
-0.07530830312049941   -0.09887707583977595   -0.010941624264179571
-0.0560553382381089   -0.15121904640325418   -0.012356634387751123
-0.08773139536901171   -0.1519597293281676   -0.013824011403124638
-0.04668874673131455   -0.09674095988749766   -0.011082647183312231
-0.046448671427514396   -0.09548892330761519   -0.012644695085441646
-0.056029473338149   -0.14966546253192123   -0.013933440639198299
-0.02210506712847748   -0.09484426869789592   -0.011372142209782264
-0.046559418946038565   -0.09622759449182333   -0.011834515390497732
-0.056029473338149   -0.14966546253192123   -0.013933440639198299
-0.027602940503550406   -0.14924002605705697   -0.012897331449309097
-0.02210506712847748   -0.09484426869789592   -0.011372142209782264
-0.027558987830974078   -0.1496400872025779   -0.012514866167387529
-0.046559418946038565   -0.09622759449182333   -0.011834515390497732
-0.02205856780338296   -0.09531722803294579   -0.010915109823221044
-0.027558987830974078   -0.1496400872025779   -0.012514866167387529
-0.02210506712847748   -0.09484426869789592   -0.011372142209782264
-0.046559418946038565   -0.09622759449182333   -0.011834515390497732
-0.027558987830974078   -0.1496400872025779   -0.012514866167387529
-0.05610559926248556   -0.15030204152629092   -0.013352655156211184
-0.056029473338149   -0.14966546253192123   -0.013933440639198299
-0.046559418946038565   -0.09622759449182333   -0.011834515390497732
-0.027558987830974078   -0.1496400872025779   -0.012514866167387529
-0.056029473338149   -0.14966546253192123   -0.013933440639198299
-0.02210506712847748   -0.09484426869789592   -0.011372142209782264
-0.046559418946038565   -0.09622759449182333   -0.011834515390497732
-0.05610559926248556   -0.15030204152629092   -0.013352655156211184
-0.02205856780338296   -0.09531722803294579   -0.010915109823221044
-0.04668874673131455   -0.09674095988749766   -0.011082647183312231
-0.05610559926248556   -0.15030204152629092   -0.013352655156211184
-0.027558987830974078   -0.1496400872025779   -0.012514866167387529
-0.02205856780338296   -0.09531722803294579   -0.010915109823221044
-0.02749572760731464   -0.14992908828653562   -0.012189299669991993
-0.04668874673131455   -0.09674095988749766   -0.011082647183312231
-0.021999564090718113   -0.09559477500058215   -0.010513657640559216
-0.02749572760731464   -0.14992908828653562   -0.012189299669991993
-0.02205856780338296   -0.09531722803294579   -0.010915109823221044
-0.04668874673131455   -0.09674095988749766   -0.011082647183312231
-0.02749572760731464   -0.14992908828653562   -0.012189299669991993
-0.05616270194487933   -0.15080599798492056   -0.012829592540982773
-0.05610559926248556   -0.15030204152629092   -0.013352655156211184
-0.04668874673131455   -0.09674095988749766   -0.011082647183312231
-0.02749572760731464   -0.14992908828653562   -0.012189299669991993
-0.05610559926248556   -0.15030204152629092   -0.013352655156211184
-0.02205856780338296   -0.09531722803294579   -0.010915109823221044
-0.04668874673131455   -0.09674095988749766   -0.011082647183312231
-0.05616270194487933   -0.15080599798492056   -0.012829592540982773
-0.021999564090718113   -0.09559477500058215   -0.010513657640559216
-0.04661064610302745   -0.09707765751426467   -0.010376689248148515
-0.05616270194487933   -0.15080599798492056   -0.012829592540982773
-0.02749572760731464   -0.14992908828653562   -0.012189299669991993
-0.021999564090718113   -0.09559477500058215   -0.010513657640559216
-0.02739730775150427   -0.1501089145989462   -0.011921543275347625
-0.04661064610302745   -0.09707765751426467   -0.010376689248148515
-0.02189702815690058   -0.09568087927101492   -0.010167594858117322
-0.02739730775150427   -0.1501089145989462   -0.011921543275347625
-0.021999564090718113   -0.09559477500058215   -0.010513657640559216
-0.04661064610302745   -0.09707765751426467   -0.010376689248148515
-0.02739730775150427   -0.1501089145989462   -0.011921543275347625
-0.0560553382381089   -0.15121904640325418   -0.012356634387751123
-0.05616270194487933   -0.15080599798492056   -0.012829592540982773
-0.04661064610302745   -0.09707765751426467   -0.010376689248148515
-0.02739730775150427   -0.1501089145989462   -0.011921543275347625
-0.05616270194487933   -0.15080599798492056   -0.012829592540982773
-0.021999564090718113   -0.09559477500058215   -0.010513657640559216
-0.02210506712847748   -0.09484426869789592   -0.011372142209782264
-0.027602940503550406   -0.14924002605705697   -0.012897331449309097
0.0015273500999693121   -0.09481009973156244   -0.010581497801307096
-0.02205856780338296   -0.09531722803294579   -0.010915109823221044
-0.027602940503550406   -0.14924002605705697   -0.012897331449309097
5.374071642892746e-05   -0.14916756641416662   -0.012292162582685055
0.0015273500999693121   -0.09481009973156244   -0.010581497801307096
0.00014379095199301462   -0.1493300982053168   -0.012109455799749386
-0.02205856780338296   -0.09531722803294579   -0.010915109823221044
0.0016199887458964444   -0.09502172801504295   -0.010475664445065714
0.00014379095199301462   -0.1493300982053168   -0.012109455799749386
0.0015273500999693121   -0.09481009973156244   -0.010581497801307096
-0.02205856780338296   -0.09531722803294579   -0.010915109823221044
0.00014379095199301462   -0.1493300982053168   -0.012109455799749386
-0.027558987830974078   -0.1496400872025779   -0.012514866167387529
-0.027602940503550406   -0.14924002605705697   -0.012897331449309097
-0.02205856780338296   -0.09531722803294579   -0.010915109823221044
0.00014379095199301462   -0.1493300982053168   -0.012109455799749386
-0.027602940503550406   -0.14924002605705697   -0.012897331449309097
0.0015273500999693121   -0.09481009973156244   -0.010581497801307096
-0.02205856780338296   -0.09531722803294579   -0.010915109823221044
-0.027558987830974078   -0.1496400872025779   -0.012514866167387529
0.0016199887458964444   -0.09502172801504295   -0.010475664445065714
-0.021999564090718113   -0.09559477500058215   -0.010513657640559216
-0.027558987830974078   -0.1496400872025779   -0.012514866167387529
0.00014379095199301462   -0.1493300982053168   -0.012109455799749386
0.0016199887458964444   -0.09502172801504295   -0.010475664445065714
0.00020545740105835431   -0.14938081486663604   -0.011982896314569788
-0.021999564090718113   -0.09559477500058215   -0.010513657640559216
0.0016762183369284807   -0.09503874567525346   -0.010423929797196
0.00020545740105835431   -0.14938081486663604   -0.011982896314569788
0.0016199887458964444   -0.09502172801504295   -0.010475664445065714
-0.021999564090718113   -0.09559477500058215   -0.010513657640559216
0.00020545740105835431   -0.14938081486663604   -0.011982896314569788
-0.02749572760731464   -0.14992908828653562   -0.012189299669991993
-0.027558987830974078   -0.1496400872025779   -0.012514866167387529
-0.021999564090718113   -0.09559477500058215   -0.010513657640559216
0.00020545740105835431   -0.14938081486663604   -0.011982896314569788
-0.027558987830974078   -0.1496400872025779   -0.012514866167387529
0.0016199887458964444   -0.09502172801504295   -0.010475664445065714
-0.021999564090718113   -0.09559477500058215   -0.010513657640559216
-0.02749572760731464   -0.14992908828653562   -0.012189299669991993
0.0016762183369284807   -0.09503874567525346   -0.010423929797196
-0.02189702815690058   -0.09568087927101492   -0.010167594858117322
-0.02749572760731464   -0.14992908828653562   -0.012189299669991993
0.00020545740105835431   -0.14938081486663604   -0.011982896314569788
0.0016762183369284807   -0.09503874567525346   -0.010423929797196
0.0002413470496726652   -0.1493181904355813   -0.011914994396559518
-0.02189702815690058   -0.09568087927101492   -0.010167594858117322
0.00171434247976619   -0.0948582394393285   -0.010429614725002409
0.0002413470496726652   -0.1493181904355813   -0.011914994396559518
0.0016762183369284807   -0.09503874567525346   -0.010423929797196
-0.02189702815690058   -0.09568087927101492   -0.010167594858117322
0.0002413470496726652   -0.1493181904355813   -0.011914994396559518
-0.02739730775150427   -0.1501089145989462   -0.011921543275347625
-0.02749572760731464   -0.14992908828653562   -0.012189299669991993
-0.02189702815690058   -0.09568087927101492   -0.010167594858117322
0.0002413470496726652   -0.1493181904355813   -0.011914994396559518
-0.02749572760731464   -0.14992908828653562   -0.012189299669991993
0.0016762183369284807   -0.09503874567525346   -0.010423929797196
0.0015273500999693121   -0.09481009973156244   -0.010581497801307096
5.374071642892746e-05   -0.14916756641416662   -0.012292162582685055
0.02616592715035014   -0.09535020666626685   -0.010258998199290091
0.0016199887458964444   -0.09502172801504295   -0.010475664445065714
5.374071642892746e-05   -0.14916756641416662   -0.012292162582685055
0.02866098572760679   -0.14941814035836581   -0.012115175743947758
0.02616592715035014   -0.09535020666626685   -0.010258998199290091
0.028772413335820823   -0.1493572184127679   -0.012136505123444552
0.0016199887458964444   -0.09502172801504295   -0.010475664445065714
0.026244844191167332   -0.09532260708431496   -0.010511727985170062
0.028772413335820823   -0.1493572184127679   -0.012136505123444552
0.02616592715035014   -0.09535020666626685   -0.010258998199290091
0.0016199887458964444   -0.09502172801504295   -0.010475664445065714
0.028772413335820823   -0.1493572184127679   -0.012136505123444552
0.00014379095199301462   -0.1493300982053168   -0.012109455799749386
5.374071642892746e-05   -0.14916756641416662   -0.012292162582685055
0.0016199887458964444   -0.09502172801504295   -0.010475664445065714
0.028772413335820823   -0.1493572184127679   -0.012136505123444552
5.374071642892746e-05   -0.14916756641416662   -0.012292162582685055
0.02616592715035014   -0.09535020666626685   -0.010258998199290091
0.0016199887458964444   -0.09502172801504295   -0.010475664445065714
0.00014379095199301462   -0.1493300982053168   -0.012109455799749386
0.026244844191167332   -0.09532260708431496   -0.010511727985170062
0.0016762183369284807   -0.09503874567525346   -0.010423929797196
0.00014379095199301462   -0.1493300982053168   -0.012109455799749386
0.028772413335820823   -0.1493572184127679   -0.012136505123444552
0.026244844191167332   -0.09532260708431496   -0.010511727985170062
0.028771920183006228   -0.14919271005030332   -0.012210981942167624
0.0016762183369284807   -0.09503874567525346   -0.010423929797196
0.026168473044961185   -0.09510428368167284   -0.010814581207456864
0.028771920183006228   -0.14919271005030332   -0.012210981942167624
0.026244844191167332   -0.09532260708431496   -0.010511727985170062
0.0016762183369284807   -0.09503874567525346   -0.010423929797196
0.028771920183006228   -0.14919271005030332   -0.012210981942167624
0.00020545740105835431   -0.14938081486663604   -0.011982896314569788
0.00014379095199301462   -0.1493300982053168   -0.012109455799749386
0.0016762183369284807   -0.09503874567525346   -0.010423929797196
0.028771920183006228   -0.14919271005030332   -0.012210981942167624
0.00014379095199301462   -0.1493300982053168   -0.012109455799749386
0.026244844191167332   -0.09532260708431496   -0.010511727985170062
0.0016762183369284807   -0.09503874567525346   -0.010423929797196
0.00020545740105835431   -0.14938081486663604   -0.011982896314569788
0.026168473044961185   -0.09510428368167284   -0.010814581207456864
0.00171434247976619   -0.0948582394393285   -0.010429614725002409
0.00020545740105835431   -0.14938081486663604   -0.011982896314569788
0.028771920183006228   -0.14919271005030332   -0.012210981942167624
0.026168473044961185   -0.09510428368167284   -0.010814581207456864
0.028700025137001   -0.14888312263199674   -0.012340600229324511
0.00171434247976619   -0.0948582394393285   -0.010429614725002409
0.026059631246404532   -0.09464832847897554   -0.0111734697368252
0.028700025137001   -0.14888312263199674   -0.012340600229324511
0.026168473044961185   -0.09510428368167284   -0.010814581207456864
0.00171434247976619   -0.0948582394393285   -0.010429614725002409
0.028700025137001   -0.14888312263199674   -0.012340600229324511
0.0002413470496726652   -0.1493181904355813   -0.011914994396559518
0.00020545740105835431   -0.14938081486663604   -0.011982896314569788
0.00171434247976619   -0.0948582394393285   -0.010429614725002409
0.028700025137001   -0.14888312263199674   -0.012340600229324511
0.00020545740105835431   -0.14938081486663604   -0.011982896314569788
0.026168473044961185   -0.09510428368167284   -0.010814581207456864
0.02616592715035014   -0.09535020666626685   -0.010258998199290091
0.02866098572760679   -0.14941814035836581   -0.012115175743947758
0.0542204425286558   -0.09633178186662136   -0.010258714710989523
0.026244844191167332   -0.09532260708431496   -0.010511727985170062
0.02866098572760679   -0.14941814035836581   -0.012115175743947758
0.06025132364006025   -0.14988016140434862   -0.012271318675257107
0.0542204425286558   -0.09633178186662136   -0.010258714710989523
0.06018140941832465   -0.1496682454995932   -0.012513797489687235
0.026244844191167332   -0.09532260708431496   -0.010511727985170062
0.053734507067084936   -0.09616681911804198   -0.01091709195497795
0.06018140941832465   -0.1496682454995932   -0.012513797489687235
0.0542204425286558   -0.09633178186662136   -0.010258714710989523
0.026244844191167332   -0.09532260708431496   -0.010511727985170062
0.06018140941832465   -0.1496682454995932   -0.012513797489687235
0.028772413335820823   -0.1493572184127679   -0.012136505123444552
0.02866098572760679   -0.14941814035836581   -0.012115175743947758
0.026244844191167332   -0.09532260708431496   -0.010511727985170062
0.06018140941832465   -0.1496682454995932   -0.012513797489687235
0.02866098572760679   -0.14941814035836581   -0.012115175743947758
0.0542204425286558   -0.09633178186662136   -0.010258714710989523
0.026244844191167332   -0.09532260708431496   -0.010511727985170062
0.028772413335820823   -0.1493572184127679   -0.012136505123444552
0.053734507067084936   -0.09616681911804198   -0.01091709195497795
0.026168473044961185   -0.09510428368167284   -0.010814581207456864
0.028772413335820823   -0.1493572184127679   -0.012136505123444552
0.06018140941832465   -0.1496682454995932   -0.012513797489687235
0.053734507067084936   -0.09616681911804198   -0.01091709195497795
0.060018094178611606   -0.14939917836139385   -0.012842442919234646
0.026168473044961185   -0.09510428368167284   -0.010814581207456864
0.05325144612996594   -0.09583012231819704   -0.01166584688674614
0.060018094178611606   -0.14939917836139385   -0.012842442919234646
0.053734507067084936   -0.09616681911804198   -0.01091709195497795
0.026168473044961185   -0.09510428368167284   -0.010814581207456864
0.060018094178611606   -0.14939917836139385   -0.012842442919234646
0.028771920183006228   -0.14919271005030332   -0.012210981942167624
0.028772413335820823   -0.1493572184127679   -0.012136505123444552
0.026168473044961185   -0.09510428368167284   -0.010814581207456864
0.060018094178611606   -0.14939917836139385   -0.012842442919234646
0.028772413335820823   -0.1493572184127679   -0.012136505123444552
0.053734507067084936   -0.09616681911804198   -0.01091709195497795
0.026168473044961185   -0.09510428368167284   -0.010814581207456864
0.028771920183006228   -0.14919271005030332   -0.012210981942167624
0.05325144612996594   -0.09583012231819704   -0.01166584688674614
0.026059631246404532   -0.09464832847897554   -0.0111734697368252
0.028771920183006228   -0.14919271005030332   -0.012210981942167624
0.060018094178611606   -0.14939917836139385   -0.012842442919234646
0.05325144612996594   -0.09583012231819704   -0.01166584688674614
0.05959335299479519   -0.1488834426153777   -0.013256631470399469
0.026059631246404532   -0.09464832847897554   -0.0111734697368252
0.05240244946473441   -0.0951208484601044   -0.012505072218677022
0.05959335299479519   -0.1488834426153777   -0.013256631470399469
0.05325144612996594   -0.09583012231819704   -0.01166584688674614
0.026059631246404532   -0.09464832847897554   -0.0111734697368252
0.05959335299479519   -0.1488834426153777   -0.013256631470399469
0.028700025137001   -0.14888312263199674   -0.012340600229324511
0.028771920183006228   -0.14919271005030332   -0.012210981942167624
0.026059631246404532   -0.09464832847897554   -0.0111734697368252
0.05959335299479519   -0.1488834426153777   -0.013256631470399469
0.028771920183006228   -0.14919271005030332   -0.012210981942167624
0.05325144612996594   -0.09583012231819704   -0.01166584688674614
-0.08634418435632368   -0.15049079040005303   -0.015429364163309518
-0.09490194048712673   -0.20901612019068722   -0.015702350042693613
-0.056029473338149   -0.14966546253192123   -0.013933440639198299
-0.08722289341914345   -0.15135157150070894   -0.014586430204237345
-0.09490194048712673   -0.20901612019068722   -0.015702350042693613
-0.06233187353603463   -0.20867820344813348   -0.014508184052870259
-0.056029473338149   -0.14966546253192123   -0.013933440639198299
-0.06231439048058254   -0.20922225395963462   -0.014151351892974806
-0.08722289341914345   -0.15135157150070894   -0.014586430204237345
-0.05610559926248556   -0.15030204152629092   -0.013352655156211184
-0.06231439048058254   -0.20922225395963462   -0.014151351892974806
-0.056029473338149   -0.14966546253192123   -0.013933440639198299
-0.08722289341914345   -0.15135157150070894   -0.014586430204237345
-0.06231439048058254   -0.20922225395963462   -0.014151351892974806
-0.09531767730264427   -0.20974708349365606   -0.015265758899424463
-0.09490194048712673   -0.20901612019068722   -0.015702350042693613
-0.08722289341914345   -0.15135157150070894   -0.014586430204237345
-0.06231439048058254   -0.20922225395963462   -0.014151351892974806
-0.09490194048712673   -0.20901612019068722   -0.015702350042693613
-0.056029473338149   -0.14966546253192123   -0.013933440639198299
-0.08722289341914345   -0.15135157150070894   -0.014586430204237345
-0.09531767730264427   -0.20974708349365606   -0.015265758899424463
-0.05610559926248556   -0.15030204152629092   -0.013352655156211184
-0.08773139536901171   -0.1519597293281676   -0.013824011403124638
-0.09531767730264427   -0.20974708349365606   -0.015265758899424463
-0.06231439048058254   -0.20922225395963462   -0.014151351892974806
-0.05610559926248556   -0.15030204152629092   -0.013352655156211184
-0.06223817179447328   -0.20972333321753825   -0.013853744693983334
-0.08773139536901171   -0.1519597293281676   -0.013824011403124638
-0.05616270194487933   -0.15080599798492056   -0.012829592540982773
-0.06223817179447328   -0.20972333321753825   -0.013853744693983334
-0.05610559926248556   -0.15030204152629092   -0.013352655156211184
-0.08773139536901171   -0.1519597293281676   -0.013824011403124638
-0.06223817179447328   -0.20972333321753825   -0.013853744693983334
-0.09545606473077378   -0.2103422941872607   -0.014914436420584098
-0.09531767730264427   -0.20974708349365606   -0.015265758899424463
-0.08773139536901171   -0.1519597293281676   -0.013824011403124638
-0.06223817179447328   -0.20972333321753825   -0.013853744693983334
-0.09531767730264427   -0.20974708349365606   -0.015265758899424463
-0.05610559926248556   -0.15030204152629092   -0.013352655156211184
-0.08773139536901171   -0.1519597293281676   -0.013824011403124638
-0.09545606473077378   -0.2103422941872607   -0.014914436420584098
-0.05616270194487933   -0.15080599798492056   -0.012829592540982773
-0.08825589990704485   -0.152503409353411   -0.013151627998096348
-0.09545606473077378   -0.2103422941872607   -0.014914436420584098
-0.06223817179447328   -0.20972333321753825   -0.013853744693983334
-0.05616270194487933   -0.15080599798492056   -0.012829592540982773
-0.062039243002663155   -0.21021956054630944   -0.013611281442526317
-0.08825589990704485   -0.152503409353411   -0.013151627998096348
-0.0560553382381089   -0.15121904640325418   -0.012356634387751123
-0.062039243002663155   -0.21021956054630944   -0.013611281442526317
-0.05616270194487933   -0.15080599798492056   -0.012829592540982773
-0.08825589990704485   -0.152503409353411   -0.013151627998096348
-0.062039243002663155   -0.21021956054630944   -0.013611281442526317
-0.09550908189584795   -0.21098747935017806   -0.014655628899071007
-0.09545606473077378   -0.2103422941872607   -0.014914436420584098
-0.08825589990704485   -0.152503409353411   -0.013151627998096348
-0.062039243002663155   -0.21021956054630944   -0.013611281442526317
-0.09545606473077378   -0.2103422941872607   -0.014914436420584098
-0.05616270194487933   -0.15080599798492056   -0.012829592540982773
-0.056029473338149   -0.14966546253192123   -0.013933440639198299
-0.06233187353603463   -0.20867820344813348   -0.014508184052870259
-0.027602940503550406   -0.14924002605705697   -0.012897331449309097
-0.05610559926248556   -0.15030204152629092   -0.013352655156211184
-0.06233187353603463   -0.20867820344813348   -0.014508184052870259
-0.032074843926336666   -0.2084858523312757   -0.013694956864230752
-0.027602940503550406   -0.14924002605705697   -0.012897331449309097
-0.031968971842421846   -0.2088157456146597   -0.013385004488780581
-0.05610559926248556   -0.15030204152629092   -0.013352655156211184
-0.027558987830974078   -0.1496400872025779   -0.012514866167387529
-0.031968971842421846   -0.2088157456146597   -0.013385004488780581
-0.027602940503550406   -0.14924002605705697   -0.012897331449309097
-0.05610559926248556   -0.15030204152629092   -0.013352655156211184
-0.031968971842421846   -0.2088157456146597   -0.013385004488780581
-0.06231439048058254   -0.20922225395963462   -0.014151351892974806
-0.06233187353603463   -0.20867820344813348   -0.014508184052870259
-0.05610559926248556   -0.15030204152629092   -0.013352655156211184
-0.031968971842421846   -0.2088157456146597   -0.013385004488780581
-0.06233187353603463   -0.20867820344813348   -0.014508184052870259
-0.027602940503550406   -0.14924002605705697   -0.012897331449309097
-0.05610559926248556   -0.15030204152629092   -0.013352655156211184
-0.06231439048058254   -0.20922225395963462   -0.014151351892974806
-0.027558987830974078   -0.1496400872025779   -0.012514866167387529
-0.05616270194487933   -0.15080599798492056   -0.012829592540982773
-0.06231439048058254   -0.20922225395963462   -0.014151351892974806
-0.031968971842421846   -0.2088157456146597   -0.013385004488780581
-0.027558987830974078   -0.1496400872025779   -0.012514866167387529
-0.031837413091385776   -0.2091179495595816   -0.013134363168092885
-0.05616270194487933   -0.15080599798492056   -0.012829592540982773
-0.02749572760731464   -0.14992908828653562   -0.012189299669991993
-0.031837413091385776   -0.2091179495595816   -0.013134363168092885
-0.027558987830974078   -0.1496400872025779   -0.012514866167387529
-0.05616270194487933   -0.15080599798492056   -0.012829592540982773
-0.031837413091385776   -0.2091179495595816   -0.013134363168092885
-0.06223817179447328   -0.20972333321753825   -0.013853744693983334
-0.06231439048058254   -0.20922225395963462   -0.014151351892974806
-0.05616270194487933   -0.15080599798492056   -0.012829592540982773
-0.031837413091385776   -0.2091179495595816   -0.013134363168092885
-0.06231439048058254   -0.20922225395963462   -0.014151351892974806
-0.027558987830974078   -0.1496400872025779   -0.012514866167387529
-0.05616270194487933   -0.15080599798492056   -0.012829592540982773
-0.06223817179447328   -0.20972333321753825   -0.013853744693983334
-0.02749572760731464   -0.14992908828653562   -0.012189299669991993
-0.0560553382381089   -0.15121904640325418   -0.012356634387751123
-0.06223817179447328   -0.20972333321753825   -0.013853744693983334
-0.031837413091385776   -0.2091179495595816   -0.013134363168092885
-0.02749572760731464   -0.14992908828653562   -0.012189299669991993
-0.031678009640137735   -0.20939344405595706   -0.012944423001181458
-0.0560553382381089   -0.15121904640325418   -0.012356634387751123
-0.02739730775150427   -0.1501089145989462   -0.011921543275347625
-0.031678009640137735   -0.20939344405595706   -0.012944423001181458
-0.02749572760731464   -0.14992908828653562   -0.012189299669991993
-0.0560553382381089   -0.15121904640325418   -0.012356634387751123
-0.031678009640137735   -0.20939344405595706   -0.012944423001181458
-0.062039243002663155   -0.21021956054630944   -0.013611281442526317
-0.06223817179447328   -0.20972333321753825   -0.013853744693983334
-0.0560553382381089   -0.15121904640325418   -0.012356634387751123
-0.031678009640137735   -0.20939344405595706   -0.012944423001181458
-0.06223817179447328   -0.20972333321753825   -0.013853744693983334
-0.02749572760731464   -0.14992908828653562   -0.012189299669991993
-0.027602940503550406   -0.14924002605705697   -0.012897331449309097
-0.032074843926336666   -0.2084858523312757   -0.013694956864230752
5.374071642892746e-05   -0.14916756641416662   -0.012292162582685055
-0.027558987830974078   -0.1496400872025779   -0.012514866167387529
-0.032074843926336666   -0.2084858523312757   -0.013694956864230752
-0.002636138934622238   -0.20837670764497973   -0.013272441313923647
5.374071642892746e-05   -0.14916756641416662   -0.012292162582685055
-0.0024855937979117934   -0.2084887666589505   -0.013012381950869534
-0.027558987830974078   -0.1496400872025779   -0.012514866167387529
0.00014379095199301462   -0.1493300982053168   -0.012109455799749386
-0.0024855937979117934   -0.2084887666589505   -0.013012381950869534
5.374071642892746e-05   -0.14916756641416662   -0.012292162582685055
-0.027558987830974078   -0.1496400872025779   -0.012514866167387529
-0.0024855937979117934   -0.2084887666589505   -0.013012381950869534
-0.031968971842421846   -0.2088157456146597   -0.013385004488780581
-0.032074843926336666   -0.2084858523312757   -0.013694956864230752
-0.027558987830974078   -0.1496400872025779   -0.012514866167387529
-0.0024855937979117934   -0.2084887666589505   -0.013012381950869534
-0.032074843926336666   -0.2084858523312757   -0.013694956864230752
5.374071642892746e-05   -0.14916756641416662   -0.012292162582685055
-0.027558987830974078   -0.1496400872025779   -0.012514866167387529
-0.031968971842421846   -0.2088157456146597   -0.013385004488780581
0.00014379095199301462   -0.1493300982053168   -0.012109455799749386
-0.02749572760731464   -0.14992908828653562   -0.012189299669991993
-0.031968971842421846   -0.2088157456146597   -0.013385004488780581
-0.0024855937979117934   -0.2084887666589505   -0.013012381950869534
0.00014379095199301462   -0.1493300982053168   -0.012109455799749386
-0.0023561361555928667   -0.20857121478750865   -0.012811091370416292
-0.02749572760731464   -0.14992908828653562   -0.012189299669991993
0.00020545740105835431   -0.14938081486663604   -0.011982896314569788
-0.0023561361555928667   -0.20857121478750865   -0.012811091370416292
0.00014379095199301462   -0.1493300982053168   -0.012109455799749386
-0.02749572760731464   -0.14992908828653562   -0.012189299669991993
-0.0023561361555928667   -0.20857121478750865   -0.012811091370416292
-0.031837413091385776   -0.2091179495595816   -0.013134363168092885
-0.031968971842421846   -0.2088157456146597   -0.013385004488780581
-0.02749572760731464   -0.14992908828653562   -0.012189299669991993
-0.0023561361555928667   -0.20857121478750865   -0.012811091370416292
-0.031968971842421846   -0.2088157456146597   -0.013385004488780581
0.00014379095199301462   -0.1493300982053168   -0.012109455799749386
-0.02749572760731464   -0.14992908828653562   -0.012189299669991993
-0.031837413091385776   -0.2091179495595816   -0.013134363168092885
0.00020545740105835431   -0.14938081486663604   -0.011982896314569788
-0.02739730775150427   -0.1501089145989462   -0.011921543275347625
-0.031837413091385776   -0.2091179495595816   -0.013134363168092885
-0.0023561361555928667   -0.20857121478750865   -0.012811091370416292
0.00020545740105835431   -0.14938081486663604   -0.011982896314569788
-0.002259263434231028   -0.20862365233260655   -0.012670731670191645
-0.02739730775150427   -0.1501089145989462   -0.011921543275347625
0.0002413470496726652   -0.1493181904355813   -0.011914994396559518
-0.002259263434231028   -0.20862365233260655   -0.012670731670191645
0.00020545740105835431   -0.14938081486663604   -0.011982896314569788
-0.02739730775150427   -0.1501089145989462   -0.011921543275347625
-0.002259263434231028   -0.20862365233260655   -0.012670731670191645
-0.031678009640137735   -0.20939344405595706   -0.012944423001181458
-0.031837413091385776   -0.2091179495595816   -0.013134363168092885
-0.02739730775150427   -0.1501089145989462   -0.011921543275347625
-0.002259263434231028   -0.20862365233260655   -0.012670731670191645
-0.031837413091385776   -0.2091179495595816   -0.013134363168092885
0.00020545740105835431   -0.14938081486663604   -0.011982896314569788
5.374071642892746e-05   -0.14916756641416662   -0.012292162582685055
-0.002636138934622238   -0.20837670764497973   -0.013272441313923647
0.02866098572760679   -0.14941814035836581   -0.012115175743947758
0.00014379095199301462   -0.1493300982053168   -0.012109455799749386
-0.002636138934622238   -0.20837670764497973   -0.013272441313923647
0.027702637192492163   -0.2083320227767315   -0.013244037543140104
0.02866098572760679   -0.14941814035836581   -0.012115175743947758
0.02790380537661801   -0.20823329699890042   -0.013036409735864304
0.00014379095199301462   -0.1493300982053168   -0.012109455799749386
0.028772413335820823   -0.1493572184127679   -0.012136505123444552
0.02790380537661801   -0.20823329699890042   -0.013036409735864304
0.02866098572760679   -0.14941814035836581   -0.012115175743947758
0.00014379095199301462   -0.1493300982053168   -0.012109455799749386
0.02790380537661801   -0.20823329699890042   -0.013036409735864304
-0.0024855937979117934   -0.2084887666589505   -0.013012381950869534
-0.002636138934622238   -0.20837670764497973   -0.013272441313923647
0.00014379095199301462   -0.1493300982053168   -0.012109455799749386
0.02790380537661801   -0.20823329699890042   -0.013036409735864304
-0.002636138934622238   -0.20837670764497973   -0.013272441313923647
0.02866098572760679   -0.14941814035836581   -0.012115175743947758
0.00014379095199301462   -0.1493300982053168   -0.012109455799749386
-0.0024855937979117934   -0.2084887666589505   -0.013012381950869534
0.028772413335820823   -0.1493572184127679   -0.012136505123444552
0.00020545740105835431   -0.14938081486663604   -0.011982896314569788
-0.0024855937979117934   -0.2084887666589505   -0.013012381950869534
0.02790380537661801   -0.20823329699890042   -0.013036409735864304
0.028772413335820823   -0.1493572184127679   -0.012136505123444552
0.028035500773472274   -0.20811689048653392   -0.012885890504043835
0.00020545740105835431   -0.14938081486663604   -0.011982896314569788
0.028771920183006228   -0.14919271005030332   -0.012210981942167624
0.028035500773472274   -0.20811689048653392   -0.012885890504043835
0.028772413335820823   -0.1493572184127679   -0.012136505123444552
0.00020545740105835431   -0.14938081486663604   -0.011982896314569788
0.028035500773472274   -0.20811689048653392   -0.012885890504043835
-0.0023561361555928667   -0.20857121478750865   -0.012811091370416292
-0.0024855937979117934   -0.2084887666589505   -0.013012381950869534
0.00020545740105835431   -0.14938081486663604   -0.011982896314569788
0.028035500773472274   -0.20811689048653392   -0.012885890504043835
-0.0024855937979117934   -0.2084887666589505   -0.013012381950869534
0.028772413335820823   -0.1493572184127679   -0.012136505123444552
0.00020545740105835431   -0.14938081486663604   -0.011982896314569788
-0.0023561361555928667   -0.20857121478750865   -0.012811091370416292
0.028771920183006228   -0.14919271005030332   -0.012210981942167624
0.0002413470496726652   -0.1493181904355813   -0.011914994396559518
-0.0023561361555928667   -0.20857121478750865   -0.012811091370416292
0.028035500773472274   -0.20811689048653392   -0.012885890504043835
0.028771920183006228   -0.14919271005030332   -0.012210981942167624
0.028056077894063308   -0.20794419393034874   -0.012791290753867347
0.0002413470496726652   -0.1493181904355813   -0.011914994396559518
0.028700025137001   -0.14888312263199674   -0.012340600229324511
0.028056077894063308   -0.20794419393034874   -0.012791290753867347
0.028771920183006228   -0.14919271005030332   -0.012210981942167624
0.0002413470496726652   -0.1493181904355813   -0.011914994396559518
0.028056077894063308   -0.20794419393034874   -0.012791290753867347
-0.002259263434231028   -0.20862365233260655   -0.012670731670191645
-0.0023561361555928667   -0.20857121478750865   -0.012811091370416292
0.0002413470496726652   -0.1493181904355813   -0.011914994396559518
0.028056077894063308   -0.20794419393034874   -0.012791290753867347
-0.0023561361555928667   -0.20857121478750865   -0.012811091370416292
0.028771920183006228   -0.14919271005030332   -0.012210981942167624
0.02866098572760679   -0.14941814035836581   -0.012115175743947758
0.027702637192492163   -0.2083320227767315   -0.013244037543140104
0.06025132364006025   -0.14988016140434862   -0.012271318675257107
0.028772413335820823   -0.1493572184127679   -0.012136505123444552
0.027702637192492163   -0.2083320227767315   -0.013244037543140104
0.06058718940287541   -0.2082722581895925   -0.013568995018007369
0.06025132364006025   -0.14988016140434862   -0.012271318675257107
0.06098397823740488   -0.20800720953655785   -0.0134016449745601
0.028772413335820823   -0.1493572184127679   -0.012136505123444552
0.06018140941832465   -0.1496682454995932   -0.012513797489687235
0.06098397823740488   -0.20800720953655785   -0.0134016449745601
0.06025132364006025   -0.14988016140434862   -0.012271318675257107
0.028772413335820823   -0.1493572184127679   -0.012136505123444552
0.06098397823740488   -0.20800720953655785   -0.0134016449745601
0.02790380537661801   -0.20823329699890042   -0.013036409735864304
0.027702637192492163   -0.2083320227767315   -0.013244037543140104
0.028772413335820823   -0.1493572184127679   -0.012136505123444552
0.06098397823740488   -0.20800720953655785   -0.0134016449745601
0.027702637192492163   -0.2083320227767315   -0.013244037543140104
0.06025132364006025   -0.14988016140434862   -0.012271318675257107
0.028772413335820823   -0.1493572184127679   -0.012136505123444552
0.02790380537661801   -0.20823329699890042   -0.013036409735864304
0.06018140941832465   -0.1496682454995932   -0.012513797489687235
0.028771920183006228   -0.14919271005030332   -0.012210981942167624
0.02790380537661801   -0.20823329699890042   -0.013036409735864304
0.06098397823740488   -0.20800720953655785   -0.0134016449745601
0.06018140941832465   -0.1496682454995932   -0.012513797489687235
0.06118901250394853   -0.20779711771834597   -0.013320981868913116
0.028771920183006228   -0.14919271005030332   -0.012210981942167624
0.060018094178611606   -0.14939917836139385   -0.012842442919234646
0.06118901250394853   -0.20779711771834597   -0.013320981868913116
0.06018140941832465   -0.1496682454995932   -0.012513797489687235
0.028771920183006228   -0.14919271005030332   -0.012210981942167624
0.06118901250394853   -0.20779711771834597   -0.013320981868913116
0.028035500773472274   -0.20811689048653392   -0.012885890504043835
0.02790380537661801   -0.20823329699890042   -0.013036409735864304
0.028771920183006228   -0.14919271005030332   -0.012210981942167624
0.06118901250394853   -0.20779711771834597   -0.013320981868913116
0.02790380537661801   -0.20823329699890042   -0.013036409735864304
0.06018140941832465   -0.1496682454995932   -0.012513797489687235
0.028771920183006228   -0.14919271005030332   -0.012210981942167624
0.028035500773472274   -0.20811689048653392   -0.012885890504043835
0.060018094178611606   -0.14939917836139385   -0.012842442919234646
0.028700025137001   -0.14888312263199674   -0.012340600229324511
0.028035500773472274   -0.20811689048653392   -0.012885890504043835
0.06118901250394853   -0.20779711771834597   -0.013320981868913116
0.060018094178611606   -0.14939917836139385   -0.012842442919234646
0.06122808967285871   -0.20745760212980133   -0.013328479005584646
0.028700025137001   -0.14888312263199674   -0.012340600229324511
0.05959335299479519   -0.1488834426153777   -0.013256631470399469
0.06122808967285871   -0.20745760212980133   -0.013328479005584646
0.060018094178611606   -0.14939917836139385   -0.012842442919234646
0.028700025137001   -0.14888312263199674   -0.012340600229324511
0.06122808967285871   -0.20745760212980133   -0.013328479005584646
0.028056077894063308   -0.20794419393034874   -0.012791290753867347
0.028035500773472274   -0.20811689048653392   -0.012885890504043835
0.028700025137001   -0.14888312263199674   -0.012340600229324511
0.06122808967285871   -0.20745760212980133   -0.013328479005584646
0.028035500773472274   -0.20811689048653392   -0.012885890504043835
0.060018094178611606   -0.14939917836139385   -0.012842442919234646
-0.09490194048712673   -0.20901612019068722   -0.015702350042693613
-0.09791343866839815   -0.26865561586472975   -0.015428042760480947
-0.06233187353603463   -0.20867820344813348   -0.014508184052870259
-0.09531767730264427   -0.20974708349365606   -0.015265758899424463
-0.09791343866839815   -0.26865561586472975   -0.015428042760480947
-0.06535481170715098   -0.26881012714431324   -0.0145428404529922
-0.06233187353603463   -0.20867820344813348   -0.014508184052870259
-0.06518422434693971   -0.2692594179802709   -0.01440712422624311
-0.09531767730264427   -0.20974708349365606   -0.015265758899424463
-0.06231439048058254   -0.20922225395963462   -0.014151351892974806
-0.06518422434693971   -0.2692594179802709   -0.01440712422624311
-0.06233187353603463   -0.20867820344813348   -0.014508184052870259
-0.09531767730264427   -0.20974708349365606   -0.015265758899424463
-0.06518422434693971   -0.2692594179802709   -0.01440712422624311
-0.09780818868965234   -0.26925645438966184   -0.01539720404328029
-0.09791343866839815   -0.26865561586472975   -0.015428042760480947
-0.09531767730264427   -0.20974708349365606   -0.015265758899424463
-0.06518422434693971   -0.2692594179802709   -0.01440712422624311
-0.09791343866839815   -0.26865561586472975   -0.015428042760480947
-0.06233187353603463   -0.20867820344813348   -0.014508184052870259
-0.09531767730264427   -0.20974708349365606   -0.015265758899424463
-0.09780818868965234   -0.26925645438966184   -0.01539720404328029
-0.06231439048058254   -0.20922225395963462   -0.014151351892974806
-0.09545606473077378   -0.2103422941872607   -0.014914436420584098
-0.09780818868965234   -0.26925645438966184   -0.01539720404328029
-0.06518422434693971   -0.2692594179802709   -0.01440712422624311
-0.06231439048058254   -0.20922225395963462   -0.014151351892974806
-0.06491522406908365   -0.26975619572125725   -0.014332665795570222
-0.09545606473077378   -0.2103422941872607   -0.014914436420584098
-0.06223817179447328   -0.20972333321753825   -0.013853744693983334
-0.06491522406908365   -0.26975619572125725   -0.014332665795570222
-0.06231439048058254   -0.20922225395963462   -0.014151351892974806
-0.09545606473077378   -0.2103422941872607   -0.014914436420584098
-0.06491522406908365   -0.26975619572125725   -0.014332665795570222
-0.09751476472392458   -0.26983860749265765   -0.015457933014222876
-0.09780818868965234   -0.26925645438966184   -0.01539720404328029
-0.09545606473077378   -0.2103422941872607   -0.014914436420584098
-0.06491522406908365   -0.26975619572125725   -0.014332665795570222
-0.09780818868965234   -0.26925645438966184   -0.01539720404328029
-0.06231439048058254   -0.20922225395963462   -0.014151351892974806
-0.09545606473077378   -0.2103422941872607   -0.014914436420584098
-0.09751476472392458   -0.26983860749265765   -0.015457933014222876
-0.06223817179447328   -0.20972333321753825   -0.013853744693983334
-0.09550908189584795   -0.21098747935017806   -0.014655628899071007
-0.09751476472392458   -0.26983860749265765   -0.015457933014222876
-0.06491522406908365   -0.26975619572125725   -0.014332665795570222
-0.06223817179447328   -0.20972333321753825   -0.013853744693983334
-0.06456511876192253   -0.2703345944982041   -0.014318545712685518
-0.09550908189584795   -0.21098747935017806   -0.014655628899071007
-0.062039243002663155   -0.21021956054630944   -0.013611281442526317
-0.06456511876192253   -0.2703345944982041   -0.014318545712685518
-0.06223817179447328   -0.20972333321753825   -0.013853744693983334
-0.09550908189584795   -0.21098747935017806   -0.014655628899071007
-0.06456511876192253   -0.2703345944982041   -0.014318545712685518
-0.09703463482519811   -0.2705874042920918   -0.015614765430509386
-0.09751476472392458   -0.26983860749265765   -0.015457933014222876
-0.09550908189584795   -0.21098747935017806   -0.014655628899071007
-0.06456511876192253   -0.2703345944982041   -0.014318545712685518
-0.09751476472392458   -0.26983860749265765   -0.015457933014222876
-0.06223817179447328   -0.20972333321753825   -0.013853744693983334
-0.06233187353603463   -0.20867820344813348   -0.014508184052870259
-0.06535481170715098   -0.26881012714431324   -0.0145428404529922
-0.032074843926336666   -0.2084858523312757   -0.013694956864230752
-0.06231439048058254   -0.20922225395963462   -0.014151351892974806
-0.06535481170715098   -0.26881012714431324   -0.0145428404529922
-0.03553539329434875   -0.26884475143127523   -0.013954193023333996
-0.032074843926336666   -0.2084858523312757   -0.013694956864230752
-0.03530517207419617   -0.26910305744291324   -0.013714805218965367
-0.06231439048058254   -0.20922225395963462   -0.014151351892974806
-0.031968971842421846   -0.2088157456146597   -0.013385004488780581
-0.03530517207419617   -0.26910305744291324   -0.013714805218965367
-0.032074843926336666   -0.2084858523312757   -0.013694956864230752
-0.06231439048058254   -0.20922225395963462   -0.014151351892974806
-0.03530517207419617   -0.26910305744291324   -0.013714805218965367
-0.06518422434693971   -0.2692594179802709   -0.01440712422624311
-0.06535481170715098   -0.26881012714431324   -0.0145428404529922
-0.06231439048058254   -0.20922225395963462   -0.014151351892974806
-0.03530517207419617   -0.26910305744291324   -0.013714805218965367
-0.06535481170715098   -0.26881012714431324   -0.0145428404529922
-0.032074843926336666   -0.2084858523312757   -0.013694956864230752
-0.06231439048058254   -0.20922225395963462   -0.014151351892974806
-0.06518422434693971   -0.2692594179802709   -0.01440712422624311
-0.031968971842421846   -0.2088157456146597   -0.013385004488780581
-0.06223817179447328   -0.20972333321753825   -0.013853744693983334
-0.06518422434693971   -0.2692594179802709   -0.01440712422624311
-0.03530517207419617   -0.26910305744291324   -0.013714805218965367
-0.031968971842421846   -0.2088157456146597   -0.013385004488780581
-0.03504434141469763   -0.26941619236021297   -0.013536935068311374
-0.06223817179447328   -0.20972333321753825   -0.013853744693983334
-0.031837413091385776   -0.2091179495595816   -0.013134363168092885
-0.03504434141469763   -0.26941619236021297   -0.013536935068311374
-0.031968971842421846   -0.2088157456146597   -0.013385004488780581
-0.06223817179447328   -0.20972333321753825   -0.013853744693983334
-0.03504434141469763   -0.26941619236021297   -0.013536935068311374
-0.06491522406908365   -0.26975619572125725   -0.014332665795570222
-0.06518422434693971   -0.2692594179802709   -0.01440712422624311
-0.06223817179447328   -0.20972333321753825   -0.013853744693983334
-0.03504434141469763   -0.26941619236021297   -0.013536935068311374
-0.06518422434693971   -0.2692594179802709   -0.01440712422624311
-0.031968971842421846   -0.2088157456146597   -0.013385004488780581
-0.06223817179447328   -0.20972333321753825   -0.013853744693983334
-0.06491522406908365   -0.26975619572125725   -0.014332665795570222
-0.031837413091385776   -0.2091179495595816   -0.013134363168092885
-0.062039243002663155   -0.21021956054630944   -0.013611281442526317
-0.06491522406908365   -0.26975619572125725   -0.014332665795570222
-0.03504434141469763   -0.26941619236021297   -0.013536935068311374
-0.031837413091385776   -0.2091179495595816   -0.013134363168092885
-0.03476296220434792   -0.26978513024094225   -0.013422538969884108
-0.062039243002663155   -0.21021956054630944   -0.013611281442526317
-0.031678009640137735   -0.20939344405595706   -0.012944423001181458
-0.03476296220434792   -0.26978513024094225   -0.013422538969884108
-0.031837413091385776   -0.2091179495595816   -0.013134363168092885
-0.062039243002663155   -0.21021956054630944   -0.013611281442526317
-0.03476296220434792   -0.26978513024094225   -0.013422538969884108
-0.06456511876192253   -0.2703345944982041   -0.014318545712685518
-0.06491522406908365   -0.26975619572125725   -0.014332665795570222
-0.062039243002663155   -0.21021956054630944   -0.013611281442526317
-0.03476296220434792   -0.26978513024094225   -0.013422538969884108
-0.06491522406908365   -0.26975619572125725   -0.014332665795570222
-0.031837413091385776   -0.2091179495595816   -0.013134363168092885
-0.032074843926336666   -0.2084858523312757   -0.013694956864230752
-0.03553539329434875   -0.26884475143127523   -0.013954193023333996
-0.002636138934622238   -0.20837670764497973   -0.013272441313923647
-0.031968971842421846   -0.2088157456146597   -0.013385004488780581
-0.03553539329434875   -0.26884475143127523   -0.013954193023333996
-0.006560559570971721   -0.268687973063514   -0.013711381075163388
-0.002636138934622238   -0.20837670764497973   -0.013272441313923647
-0.0062876569251977075   -0.2687491810767878   -0.01337346801865691
-0.031968971842421846   -0.2088157456146597   -0.013385004488780581
-0.0024855937979117934   -0.2084887666589505   -0.013012381950869534
-0.0062876569251977075   -0.2687491810767878   -0.01337346801865691
-0.002636138934622238   -0.20837670764497973   -0.013272441313923647
-0.031968971842421846   -0.2088157456146597   -0.013385004488780581
-0.0062876569251977075   -0.2687491810767878   -0.01337346801865691
-0.03530517207419617   -0.26910305744291324   -0.013714805218965367
-0.03553539329434875   -0.26884475143127523   -0.013954193023333996
-0.031968971842421846   -0.2088157456146597   -0.013385004488780581
-0.0062876569251977075   -0.2687491810767878   -0.01337346801865691
-0.03553539329434875   -0.26884475143127523   -0.013954193023333996
-0.002636138934622238   -0.20837670764497973   -0.013272441313923647
-0.031968971842421846   -0.2088157456146597   -0.013385004488780581
-0.03530517207419617   -0.26910305744291324   -0.013714805218965367
-0.0024855937979117934   -0.2084887666589505   -0.013012381950869534
-0.031837413091385776   -0.2091179495595816   -0.013134363168092885
-0.03530517207419617   -0.26910305744291324   -0.013714805218965367
-0.0062876569251977075   -0.2687491810767878   -0.01337346801865691
-0.0024855937979117934   -0.2084887666589505   -0.013012381950869534
-0.006029735558388544   -0.2688608374947633   -0.013096606019861146
-0.031837413091385776   -0.2091179495595816   -0.013134363168092885
-0.0023561361555928667   -0.20857121478750865   -0.012811091370416292
-0.006029735558388544   -0.2688608374947633   -0.013096606019861146
-0.0024855937979117934   -0.2084887666589505   -0.013012381950869534
-0.031837413091385776   -0.2091179495595816   -0.013134363168092885
-0.006029735558388544   -0.2688608374947633   -0.013096606019861146
-0.03504434141469763   -0.26941619236021297   -0.013536935068311374
-0.03530517207419617   -0.26910305744291324   -0.013714805218965367
-0.031837413091385776   -0.2091179495595816   -0.013134363168092885
-0.006029735558388544   -0.2688608374947633   -0.013096606019861146
-0.03530517207419617   -0.26910305744291324   -0.013714805218965367
-0.0024855937979117934   -0.2084887666589505   -0.013012381950869534
-0.031837413091385776   -0.2091179495595816   -0.013134363168092885
-0.03504434141469763   -0.26941619236021297   -0.013536935068311374
-0.0023561361555928667   -0.20857121478750865   -0.012811091370416292
-0.031678009640137735   -0.20939344405595706   -0.012944423001181458
-0.03504434141469763   -0.26941619236021297   -0.013536935068311374
-0.006029735558388544   -0.2688608374947633   -0.013096606019861146
-0.0023561361555928667   -0.20857121478750865   -0.012811091370416292
-0.005811644418202106   -0.26902553163037407   -0.012882944449528292
-0.031678009640137735   -0.20939344405595706   -0.012944423001181458
-0.002259263434231028   -0.20862365233260655   -0.012670731670191645
-0.005811644418202106   -0.26902553163037407   -0.012882944449528292
-0.0023561361555928667   -0.20857121478750865   -0.012811091370416292
-0.031678009640137735   -0.20939344405595706   -0.012944423001181458
-0.005811644418202106   -0.26902553163037407   -0.012882944449528292
-0.03476296220434792   -0.26978513024094225   -0.013422538969884108
-0.03504434141469763   -0.26941619236021297   -0.013536935068311374
-0.031678009640137735   -0.20939344405595706   -0.012944423001181458
-0.005811644418202106   -0.26902553163037407   -0.012882944449528292
-0.03504434141469763   -0.26941619236021297   -0.013536935068311374
-0.0023561361555928667   -0.20857121478750865   -0.012811091370416292
-0.002636138934622238   -0.20837670764497973   -0.013272441313923647
-0.006560559570971721   -0.268687973063514   -0.013711381075163388
0.027702637192492163   -0.2083320227767315   -0.013244037543140104
-0.0024855937979117934   -0.2084887666589505   -0.013012381950869534
-0.006560559570971721   -0.268687973063514   -0.013711381075163388
0.023290551020778146   -0.2683388713385122   -0.013825665288450526
0.027702637192492163   -0.2083320227767315   -0.013244037543140104
0.02363932187314224   -0.26820247495841937   -0.013391099135609966
-0.0024855937979117934   -0.2084887666589505   -0.013012381950869534
0.02790380537661801   -0.20823329699890042   -0.013036409735864304
0.02363932187314224   -0.26820247495841937   -0.013391099135609966
0.027702637192492163   -0.2083320227767315   -0.013244037543140104
-0.0024855937979117934   -0.2084887666589505   -0.013012381950869534
0.02363932187314224   -0.26820247495841937   -0.013391099135609966
-0.0062876569251977075   -0.2687491810767878   -0.01337346801865691
-0.006560559570971721   -0.268687973063514   -0.013711381075163388
-0.0024855937979117934   -0.2084887666589505   -0.013012381950869534
0.02363932187314224   -0.26820247495841937   -0.013391099135609966
-0.006560559570971721   -0.268687973063514   -0.013711381075163388
0.027702637192492163   -0.2083320227767315   -0.013244037543140104
-0.0024855937979117934   -0.2084887666589505   -0.013012381950869534
-0.0062876569251977075   -0.2687491810767878   -0.01337346801865691
0.02790380537661801   -0.20823329699890042   -0.013036409735864304
-0.0023561361555928667   -0.20857121478750865   -0.012811091370416292
-0.0062876569251977075   -0.2687491810767878   -0.01337346801865691
0.02363932187314224   -0.26820247495841937   -0.013391099135609966
0.02790380537661801   -0.20823329699890042   -0.013036409735864304
0.02396073890769977   -0.2681316452508915   -0.013017421312481642
-0.0023561361555928667   -0.20857121478750865   -0.012811091370416292
0.028035500773472274   -0.20811689048653392   -0.012885890504043835
0.02396073890769977   -0.2681316452508915   -0.013017421312481642
0.02790380537661801   -0.20823329699890042   -0.013036409735864304
-0.0023561361555928667   -0.20857121478750865   -0.012811091370416292
0.02396073890769977   -0.2681316452508915   -0.013017421312481642
-0.006029735558388544   -0.2688608374947633   -0.013096606019861146
-0.0062876569251977075   -0.2687491810767878   -0.01337346801865691
-0.0023561361555928667   -0.20857121478750865   -0.012811091370416292
0.02396073890769977   -0.2681316452508915   -0.013017421312481642
-0.0062876569251977075   -0.2687491810767878   -0.01337346801865691
0.02790380537661801   -0.20823329699890042   -0.013036409735864304
-0.0023561361555928667   -0.20857121478750865   -0.012811091370416292
-0.006029735558388544   -0.2688608374947633   -0.013096606019861146
0.028035500773472274   -0.20811689048653392   -0.012885890504043835
-0.002259263434231028   -0.20862365233260655   -0.012670731670191645
-0.006029735558388544   -0.2688608374947633   -0.013096606019861146
0.02396073890769977   -0.2681316452508915   -0.013017421312481642
0.028035500773472274   -0.20811689048653392   -0.012885890504043835
0.024130620171584287   -0.26809152497606137   -0.012700657162349166
-0.002259263434231028   -0.20862365233260655   -0.012670731670191645
0.028056077894063308   -0.20794419393034874   -0.012791290753867347
0.024130620171584287   -0.26809152497606137   -0.012700657162349166
0.028035500773472274   -0.20811689048653392   -0.012885890504043835
-0.002259263434231028   -0.20862365233260655   -0.012670731670191645
0.024130620171584287   -0.26809152497606137   -0.012700657162349166
-0.005811644418202106   -0.26902553163037407   -0.012882944449528292
-0.006029735558388544   -0.2688608374947633   -0.013096606019861146
-0.002259263434231028   -0.20862365233260655   -0.012670731670191645
0.024130620171584287   -0.26809152497606137   -0.012700657162349166
-0.006029735558388544   -0.2688608374947633   -0.013096606019861146
0.028035500773472274   -0.20811689048653392   -0.012885890504043835
0.027702637192492163   -0.2083320227767315   -0.013244037543140104
0.023290551020778146   -0.2683388713385122   -0.013825665288450526
0.06058718940287541   -0.2082722581895925   -0.013568995018007369
0.02790380537661801   -0.20823329699890042   -0.013036409735864304
0.023290551020778146   -0.2683388713385122   -0.013825665288450526
0.05526283127743626   -0.2677534192630177   -0.014314871411992707
0.06058718940287541   -0.2082722581895925   -0.013568995018007369
0.05617727368685856   -0.2674381427664454   -0.01374572973679009
0.02790380537661801   -0.20823329699890042   -0.013036409735864304
0.06098397823740488   -0.20800720953655785   -0.0134016449745601
0.05617727368685856   -0.2674381427664454   -0.01374572973679009
0.06058718940287541   -0.2082722581895925   -0.013568995018007369
0.02790380537661801   -0.20823329699890042   -0.013036409735864304
0.05617727368685856   -0.2674381427664454   -0.01374572973679009
0.02363932187314224   -0.26820247495841937   -0.013391099135609966
0.023290551020778146   -0.2683388713385122   -0.013825665288450526
0.02790380537661801   -0.20823329699890042   -0.013036409735864304
0.05617727368685856   -0.2674381427664454   -0.01374572973679009
0.023290551020778146   -0.2683388713385122   -0.013825665288450526
0.06058718940287541   -0.2082722581895925   -0.013568995018007369
0.02790380537661801   -0.20823329699890042   -0.013036409735864304
0.02363932187314224   -0.26820247495841937   -0.013391099135609966
0.06098397823740488   -0.20800720953655785   -0.0134016449745601
0.028035500773472274   -0.20811689048653392   -0.012885890504043835
0.02363932187314224   -0.26820247495841937   -0.013391099135609966
0.05617727368685856   -0.2674381427664454   -0.01374572973679009
0.06098397823740488   -0.20800720953655785   -0.0134016449745601
0.05680334743446511   -0.26728538468171825   -0.013263207718141976
0.028035500773472274   -0.20811689048653392   -0.012885890504043835
0.06118901250394853   -0.20779711771834597   -0.013320981868913116
0.05680334743446511   -0.26728538468171825   -0.013263207718141976
0.06098397823740488   -0.20800720953655785   -0.0134016449745601
0.028035500773472274   -0.20811689048653392   -0.012885890504043835
0.05680334743446511   -0.26728538468171825   -0.013263207718141976
0.02396073890769977   -0.2681316452508915   -0.013017421312481642
0.02363932187314224   -0.26820247495841937   -0.013391099135609966
0.028035500773472274   -0.20811689048653392   -0.012885890504043835
0.05680334743446511   -0.26728538468171825   -0.013263207718141976
0.02363932187314224   -0.26820247495841937   -0.013391099135609966
0.06098397823740488   -0.20800720953655785   -0.0134016449745601
0.028035500773472274   -0.20811689048653392   -0.012885890504043835
0.02396073890769977   -0.2681316452508915   -0.013017421312481642
0.06118901250394853   -0.20779711771834597   -0.013320981868913116
0.028056077894063308   -0.20794419393034874   -0.012791290753867347
0.02396073890769977   -0.2681316452508915   -0.013017421312481642
0.05680334743446511   -0.26728538468171825   -0.013263207718141976
0.06118901250394853   -0.20779711771834597   -0.013320981868913116
0.057356268003615825   -0.26711757343768766   -0.012870878133733115
0.028056077894063308   -0.20794419393034874   -0.012791290753867347
0.06122808967285871   -0.20745760212980133   -0.013328479005584646
0.057356268003615825   -0.26711757343768766   -0.012870878133733115
0.06118901250394853   -0.20779711771834597   -0.013320981868913116
0.028056077894063308   -0.20794419393034874   -0.012791290753867347
0.057356268003615825   -0.26711757343768766   -0.012870878133733115
0.024130620171584287   -0.26809152497606137   -0.012700657162349166
0.02396073890769977   -0.2681316452508915   -0.013017421312481642
0.028056077894063308   -0.20794419393034874   -0.012791290753867347
0.057356268003615825   -0.26711757343768766   -0.012870878133733115
0.02396073890769977   -0.2681316452508915   -0.013017421312481642
0.06118901250394853   -0.20779711771834597   -0.013320981868913116
-0.09791343866839815   -0.26865561586472975   -0.015428042760480947
-0.09531647547041001   -0.32565891394750035   -0.014743147904060032
-0.06535481170715098   -0.26881012714431324   -0.0145428404529922
-0.09780818868965234   -0.26925645438966184   -0.01539720404328029
-0.09531647547041001   -0.32565891394750035   -0.014743147904060032
-0.06509370582505573   -0.3263162380707963   -0.014208272488389361
-0.06535481170715098   -0.26881012714431324   -0.0145428404529922
-0.06471281415505617   -0.32665225897049155   -0.014288344232493885
-0.09780818868965234   -0.26925645438966184   -0.01539720404328029
-0.06518422434693971   -0.2692594179802709   -0.01440712422624311
-0.06471281415505617   -0.32665225897049155   -0.014288344232493885
-0.06535481170715098   -0.26881012714431324   -0.0145428404529922
-0.09780818868965234   -0.26925645438966184   -0.01539720404328029
-0.06471281415505617   -0.32665225897049155   -0.014288344232493885
-0.09462924722934227   -0.32611250940374514   -0.015120088121256446
-0.09531647547041001   -0.32565891394750035   -0.014743147904060032
-0.09780818868965234   -0.26925645438966184   -0.01539720404328029
-0.06471281415505617   -0.32665225897049155   -0.014288344232493885
-0.09531647547041001   -0.32565891394750035   -0.014743147904060032
-0.06535481170715098   -0.26881012714431324   -0.0145428404529922
-0.09780818868965234   -0.26925645438966184   -0.01539720404328029
-0.09462924722934227   -0.32611250940374514   -0.015120088121256446
-0.06518422434693971   -0.2692594179802709   -0.01440712422624311
-0.09751476472392458   -0.26983860749265765   -0.015457933014222876
-0.09462924722934227   -0.32611250940374514   -0.015120088121256446
-0.06471281415505617   -0.32665225897049155   -0.014288344232493885
-0.06518422434693971   -0.2692594179802709   -0.01440712422624311
-0.06419620941109735   -0.3271293493773769   -0.014431424478458932
-0.09751476472392458   -0.26983860749265765   -0.015457933014222876
-0.06491522406908365   -0.26975619572125725   -0.014332665795570222
-0.06419620941109735   -0.3271293493773769   -0.014431424478458932
-0.06518422434693971   -0.2692594179802709   -0.01440712422624311
-0.09751476472392458   -0.26983860749265765   -0.015457933014222876
-0.06419620941109735   -0.3271293493773769   -0.014431424478458932
-0.09384286967419993   -0.3266675728810069   -0.015596158212021908
-0.09462924722934227   -0.32611250940374514   -0.015120088121256446
-0.09751476472392458   -0.26983860749265765   -0.015457933014222876
-0.06419620941109735   -0.3271293493773769   -0.014431424478458932
-0.09462924722934227   -0.32611250940374514   -0.015120088121256446
-0.06518422434693971   -0.2692594179802709   -0.01440712422624311
-0.09751476472392458   -0.26983860749265765   -0.015457933014222876
-0.09384286967419993   -0.3266675728810069   -0.015596158212021908
-0.06491522406908365   -0.26975619572125725   -0.014332665795570222
-0.09703463482519811   -0.2705874042920918   -0.015614765430509386
-0.09384286967419993   -0.3266675728810069   -0.015596158212021908
-0.06419620941109735   -0.3271293493773769   -0.014431424478458932
-0.06491522406908365   -0.26975619572125725   -0.014332665795570222
-0.06364148347674471   -0.3277765494074152   -0.01463943575613289
-0.09703463482519811   -0.2705874042920918   -0.015614765430509386
-0.06456511876192253   -0.2703345944982041   -0.014318545712685518
-0.06364148347674471   -0.3277765494074152   -0.01463943575613289
-0.06491522406908365   -0.26975619572125725   -0.014332665795570222
-0.09703463482519811   -0.2705874042920918   -0.015614765430509386
-0.06364148347674471   -0.3277765494074152   -0.01463943575613289
-0.09277066770974933   -0.32751164753919315   -0.016173088627070804
-0.09384286967419993   -0.3266675728810069   -0.015596158212021908
-0.09703463482519811   -0.2705874042920918   -0.015614765430509386
-0.06364148347674471   -0.3277765494074152   -0.01463943575613289
-0.09384286967419993   -0.3266675728810069   -0.015596158212021908
-0.06491522406908365   -0.26975619572125725   -0.014332665795570222
-0.06535481170715098   -0.26881012714431324   -0.0145428404529922
-0.06509370582505573   -0.3263162380707963   -0.014208272488389361
-0.03553539329434875   -0.26884475143127523   -0.013954193023333996
-0.06518422434693971   -0.2692594179802709   -0.01440712422624311
-0.06509370582505573   -0.3263162380707963   -0.014208272488389361
-0.03801295242230628   -0.3265779359428315   -0.013865531797630642
-0.03553539329434875   -0.26884475143127523   -0.013954193023333996
-0.03759766293779548   -0.32675320854015966   -0.013691301636967523
-0.06518422434693971   -0.2692594179802709   -0.01440712422624311
-0.03530517207419617   -0.26910305744291324   -0.013714805218965367
-0.03759766293779548   -0.32675320854015966   -0.013691301636967523
-0.03553539329434875   -0.26884475143127523   -0.013954193023333996
-0.06518422434693971   -0.2692594179802709   -0.01440712422624311
-0.03759766293779548   -0.32675320854015966   -0.013691301636967523
-0.06471281415505617   -0.32665225897049155   -0.014288344232493885
-0.06509370582505573   -0.3263162380707963   -0.014208272488389361
-0.06518422434693971   -0.2692594179802709   -0.01440712422624311
-0.03759766293779548   -0.32675320854015966   -0.013691301636967523
-0.06509370582505573   -0.3263162380707963   -0.014208272488389361
-0.03553539329434875   -0.26884475143127523   -0.013954193023333996
-0.06518422434693971   -0.2692594179802709   -0.01440712422624311
-0.06471281415505617   -0.32665225897049155   -0.014288344232493885
-0.03530517207419617   -0.26910305744291324   -0.013714805218965367
-0.06491522406908365   -0.26975619572125725   -0.014332665795570222
-0.06471281415505617   -0.32665225897049155   -0.014288344232493885
-0.03759766293779548   -0.32675320854015966   -0.013691301636967523
-0.03530517207419617   -0.26910305744291324   -0.013714805218965367
-0.03715073347205289   -0.3270642263586357   -0.013579324421391915
-0.06491522406908365   -0.26975619572125725   -0.014332665795570222
-0.03504434141469763   -0.26941619236021297   -0.013536935068311374
-0.03715073347205289   -0.3270642263586357   -0.013579324421391915
-0.03530517207419617   -0.26910305744291324   -0.013714805218965367
-0.06491522406908365   -0.26975619572125725   -0.014332665795570222
-0.03715073347205289   -0.3270642263586357   -0.013579324421391915
-0.06419620941109735   -0.3271293493773769   -0.014431424478458932
-0.06471281415505617   -0.32665225897049155   -0.014288344232493885
-0.06491522406908365   -0.26975619572125725   -0.014332665795570222
-0.03715073347205289   -0.3270642263586357   -0.013579324421391915
-0.06471281415505617   -0.32665225897049155   -0.014288344232493885
-0.03530517207419617   -0.26910305744291324   -0.013714805218965367
-0.06491522406908365   -0.26975619572125725   -0.014332665795570222
-0.06419620941109735   -0.3271293493773769   -0.014431424478458932
-0.03504434141469763   -0.26941619236021297   -0.013536935068311374
-0.06456511876192253   -0.2703345944982041   -0.014318545712685518
-0.06419620941109735   -0.3271293493773769   -0.014431424478458932
-0.03715073347205289   -0.3270642263586357   -0.013579324421391915
-0.03504434141469763   -0.26941619236021297   -0.013536935068311374
-0.03669133254810079   -0.32751497670836244   -0.01353260417259
-0.06456511876192253   -0.2703345944982041   -0.014318545712685518
-0.03476296220434792   -0.26978513024094225   -0.013422538969884108
-0.03669133254810079   -0.32751497670836244   -0.01353260417259
-0.03504434141469763   -0.26941619236021297   -0.013536935068311374
-0.06456511876192253   -0.2703345944982041   -0.014318545712685518
-0.03669133254810079   -0.32751497670836244   -0.01353260417259
-0.06364148347674471   -0.3277765494074152   -0.01463943575613289
-0.06419620941109735   -0.3271293493773769   -0.014431424478458932
-0.06456511876192253   -0.2703345944982041   -0.014318545712685518
-0.03669133254810079   -0.32751497670836244   -0.01353260417259
-0.06419620941109735   -0.3271293493773769   -0.014431424478458932
-0.03504434141469763   -0.26941619236021297   -0.013536935068311374
-0.03553539329434875   -0.26884475143127523   -0.013954193023333996
-0.03801295242230628   -0.3265779359428315   -0.013865531797630642
-0.006560559570971721   -0.268687973063514   -0.013711381075163388
-0.03530517207419617   -0.26910305744291324   -0.013714805218965367
-0.03801295242230628   -0.3265779359428315   -0.013865531797630642
-0.011754098474967167   -0.3263802011975437   -0.013806016058792722
-0.006560559570971721   -0.268687973063514   -0.013711381075163388
-0.011294679581423217   -0.32638568802365325   -0.013386207029122858
-0.03530517207419617   -0.26910305744291324   -0.013714805218965367
-0.0062876569251977075   -0.2687491810767878   -0.01337346801865691
-0.011294679581423217   -0.32638568802365325   -0.013386207029122858
-0.006560559570971721   -0.268687973063514   -0.013711381075163388
-0.03530517207419617   -0.26910305744291324   -0.013714805218965367
-0.011294679581423217   -0.32638568802365325   -0.013386207029122858
-0.03759766293779548   -0.32675320854015966   -0.013691301636967523
-0.03801295242230628   -0.3265779359428315   -0.013865531797630642
-0.03530517207419617   -0.26910305744291324   -0.013714805218965367
-0.011294679581423217   -0.32638568802365325   -0.013386207029122858
-0.03801295242230628   -0.3265779359428315   -0.013865531797630642
-0.006560559570971721   -0.268687973063514   -0.013711381075163388
-0.03530517207419617   -0.26910305744291324   -0.013714805218965367
-0.03759766293779548   -0.32675320854015966   -0.013691301636967523
-0.0062876569251977075   -0.2687491810767878   -0.01337346801865691
-0.03504434141469763   -0.26941619236021297   -0.013536935068311374
-0.03759766293779548   -0.32675320854015966   -0.013691301636967523
-0.011294679581423217   -0.32638568802365325   -0.013386207029122858
-0.0062876569251977075   -0.2687491810767878   -0.01337346801865691
-0.010847433917019539   -0.32651681772800406   -0.013028777621476629
-0.03504434141469763   -0.26941619236021297   -0.013536935068311374
-0.006029735558388544   -0.2688608374947633   -0.013096606019861146
-0.010847433917019539   -0.32651681772800406   -0.013028777621476629
-0.0062876569251977075   -0.2687491810767878   -0.01337346801865691
-0.03504434141469763   -0.26941619236021297   -0.013536935068311374
-0.010847433917019539   -0.32651681772800406   -0.013028777621476629
-0.03715073347205289   -0.3270642263586357   -0.013579324421391915
-0.03759766293779548   -0.32675320854015966   -0.013691301636967523
-0.03504434141469763   -0.26941619236021297   -0.013536935068311374
-0.010847433917019539   -0.32651681772800406   -0.013028777621476629
-0.03759766293779548   -0.32675320854015966   -0.013691301636967523
-0.0062876569251977075   -0.2687491810767878   -0.01337346801865691
-0.03504434141469763   -0.26941619236021297   -0.013536935068311374
-0.03715073347205289   -0.3270642263586357   -0.013579324421391915
-0.006029735558388544   -0.2688608374947633   -0.013096606019861146
-0.03476296220434792   -0.26978513024094225   -0.013422538969884108
-0.03715073347205289   -0.3270642263586357   -0.013579324421391915
-0.010847433917019539   -0.32651681772800406   -0.013028777621476629
-0.006029735558388544   -0.2688608374947633   -0.013096606019861146
-0.010448774818706603   -0.32678458545806555   -0.01273590881789459
-0.03476296220434792   -0.26978513024094225   -0.013422538969884108
-0.005811644418202106   -0.26902553163037407   -0.012882944449528292
-0.010448774818706603   -0.32678458545806555   -0.01273590881789459
-0.006029735558388544   -0.2688608374947633   -0.013096606019861146
-0.03476296220434792   -0.26978513024094225   -0.013422538969884108
-0.010448774818706603   -0.32678458545806555   -0.01273590881789459
-0.03669133254810079   -0.32751497670836244   -0.01353260417259
-0.03715073347205289   -0.3270642263586357   -0.013579324421391915
-0.03476296220434792   -0.26978513024094225   -0.013422538969884108
-0.010448774818706603   -0.32678458545806555   -0.01273590881789459
-0.03715073347205289   -0.3270642263586357   -0.013579324421391915
-0.006029735558388544   -0.2688608374947633   -0.013096606019861146
-0.006560559570971721   -0.268687973063514   -0.013711381075163388
-0.011754098474967167   -0.3263802011975437   -0.013806016058792722
0.023290551020778146   -0.2683388713385122   -0.013825665288450526
-0.0062876569251977075   -0.2687491810767878   -0.01337346801865691
-0.011754098474967167   -0.3263802011975437   -0.013806016058792722
0.015417578793269337   -0.32573728004667996   -0.014052010867687075
0.023290551020778146   -0.2683388713385122   -0.013825665288450526
0.01597913169799354   -0.3255615601403927   -0.013389081203034933
-0.0062876569251977075   -0.2687491810767878   -0.01337346801865691
0.02363932187314224   -0.26820247495841937   -0.013391099135609966
0.01597913169799354   -0.3255615601403927   -0.013389081203034933
0.023290551020778146   -0.2683388713385122   -0.013825665288450526
-0.0062876569251977075   -0.2687491810767878   -0.01337346801865691
0.01597913169799354   -0.3255615601403927   -0.013389081203034933
-0.011294679581423217   -0.32638568802365325   -0.013386207029122858
-0.011754098474967167   -0.3263802011975437   -0.013806016058792722
-0.0062876569251977075   -0.2687491810767878   -0.01337346801865691
0.01597913169799354   -0.3255615601403927   -0.013389081203034933
-0.011754098474967167   -0.3263802011975437   -0.013806016058792722
0.023290551020778146   -0.2683388713385122   -0.013825665288450526
-0.0062876569251977075   -0.2687491810767878   -0.01337346801865691
-0.011294679581423217   -0.32638568802365325   -0.013386207029122858
0.02363932187314224   -0.26820247495841937   -0.013391099135609966
-0.006029735558388544   -0.2688608374947633   -0.013096606019861146
-0.011294679581423217   -0.32638568802365325   -0.013386207029122858
0.01597913169799354   -0.3255615601403927   -0.013389081203034933
0.02363932187314224   -0.26820247495841937   -0.013391099135609966
0.01655438639146858   -0.3255293113924878   -0.012792565082120937
-0.006029735558388544   -0.2688608374947633   -0.013096606019861146
0.02396073890769977   -0.2681316452508915   -0.013017421312481642
0.01655438639146858   -0.3255293113924878   -0.012792565082120937
0.02363932187314224   -0.26820247495841937   -0.013391099135609966
-0.006029735558388544   -0.2688608374947633   -0.013096606019861146
0.01655438639146858   -0.3255293113924878   -0.012792565082120937
-0.010847433917019539   -0.32651681772800406   -0.013028777621476629
-0.011294679581423217   -0.32638568802365325   -0.013386207029122858
-0.006029735558388544   -0.2688608374947633   -0.013096606019861146
0.01655438639146858   -0.3255293113924878   -0.012792565082120937
-0.011294679581423217   -0.32638568802365325   -0.013386207029122858
0.02363932187314224   -0.26820247495841937   -0.013391099135609966
-0.006029735558388544   -0.2688608374947633   -0.013096606019861146
-0.010847433917019539   -0.32651681772800406   -0.013028777621476629
0.02396073890769977   -0.2681316452508915   -0.013017421312481642
-0.005811644418202106   -0.26902553163037407   -0.012882944449528292
-0.010847433917019539   -0.32651681772800406   -0.013028777621476629
0.01655438639146858   -0.3255293113924878   -0.012792565082120937
0.02396073890769977   -0.2681316452508915   -0.013017421312481642
0.016935985301192873   -0.3256139451078765   -0.012253716652094043
-0.005811644418202106   -0.26902553163037407   -0.012882944449528292
0.024130620171584287   -0.26809152497606137   -0.012700657162349166
0.016935985301192873   -0.3256139451078765   -0.012253716652094043
0.02396073890769977   -0.2681316452508915   -0.013017421312481642
-0.005811644418202106   -0.26902553163037407   -0.012882944449528292
0.016935985301192873   -0.3256139451078765   -0.012253716652094043
-0.010448774818706603   -0.32678458545806555   -0.01273590881789459
-0.010847433917019539   -0.32651681772800406   -0.013028777621476629
-0.005811644418202106   -0.26902553163037407   -0.012882944449528292
0.016935985301192873   -0.3256139451078765   -0.012253716652094043
-0.010847433917019539   -0.32651681772800406   -0.013028777621476629
0.02396073890769977   -0.2681316452508915   -0.013017421312481642
0.023290551020778146   -0.2683388713385122   -0.013825665288450526
0.015417578793269337   -0.32573728004667996   -0.014052010867687075
0.05526283127743626   -0.2677534192630177   -0.014314871411992707
0.02363932187314224   -0.26820247495841937   -0.013391099135609966
0.015417578793269337   -0.32573728004667996   -0.014052010867687075
0.04434071932266368   -0.32463242437611317   -0.014692130352501507
0.05526283127743626   -0.2677534192630177   -0.014314871411992707
0.04583412713785007   -0.3242688490993455   -0.013728350702547805
0.02363932187314224   -0.26820247495841937   -0.013391099135609966
0.05617727368685856   -0.2674381427664454   -0.01374572973679009
0.04583412713785007   -0.3242688490993455   -0.013728350702547805
0.05526283127743626   -0.2677534192630177   -0.014314871411992707
0.02363932187314224   -0.26820247495841937   -0.013391099135609966
0.04583412713785007   -0.3242688490993455   -0.013728350702547805
0.01597913169799354   -0.3255615601403927   -0.013389081203034933
0.015417578793269337   -0.32573728004667996   -0.014052010867687075
0.02363932187314224   -0.26820247495841937   -0.013391099135609966
0.04583412713785007   -0.3242688490993455   -0.013728350702547805
0.015417578793269337   -0.32573728004667996   -0.014052010867687075
0.05526283127743626   -0.2677534192630177   -0.014314871411992707
0.02363932187314224   -0.26820247495841937   -0.013391099135609966
0.01597913169799354   -0.3255615601403927   -0.013389081203034933
0.05617727368685856   -0.2674381427664454   -0.01374572973679009
0.02396073890769977   -0.2681316452508915   -0.013017421312481642
0.01597913169799354   -0.3255615601403927   -0.013389081203034933
0.04583412713785007   -0.3242688490993455   -0.013728350702547805
0.05617727368685856   -0.2674381427664454   -0.01374572973679009
0.046938759118956196   -0.3241693802703086   -0.012852809124714435
0.02396073890769977   -0.2681316452508915   -0.013017421312481642
0.05680334743446511   -0.26728538468171825   -0.013263207718141976
0.046938759118956196   -0.3241693802703086   -0.012852809124714435
0.05617727368685856   -0.2674381427664454   -0.01374572973679009
0.02396073890769977   -0.2681316452508915   -0.013017421312481642
0.046938759118956196   -0.3241693802703086   -0.012852809124714435
0.01655438639146858   -0.3255293113924878   -0.012792565082120937
0.01597913169799354   -0.3255615601403927   -0.013389081203034933
0.02396073890769977   -0.2681316452508915   -0.013017421312481642
0.046938759118956196   -0.3241693802703086   -0.012852809124714435
0.01597913169799354   -0.3255615601403927   -0.013389081203034933
0.05617727368685856   -0.2674381427664454   -0.01374572973679009
0.02396073890769977   -0.2681316452508915   -0.013017421312481642
0.01655438639146858   -0.3255293113924878   -0.012792565082120937
0.05680334743446511   -0.26728538468171825   -0.013263207718141976
0.024130620171584287   -0.26809152497606137   -0.012700657162349166
0.01655438639146858   -0.3255293113924878   -0.012792565082120937
0.046938759118956196   -0.3241693802703086   -0.012852809124714435
0.05680334743446511   -0.26728538468171825   -0.013263207718141976
0.04805641835825231   -0.3241679634663899   -0.012069465461469265
0.024130620171584287   -0.26809152497606137   -0.012700657162349166
0.057356268003615825   -0.26711757343768766   -0.012870878133733115
0.04805641835825231   -0.3241679634663899   -0.012069465461469265
0.05680334743446511   -0.26728538468171825   -0.013263207718141976
0.024130620171584287   -0.26809152497606137   -0.012700657162349166
0.04805641835825231   -0.3241679634663899   -0.012069465461469265
0.016935985301192873   -0.3256139451078765   -0.012253716652094043
0.01655438639146858   -0.3255293113924878   -0.012792565082120937
0.024130620171584287   -0.26809152497606137   -0.012700657162349166
0.04805641835825231   -0.3241679634663899   -0.012069465461469265
0.01655438639146858   -0.3255293113924878   -0.012792565082120937
0.05680334743446511   -0.26728538468171825   -0.013263207718141976
-0.09531647547041001   -0.32565891394750035   -0.014743147904060032
-0.08697948365550583   -0.37614013066200175   -0.013742826597790773
-0.06509370582505573   -0.3263162380707963   -0.014208272488389361
-0.09462924722934227   -0.32611250940374514   -0.015120088121256446
-0.08697948365550583   -0.37614013066200175   -0.013742826597790773
-0.061532430094769955   -0.37732960207597444   -0.013655354205745115
-0.06509370582505573   -0.3263162380707963   -0.014208272488389361
-0.0608947338901165   -0.3775018866132492   -0.01393610151851845
-0.09462924722934227   -0.32611250940374514   -0.015120088121256446
-0.06471281415505617   -0.32665225897049155   -0.014288344232493885
-0.0608947338901165   -0.3775018866132492   -0.01393610151851845
-0.06509370582505573   -0.3263162380707963   -0.014208272488389361
-0.09462924722934227   -0.32611250940374514   -0.015120088121256446
-0.0608947338901165   -0.3775018866132492   -0.01393610151851845
-0.08565398249258631   -0.3763961035080279   -0.014527528475653955
-0.08697948365550583   -0.37614013066200175   -0.013742826597790773
-0.09462924722934227   -0.32611250940374514   -0.015120088121256446
-0.0608947338901165   -0.3775018866132492   -0.01393610151851845
-0.08697948365550583   -0.37614013066200175   -0.013742826597790773
-0.06509370582505573   -0.3263162380707963   -0.014208272488389361
-0.09462924722934227   -0.32611250940374514   -0.015120088121256446
-0.08565398249258631   -0.3763961035080279   -0.014527528475653955
-0.06471281415505617   -0.32665225897049155   -0.014288344232493885
-0.09384286967419993   -0.3266675728810069   -0.015596158212021908
-0.08565398249258631   -0.3763961035080279   -0.014527528475653955
-0.0608947338901165   -0.3775018866132492   -0.01393610151851845
-0.06471281415505617   -0.32665225897049155   -0.014288344232493885
-0.06009388607693765   -0.3779134297985526   -0.014280983794884593
-0.09384286967419993   -0.3266675728810069   -0.015596158212021908
-0.06419620941109735   -0.3271293493773769   -0.014431424478458932
-0.06009388607693765   -0.3779134297985526   -0.014280983794884593
-0.06471281415505617   -0.32665225897049155   -0.014288344232493885
-0.09384286967419993   -0.3266675728810069   -0.015596158212021908
-0.06009388607693765   -0.3779134297985526   -0.014280983794884593
-0.08433044434490711   -0.3768790246597611   -0.015416678947528985
-0.08565398249258631   -0.3763961035080279   -0.014527528475653955
-0.09384286967419993   -0.3266675728810069   -0.015596158212021908
-0.06009388607693765   -0.3779134297985526   -0.014280983794884593
-0.08565398249258631   -0.3763961035080279   -0.014527528475653955
-0.06471281415505617   -0.32665225897049155   -0.014288344232493885
-0.09384286967419993   -0.3266675728810069   -0.015596158212021908
-0.08433044434490711   -0.3768790246597611   -0.015416678947528985
-0.06419620941109735   -0.3271293493773769   -0.014431424478458932
-0.09277066770974933   -0.32751164753919315   -0.016173088627070804
-0.08433044434490711   -0.3768790246597611   -0.015416678947528985
-0.06009388607693765   -0.3779134297985526   -0.014280983794884593
-0.06419620941109735   -0.3271293493773769   -0.014431424478458932
-0.05930343692304765   -0.37858758240057255   -0.014689403084375843
-0.09277066770974933   -0.32751164753919315   -0.016173088627070804
-0.06364148347674471   -0.3277765494074152   -0.01463943575613289
-0.05930343692304765   -0.37858758240057255   -0.014689403084375843
-0.06419620941109735   -0.3271293493773769   -0.014431424478458932
-0.09277066770974933   -0.32751164753919315   -0.016173088627070804
-0.05930343692304765   -0.37858758240057255   -0.014689403084375843
-0.08263467753974525   -0.3777795157488068   -0.016408241899245904
-0.08433044434490711   -0.3768790246597611   -0.015416678947528985
-0.09277066770974933   -0.32751164753919315   -0.016173088627070804
-0.05930343692304765   -0.37858758240057255   -0.014689403084375843
-0.08433044434490711   -0.3768790246597611   -0.015416678947528985
-0.06419620941109735   -0.3271293493773769   -0.014431424478458932
-0.06509370582505573   -0.3263162380707963   -0.014208272488389361
-0.061532430094769955   -0.37732960207597444   -0.013655354205745115
-0.03801295242230628   -0.3265779359428315   -0.013865531797630642
-0.06471281415505617   -0.32665225897049155   -0.014288344232493885
-0.061532430094769955   -0.37732960207597444   -0.013655354205745115
-0.03951578793473131   -0.37788947162034514   -0.013619821758215135
-0.03801295242230628   -0.3265779359428315   -0.013865531797630642
-0.03886101554261993   -0.3779463869941723   -0.013494852434720572
-0.06471281415505617   -0.32665225897049155   -0.014288344232493885
-0.03759766293779548   -0.32675320854015966   -0.013691301636967523
-0.03886101554261993   -0.3779463869941723   -0.013494852434720572
-0.03801295242230628   -0.3265779359428315   -0.013865531797630642
-0.06471281415505617   -0.32665225897049155   -0.014288344232493885
-0.03886101554261993   -0.3779463869941723   -0.013494852434720572
-0.0608947338901165   -0.3775018866132492   -0.01393610151851845
-0.061532430094769955   -0.37732960207597444   -0.013655354205745115
-0.06471281415505617   -0.32665225897049155   -0.014288344232493885
-0.03886101554261993   -0.3779463869941723   -0.013494852434720572
-0.061532430094769955   -0.37732960207597444   -0.013655354205745115
-0.03801295242230628   -0.3265779359428315   -0.013865531797630642
-0.06471281415505617   -0.32665225897049155   -0.014288344232493885
-0.0608947338901165   -0.3775018866132492   -0.01393610151851845
-0.03759766293779548   -0.32675320854015966   -0.013691301636967523
-0.06419620941109735   -0.3271293493773769   -0.014431424478458932
-0.0608947338901165   -0.3775018866132492   -0.01393610151851845
-0.03886101554261993   -0.3779463869941723   -0.013494852434720572
-0.03759766293779548   -0.32675320854015966   -0.013691301636967523
-0.03818540952680323   -0.3782168260893574   -0.013432122064336999
-0.06419620941109735   -0.3271293493773769   -0.014431424478458932
-0.03715073347205289   -0.3270642263586357   -0.013579324421391915
-0.03818540952680323   -0.3782168260893574   -0.013432122064336999
-0.03759766293779548   -0.32675320854015966   -0.013691301636967523
-0.06419620941109735   -0.3271293493773769   -0.014431424478458932
-0.03818540952680323   -0.3782168260893574   -0.013432122064336999
-0.06009388607693765   -0.3779134297985526   -0.014280983794884593
-0.0608947338901165   -0.3775018866132492   -0.01393610151851845
-0.06419620941109735   -0.3271293493773769   -0.014431424478458932
-0.03818540952680323   -0.3782168260893574   -0.013432122064336999
-0.0608947338901165   -0.3775018866132492   -0.01393610151851845
-0.03759766293779548   -0.32675320854015966   -0.013691301636967523
-0.06419620941109735   -0.3271293493773769   -0.014431424478458932
-0.06009388607693765   -0.3779134297985526   -0.014280983794884593
-0.03715073347205289   -0.3270642263586357   -0.013579324421391915
-0.06364148347674471   -0.3277765494074152   -0.01463943575613289
-0.06009388607693765   -0.3779134297985526   -0.014280983794884593
-0.03818540952680323   -0.3782168260893574   -0.013432122064336999
-0.03715073347205289   -0.3270642263586357   -0.013579324421391915
-0.037511014096693565   -0.3787136242612523   -0.013430751383981655
-0.06364148347674471   -0.3277765494074152   -0.01463943575613289
-0.03669133254810079   -0.32751497670836244   -0.01353260417259
-0.037511014096693565   -0.3787136242612523   -0.013430751383981655
-0.03715073347205289   -0.3270642263586357   -0.013579324421391915
-0.06364148347674471   -0.3277765494074152   -0.01463943575613289
-0.037511014096693565   -0.3787136242612523   -0.013430751383981655
-0.05930343692304765   -0.37858758240057255   -0.014689403084375843
-0.06009388607693765   -0.3779134297985526   -0.014280983794884593
-0.06364148347674471   -0.3277765494074152   -0.01463943575613289
-0.037511014096693565   -0.3787136242612523   -0.013430751383981655
-0.06009388607693765   -0.3779134297985526   -0.014280983794884593
-0.03715073347205289   -0.3270642263586357   -0.013579324421391915
-0.03801295242230628   -0.3265779359428315   -0.013865531797630642
-0.03951578793473131   -0.37788947162034514   -0.013619821758215135
-0.011754098474967167   -0.3263802011975437   -0.013806016058792722
-0.03759766293779548   -0.32675320854015966   -0.013691301636967523
-0.03951578793473131   -0.37788947162034514   -0.013619821758215135
-0.018231883314435007   -0.37779316040898075   -0.013775634867913436
-0.011754098474967167   -0.3263802011975437   -0.013806016058792722
-0.0175146259595216   -0.3777207067560046   -0.013259238903530321
-0.03759766293779548   -0.32675320854015966   -0.013691301636967523
-0.011294679581423217   -0.32638568802365325   -0.013386207029122858
-0.0175146259595216   -0.3777207067560046   -0.013259238903530321
-0.011754098474967167   -0.3263802011975437   -0.013806016058792722
-0.03759766293779548   -0.32675320854015966   -0.013691301636967523
-0.0175146259595216   -0.3777207067560046   -0.013259238903530321
-0.03886101554261993   -0.3779463869941723   -0.013494852434720572
-0.03951578793473131   -0.37788947162034514   -0.013619821758215135
-0.03759766293779548   -0.32675320854015966   -0.013691301636967523
-0.0175146259595216   -0.3777207067560046   -0.013259238903530321
-0.03951578793473131   -0.37788947162034514   -0.013619821758215135
-0.011754098474967167   -0.3263802011975437   -0.013806016058792722
-0.03759766293779548   -0.32675320854015966   -0.013691301636967523
-0.03886101554261993   -0.3779463869941723   -0.013494852434720572
-0.011294679581423217   -0.32638568802365325   -0.013386207029122858
-0.03715073347205289   -0.3270642263586357   -0.013579324421391915
-0.03886101554261993   -0.3779463869941723   -0.013494852434720572
-0.0175146259595216   -0.3777207067560046   -0.013259238903530321
-0.011294679581423217   -0.32638568802365325   -0.013386207029122858
-0.016818813114118033   -0.3778410299539096   -0.012809175119543607
-0.03715073347205289   -0.3270642263586357   -0.013579324421391915
-0.010847433917019539   -0.32651681772800406   -0.013028777621476629
-0.016818813114118033   -0.3778410299539096   -0.012809175119543607
-0.011294679581423217   -0.32638568802365325   -0.013386207029122858
-0.03715073347205289   -0.3270642263586357   -0.013579324421391915
-0.016818813114118033   -0.3778410299539096   -0.012809175119543607
-0.03818540952680323   -0.3782168260893574   -0.013432122064336999
-0.03886101554261993   -0.3779463869941723   -0.013494852434720572
-0.03715073347205289   -0.3270642263586357   -0.013579324421391915
-0.016818813114118033   -0.3778410299539096   -0.012809175119543607
-0.03886101554261993   -0.3779463869941723   -0.013494852434720572
-0.011294679581423217   -0.32638568802365325   -0.013386207029122858
-0.03715073347205289   -0.3270642263586357   -0.013579324421391915
-0.03818540952680323   -0.3782168260893574   -0.013432122064336999
-0.010847433917019539   -0.32651681772800406   -0.013028777621476629
-0.03669133254810079   -0.32751497670836244   -0.01353260417259
-0.03818540952680323   -0.3782168260893574   -0.013432122064336999
-0.016818813114118033   -0.3778410299539096   -0.012809175119543607
-0.010847433917019539   -0.32651681772800406   -0.013028777621476629
-0.016190443521646614   -0.3781826307632114   -0.012419656344596883
-0.03669133254810079   -0.32751497670836244   -0.01353260417259
-0.010448774818706603   -0.32678458545806555   -0.01273590881789459
-0.016190443521646614   -0.3781826307632114   -0.012419656344596883
-0.010847433917019539   -0.32651681772800406   -0.013028777621476629
-0.03669133254810079   -0.32751497670836244   -0.01353260417259
-0.016190443521646614   -0.3781826307632114   -0.012419656344596883
-0.037511014096693565   -0.3787136242612523   -0.013430751383981655
-0.03818540952680323   -0.3782168260893574   -0.013432122064336999
-0.03669133254810079   -0.32751497670836244   -0.01353260417259
-0.016190443521646614   -0.3781826307632114   -0.012419656344596883
-0.03818540952680323   -0.3782168260893574   -0.013432122064336999
-0.010847433917019539   -0.32651681772800406   -0.013028777621476629
-0.011754098474967167   -0.3263802011975437   -0.013806016058792722
-0.018231883314435007   -0.37779316040898075   -0.013775634867913436
0.015417578793269337   -0.32573728004667996   -0.014052010867687075
-0.011294679581423217   -0.32638568802365325   -0.013386207029122858
-0.018231883314435007   -0.37779316040898075   -0.013775634867913436
0.004062349412258399   -0.37701730121123006   -0.014157832513384797
0.015417578793269337   -0.32573728004667996   -0.014052010867687075
0.004934340770662424   -0.3767801823692863   -0.013251512543615182
-0.011294679581423217   -0.32638568802365325   -0.013386207029122858
0.01597913169799354   -0.3255615601403927   -0.013389081203034933
0.004934340770662424   -0.3767801823692863   -0.013251512543615182
0.015417578793269337   -0.32573728004667996   -0.014052010867687075
-0.011294679581423217   -0.32638568802365325   -0.013386207029122858
0.004934340770662424   -0.3767801823692863   -0.013251512543615182
-0.0175146259595216   -0.3777207067560046   -0.013259238903530321
-0.018231883314435007   -0.37779316040898075   -0.013775634867913436
-0.011294679581423217   -0.32638568802365325   -0.013386207029122858
0.004934340770662424   -0.3767801823692863   -0.013251512543615182
-0.018231883314435007   -0.37779316040898075   -0.013775634867913436
0.015417578793269337   -0.32573728004667996   -0.014052010867687075
-0.011294679581423217   -0.32638568802365325   -0.013386207029122858
-0.0175146259595216   -0.3777207067560046   -0.013259238903530321
0.01597913169799354   -0.3255615601403927   -0.013389081203034933
-0.010847433917019539   -0.32651681772800406   -0.013028777621476629
-0.0175146259595216   -0.3777207067560046   -0.013259238903530321
0.004934340770662424   -0.3767801823692863   -0.013251512543615182
0.01597913169799354   -0.3255615601403927   -0.013389081203034933
0.005852365572151096   -0.3767586382763149   -0.012429352293074555
-0.010847433917019539   -0.32651681772800406   -0.013028777621476629
0.01655438639146858   -0.3255293113924878   -0.012792565082120937
0.005852365572151096   -0.3767586382763149   -0.012429352293074555
0.01597913169799354   -0.3255615601403927   -0.013389081203034933
-0.010847433917019539   -0.32651681772800406   -0.013028777621476629
0.005852365572151096   -0.3767586382763149   -0.012429352293074555
-0.016818813114118033   -0.3778410299539096   -0.012809175119543607
-0.0175146259595216   -0.3777207067560046   -0.013259238903530321
-0.010847433917019539   -0.32651681772800406   -0.013028777621476629
0.005852365572151096   -0.3767586382763149   -0.012429352293074555
-0.0175146259595216   -0.3777207067560046   -0.013259238903530321
0.01597913169799354   -0.3255615601403927   -0.013389081203034933
-0.010847433917019539   -0.32651681772800406   -0.013028777621476629
-0.016818813114118033   -0.3778410299539096   -0.012809175119543607
0.01655438639146858   -0.3255293113924878   -0.012792565082120937
-0.010448774818706603   -0.32678458545806555   -0.01273590881789459
-0.016818813114118033   -0.3778410299539096   -0.012809175119543607
0.005852365572151096   -0.3767586382763149   -0.012429352293074555
0.01655438639146858   -0.3255293113924878   -0.012792565082120937
0.006523800354953472   -0.37694299297681777   -0.011665175821457228
-0.010448774818706603   -0.32678458545806555   -0.01273590881789459
0.016935985301192873   -0.3256139451078765   -0.012253716652094043
0.006523800354953472   -0.37694299297681777   -0.011665175821457228
0.01655438639146858   -0.3255293113924878   -0.012792565082120937
-0.010448774818706603   -0.32678458545806555   -0.01273590881789459
0.006523800354953472   -0.37694299297681777   -0.011665175821457228
-0.016190443521646614   -0.3781826307632114   -0.012419656344596883
-0.016818813114118033   -0.3778410299539096   -0.012809175119543607
-0.010448774818706603   -0.32678458545806555   -0.01273590881789459
0.006523800354953472   -0.37694299297681777   -0.011665175821457228
-0.016818813114118033   -0.3778410299539096   -0.012809175119543607
0.01655438639146858   -0.3255293113924878   -0.012792565082120937
0.015417578793269337   -0.32573728004667996   -0.014052010867687075
0.004062349412258399   -0.37701730121123006   -0.014157832513384797
0.04434071932266368   -0.32463242437611317   -0.014692130352501507
0.01597913169799354   -0.3255615601403927   -0.013389081203034933
0.004062349412258399   -0.37701730121123006   -0.014157832513384797
0.02785531251314176   -0.3754879349405364   -0.014979435811129413
0.04434071932266368   -0.32463242437611317   -0.014692130352501507
0.030056563381026635   -0.3750320857814322   -0.01359275802347336
0.01597913169799354   -0.3255615601403927   -0.013389081203034933
0.04583412713785007   -0.3242688490993455   -0.013728350702547805
0.030056563381026635   -0.3750320857814322   -0.01359275802347336
0.04434071932266368   -0.32463242437611317   -0.014692130352501507
0.01597913169799354   -0.3255615601403927   -0.013389081203034933
0.030056563381026635   -0.3750320857814322   -0.01359275802347336
0.004934340770662424   -0.3767801823692863   -0.013251512543615182
0.004062349412258399   -0.37701730121123006   -0.014157832513384797
0.01597913169799354   -0.3255615601403927   -0.013389081203034933
0.030056563381026635   -0.3750320857814322   -0.01359275802347336
0.004062349412258399   -0.37701730121123006   -0.014157832513384797
0.04434071932266368   -0.32463242437611317   -0.014692130352501507
0.01597913169799354   -0.3255615601403927   -0.013389081203034933
0.004934340770662424   -0.3767801823692863   -0.013251512543615182
0.04583412713785007   -0.3242688490993455   -0.013728350702547805
0.01655438639146858   -0.3255293113924878   -0.012792565082120937
0.004934340770662424   -0.3767801823692863   -0.013251512543615182
0.030056563381026635   -0.3750320857814322   -0.01359275802347336
0.04583412713785007   -0.3242688490993455   -0.013728350702547805
0.03174377755960573   -0.3749531810608869   -0.012310415894006102
0.01655438639146858   -0.3255293113924878   -0.012792565082120937
0.046938759118956196   -0.3241693802703086   -0.012852809124714435
0.03174377755960573   -0.3749531810608869   -0.012310415894006102
0.04583412713785007   -0.3242688490993455   -0.013728350702547805
0.01655438639146858   -0.3255293113924878   -0.012792565082120937
0.03174377755960573   -0.3749531810608869   -0.012310415894006102
0.005852365572151096   -0.3767586382763149   -0.012429352293074555
0.004934340770662424   -0.3767801823692863   -0.013251512543615182
0.01655438639146858   -0.3255293113924878   -0.012792565082120937
0.03174377755960573   -0.3749531810608869   -0.012310415894006102
0.004934340770662424   -0.3767801823692863   -0.013251512543615182
0.04583412713785007   -0.3242688490993455   -0.013728350702547805
0.01655438639146858   -0.3255293113924878   -0.012792565082120937
0.005852365572151096   -0.3767586382763149   -0.012429352293074555
0.046938759118956196   -0.3241693802703086   -0.012852809124714435
0.016935985301192873   -0.3256139451078765   -0.012253716652094043
0.005852365572151096   -0.3767586382763149   -0.012429352293074555
0.03174377755960573   -0.3749531810608869   -0.012310415894006102
0.046938759118956196   -0.3241693802703086   -0.012852809124714435
0.03348863473479068   -0.3750872008414703   -0.011142943383517344
0.016935985301192873   -0.3256139451078765   -0.012253716652094043
0.04805641835825231   -0.3241679634663899   -0.012069465461469265
0.03348863473479068   -0.3750872008414703   -0.011142943383517344
0.046938759118956196   -0.3241693802703086   -0.012852809124714435
0.016935985301192873   -0.3256139451078765   -0.012253716652094043
0.03348863473479068   -0.3750872008414703   -0.011142943383517344
0.006523800354953472   -0.37694299297681777   -0.011665175821457228
0.005852365572151096   -0.3767586382763149   -0.012429352293074555
0.016935985301192873   -0.3256139451078765   -0.012253716652094043
0.03348863473479068   -0.3750872008414703   -0.011142943383517344
0.005852365572151096   -0.3767586382763149   -0.012429352293074555
0.046938759118956196   -0.3241693802703086   -0.012852809124714435
-0.08697948365550583   -0.37614013066200175   -0.013742826597790773
-0.07278209231612844   -0.4157842258299871   -0.012463652539310576
-0.061532430094769955   -0.37732960207597444   -0.013655354205745115
-0.08565398249258631   -0.3763961035080279   -0.014527528475653955
-0.07278209231612844   -0.4157842258299871   -0.012463652539310576
-0.05467995663221003   -0.4175497589236699   -0.01299408855701561
-0.061532430094769955   -0.37732960207597444   -0.013655354205745115
-0.05375736350082577   -0.417457395880375   -0.01342637823899339
-0.08565398249258631   -0.3763961035080279   -0.014527528475653955
-0.0608947338901165   -0.3775018866132492   -0.01393610151851845
-0.05375736350082577   -0.417457395880375   -0.01342637823899339
-0.061532430094769955   -0.37732960207597444   -0.013655354205745115
-0.08565398249258631   -0.3763961035080279   -0.014527528475653955
-0.05375736350082577   -0.417457395880375   -0.01342637823899339
-0.07079936746511045   -0.41573359823600875   -0.013629478486472361
-0.07278209231612844   -0.4157842258299871   -0.012463652539310576
-0.08565398249258631   -0.3763961035080279   -0.014527528475653955
-0.05375736350082577   -0.417457395880375   -0.01342637823899339
-0.07278209231612844   -0.4157842258299871   -0.012463652539310576
-0.061532430094769955   -0.37732960207597444   -0.013655354205745115
-0.08565398249258631   -0.3763961035080279   -0.014527528475653955
-0.07079936746511045   -0.41573359823600875   -0.013629478486472361
-0.0608947338901165   -0.3775018866132492   -0.01393610151851845
-0.08433044434490711   -0.3768790246597611   -0.015416678947528985
-0.07079936746511045   -0.41573359823600875   -0.013629478486472361
-0.05375736350082577   -0.417457395880375   -0.01342637823899339
-0.0608947338901165   -0.3775018866132492   -0.01393610151851845
-0.05267321870397322   -0.4177090146597384   -0.013924374933768243
-0.08433044434490711   -0.3768790246597611   -0.015416678947528985
-0.06009388607693765   -0.3779134297985526   -0.014280983794884593
-0.05267321870397322   -0.4177090146597384   -0.013924374933768243
-0.0608947338901165   -0.3775018866132492   -0.01393610151851845
-0.08433044434490711   -0.3768790246597611   -0.015416678947528985
-0.05267321870397322   -0.4177090146597384   -0.013924374933768243
-0.06897071837293713   -0.41604489268629696   -0.014887771426904116
-0.07079936746511045   -0.41573359823600875   -0.013629478486472361
-0.08433044434490711   -0.3768790246597611   -0.015416678947528985
-0.05267321870397322   -0.4177090146597384   -0.013924374933768243
-0.07079936746511045   -0.41573359823600875   -0.013629478486472361
-0.0608947338901165   -0.3775018866132492   -0.01393610151851845
-0.08433044434490711   -0.3768790246597611   -0.015416678947528985
-0.06897071837293713   -0.41604489268629696   -0.014887771426904116
-0.06009388607693765   -0.3779134297985526   -0.014280983794884593
-0.08263467753974525   -0.3777795157488068   -0.016408241899245904
-0.06897071837293713   -0.41604489268629696   -0.014887771426904116
-0.05267321870397322   -0.4177090146597384   -0.013924374933768243
-0.06009388607693765   -0.3779134297985526   -0.014280983794884593
-0.051689633206149846   -0.41831020120007395   -0.014483855840082731
-0.08263467753974525   -0.3777795157488068   -0.016408241899245904
-0.05930343692304765   -0.37858758240057255   -0.014689403084375843
-0.051689633206149846   -0.41831020120007395   -0.014483855840082731
-0.06009388607693765   -0.3779134297985526   -0.014280983794884593
-0.08263467753974525   -0.3777795157488068   -0.016408241899245904
-0.051689633206149846   -0.41831020120007395   -0.014483855840082731
-0.06674106681691144   -0.41687945811173566   -0.0162329725998093
-0.06897071837293713   -0.41604489268629696   -0.014887771426904116
-0.08263467753974525   -0.3777795157488068   -0.016408241899245904
-0.051689633206149846   -0.41831020120007395   -0.014483855840082731
-0.06897071837293713   -0.41604489268629696   -0.014887771426904116
-0.06009388607693765   -0.3779134297985526   -0.014280983794884593
-0.061532430094769955   -0.37732960207597444   -0.013655354205745115
-0.05467995663221003   -0.4175497589236699   -0.01299408855701561
-0.03951578793473131   -0.37788947162034514   -0.013619821758215135
-0.0608947338901165   -0.3775018866132492   -0.01393610151851845
-0.05467995663221003   -0.4175497589236699   -0.01299408855701561
-0.0399113927349905   -0.4187008449946485   -0.013408974993691867
-0.03951578793473131   -0.37788947162034514   -0.013619821758215135
-0.0389637578203507   -0.4185543427329134   -0.01327657352324202
-0.0608947338901165   -0.3775018866132492   -0.01393610151851845
-0.03886101554261993   -0.3779463869941723   -0.013494852434720572
-0.0389637578203507   -0.4185543427329134   -0.01327657352324202
-0.03951578793473131   -0.37788947162034514   -0.013619821758215135
-0.0608947338901165   -0.3775018866132492   -0.01393610151851845
-0.0389637578203507   -0.4185543427329134   -0.01327657352324202
-0.05375736350082577   -0.417457395880375   -0.01342637823899339
-0.05467995663221003   -0.4175497589236699   -0.01299408855701561
-0.0608947338901165   -0.3775018866132492   -0.01393610151851845
-0.0389637578203507   -0.4185543427329134   -0.01327657352324202
-0.05467995663221003   -0.4175497589236699   -0.01299408855701561
-0.03951578793473131   -0.37788947162034514   -0.013619821758215135
-0.0608947338901165   -0.3775018866132492   -0.01393610151851845
-0.05375736350082577   -0.417457395880375   -0.01342637823899339
-0.03886101554261993   -0.3779463869941723   -0.013494852434720572
-0.06009388607693765   -0.3779134297985526   -0.014280983794884593
-0.05375736350082577   -0.417457395880375   -0.01342637823899339
-0.0389637578203507   -0.4185543427329134   -0.01327657352324202
-0.03886101554261993   -0.3779463869941723   -0.013494852434720572
-0.038030012462525686   -0.41870445568117526   -0.013207924783089936
-0.06009388607693765   -0.3779134297985526   -0.014280983794884593
-0.03818540952680323   -0.3782168260893574   -0.013432122064336999
-0.038030012462525686   -0.41870445568117526   -0.013207924783089936
-0.03886101554261993   -0.3779463869941723   -0.013494852434720572
-0.06009388607693765   -0.3779134297985526   -0.014280983794884593
-0.038030012462525686   -0.41870445568117526   -0.013207924783089936
-0.05267321870397322   -0.4177090146597384   -0.013924374933768243
-0.05375736350082577   -0.417457395880375   -0.01342637823899339
-0.06009388607693765   -0.3779134297985526   -0.014280983794884593
-0.038030012462525686   -0.41870445568117526   -0.013207924783089936
-0.05375736350082577   -0.417457395880375   -0.01342637823899339
-0.03886101554261993   -0.3779463869941723   -0.013494852434720572
-0.06009388607693765   -0.3779134297985526   -0.014280983794884593
-0.05267321870397322   -0.4177090146597384   -0.013924374933768243
-0.03818540952680323   -0.3782168260893574   -0.013432122064336999
-0.05930343692304765   -0.37858758240057255   -0.014689403084375843
-0.05267321870397322   -0.4177090146597384   -0.013924374933768243
-0.038030012462525686   -0.41870445568117526   -0.013207924783089936
-0.03818540952680323   -0.3782168260893574   -0.013432122064336999
-0.03717145464412582   -0.41916127760723465   -0.013216483194184708
-0.05930343692304765   -0.37858758240057255   -0.014689403084375843
-0.037511014096693565   -0.3787136242612523   -0.013430751383981655
-0.03717145464412582   -0.41916127760723465   -0.013216483194184708
-0.03818540952680323   -0.3782168260893574   -0.013432122064336999
-0.05930343692304765   -0.37858758240057255   -0.014689403084375843
-0.03717145464412582   -0.41916127760723465   -0.013216483194184708
-0.051689633206149846   -0.41831020120007395   -0.014483855840082731
-0.05267321870397322   -0.4177090146597384   -0.013924374933768243
-0.05930343692304765   -0.37858758240057255   -0.014689403084375843
-0.03717145464412582   -0.41916127760723465   -0.013216483194184708
-0.05267321870397322   -0.4177090146597384   -0.013924374933768243
-0.03818540952680323   -0.3782168260893574   -0.013432122064336999
-0.03951578793473131   -0.37788947162034514   -0.013619821758215135
-0.0399113927349905   -0.4187008449946485   -0.013408974993691867
-0.018231883314435007   -0.37779316040898075   -0.013775634867913436
-0.03886101554261993   -0.3779463869941723   -0.013494852434720572
-0.0399113927349905   -0.4187008449946485   -0.013408974993691867
-0.02576843951634549   -0.41931608157241956   -0.013896950587381069
-0.018231883314435007   -0.37779316040898075   -0.013775634867913436
-0.02469995794004474   -0.41910609319330533   -0.01323241546475172
-0.03886101554261993   -0.3779463869941723   -0.013494852434720572
-0.0175146259595216   -0.3777207067560046   -0.013259238903530321
-0.02469995794004474   -0.41910609319330533   -0.01323241546475172
-0.018231883314435007   -0.37779316040898075   -0.013775634867913436
-0.03886101554261993   -0.3779463869941723   -0.013494852434720572
-0.02469995794004474   -0.41910609319330533   -0.01323241546475172
-0.0389637578203507   -0.4185543427329134   -0.01327657352324202
-0.0399113927349905   -0.4187008449946485   -0.013408974993691867
-0.03886101554261993   -0.3779463869941723   -0.013494852434720572
-0.02469995794004474   -0.41910609319330533   -0.01323241546475172
-0.0399113927349905   -0.4187008449946485   -0.013408974993691867
-0.018231883314435007   -0.37779316040898075   -0.013775634867913436
-0.03886101554261993   -0.3779463869941723   -0.013494852434720572
-0.0389637578203507   -0.4185543427329134   -0.01327657352324202
-0.0175146259595216   -0.3777207067560046   -0.013259238903530321
-0.03818540952680323   -0.3782168260893574   -0.013432122064336999
-0.0389637578203507   -0.4185543427329134   -0.01327657352324202
-0.02469995794004474   -0.41910609319330533   -0.01323241546475172
-0.0175146259595216   -0.3777207067560046   -0.013259238903530321
-0.023681895940172917   -0.4191563502147734   -0.012623986508034967
-0.03818540952680323   -0.3782168260893574   -0.013432122064336999
-0.016818813114118033   -0.3778410299539096   -0.012809175119543607
-0.023681895940172917   -0.4191563502147734   -0.012623986508034967
-0.0175146259595216   -0.3777207067560046   -0.013259238903530321
-0.03818540952680323   -0.3782168260893574   -0.013432122064336999
-0.023681895940172917   -0.4191563502147734   -0.012623986508034967
-0.038030012462525686   -0.41870445568117526   -0.013207924783089936
-0.0389637578203507   -0.4185543427329134   -0.01327657352324202
-0.03818540952680323   -0.3782168260893574   -0.013432122064336999
-0.023681895940172917   -0.4191563502147734   -0.012623986508034967
-0.0389637578203507   -0.4185543427329134   -0.01327657352324202
-0.0175146259595216   -0.3777207067560046   -0.013259238903530321
-0.03818540952680323   -0.3782168260893574   -0.013432122064336999
-0.038030012462525686   -0.41870445568117526   -0.013207924783089936
-0.016818813114118033   -0.3778410299539096   -0.012809175119543607
-0.037511014096693565   -0.3787136242612523   -0.013430751383981655
-0.038030012462525686   -0.41870445568117526   -0.013207924783089936
-0.023681895940172917   -0.4191563502147734   -0.012623986508034967
-0.016818813114118033   -0.3778410299539096   -0.012809175119543607
-0.02283610395350706   -0.4195186241408411   -0.01210729026816969
-0.037511014096693565   -0.3787136242612523   -0.013430751383981655
-0.016190443521646614   -0.3781826307632114   -0.012419656344596883
-0.02283610395350706   -0.4195186241408411   -0.01210729026816969
-0.016818813114118033   -0.3778410299539096   -0.012809175119543607
-0.037511014096693565   -0.3787136242612523   -0.013430751383981655
-0.02283610395350706   -0.4195186241408411   -0.01210729026816969
-0.03717145464412582   -0.41916127760723465   -0.013216483194184708
-0.038030012462525686   -0.41870445568117526   -0.013207924783089936
-0.037511014096693565   -0.3787136242612523   -0.013430751383981655
-0.02283610395350706   -0.4195186241408411   -0.01210729026816969
-0.038030012462525686   -0.41870445568117526   -0.013207924783089936
-0.016818813114118033   -0.3778410299539096   -0.012809175119543607
-0.018231883314435007   -0.37779316040898075   -0.013775634867913436
-0.02576843951634549   -0.41931608157241956   -0.013896950587381069
0.004062349412258399   -0.37701730121123006   -0.014157832513384797
-0.0175146259595216   -0.3777207067560046   -0.013259238903530321
-0.02576843951634549   -0.41931608157241956   -0.013896950587381069
-0.01071234215695649   -0.4191830993711241   -0.014469801643179176
0.004062349412258399   -0.37701730121123006   -0.014157832513384797
-0.009340534731226204   -0.4188542770908723   -0.01329676339684924
-0.0175146259595216   -0.3777207067560046   -0.013259238903530321
0.004934340770662424   -0.3767801823692863   -0.013251512543615182
-0.009340534731226204   -0.4188542770908723   -0.01329676339684924
0.004062349412258399   -0.37701730121123006   -0.014157832513384797
-0.0175146259595216   -0.3777207067560046   -0.013259238903530321
-0.009340534731226204   -0.4188542770908723   -0.01329676339684924
-0.02469995794004474   -0.41910609319330533   -0.01323241546475172
-0.02576843951634549   -0.41931608157241956   -0.013896950587381069
-0.0175146259595216   -0.3777207067560046   -0.013259238903530321
-0.009340534731226204   -0.4188542770908723   -0.01329676339684924
-0.02576843951634549   -0.41931608157241956   -0.013896950587381069
0.004062349412258399   -0.37701730121123006   -0.014157832513384797
-0.0175146259595216   -0.3777207067560046   -0.013259238903530321
-0.02469995794004474   -0.41910609319330533   -0.01323241546475172
0.004934340770662424   -0.3767801823692863   -0.013251512543615182
-0.016818813114118033   -0.3778410299539096   -0.012809175119543607
-0.02469995794004474   -0.41910609319330533   -0.01323241546475172
-0.009340534731226204   -0.4188542770908723   -0.01329676339684924
0.004934340770662424   -0.3767801823692863   -0.013251512543615182
-0.007940146207372125   -0.4187949892818794   -0.012183893686315192
-0.016818813114118033   -0.3778410299539096   -0.012809175119543607
0.005852365572151096   -0.3767586382763149   -0.012429352293074555
-0.007940146207372125   -0.4187949892818794   -0.012183893686315192
0.004934340770662424   -0.3767801823692863   -0.013251512543615182
-0.016818813114118033   -0.3778410299539096   -0.012809175119543607
-0.007940146207372125   -0.4187949892818794   -0.012183893686315192
-0.023681895940172917   -0.4191563502147734   -0.012623986508034967
-0.02469995794004474   -0.41910609319330533   -0.01323241546475172
-0.016818813114118033   -0.3778410299539096   -0.012809175119543607
-0.007940146207372125   -0.4187949892818794   -0.012183893686315192
-0.02469995794004474   -0.41910609319330533   -0.01323241546475172
0.004934340770662424   -0.3767801823692863   -0.013251512543615182
-0.016818813114118033   -0.3778410299539096   -0.012809175119543607
-0.023681895940172917   -0.4191563502147734   -0.012623986508034967
0.005852365572151096   -0.3767586382763149   -0.012429352293074555
-0.016190443521646614   -0.3781826307632114   -0.012419656344596883
-0.023681895940172917   -0.4191563502147734   -0.012623986508034967
-0.007940146207372125   -0.4187949892818794   -0.012183893686315192
0.005852365572151096   -0.3767586382763149   -0.012429352293074555
-0.006901633723900615   -0.4190642768813319   -0.01117425616813035
-0.016190443521646614   -0.3781826307632114   -0.012419656344596883
0.006523800354953472   -0.37694299297681777   -0.011665175821457228
-0.006901633723900615   -0.4190642768813319   -0.01117425616813035
0.005852365572151096   -0.3767586382763149   -0.012429352293074555
-0.016190443521646614   -0.3781826307632114   -0.012419656344596883
-0.006901633723900615   -0.4190642768813319   -0.01117425616813035
-0.02283610395350706   -0.4195186241408411   -0.01210729026816969
-0.023681895940172917   -0.4191563502147734   -0.012623986508034967
-0.016190443521646614   -0.3781826307632114   -0.012419656344596883
-0.006901633723900615   -0.4190642768813319   -0.01117425616813035
-0.023681895940172917   -0.4191563502147734   -0.012623986508034967
0.005852365572151096   -0.3767586382763149   -0.012429352293074555
0.004062349412258399   -0.37701730121123006   -0.014157832513384797
-0.01071234215695649   -0.4191830993711241   -0.014469801643179176
0.02785531251314176   -0.3754879349405364   -0.014979435811129413
0.004934340770662424   -0.3767801823692863   -0.013251512543615182
-0.01071234215695649   -0.4191830993711241   -0.014469801643179176
0.005525246316523581   -0.41774375229140126   -0.015650528583801542
0.02785531251314176   -0.3754879349405364   -0.014979435811129413
0.0087060818241505   -0.41702604064957044   -0.01373053695414914
0.004934340770662424   -0.3767801823692863   -0.013251512543615182
0.030056563381026635   -0.3750320857814322   -0.01359275802347336
0.0087060818241505   -0.41702604064957044   -0.01373053695414914
0.02785531251314176   -0.3754879349405364   -0.014979435811129413
0.004934340770662424   -0.3767801823692863   -0.013251512543615182
0.0087060818241505   -0.41702604064957044   -0.01373053695414914
-0.009340534731226204   -0.4188542770908723   -0.01329676339684924
-0.01071234215695649   -0.4191830993711241   -0.014469801643179176
0.004934340770662424   -0.3767801823692863   -0.013251512543615182
0.0087060818241505   -0.41702604064957044   -0.01373053695414914
-0.01071234215695649   -0.4191830993711241   -0.014469801643179176
0.02785531251314176   -0.3754879349405364   -0.014979435811129413
0.004934340770662424   -0.3767801823692863   -0.013251512543615182
-0.009340534731226204   -0.4188542770908723   -0.01329676339684924
0.030056563381026635   -0.3750320857814322   -0.01359275802347336
0.005852365572151096   -0.3767586382763149   -0.012429352293074555
-0.009340534731226204   -0.4188542770908723   -0.01329676339684924
0.0087060818241505   -0.41702604064957044   -0.01373053695414914
0.030056563381026635   -0.3750320857814322   -0.01359275802347336
0.011206728111381917   -0.4168796315710633   -0.011929156632519197
0.005852365572151096   -0.3767586382763149   -0.012429352293074555
0.03174377755960573   -0.3749531810608869   -0.012310415894006102
0.011206728111381917   -0.4168796315710633   -0.011929156632519197
0.030056563381026635   -0.3750320857814322   -0.01359275802347336
0.005852365572151096   -0.3767586382763149   -0.012429352293074555
0.011206728111381917   -0.4168796315710633   -0.011929156632519197
-0.007940146207372125   -0.4187949892818794   -0.012183893686315192
-0.009340534731226204   -0.4188542770908723   -0.01329676339684924
0.005852365572151096   -0.3767586382763149   -0.012429352293074555
0.011206728111381917   -0.4168796315710633   -0.011929156632519197
-0.009340534731226204   -0.4188542770908723   -0.01329676339684924
0.030056563381026635   -0.3750320857814322   -0.01359275802347336
0.005852365572151096   -0.3767586382763149   -0.012429352293074555
-0.007940146207372125   -0.4187949892818794   -0.012183893686315192
0.03174377755960573   -0.3749531810608869   -0.012310415894006102
0.006523800354953472   -0.37694299297681777   -0.011665175821457228
-0.007940146207372125   -0.4187949892818794   -0.012183893686315192
0.011206728111381917   -0.4168796315710633   -0.011929156632519197
0.03174377755960573   -0.3749531810608869   -0.012310415894006102
0.013801288131598073   -0.41699745926414844   -0.01028565219917748
0.006523800354953472   -0.37694299297681777   -0.011665175821457228
0.03348863473479068   -0.3750872008414703   -0.011142943383517344
0.013801288131598073   -0.41699745926414844   -0.01028565219917748
0.03174377755960573   -0.3749531810608869   -0.012310415894006102
0.006523800354953472   -0.37694299297681777   -0.011665175821457228
0.013801288131598073   -0.41699745926414844   -0.01028565219917748
-0.006901633723900615   -0.4190642768813319   -0.01117425616813035
-0.007940146207372125   -0.4187949892818794   -0.012183893686315192
0.006523800354953472   -0.37694299297681777   -0.011665175821457228
0.013801288131598073   -0.41699745926414844   -0.01028565219917748
-0.007940146207372125   -0.4187949892818794   -0.012183893686315192
0.03174377755960573   -0.3749531810608869   -0.012310415894006102
-0.07278209231612844   -0.4157842258299871   -0.012463652539310576
-0.05322560519827479   -0.4393199809699869   -0.010963266612706971
-0.05467995663221003   -0.4175497589236699   -0.01299408855701561
-0.07079936746511045   -0.41573359823600875   -0.013629478486472361
-0.05322560519827479   -0.4393199809699869   -0.010963266612706971
-0.04483834180421305   -0.44155612680534323   -0.012311618505403507
-0.05467995663221003   -0.4175497589236699   -0.01299408855701561
-0.043671512106279786   -0.4411109482222467   -0.012770411526953965
-0.07079936746511045   -0.41573359823600875   -0.013629478486472361
-0.05375736350082577   -0.417457395880375   -0.01342637823899339
-0.043671512106279786   -0.4411109482222467   -0.012770411526953965
-0.05467995663221003   -0.4175497589236699   -0.01299408855701561
-0.07079936746511045   -0.41573359823600875   -0.013629478486472361
-0.043671512106279786   -0.4411109482222467   -0.012770411526953965
-0.050750658637167836   -0.438818885948131   -0.012362758432877301
-0.05322560519827479   -0.4393199809699869   -0.010963266612706971
-0.07079936746511045   -0.41573359823600875   -0.013629478486472361
-0.043671512106279786   -0.4411109482222467   -0.012770411526953965
-0.05322560519827479   -0.4393199809699869   -0.010963266612706971
-0.05467995663221003   -0.4175497589236699   -0.01299408855701561
-0.07079936746511045   -0.41573359823600875   -0.013629478486472361
-0.050750658637167836   -0.438818885948131   -0.012362758432877301
-0.05375736350082577   -0.417457395880375   -0.01342637823899339
-0.06897071837293713   -0.41604489268629696   -0.014887771426904116
-0.050750658637167836   -0.438818885948131   -0.012362758432877301
-0.043671512106279786   -0.4411109482222467   -0.012770411526953965
-0.05375736350082577   -0.417457395880375   -0.01342637823899339
-0.042380838499381235   -0.44112853155973564   -0.01323377755848378
-0.06897071837293713   -0.41604489268629696   -0.014887771426904116
-0.05267321870397322   -0.4177090146597384   -0.013924374933768243
-0.042380838499381235   -0.44112853155973564   -0.01323377755848378
-0.05375736350082577   -0.417457395880375   -0.01342637823899339
-0.06897071837293713   -0.41604489268629696   -0.014887771426904116
-0.042380838499381235   -0.44112853155973564   -0.01323377755848378
-0.048614867568048184   -0.43885679183330195   -0.013756470995404836
-0.050750658637167836   -0.438818885948131   -0.012362758432877301
-0.06897071837293713   -0.41604489268629696   -0.014887771426904116
-0.042380838499381235   -0.44112853155973564   -0.01323377755848378
-0.050750658637167836   -0.438818885948131   -0.012362758432877301
-0.05375736350082577   -0.417457395880375   -0.01342637823899339
-0.06897071837293713   -0.41604489268629696   -0.014887771426904116
-0.048614867568048184   -0.43885679183330195   -0.013756470995404836
-0.05267321870397322   -0.4177090146597384   -0.013924374933768243
-0.06674106681691144   -0.41687945811173566   -0.0162329725998093
-0.048614867568048184   -0.43885679183330195   -0.013756470995404836
-0.042380838499381235   -0.44112853155973564   -0.01323377755848378
-0.05267321870397322   -0.4177090146597384   -0.013924374933768243
-0.04118092273422878   -0.4416108192824962   -0.01370366709037697
-0.06674106681691144   -0.41687945811173566   -0.0162329725998093
-0.051689633206149846   -0.41831020120007395   -0.014483855840082731
-0.04118092273422878   -0.4416108192824962   -0.01370366709037697
-0.05267321870397322   -0.4177090146597384   -0.013924374933768243
-0.06674106681691144   -0.41687945811173566   -0.0162329725998093
-0.04118092273422878   -0.4416108192824962   -0.01370366709037697
-0.046082832153365845   -0.4394641733492096   -0.015180327361270271
-0.048614867568048184   -0.43885679183330195   -0.013756470995404836
-0.06674106681691144   -0.41687945811173566   -0.0162329725998093
-0.04118092273422878   -0.4416108192824962   -0.01370366709037697
-0.048614867568048184   -0.43885679183330195   -0.013756470995404836
-0.05267321870397322   -0.4177090146597384   -0.013924374933768243
-0.05467995663221003   -0.4175497589236699   -0.01299408855701561
-0.04483834180421305   -0.44155612680534323   -0.012311618505403507
-0.0399113927349905   -0.4187008449946485   -0.013408974993691867
-0.05375736350082577   -0.417457395880375   -0.01342637823899339
-0.04483834180421305   -0.44155612680534323   -0.012311618505403507
-0.03871317661116696   -0.44381630212208334   -0.013504407950750263
-0.0399113927349905   -0.4187008449946485   -0.013408974993691867
-0.03748052353420318   -0.4433603805460899   -0.013178354124476106
-0.05375736350082577   -0.417457395880375   -0.01342637823899339
-0.0389637578203507   -0.4185543427329134   -0.01327657352324202
-0.03748052353420318   -0.4433603805460899   -0.013178354124476106
-0.0399113927349905   -0.4187008449946485   -0.013408974993691867
-0.05375736350082577   -0.417457395880375   -0.01342637823899339
-0.03748052353420318   -0.4433603805460899   -0.013178354124476106
-0.043671512106279786   -0.4411109482222467   -0.012770411526953965
-0.04483834180421305   -0.44155612680534323   -0.012311618505403507
-0.05375736350082577   -0.417457395880375   -0.01342637823899339
-0.03748052353420318   -0.4433603805460899   -0.013178354124476106
-0.04483834180421305   -0.44155612680534323   -0.012311618505403507
-0.0399113927349905   -0.4187008449946485   -0.013408974993691867
-0.05375736350082577   -0.417457395880375   -0.01342637823899339
-0.043671512106279786   -0.4411109482222467   -0.012770411526953965
-0.0389637578203507   -0.4185543427329134   -0.01327657352324202
-0.05267321870397322   -0.4177090146597384   -0.013924374933768243
-0.043671512106279786   -0.4411109482222467   -0.012770411526953965
-0.03748052353420318   -0.4433603805460899   -0.013178354124476106
-0.0389637578203507   -0.4185543427329134   -0.01327657352324202
-0.036289456846827085   -0.44334891705379825   -0.012848135217839483
-0.05267321870397322   -0.4177090146597384   -0.013924374933768243
-0.038030012462525686   -0.41870445568117526   -0.013207924783089936
-0.036289456846827085   -0.44334891705379825   -0.012848135217839483
-0.0389637578203507   -0.4185543427329134   -0.01327657352324202
-0.05267321870397322   -0.4177090146597384   -0.013924374933768243
-0.036289456846827085   -0.44334891705379825   -0.012848135217839483
-0.042380838499381235   -0.44112853155973564   -0.01323377755848378
-0.043671512106279786   -0.4411109482222467   -0.012770411526953965
-0.05267321870397322   -0.4177090146597384   -0.013924374933768243
-0.036289456846827085   -0.44334891705379825   -0.012848135217839483
-0.043671512106279786   -0.4411109482222467   -0.012770411526953965
-0.0389637578203507   -0.4185543427329134   -0.01327657352324202
-0.05267321870397322   -0.4177090146597384   -0.013924374933768243
-0.042380838499381235   -0.44112853155973564   -0.01323377755848378
-0.038030012462525686   -0.41870445568117526   -0.013207924783089936
-0.051689633206149846   -0.41831020120007395   -0.014483855840082731
-0.042380838499381235   -0.44112853155973564   -0.01323377755848378
-0.036289456846827085   -0.44334891705379825   -0.012848135217839483
-0.038030012462525686   -0.41870445568117526   -0.013207924783089936
-0.035047158748165344   -0.44377242992855914   -0.012530687393964264
-0.051689633206149846   -0.41831020120007395   -0.014483855840082731
-0.03717145464412582   -0.41916127760723465   -0.013216483194184708
-0.035047158748165344   -0.44377242992855914   -0.012530687393964264
-0.038030012462525686   -0.41870445568117526   -0.013207924783089936
-0.051689633206149846   -0.41831020120007395   -0.014483855840082731
-0.035047158748165344   -0.44377242992855914   -0.012530687393964264
-0.04118092273422878   -0.4416108192824962   -0.01370366709037697
-0.042380838499381235   -0.44112853155973564   -0.01323377755848378
-0.051689633206149846   -0.41831020120007395   -0.014483855840082731
-0.035047158748165344   -0.44377242992855914   -0.012530687393964264
-0.042380838499381235   -0.44112853155973564   -0.01323377755848378
-0.038030012462525686   -0.41870445568117526   -0.013207924783089936
-0.0399113927349905   -0.4187008449946485   -0.013408974993691867
-0.03871317661116696   -0.44381630212208334   -0.013504407950750263
-0.02576843951634549   -0.41931608157241956   -0.013896950587381069
-0.0389637578203507   -0.4185543427329134   -0.01327657352324202
-0.03871317661116696   -0.44381630212208334   -0.013504407950750263
-0.033125522473393766   -0.446560711154084   -0.014815642248715144
-0.02576843951634549   -0.41931608157241956   -0.013896950587381069
-0.0316134021091482   -0.4461668032530035   -0.013660375046986811
-0.0389637578203507   -0.4185543427329134   -0.01327657352324202
-0.02469995794004474   -0.41910609319330533   -0.01323241546475172
-0.0316134021091482   -0.4461668032530035   -0.013660375046986811
-0.02576843951634549   -0.41931608157241956   -0.013896950587381069
-0.0389637578203507   -0.4185543427329134   -0.01327657352324202
-0.0316134021091482   -0.4461668032530035   -0.013660375046986811
-0.03748052353420318   -0.4433603805460899   -0.013178354124476106
-0.03871317661116696   -0.44381630212208334   -0.013504407950750263
-0.0389637578203507   -0.4185543427329134   -0.01327657352324202
-0.0316134021091482   -0.4461668032530035   -0.013660375046986811
-0.03871317661116696   -0.44381630212208334   -0.013504407950750263
-0.02576843951634549   -0.41931608157241956   -0.013896950587381069
-0.0389637578203507   -0.4185543427329134   -0.01327657352324202
-0.03748052353420318   -0.4433603805460899   -0.013178354124476106
-0.02469995794004474   -0.41910609319330533   -0.01323241546475172
-0.038030012462525686   -0.41870445568117526   -0.013207924783089936
-0.03748052353420318   -0.4433603805460899   -0.013178354124476106
-0.0316134021091482   -0.4461668032530035   -0.013660375046986811
-0.02469995794004474   -0.41910609319330533   -0.01323241546475172
-0.03021342688609067   -0.44614380355480276   -0.012509692199504796
-0.038030012462525686   -0.41870445568117526   -0.013207924783089936
-0.023681895940172917   -0.4191563502147734   -0.012623986508034967
-0.03021342688609067   -0.44614380355480276   -0.012509692199504796
-0.02469995794004474   -0.41910609319330533   -0.01323241546475172
-0.038030012462525686   -0.41870445568117526   -0.013207924783089936
-0.03021342688609067   -0.44614380355480276   -0.012509692199504796
-0.036289456846827085   -0.44334891705379825   -0.012848135217839483
-0.03748052353420318   -0.4433603805460899   -0.013178354124476106
-0.038030012462525686   -0.41870445568117526   -0.013207924783089936
-0.03021342688609067   -0.44614380355480276   -0.012509692199504796
-0.03748052353420318   -0.4433603805460899   -0.013178354124476106
-0.02469995794004474   -0.41910609319330533   -0.01323241546475172
-0.038030012462525686   -0.41870445568117526   -0.013207924783089936
-0.036289456846827085   -0.44334891705379825   -0.012848135217839483
-0.023681895940172917   -0.4191563502147734   -0.012623986508034967
-0.03717145464412582   -0.41916127760723465   -0.013216483194184708
-0.036289456846827085   -0.44334891705379825   -0.012848135217839483
-0.03021342688609067   -0.44614380355480276   -0.012509692199504796
-0.023681895940172917   -0.4191563502147734   -0.012623986508034967
-0.028708932535139054   -0.4464711785259903   -0.011355289795534207
-0.03717145464412582   -0.41916127760723465   -0.013216483194184708
-0.02283610395350706   -0.4195186241408411   -0.01210729026816969
-0.028708932535139054   -0.4464711785259903   -0.011355289795534207
-0.023681895940172917   -0.4191563502147734   -0.012623986508034967
-0.03717145464412582   -0.41916127760723465   -0.013216483194184708
-0.028708932535139054   -0.4464711785259903   -0.011355289795534207
-0.035047158748165344   -0.44377242992855914   -0.012530687393964264
-0.036289456846827085   -0.44334891705379825   -0.012848135217839483
-0.03717145464412582   -0.41916127760723465   -0.013216483194184708
-0.028708932535139054   -0.4464711785259903   -0.011355289795534207
-0.036289456846827085   -0.44334891705379825   -0.012848135217839483
-0.023681895940172917   -0.4191563502147734   -0.012623986508034967
-0.02576843951634549   -0.41931608157241956   -0.013896950587381069
-0.033125522473393766   -0.446560711154084   -0.014815642248715144
-0.01071234215695649   -0.4191830993711241   -0.014469801643179176
-0.02469995794004474   -0.41910609319330533   -0.01323241546475172
-0.033125522473393766   -0.446560711154084   -0.014815642248715144
-0.027626330685227147   -0.45   -0.015814106781560776
-0.01071234215695649   -0.4191830993711241   -0.014469801643179176
-0.025726992233141874   -0.45   -0.014066464859246976
-0.02469995794004474   -0.41910609319330533   -0.01323241546475172
-0.009340534731226204   -0.4188542770908723   -0.01329676339684924
-0.025726992233141874   -0.45   -0.014066464859246976
-0.01071234215695649   -0.4191830993711241   -0.014469801643179176
-0.02469995794004474   -0.41910609319330533   -0.01323241546475172
-0.025726992233141874   -0.45   -0.014066464859246976
-0.0316134021091482   -0.4461668032530035   -0.013660375046986811
-0.033125522473393766   -0.446560711154084   -0.014815642248715144
-0.02469995794004474   -0.41910609319330533   -0.01323241546475172
-0.025726992233141874   -0.45   -0.014066464859246976
-0.033125522473393766   -0.446560711154084   -0.014815642248715144
-0.01071234215695649   -0.4191830993711241   -0.014469801643179176
-0.02469995794004474   -0.41910609319330533   -0.01323241546475172
-0.0316134021091482   -0.4461668032530035   -0.013660375046986811
-0.009340534731226204   -0.4188542770908723   -0.01329676339684924
-0.023681895940172917   -0.4191563502147734   -0.012623986508034967
-0.0316134021091482   -0.4461668032530035   -0.013660375046986811
-0.025726992233141874   -0.45   -0.014066464859246976
-0.009340534731226204   -0.4188542770908723   -0.01329676339684924
-0.023820662317820616   -0.45   -0.012298028124883746
-0.023681895940172917   -0.4191563502147734   -0.012623986508034967
-0.007940146207372125   -0.4187949892818794   -0.012183893686315192
-0.023820662317820616   -0.45   -0.012298028124883746
-0.009340534731226204   -0.4188542770908723   -0.01329676339684924
-0.023681895940172917   -0.4191563502147734   -0.012623986508034967
-0.023820662317820616   -0.45   -0.012298028124883746
-0.03021342688609067   -0.44614380355480276   -0.012509692199504796
-0.0316134021091482   -0.4461668032530035   -0.013660375046986811
-0.023681895940172917   -0.4191563502147734   -0.012623986508034967
-0.023820662317820616   -0.45   -0.012298028124883746
-0.0316134021091482   -0.4461668032530035   -0.013660375046986811
-0.009340534731226204   -0.4188542770908723   -0.01329676339684924
-0.023681895940172917   -0.4191563502147734   -0.012623986508034967
-0.03021342688609067   -0.44614380355480276   -0.012509692199504796
-0.007940146207372125   -0.4187949892818794   -0.012183893686315192
-0.02283610395350706   -0.4195186241408411   -0.01210729026816969
-0.03021342688609067   -0.44614380355480276   -0.012509692199504796
-0.023820662317820616   -0.45   -0.012298028124883746
-0.007940146207372125   -0.4187949892818794   -0.012183893686315192
-0.021954625697535667   -0.45   -0.010552795623220923
-0.02283610395350706   -0.4195186241408411   -0.01210729026816969
-0.006901633723900615   -0.4190642768813319   -0.01117425616813035
-0.021954625697535667   -0.45   -0.010552795623220923
-0.007940146207372125   -0.4187949892818794   -0.012183893686315192
-0.02283610395350706   -0.4195186241408411   -0.01210729026816969
-0.021954625697535667   -0.45   -0.010552795623220923
-0.028708932535139054   -0.4464711785259903   -0.011355289795534207
-0.03021342688609067   -0.44614380355480276   -0.012509692199504796
-0.02283610395350706   -0.4195186241408411   -0.01210729026816969
-0.021954625697535667   -0.45   -0.010552795623220923
-0.03021342688609067   -0.44614380355480276   -0.012509692199504796
-0.007940146207372125   -0.4187949892818794   -0.012183893686315192
-0.01071234215695649   -0.4191830993711241   -0.014469801643179176
-0.027626330685227147   -0.45   -0.015814106781560776
0.005525246316523581   -0.41774375229140126   -0.015650528583801542
-0.009340534731226204   -0.4188542770908723   -0.01329676339684924
-0.027626330685227147   -0.45   -0.015814106781560776
-0.023659566188978756   -0.45   -0.017023410855770745
0.005525246316523581   -0.41774375229140126   -0.015650528583801542
-0.019704790296272867   -0.45   -0.0144987977942265
-0.009340534731226204   -0.4188542770908723   -0.01329676339684924
0.0087060818241505   -0.41702604064957044   -0.01373053695414914
-0.019704790296272867   -0.45   -0.0144987977942265
0.005525246316523581   -0.41774375229140126   -0.015650528583801542
-0.009340534731226204   -0.4188542770908723   -0.01329676339684924
-0.019704790296272867   -0.45   -0.0144987977942265
-0.025726992233141874   -0.45   -0.014066464859246976
-0.027626330685227147   -0.45   -0.015814106781560776
-0.009340534731226204   -0.4188542770908723   -0.01329676339684924
-0.019704790296272867   -0.45   -0.0144987977942265
-0.027626330685227147   -0.45   -0.015814106781560776
0.005525246316523581   -0.41774375229140126   -0.015650528583801542
-0.009340534731226204   -0.4188542770908723   -0.01329676339684924
-0.025726992233141874   -0.45   -0.014066464859246976
0.0087060818241505   -0.41702604064957044   -0.01373053695414914
-0.007940146207372125   -0.4187949892818794   -0.012183893686315192
-0.025726992233141874   -0.45   -0.014066464859246976
-0.019704790296272867   -0.45   -0.0144987977942265
0.0087060818241505   -0.41702604064957044   -0.01373053695414914
-0.016550748073940944   -0.45   -0.012083480766338646
-0.007940146207372125   -0.4187949892818794   -0.012183893686315192
0.011206728111381917   -0.4168796315710633   -0.011929156632519197
-0.016550748073940944   -0.45   -0.012083480766338646
0.0087060818241505   -0.41702604064957044   -0.01373053695414914
-0.007940146207372125   -0.4187949892818794   -0.012183893686315192
-0.016550748073940944   -0.45   -0.012083480766338646
-0.023820662317820616   -0.45   -0.012298028124883746
-0.025726992233141874   -0.45   -0.014066464859246976
-0.007940146207372125   -0.4187949892818794   -0.012183893686315192
-0.016550748073940944   -0.45   -0.012083480766338646
-0.025726992233141874   -0.45   -0.014066464859246976
0.0087060818241505   -0.41702604064957044   -0.01373053695414914
-0.007940146207372125   -0.4187949892818794   -0.012183893686315192
-0.023820662317820616   -0.45   -0.012298028124883746
0.011206728111381917   -0.4168796315710633   -0.011929156632519197
-0.006901633723900615   -0.4190642768813319   -0.01117425616813035
-0.023820662317820616   -0.45   -0.012298028124883746
-0.016550748073940944   -0.45   -0.012083480766338646
0.011206728111381917   -0.4168796315710633   -0.011929156632519197
-0.01265387666944194   -0.45   -0.009576292338883692
-0.006901633723900615   -0.4190642768813319   -0.01117425616813035
0.013801288131598073   -0.41699745926414844   -0.01028565219917748
-0.01265387666944194   -0.45   -0.009576292338883692
0.011206728111381917   -0.4168796315710633   -0.011929156632519197
-0.006901633723900615   -0.4190642768813319   -0.01117425616813035
-0.01265387666944194   -0.45   -0.009576292338883692
-0.021954625697535667   -0.45   -0.010552795623220923
-0.023820662317820616   -0.45   -0.012298028124883746
-0.006901633723900615   -0.4190642768813319   -0.01117425616813035
-0.01265387666944194   -0.45   -0.009576292338883692
-0.023820662317820616   -0.45   -0.012298028124883746
0.011206728111381917   -0.4168796315710633   -0.011929156632519197
-0.05322560519827479   -0.4393199809699869   -0.010963266612706971
-0.031588547673945026   -0.4403619829189823   -0.009380455335142476
-0.04483834180421305   -0.44155612680534323   -0.012311618505403507
-0.050750658637167836   -0.438818885948131   -0.012362758432877301
-0.031588547673945026   -0.4403619829189823   -0.009380455335142476
-0.033598440365202924   -0.4420787065180574   -0.011116117697951348
-0.04483834180421305   -0.44155612680534323   -0.012311618505403507
-0.0327172061845447   -0.44147150747827374   -0.011744339503461241
-0.050750658637167836   -0.438818885948131   -0.012362758432877301
-0.043671512106279786   -0.4411109482222467   -0.012770411526953965
-0.0327172061845447   -0.44147150747827374   -0.011744339503461241
-0.04483834180421305   -0.44155612680534323   -0.012311618505403507
-0.050750658637167836   -0.438818885948131   -0.012362758432877301
-0.0327172061845447   -0.44147150747827374   -0.011744339503461241
-0.029348933223607158   -0.4395828357092688   -0.010850389165140358
-0.031588547673945026   -0.4403619829189823   -0.009380455335142476
-0.050750658637167836   -0.438818885948131   -0.012362758432877301
-0.0327172061845447   -0.44147150747827374   -0.011744339503461241
-0.031588547673945026   -0.4403619829189823   -0.009380455335142476
-0.04483834180421305   -0.44155612680534323   -0.012311618505403507
-0.050750658637167836   -0.438818885948131   -0.012362758432877301
-0.029348933223607158   -0.4395828357092688   -0.010850389165140358
-0.043671512106279786   -0.4411109482222467   -0.012770411526953965
-0.048614867568048184   -0.43885679183330195   -0.013756470995404836
-0.029348933223607158   -0.4395828357092688   -0.010850389165140358
-0.0327172061845447   -0.44147150747827374   -0.011744339503461241
-0.043671512106279786   -0.4411109482222467   -0.012770411526953965
-0.03168462491005194   -0.44124287600389633   -0.012323212412924082
-0.048614867568048184   -0.43885679183330195   -0.013756470995404836
-0.042380838499381235   -0.44112853155973564   -0.01323377755848378
-0.03168462491005194   -0.44124287600389633   -0.012323212412924082
-0.043671512106279786   -0.4411109482222467   -0.012770411526953965
-0.048614867568048184   -0.43885679183330195   -0.013756470995404836
-0.03168462491005194   -0.44124287600389633   -0.012323212412924082
-0.027484294810243278   -0.4393379013137543   -0.012259043538918716
-0.029348933223607158   -0.4395828357092688   -0.010850389165140358
-0.048614867568048184   -0.43885679183330195   -0.013756470995404836
-0.03168462491005194   -0.44124287600389633   -0.012323212412924082
-0.029348933223607158   -0.4395828357092688   -0.010850389165140358
-0.043671512106279786   -0.4411109482222467   -0.012770411526953965
-0.048614867568048184   -0.43885679183330195   -0.013756470995404836
-0.027484294810243278   -0.4393379013137543   -0.012259043538918716
-0.042380838499381235   -0.44112853155973564   -0.01323377755848378
-0.046082832153365845   -0.4394641733492096   -0.015180327361270271
-0.027484294810243278   -0.4393379013137543   -0.012259043538918716
-0.03168462491005194   -0.44124287600389633   -0.012323212412924082
-0.042380838499381235   -0.44112853155973564   -0.01323377755848378
-0.03079944600062328   -0.4413959131873947   -0.0128496316597234
-0.046082832153365845   -0.4394641733492096   -0.015180327361270271
-0.04118092273422878   -0.4416108192824962   -0.01370366709037697
-0.03079944600062328   -0.4413959131873947   -0.0128496316597234
-0.042380838499381235   -0.44112853155973564   -0.01323377755848378
-0.046082832153365845   -0.4394641733492096   -0.015180327361270271
-0.03079944600062328   -0.4413959131873947   -0.0128496316597234
-0.02537701442366989   -0.4395290522196858   -0.01360000086618021
-0.027484294810243278   -0.4393379013137543   -0.012259043538918716
-0.046082832153365845   -0.4394641733492096   -0.015180327361270271
-0.03079944600062328   -0.4413959131873947   -0.0128496316597234
-0.027484294810243278   -0.4393379013137543   -0.012259043538918716
-0.042380838499381235   -0.44112853155973564   -0.01323377755848378
-0.04483834180421305   -0.44155612680534323   -0.012311618505403507
-0.033598440365202924   -0.4420787065180574   -0.011116117697951348
-0.03871317661116696   -0.44381630212208334   -0.013504407950750263
-0.043671512106279786   -0.4411109482222467   -0.012770411526953965
-0.033598440365202924   -0.4420787065180574   -0.011116117697951348
-0.03627987195633803   -0.44314753485986663   -0.01250499647981161
-0.03871317661116696   -0.44381630212208334   -0.013504407950750263
-0.035499275470227326   -0.4426056614533112   -0.012522507277652988
-0.043671512106279786   -0.4411109482222467   -0.012770411526953965
-0.03748052353420318   -0.4433603805460899   -0.013178354124476106
-0.035499275470227326   -0.4426056614533112   -0.012522507277652988
-0.03871317661116696   -0.44381630212208334   -0.013504407950750263
-0.043671512106279786   -0.4411109482222467   -0.012770411526953965
-0.035499275470227326   -0.4426056614533112   -0.012522507277652988
-0.0327172061845447   -0.44147150747827374   -0.011744339503461241
-0.033598440365202924   -0.4420787065180574   -0.011116117697951348
-0.043671512106279786   -0.4411109482222467   -0.012770411526953965
-0.035499275470227326   -0.4426056614533112   -0.012522507277652988
-0.033598440365202924   -0.4420787065180574   -0.011116117697951348
-0.03871317661116696   -0.44381630212208334   -0.013504407950750263
-0.043671512106279786   -0.4411109482222467   -0.012770411526953965
-0.0327172061845447   -0.44147150747827374   -0.011744339503461241
-0.03748052353420318   -0.4433603805460899   -0.013178354124476106
-0.042380838499381235   -0.44112853155973564   -0.01323377755848378
-0.0327172061845447   -0.44147150747827374   -0.011744339503461241
-0.035499275470227326   -0.4426056614533112   -0.012522507277652988
-0.03748052353420318   -0.4433603805460899   -0.013178354124476106
-0.034630144749485114   -0.4424067158357647   -0.012476028583297891
-0.042380838499381235   -0.44112853155973564   -0.01323377755848378
-0.036289456846827085   -0.44334891705379825   -0.012848135217839483
-0.034630144749485114   -0.4424067158357647   -0.012476028583297891
-0.03748052353420318   -0.4433603805460899   -0.013178354124476106
-0.042380838499381235   -0.44112853155973564   -0.01323377755848378
-0.034630144749485114   -0.4424067158357647   -0.012476028583297891
-0.03168462491005194   -0.44124287600389633   -0.012323212412924082
-0.0327172061845447   -0.44147150747827374   -0.011744339503461241
-0.042380838499381235   -0.44112853155973564   -0.01323377755848378
-0.034630144749485114   -0.4424067158357647   -0.012476028583297891
-0.0327172061845447   -0.44147150747827374   -0.011744339503461241
-0.03748052353420318   -0.4433603805460899   -0.013178354124476106
-0.042380838499381235   -0.44112853155973564   -0.01323377755848378
-0.03168462491005194   -0.44124287600389633   -0.012323212412924082
-0.036289456846827085   -0.44334891705379825   -0.012848135217839483
-0.04118092273422878   -0.4416108192824962   -0.01370366709037697
-0.03168462491005194   -0.44124287600389633   -0.012323212412924082
-0.034630144749485114   -0.4424067158357647   -0.012476028583297891
-0.036289456846827085   -0.44334891705379825   -0.012848135217839483
-0.03374614679009436   -0.44253464531276543   -0.012379355151819947
-0.04118092273422878   -0.4416108192824962   -0.01370366709037697
-0.035047158748165344   -0.44377242992855914   -0.012530687393964264
-0.03374614679009436   -0.44253464531276543   -0.012379355151819947
-0.036289456846827085   -0.44334891705379825   -0.012848135217839483
-0.04118092273422878   -0.4416108192824962   -0.01370366709037697
-0.03374614679009436   -0.44253464531276543   -0.012379355151819947
-0.03079944600062328   -0.4413959131873947   -0.0128496316597234
-0.03168462491005194   -0.44124287600389633   -0.012323212412924082
-0.04118092273422878   -0.4416108192824962   -0.01370366709037697
-0.03374614679009436   -0.44253464531276543   -0.012379355151819947
-0.03168462491005194   -0.44124287600389633   -0.012323212412924082
-0.036289456846827085   -0.44334891705379825   -0.012848135217839483
-0.03871317661116696   -0.44381630212208334   -0.013504407950750263
-0.03627987195633803   -0.44314753485986663   -0.01250499647981161
-0.033125522473393766   -0.446560711154084   -0.014815642248715144
-0.03748052353420318   -0.4433603805460899   -0.013178354124476106
-0.03627987195633803   -0.44314753485986663   -0.01250499647981161
-0.03914926172090115   -0.44360830822305986   -0.013870770970819858
-0.033125522473393766   -0.446560711154084   -0.014815642248715144
-0.03834069143524351   -0.4430925729048018   -0.013301146196712924
-0.03748052353420318   -0.4433603805460899   -0.013178354124476106
-0.0316134021091482   -0.4461668032530035   -0.013660375046986811
-0.03834069143524351   -0.4430925729048018   -0.013301146196712924
-0.033125522473393766   -0.446560711154084   -0.014815642248715144
-0.03748052353420318   -0.4433603805460899   -0.013178354124476106
-0.03834069143524351   -0.4430925729048018   -0.013301146196712924
-0.035499275470227326   -0.4426056614533112   -0.012522507277652988
-0.03627987195633803   -0.44314753485986663   -0.01250499647981161
-0.03748052353420318   -0.4433603805460899   -0.013178354124476106
-0.03834069143524351   -0.4430925729048018   -0.013301146196712924
-0.03627987195633803   -0.44314753485986663   -0.01250499647981161
-0.033125522473393766   -0.446560711154084   -0.014815642248715144
-0.03748052353420318   -0.4433603805460899   -0.013178354124476106
-0.035499275470227326   -0.4426056614533112   -0.012522507277652988
-0.0316134021091482   -0.4461668032530035   -0.013660375046986811
-0.036289456846827085   -0.44334891705379825   -0.012848135217839483
-0.035499275470227326   -0.4426056614533112   -0.012522507277652988
-0.03834069143524351   -0.4430925729048018   -0.013301146196712924
-0.0316134021091482   -0.4461668032530035   -0.013660375046986811
-0.03737001778358774   -0.4429254694646197   -0.012653615765184058
-0.036289456846827085   -0.44334891705379825   -0.012848135217839483
-0.03021342688609067   -0.44614380355480276   -0.012509692199504796
-0.03737001778358774   -0.4429254694646197   -0.012653615765184058
-0.0316134021091482   -0.4461668032530035   -0.013660375046986811
-0.036289456846827085   -0.44334891705379825   -0.012848135217839483
-0.03737001778358774   -0.4429254694646197   -0.012653615765184058
-0.034630144749485114   -0.4424067158357647   -0.012476028583297891
-0.035499275470227326   -0.4426056614533112   -0.012522507277652988
-0.036289456846827085   -0.44334891705379825   -0.012848135217839483
-0.03737001778358774   -0.4429254694646197   -0.012653615765184058
-0.035499275470227326   -0.4426056614533112   -0.012522507277652988
-0.0316134021091482   -0.4461668032530035   -0.013660375046986811
-0.036289456846827085   -0.44334891705379825   -0.012848135217839483
-0.034630144749485114   -0.4424067158357647   -0.012476028583297891
-0.03021342688609067   -0.44614380355480276   -0.012509692199504796
-0.035047158748165344   -0.44377242992855914   -0.012530687393964264
-0.034630144749485114   -0.4424067158357647   -0.012476028583297891
-0.03737001778358774   -0.4429254694646197   -0.012653615765184058
-0.03021342688609067   -0.44614380355480276   -0.012509692199504796
-0.03637128927700957   -0.44305125510436294   -0.011963426530244983
-0.035047158748165344   -0.44377242992855914   -0.012530687393964264
-0.028708932535139054   -0.4464711785259903   -0.011355289795534207
-0.03637128927700957   -0.44305125510436294   -0.011963426530244983
-0.03021342688609067   -0.44614380355480276   -0.012509692199504796
-0.035047158748165344   -0.44377242992855914   -0.012530687393964264
-0.03637128927700957   -0.44305125510436294   -0.011963426530244983
-0.03374614679009436   -0.44253464531276543   -0.012379355151819947
-0.034630144749485114   -0.4424067158357647   -0.012476028583297891
-0.035047158748165344   -0.44377242992855914   -0.012530687393964264
-0.03637128927700957   -0.44305125510436294   -0.011963426530244983
-0.034630144749485114   -0.4424067158357647   -0.012476028583297891
-0.03021342688609067   -0.44614380355480276   -0.012509692199504796
-0.033125522473393766   -0.446560711154084   -0.014815642248715144
-0.03914926172090115   -0.44360830822305986   -0.013870770970819858
-0.027626330685227147   -0.45   -0.015814106781560776
-0.0316134021091482   -0.4461668032530035   -0.013660375046986811
-0.03914926172090115   -0.44360830822305986   -0.013870770970819858
-0.04330154389884782   -0.44314517675431897   -0.01516523916450522
-0.027626330685227147   -0.45   -0.015814106781560776
-0.042245001089958954   -0.44266003388005465   -0.014037338935599525
-0.0316134021091482   -0.4461668032530035   -0.013660375046986811
-0.025726992233141874   -0.45   -0.014066464859246976
-0.042245001089958954   -0.44266003388005465   -0.014037338935599525
-0.027626330685227147   -0.45   -0.015814106781560776
-0.0316134021091482   -0.4461668032530035   -0.013660375046986811
-0.042245001089958954   -0.44266003388005465   -0.014037338935599525
-0.03834069143524351   -0.4430925729048018   -0.013301146196712924
-0.03914926172090115   -0.44360830822305986   -0.013870770970819858
-0.0316134021091482   -0.4461668032530035   -0.013660375046986811
-0.042245001089958954   -0.44266003388005465   -0.014037338935599525
-0.03914926172090115   -0.44360830822305986   -0.013870770970819858
-0.027626330685227147   -0.45   -0.015814106781560776
-0.0316134021091482   -0.4461668032530035   -0.013660375046986811
-0.03834069143524351   -0.4430925729048018   -0.013301146196712924
-0.025726992233141874   -0.45   -0.014066464859246976
-0.03021342688609067   -0.44614380355480276   -0.012509692199504796
-0.03834069143524351   -0.4430925729048018   -0.013301146196712924
-0.042245001089958954   -0.44266003388005465   -0.014037338935599525
-0.025726992233141874   -0.45   -0.014066464859246976
-0.040852891788388065   -0.44254728207724026   -0.01282298627072392
-0.03021342688609067   -0.44614380355480276   -0.012509692199504796
-0.023820662317820616   -0.45   -0.012298028124883746
-0.040852891788388065   -0.44254728207724026   -0.01282298627072392
-0.025726992233141874   -0.45   -0.014066464859246976
-0.03021342688609067   -0.44614380355480276   -0.012509692199504796
-0.040852891788388065   -0.44254728207724026   -0.01282298627072392
-0.03737001778358774   -0.4429254694646197   -0.012653615765184058
-0.03834069143524351   -0.4430925729048018   -0.013301146196712924
-0.03021342688609067   -0.44614380355480276   -0.012509692199504796
-0.040852891788388065   -0.44254728207724026   -0.01282298627072392
-0.03834069143524351   -0.4430925729048018   -0.013301146196712924
-0.025726992233141874   -0.45   -0.014066464859246976
-0.03021342688609067   -0.44614380355480276   -0.012509692199504796
-0.03737001778358774   -0.4429254694646197   -0.012653615765184058
-0.023820662317820616   -0.45   -0.012298028124883746
-0.028708932535139054   -0.4464711785259903   -0.011355289795534207
-0.03737001778358774   -0.4429254694646197   -0.012653615765184058
-0.040852891788388065   -0.44254728207724026   -0.01282298627072392
-0.023820662317820616   -0.45   -0.012298028124883746
-0.03954029597077231   -0.4427343407351321   -0.011561078869592355
-0.028708932535139054   -0.4464711785259903   -0.011355289795534207
-0.021954625697535667   -0.45   -0.010552795623220923
-0.03954029597077231   -0.4427343407351321   -0.011561078869592355
-0.023820662317820616   -0.45   -0.012298028124883746
-0.028708932535139054   -0.4464711785259903   -0.011355289795534207
-0.03954029597077231   -0.4427343407351321   -0.011561078869592355
-0.03637128927700957   -0.44305125510436294   -0.011963426530244983
-0.03737001778358774   -0.4429254694646197   -0.012653615765184058
-0.028708932535139054   -0.4464711785259903   -0.011355289795534207
-0.03954029597077231   -0.4427343407351321   -0.011561078869592355
-0.03737001778358774   -0.4429254694646197   -0.012653615765184058
-0.023820662317820616   -0.45   -0.012298028124883746
-0.027626330685227147   -0.45   -0.015814106781560776
-0.04330154389884782   -0.44314517675431897   -0.01516523916450522
-0.023659566188978756   -0.45   -0.017023410855770745
-0.025726992233141874   -0.45   -0.014066464859246976
-0.04330154389884782   -0.44314517675431897   -0.01516523916450522
-0.0513299702625351   -0.44097262992626807   -0.01653180394943284
-0.023659566188978756   -0.45   -0.017023410855770745
-0.0485425024103125   -0.4405667555041329   -0.014680901440655179
-0.025726992233141874   -0.45   -0.014066464859246976
-0.019704790296272867   -0.45   -0.0144987977942265
-0.0485425024103125   -0.4405667555041329   -0.014680901440655179
-0.023659566188978756   -0.45   -0.017023410855770745
-0.025726992233141874   -0.45   -0.014066464859246976
-0.0485425024103125   -0.4405667555041329   -0.014680901440655179
-0.042245001089958954   -0.44266003388005465   -0.014037338935599525
-0.04330154389884782   -0.44314517675431897   -0.01516523916450522
-0.025726992233141874   -0.45   -0.014066464859246976
-0.0485425024103125   -0.4405667555041329   -0.014680901440655179
-0.04330154389884782   -0.44314517675431897   -0.01516523916450522
-0.023659566188978756   -0.45   -0.017023410855770745
-0.025726992233141874   -0.45   -0.014066464859246976
-0.042245001089958954   -0.44266003388005465   -0.014037338935599525
-0.019704790296272867   -0.45   -0.0144987977942265
-0.023820662317820616   -0.45   -0.012298028124883746
-0.042245001089958954   -0.44266003388005465   -0.014037338935599525
-0.0485425024103125   -0.4405667555041329   -0.014680901440655179
-0.019704790296272867   -0.45   -0.0144987977942265
-0.04597696901563983   -0.4405090138349465   -0.012703264407512073
-0.023820662317820616   -0.45   -0.012298028124883746
-0.016550748073940944   -0.45   -0.012083480766338646
-0.04597696901563983   -0.4405090138349465   -0.012703264407512073
-0.019704790296272867   -0.45   -0.0144987977942265
-0.023820662317820616   -0.45   -0.012298028124883746
-0.04597696901563983   -0.4405090138349465   -0.012703264407512073
-0.040852891788388065   -0.44254728207724026   -0.01282298627072392
-0.042245001089958954   -0.44266003388005465   -0.014037338935599525
-0.023820662317820616   -0.45   -0.012298028124883746
-0.04597696901563983   -0.4405090138349465   -0.012703264407512073
-0.042245001089958954   -0.44266003388005465   -0.014037338935599525
-0.019704790296272867   -0.45   -0.0144987977942265
-0.023820662317820616   -0.45   -0.012298028124883746
-0.040852891788388065   -0.44254728207724026   -0.01282298627072392
-0.016550748073940944   -0.45   -0.012083480766338646
-0.021954625697535667   -0.45   -0.010552795623220923
-0.040852891788388065   -0.44254728207724026   -0.01282298627072392
-0.04597696901563983   -0.4405090138349465   -0.012703264407512073
-0.016550748073940944   -0.45   -0.012083480766338646
-0.0427377945067639   -0.44104250329932804   -0.010633230428660073
-0.021954625697535667   -0.45   -0.010552795623220923
-0.01265387666944194   -0.45   -0.009576292338883692
-0.0427377945067639   -0.44104250329932804   -0.010633230428660073
-0.016550748073940944   -0.45   -0.012083480766338646
-0.021954625697535667   -0.45   -0.010552795623220923
-0.0427377945067639   -0.44104250329932804   -0.010633230428660073
-0.03954029597077231   -0.4427343407351321   -0.011561078869592355
-0.040852891788388065   -0.44254728207724026   -0.01282298627072392
-0.021954625697535667   -0.45   -0.010552795623220923
-0.0427377945067639   -0.44104250329932804   -0.010633230428660073
-0.040852891788388065   -0.44254728207724026   -0.01282298627072392
-0.016550748073940944   -0.45   -0.012083480766338646
-0.031588547673945026   -0.4403619829189823   -0.009380455335142476
-0.012604150988654037   -0.42349323852757903   -0.00811374575857858
-0.033598440365202924   -0.4420787065180574   -0.011116117697951348
-0.029348933223607158   -0.4395828357092688   -0.010850389165140358
-0.012604150988654037   -0.42349323852757903   -0.00811374575857858
-0.023987204455151966   -0.42478273812057854   -0.009955871681419053
-0.033598440365202924   -0.4420787065180574   -0.011116117697951348
-0.02336232626653248   -0.4240483758372445   -0.010514700246573132
-0.029348933223607158   -0.4395828357092688   -0.010850389165140358
-0.0327172061845447   -0.44147150747827374   -0.011744339503461241
-0.02336232626653248   -0.4240483758372445   -0.010514700246573132
-0.033598440365202924   -0.4420787065180574   -0.011116117697951348
-0.029348933223607158   -0.4395828357092688   -0.010850389165140358
-0.02336232626653248   -0.4240483758372445   -0.010514700246573132
-0.010823413849979585   -0.4225854698251218   -0.009380635490606333
-0.012604150988654037   -0.42349323852757903   -0.00811374575857858
-0.029348933223607158   -0.4395828357092688   -0.010850389165140358
-0.02336232626653248   -0.4240483758372445   -0.010514700246573132
-0.012604150988654037   -0.42349323852757903   -0.00811374575857858
-0.033598440365202924   -0.4420787065180574   -0.011116117697951348
-0.029348933223607158   -0.4395828357092688   -0.010850389165140358
-0.010823413849979585   -0.4225854698251218   -0.009380635490606333
-0.0327172061845447   -0.44147150747827374   -0.011744339503461241
-0.027484294810243278   -0.4393379013137543   -0.012259043538918716
-0.010823413849979585   -0.4225854698251218   -0.009380635490606333
-0.02336232626653248   -0.4240483758372445   -0.010514700246573132
-0.0327172061845447   -0.44147150747827374   -0.011744339503461241
-0.022660128273056777   -0.4236367580948191   -0.011022450879882746
-0.027484294810243278   -0.4393379013137543   -0.012259043538918716
-0.03168462491005194   -0.44124287600389633   -0.012323212412924082
-0.022660128273056777   -0.4236367580948191   -0.011022450879882746
-0.0327172061845447   -0.44147150747827374   -0.011744339503461241
-0.027484294810243278   -0.4393379013137543   -0.012259043538918716
-0.022660128273056777   -0.4236367580948191   -0.011022450879882746
-0.009422312549368508   -0.42214773637406755   -0.01057177221884437
-0.010823413849979585   -0.4225854698251218   -0.009380635490606333
-0.027484294810243278   -0.4393379013137543   -0.012259043538918716
-0.022660128273056777   -0.4236367580948191   -0.011022450879882746
-0.010823413849979585   -0.4225854698251218   -0.009380635490606333
-0.0327172061845447   -0.44147150747827374   -0.011744339503461241
-0.027484294810243278   -0.4393379013137543   -0.012259043538918716
-0.009422312549368508   -0.42214773637406755   -0.01057177221884437
-0.03168462491005194   -0.44124287600389633   -0.012323212412924082
-0.02537701442366989   -0.4395290522196858   -0.01360000086618021
-0.009422312549368508   -0.42214773637406755   -0.01057177221884437
-0.022660128273056777   -0.4236367580948191   -0.011022450879882746
-0.03168462491005194   -0.44124287600389633   -0.012323212412924082
-0.022121374174501263   -0.4235364458803372   -0.011480711422167379
-0.02537701442366989   -0.4395290522196858   -0.01360000086618021
-0.03079944600062328   -0.4413959131873947   -0.0128496316597234
-0.022121374174501263   -0.4235364458803372   -0.011480711422167379
-0.03168462491005194   -0.44124287600389633   -0.012323212412924082
-0.02537701442366989   -0.4395290522196858   -0.01360000086618021
-0.022121374174501263   -0.4235364458803372   -0.011480711422167379
-0.007895110416741827   -0.42205532936777346   -0.011683897857684537
-0.009422312549368508   -0.42214773637406755   -0.01057177221884437
-0.02537701442366989   -0.4395290522196858   -0.01360000086618021
-0.022121374174501263   -0.4235364458803372   -0.011480711422167379
-0.009422312549368508   -0.42214773637406755   -0.01057177221884437
-0.03168462491005194   -0.44124287600389633   -0.012323212412924082
-0.033598440365202924   -0.4420787065180574   -0.011116117697951348
-0.023987204455151966   -0.42478273812057854   -0.009955871681419053
-0.03627987195633803   -0.44314753485986663   -0.01250499647981161
-0.0327172061845447   -0.44147150747827374   -0.011744339503461241
-0.023987204455151966   -0.42478273812057854   -0.009955871681419053
-0.035202641351469006   -0.4252395619865011   -0.011460501366343426
-0.03627987195633803   -0.44314753485986663   -0.01250499647981161
-0.034676429414549785   -0.4245987130290659   -0.01149243769450086
-0.0327172061845447   -0.44147150747827374   -0.011744339503461241
-0.035499275470227326   -0.4426056614533112   -0.012522507277652988
-0.034676429414549785   -0.4245987130290659   -0.01149243769450086
-0.03627987195633803   -0.44314753485986663   -0.01250499647981161
-0.0327172061845447   -0.44147150747827374   -0.011744339503461241
-0.034676429414549785   -0.4245987130290659   -0.01149243769450086
-0.02336232626653248   -0.4240483758372445   -0.010514700246573132
-0.023987204455151966   -0.42478273812057854   -0.009955871681419053
-0.0327172061845447   -0.44147150747827374   -0.011744339503461241
-0.034676429414549785   -0.4245987130290659   -0.01149243769450086
-0.023987204455151966   -0.42478273812057854   -0.009955871681419053
-0.03627987195633803   -0.44314753485986663   -0.01250499647981161
-0.0327172061845447   -0.44147150747827374   -0.011744339503461241
-0.02336232626653248   -0.4240483758372445   -0.010514700246573132
-0.035499275470227326   -0.4426056614533112   -0.012522507277652988
-0.03168462491005194   -0.44124287600389633   -0.012323212412924082
-0.02336232626653248   -0.4240483758372445   -0.010514700246573132
-0.034676429414549785   -0.4245987130290659   -0.01149243769450086
-0.035499275470227326   -0.4426056614533112   -0.012522507277652988
-0.034132325256136194   -0.4242488686235589   -0.011477088967035781
-0.03168462491005194   -0.44124287600389633   -0.012323212412924082
-0.034630144749485114   -0.4424067158357647   -0.012476028583297891
-0.034132325256136194   -0.4242488686235589   -0.011477088967035781
-0.035499275470227326   -0.4426056614533112   -0.012522507277652988
-0.03168462491005194   -0.44124287600389633   -0.012323212412924082
-0.034132325256136194   -0.4242488686235589   -0.011477088967035781
-0.022660128273056777   -0.4236367580948191   -0.011022450879882746
-0.02336232626653248   -0.4240483758372445   -0.010514700246573132
-0.03168462491005194   -0.44124287600389633   -0.012323212412924082
-0.034132325256136194   -0.4242488686235589   -0.011477088967035781
-0.02336232626653248   -0.4240483758372445   -0.010514700246573132
-0.035499275470227326   -0.4426056614533112   -0.012522507277652988
-0.03168462491005194   -0.44124287600389633   -0.012323212412924082
-0.022660128273056777   -0.4236367580948191   -0.011022450879882746
-0.034630144749485114   -0.4424067158357647   -0.012476028583297891
-0.03079944600062328   -0.4413959131873947   -0.0128496316597234
-0.022660128273056777   -0.4236367580948191   -0.011022450879882746
-0.034132325256136194   -0.4242488686235589   -0.011477088967035781
-0.034630144749485114   -0.4424067158357647   -0.012476028583297891
-0.03360741357094458   -0.42417568040631265   -0.011413924679705277
-0.03079944600062328   -0.4413959131873947   -0.0128496316597234
-0.03374614679009436   -0.44253464531276543   -0.012379355151819947
-0.03360741357094458   -0.42417568040631265   -0.011413924679705277
-0.034630144749485114   -0.4424067158357647   -0.012476028583297891
-0.03079944600062328   -0.4413959131873947   -0.0128496316597234
-0.03360741357094458   -0.42417568040631265   -0.011413924679705277
-0.022121374174501263   -0.4235364458803372   -0.011480711422167379
-0.022660128273056777   -0.4236367580948191   -0.011022450879882746
-0.03079944600062328   -0.4413959131873947   -0.0128496316597234
-0.03360741357094458   -0.42417568040631265   -0.011413924679705277
-0.022660128273056777   -0.4236367580948191   -0.011022450879882746
-0.034630144749485114   -0.4424067158357647   -0.012476028583297891
-0.03627987195633803   -0.44314753485986663   -0.01250499647981161
-0.035202641351469006   -0.4252395619865011   -0.011460501366343426
-0.03914926172090115   -0.44360830822305986   -0.013870770970819858
-0.035499275470227326   -0.4426056614533112   -0.012522507277652988
-0.035202641351469006   -0.4252395619865011   -0.011460501366343426
-0.04633734916437712   -0.42483753041701605   -0.012868164537371975
-0.03914926172090115   -0.44360830822305986   -0.013870770970819858
-0.04581528615261921   -0.42426884189285025   -0.01239507507102418
-0.035499275470227326   -0.4426056614533112   -0.012522507277652988
-0.03834069143524351   -0.4430925729048018   -0.013301146196712924
-0.04581528615261921   -0.42426884189285025   -0.01239507507102418
-0.03914926172090115   -0.44360830822305986   -0.013870770970819858
-0.035499275470227326   -0.4426056614533112   -0.012522507277652988
-0.04581528615261921   -0.42426884189285025   -0.01239507507102418
-0.034676429414549785   -0.4245987130290659   -0.01149243769450086
-0.035202641351469006   -0.4252395619865011   -0.011460501366343426
-0.035499275470227326   -0.4426056614533112   -0.012522507277652988
-0.04581528615261921   -0.42426884189285025   -0.01239507507102418
-0.035202641351469006   -0.4252395619865011   -0.011460501366343426
-0.03914926172090115   -0.44360830822305986   -0.013870770970819858
-0.035499275470227326   -0.4426056614533112   -0.012522507277652988
-0.034676429414549785   -0.4245987130290659   -0.01149243769450086
-0.03834069143524351   -0.4430925729048018   -0.013301146196712924
-0.034630144749485114   -0.4424067158357647   -0.012476028583297891
-0.034676429414549785   -0.4245987130290659   -0.01149243769450086
-0.04581528615261921   -0.42426884189285025   -0.01239507507102418
-0.03834069143524351   -0.4430925729048018   -0.013301146196712924
-0.045229384179481844   -0.4239861753733711   -0.011875361175208677
-0.034630144749485114   -0.4424067158357647   -0.012476028583297891
-0.03737001778358774   -0.4429254694646197   -0.012653615765184058
-0.045229384179481844   -0.4239861753733711   -0.011875361175208677
-0.03834069143524351   -0.4430925729048018   -0.013301146196712924
-0.034630144749485114   -0.4424067158357647   -0.012476028583297891
-0.045229384179481844   -0.4239861753733711   -0.011875361175208677
-0.034132325256136194   -0.4242488686235589   -0.011477088967035781
-0.034676429414549785   -0.4245987130290659   -0.01149243769450086
-0.034630144749485114   -0.4424067158357647   -0.012476028583297891
-0.045229384179481844   -0.4239861753733711   -0.011875361175208677
-0.034676429414549785   -0.4245987130290659   -0.01149243769450086
-0.03834069143524351   -0.4430925729048018   -0.013301146196712924
-0.034630144749485114   -0.4424067158357647   -0.012476028583297891
-0.034132325256136194   -0.4242488686235589   -0.011477088967035781
-0.03737001778358774   -0.4429254694646197   -0.012653615765184058
-0.03374614679009436   -0.44253464531276543   -0.012379355151819947
-0.034132325256136194   -0.4242488686235589   -0.011477088967035781
-0.045229384179481844   -0.4239861753733711   -0.011875361175208677
-0.03737001778358774   -0.4429254694646197   -0.012653615765184058
-0.04464061901582619   -0.4239615207152313   -0.011303335103858107
-0.03374614679009436   -0.44253464531276543   -0.012379355151819947
-0.03637128927700957   -0.44305125510436294   -0.011963426530244983
-0.04464061901582619   -0.4239615207152313   -0.011303335103858107
-0.03737001778358774   -0.4429254694646197   -0.012653615765184058
-0.03374614679009436   -0.44253464531276543   -0.012379355151819947
-0.04464061901582619   -0.4239615207152313   -0.011303335103858107
-0.03360741357094458   -0.42417568040631265   -0.011413924679705277
-0.034132325256136194   -0.4242488686235589   -0.011477088967035781
-0.03374614679009436   -0.44253464531276543   -0.012379355151819947
-0.04464061901582619   -0.4239615207152313   -0.011303335103858107
-0.034132325256136194   -0.4242488686235589   -0.011477088967035781
-0.03737001778358774   -0.4429254694646197   -0.012653615765184058
-0.03914926172090115   -0.44360830822305986   -0.013870770970819858
-0.04633734916437712   -0.42483753041701605   -0.012868164537371975
-0.04330154389884782   -0.44314517675431897   -0.01516523916450522
-0.03834069143524351   -0.4430925729048018   -0.013301146196712924
-0.04633734916437712   -0.42483753041701605   -0.012868164537371975
-0.05857925522943412   -0.42352266736934113   -0.014159444573074728
-0.04330154389884782   -0.44314517675431897   -0.01516523916450522
-0.05794140036068605   -0.4230266471714156   -0.013193043976411262
-0.03834069143524351   -0.4430925729048018   -0.013301146196712924
-0.042245001089958954   -0.44266003388005465   -0.014037338935599525
-0.05794140036068605   -0.4230266471714156   -0.013193043976411262
-0.04330154389884782   -0.44314517675431897   -0.01516523916450522
-0.03834069143524351   -0.4430925729048018   -0.013301146196712924
-0.05794140036068605   -0.4230266471714156   -0.013193043976411262
-0.04581528615261921   -0.42426884189285025   -0.01239507507102418
-0.04633734916437712   -0.42483753041701605   -0.012868164537371975
-0.03834069143524351   -0.4430925729048018   -0.013301146196712924
-0.05794140036068605   -0.4230266471714156   -0.013193043976411262
-0.04633734916437712   -0.42483753041701605   -0.012868164537371975
-0.04330154389884782   -0.44314517675431897   -0.01516523916450522
-0.03834069143524351   -0.4430925729048018   -0.013301146196712924
-0.04581528615261921   -0.42426884189285025   -0.01239507507102418
-0.042245001089958954   -0.44266003388005465   -0.014037338935599525
-0.03737001778358774   -0.4429254694646197   -0.012653615765184058
-0.04581528615261921   -0.42426884189285025   -0.01239507507102418
-0.05794140036068605   -0.4230266471714156   -0.013193043976411262
-0.042245001089958954   -0.44266003388005465   -0.014037338935599525
-0.05706191118072418   -0.422810887792747   -0.012183318065882187
-0.03737001778358774   -0.4429254694646197   -0.012653615765184058
-0.040852891788388065   -0.44254728207724026   -0.01282298627072392
-0.05706191118072418   -0.422810887792747   -0.012183318065882187
-0.042245001089958954   -0.44266003388005465   -0.014037338935599525
-0.03737001778358774   -0.4429254694646197   -0.012653615765184058
-0.05706191118072418   -0.422810887792747   -0.012183318065882187
-0.045229384179481844   -0.4239861753733711   -0.011875361175208677
-0.04581528615261921   -0.42426884189285025   -0.01239507507102418
-0.03737001778358774   -0.4429254694646197   -0.012653615765184058
-0.05706191118072418   -0.422810887792747   -0.012183318065882187
-0.04581528615261921   -0.42426884189285025   -0.01239507507102418
-0.042245001089958954   -0.44266003388005465   -0.014037338935599525
-0.03737001778358774   -0.4429254694646197   -0.012653615765184058
-0.045229384179481844   -0.4239861753733711   -0.011875361175208677
-0.040852891788388065   -0.44254728207724026   -0.01282298627072392
-0.03637128927700957   -0.44305125510436294   -0.011963426530244983
-0.045229384179481844   -0.4239861753733711   -0.011875361175208677
-0.05706191118072418   -0.422810887792747   -0.012183318065882187
-0.040852891788388065   -0.44254728207724026   -0.01282298627072392
-0.0562922544189005   -0.42287583458393946   -0.011101806819458366
-0.03637128927700957   -0.44305125510436294   -0.011963426530244983
-0.03954029597077231   -0.4427343407351321   -0.011561078869592355
-0.0562922544189005   -0.42287583458393946   -0.011101806819458366
-0.040852891788388065   -0.44254728207724026   -0.01282298627072392
-0.03637128927700957   -0.44305125510436294   -0.011963426530244983
-0.0562922544189005   -0.42287583458393946   -0.011101806819458366
-0.04464061901582619   -0.4239615207152313   -0.011303335103858107
-0.045229384179481844   -0.4239861753733711   -0.011875361175208677
-0.03637128927700957   -0.44305125510436294   -0.011963426530244983
-0.0562922544189005   -0.42287583458393946   -0.011101806819458366
-0.045229384179481844   -0.4239861753733711   -0.011875361175208677
-0.040852891788388065   -0.44254728207724026   -0.01282298627072392
-0.04330154389884782   -0.44314517675431897   -0.01516523916450522
-0.05857925522943412   -0.42352266736934113   -0.014159444573074728
-0.0513299702625351   -0.44097262992626807   -0.01653180394943284
-0.042245001089958954   -0.44266003388005465   -0.014037338935599525
-0.05857925522943412   -0.42352266736934113   -0.014159444573074728
-0.07434569998988358   -0.42138428783636567   -0.015393557523518214
-0.0513299702625351   -0.44097262992626807   -0.01653180394943284
-0.07230901433559075   -0.420848762939007   -0.013868338994953077
-0.042245001089958954   -0.44266003388005465   -0.014037338935599525
-0.0485425024103125   -0.4405667555041329   -0.014680901440655179
-0.07230901433559075   -0.420848762939007   -0.013868338994953077
-0.0513299702625351   -0.44097262992626807   -0.01653180394943284
-0.042245001089958954   -0.44266003388005465   -0.014037338935599525
-0.07230901433559075   -0.420848762939007   -0.013868338994953077
-0.05794140036068605   -0.4230266471714156   -0.013193043976411262
-0.05857925522943412   -0.42352266736934113   -0.014159444573074728
-0.042245001089958954   -0.44266003388005465   -0.014037338935599525
-0.07230901433559075   -0.420848762939007   -0.013868338994953077
-0.05857925522943412   -0.42352266736934113   -0.014159444573074728
-0.0513299702625351   -0.44097262992626807   -0.01653180394943284
-0.042245001089958954   -0.44266003388005465   -0.014037338935599525
-0.05794140036068605   -0.4230266471714156   -0.013193043976411262
-0.0485425024103125   -0.4405667555041329   -0.014680901440655179
-0.040852891788388065   -0.44254728207724026   -0.01282298627072392
-0.05794140036068605   -0.4230266471714156   -0.013193043976411262
-0.07230901433559075   -0.420848762939007   -0.013868338994953077
-0.0485425024103125   -0.4405667555041329   -0.014680901440655179
-0.07047979288626506   -0.42064919129313716   -0.012252536071949307
-0.040852891788388065   -0.44254728207724026   -0.01282298627072392
-0.04597696901563983   -0.4405090138349465   -0.012703264407512073
-0.07047979288626506   -0.42064919129313716   -0.012252536071949307
-0.0485425024103125   -0.4405667555041329   -0.014680901440655179
-0.040852891788388065   -0.44254728207724026   -0.01282298627072392
-0.07047979288626506   -0.42064919129313716   -0.012252536071949307
-0.05706191118072418   -0.422810887792747   -0.012183318065882187
-0.05794140036068605   -0.4230266471714156   -0.013193043976411262
-0.040852891788388065   -0.44254728207724026   -0.01282298627072392
-0.07047979288626506   -0.42064919129313716   -0.012252536071949307
-0.05794140036068605   -0.4230266471714156   -0.013193043976411262
-0.0485425024103125   -0.4405667555041329   -0.014680901440655179
-0.040852891788388065   -0.44254728207724026   -0.01282298627072392
-0.05706191118072418   -0.422810887792747   -0.012183318065882187
-0.04597696901563983   -0.4405090138349465   -0.012703264407512073
-0.03954029597077231   -0.4427343407351321   -0.011561078869592355
-0.05706191118072418   -0.422810887792747   -0.012183318065882187
-0.07047979288626506   -0.42064919129313716   -0.012252536071949307
-0.04597696901563983   -0.4405090138349465   -0.012703264407512073
-0.06810856505506213   -0.42088736057792037   -0.010561645107610313
-0.03954029597077231   -0.4427343407351321   -0.011561078869592355
-0.0427377945067639   -0.44104250329932804   -0.010633230428660073
-0.06810856505506213   -0.42088736057792037   -0.010561645107610313
-0.04597696901563983   -0.4405090138349465   -0.012703264407512073
-0.03954029597077231   -0.4427343407351321   -0.011561078869592355
-0.06810856505506213   -0.42088736057792037   -0.010561645107610313
-0.0562922544189005   -0.42287583458393946   -0.011101806819458366
-0.05706191118072418   -0.422810887792747   -0.012183318065882187
-0.03954029597077231   -0.4427343407351321   -0.011561078869592355
-0.06810856505506213   -0.42088736057792037   -0.010561645107610313
-0.05706191118072418   -0.422810887792747   -0.012183318065882187
-0.04597696901563983   -0.4405090138349465   -0.012703264407512073
-0.012604150988654037   -0.42349323852757903   -0.00811374575857858
0.0027413618589906623   -0.3926379365502381   -0.0067189486722571586
-0.023987204455151966   -0.42478273812057854   -0.009955871681419053
-0.010823413849979585   -0.4225854698251218   -0.009380635490606333
0.0027413618589906623   -0.3926379365502381   -0.0067189486722571586
-0.016381813478821835   -0.393579278758431   -0.008526133761504613
-0.023987204455151966   -0.42478273812057854   -0.009955871681419053
-0.016052088242085094   -0.3928099764346326   -0.008967886081832282
-0.010823413849979585   -0.4225854698251218   -0.009380635490606333
-0.02336232626653248   -0.4240483758372445   -0.010514700246573132
-0.016052088242085094   -0.3928099764346326   -0.008967886081832282
-0.023987204455151966   -0.42478273812057854   -0.009955871681419053
-0.010823413849979585   -0.4225854698251218   -0.009380635490606333
-0.016052088242085094   -0.3928099764346326   -0.008967886081832282
0.003978900098144088   -0.39171648751282334   -0.007723828315272176
0.0027413618589906623   -0.3926379365502381   -0.0067189486722571586
-0.010823413849979585   -0.4225854698251218   -0.009380635490606333
-0.016052088242085094   -0.3928099764346326   -0.008967886081832282
0.0027413618589906623   -0.3926379365502381   -0.0067189486722571586
-0.023987204455151966   -0.42478273812057854   -0.009955871681419053
-0.010823413849979585   -0.4225854698251218   -0.009380635490606333
0.003978900098144088   -0.39171648751282334   -0.007723828315272176
-0.02336232626653248   -0.4240483758372445   -0.010514700246573132
-0.009422312549368508   -0.42214773637406755   -0.01057177221884437
0.003978900098144088   -0.39171648751282334   -0.007723828315272176
-0.016052088242085094   -0.3928099764346326   -0.008967886081832282
-0.02336232626653248   -0.4240483758372445   -0.010514700246573132
-0.01567762939569401   -0.39230287003053543   -0.009357447557250764
-0.009422312549368508   -0.42214773637406755   -0.01057177221884437
-0.022660128273056777   -0.4236367580948191   -0.011022450879882746
-0.01567762939569401   -0.39230287003053543   -0.009357447557250764
-0.02336232626653248   -0.4240483758372445   -0.010514700246573132
-0.009422312549368508   -0.42214773637406755   -0.01057177221884437
-0.01567762939569401   -0.39230287003053543   -0.009357447557250764
0.004888602163038309   -0.391178581881249   -0.008655663647748888
0.003978900098144088   -0.39171648751282334   -0.007723828315272176
-0.009422312549368508   -0.42214773637406755   -0.01057177221884437
-0.01567762939569401   -0.39230287003053543   -0.009357447557250764
0.003978900098144088   -0.39171648751282334   -0.007723828315272176
-0.02336232626653248   -0.4240483758372445   -0.010514700246573132
-0.009422312549368508   -0.42214773637406755   -0.01057177221884437
0.004888602163038309   -0.391178581881249   -0.008655663647748888
-0.022660128273056777   -0.4236367580948191   -0.011022450879882746
-0.007895110416741827   -0.42205532936777346   -0.011683897857684537
0.004888602163038309   -0.391178581881249   -0.008655663647748888
-0.01567762939569401   -0.39230287003053543   -0.009357447557250764
-0.022660128273056777   -0.4236367580948191   -0.011022450879882746
-0.015453878099198825   -0.3920431163053012   -0.009699964233378927
-0.007895110416741827   -0.42205532936777346   -0.011683897857684537
-0.022121374174501263   -0.4235364458803372   -0.011480711422167379
-0.015453878099198825   -0.3920431163053012   -0.009699964233378927
-0.022660128273056777   -0.4236367580948191   -0.011022450879882746
-0.007895110416741827   -0.42205532936777346   -0.011683897857684537
-0.015453878099198825   -0.3920431163053012   -0.009699964233378927
0.005859710572631408   -0.39090518812044206   -0.009514052032206568
0.004888602163038309   -0.391178581881249   -0.008655663647748888
-0.007895110416741827   -0.42205532936777346   -0.011683897857684537
-0.015453878099198825   -0.3920431163053012   -0.009699964233378927
0.004888602163038309   -0.391178581881249   -0.008655663647748888
-0.022660128273056777   -0.4236367580948191   -0.011022450879882746
-0.023987204455151966   -0.42478273812057854   -0.009955871681419053
-0.016381813478821835   -0.393579278758431   -0.008526133761504613
-0.035202641351469006   -0.4252395619865011   -0.011460501366343426
-0.02336232626653248   -0.4240483758372445   -0.010514700246573132
-0.016381813478821835   -0.393579278758431   -0.008526133761504613
-0.03486212992272815   -0.3937588582863236   -0.010018230937023996
-0.035202641351469006   -0.4252395619865011   -0.011460501366343426
-0.03461901104882225   -0.39309774022936744   -0.010030450390093159
-0.02336232626653248   -0.4240483758372445   -0.010514700246573132
-0.034676429414549785   -0.4245987130290659   -0.01149243769450086
-0.03461901104882225   -0.39309774022936744   -0.010030450390093159
-0.035202641351469006   -0.4252395619865011   -0.011460501366343426
-0.02336232626653248   -0.4240483758372445   -0.010514700246573132
-0.03461901104882225   -0.39309774022936744   -0.010030450390093159
-0.016052088242085094   -0.3928099764346326   -0.008967886081832282
-0.016381813478821835   -0.393579278758431   -0.008526133761504613
-0.02336232626653248   -0.4240483758372445   -0.010514700246573132
-0.03461901104882225   -0.39309774022936744   -0.010030450390093159
-0.016381813478821835   -0.393579278758431   -0.008526133761504613
-0.035202641351469006   -0.4252395619865011   -0.011460501366343426
-0.02336232626653248   -0.4240483758372445   -0.010514700246573132
-0.016052088242085094   -0.3928099764346326   -0.008967886081832282
-0.034676429414549785   -0.4245987130290659   -0.01149243769450086
-0.022660128273056777   -0.4236367580948191   -0.011022450879882746
-0.016052088242085094   -0.3928099764346326   -0.008967886081832282
-0.03461901104882225   -0.39309774022936744   -0.010030450390093159
-0.034676429414549785   -0.4245987130290659   -0.01149243769450086
-0.034369145944904256   -0.3926713750555097   -0.009992708573281484
-0.022660128273056777   -0.4236367580948191   -0.011022450879882746
-0.034132325256136194   -0.4242488686235589   -0.011477088967035781
-0.034369145944904256   -0.3926713750555097   -0.009992708573281484
-0.034676429414549785   -0.4245987130290659   -0.01149243769450086
-0.022660128273056777   -0.4236367580948191   -0.011022450879882746
-0.034369145944904256   -0.3926713750555097   -0.009992708573281484
-0.01567762939569401   -0.39230287003053543   -0.009357447557250764
-0.016052088242085094   -0.3928099764346326   -0.008967886081832282
-0.022660128273056777   -0.4236367580948191   -0.011022450879882746
-0.034369145944904256   -0.3926713750555097   -0.009992708573281484
-0.016052088242085094   -0.3928099764346326   -0.008967886081832282
-0.034676429414549785   -0.4245987130290659   -0.01149243769450086
-0.022660128273056777   -0.4236367580948191   -0.011022450879882746
-0.01567762939569401   -0.39230287003053543   -0.009357447557250764
-0.034132325256136194   -0.4242488686235589   -0.011477088967035781
-0.022121374174501263   -0.4235364458803372   -0.011480711422167379
-0.01567762939569401   -0.39230287003053543   -0.009357447557250764
-0.034369145944904256   -0.3926713750555097   -0.009992708573281484
-0.034132325256136194   -0.4242488686235589   -0.011477088967035781
-0.03415055081203796   -0.3924757673186026   -0.009908265817998967
-0.022121374174501263   -0.4235364458803372   -0.011480711422167379
-0.03360741357094458   -0.42417568040631265   -0.011413924679705277
-0.03415055081203796   -0.3924757673186026   -0.009908265817998967
-0.034132325256136194   -0.4242488686235589   -0.011477088967035781
-0.022121374174501263   -0.4235364458803372   -0.011480711422167379
-0.03415055081203796   -0.3924757673186026   -0.009908265817998967
-0.015453878099198825   -0.3920431163053012   -0.009699964233378927
-0.01567762939569401   -0.39230287003053543   -0.009357447557250764
-0.022121374174501263   -0.4235364458803372   -0.011480711422167379
-0.03415055081203796   -0.3924757673186026   -0.009908265817998967
-0.01567762939569401   -0.39230287003053543   -0.009357447557250764
-0.034132325256136194   -0.4242488686235589   -0.011477088967035781
-0.035202641351469006   -0.4252395619865011   -0.011460501366343426
-0.03486212992272815   -0.3937588582863236   -0.010018230937023996
-0.04633734916437712   -0.42483753041701605   -0.012868164537371975
-0.034676429414549785   -0.4245987130290659   -0.01149243769450086
-0.03486212992272815   -0.3937588582863236   -0.010018230937023996
-0.05304782375299729   -0.39317226732552985   -0.011365407650632875
-0.04633734916437712   -0.42483753041701605   -0.012868164537371975
-0.05282140544695994   -0.3926016064671275   -0.010958505827538323
-0.034676429414549785   -0.4245987130290659   -0.01149243769450086
-0.04581528615261921   -0.42426884189285025   -0.01239507507102418
-0.05282140544695994   -0.3926016064671275   -0.010958505827538323
-0.04633734916437712   -0.42483753041701605   -0.012868164537371975
-0.034676429414549785   -0.4245987130290659   -0.01149243769450086
-0.05282140544695994   -0.3926016064671275   -0.010958505827538323
-0.03461901104882225   -0.39309774022936744   -0.010030450390093159
-0.03486212992272815   -0.3937588582863236   -0.010018230937023996
-0.034676429414549785   -0.4245987130290659   -0.01149243769450086
-0.05282140544695994   -0.3926016064671275   -0.010958505827538323
-0.03486212992272815   -0.3937588582863236   -0.010018230937023996
-0.04633734916437712   -0.42483753041701605   -0.012868164537371975
-0.034676429414549785   -0.4245987130290659   -0.01149243769450086
-0.03461901104882225   -0.39309774022936744   -0.010030450390093159
-0.04581528615261921   -0.42426884189285025   -0.01239507507102418
-0.034132325256136194   -0.4242488686235589   -0.011477088967035781
-0.03461901104882225   -0.39309774022936744   -0.010030450390093159
-0.05282140544695994   -0.3926016064671275   -0.010958505827538323
-0.04581528615261921   -0.42426884189285025   -0.01239507507102418
-0.05254788777436009   -0.3922630948066686   -0.010502689878331969
-0.034132325256136194   -0.4242488686235589   -0.011477088967035781
-0.045229384179481844   -0.4239861753733711   -0.011875361175208677
-0.05254788777436009   -0.3922630948066686   -0.010502689878331969
-0.04581528615261921   -0.42426884189285025   -0.01239507507102418
-0.034132325256136194   -0.4242488686235589   -0.011477088967035781
-0.05254788777436009   -0.3922630948066686   -0.010502689878331969
-0.034369145944904256   -0.3926713750555097   -0.009992708573281484
-0.03461901104882225   -0.39309774022936744   -0.010030450390093159
-0.034132325256136194   -0.4242488686235589   -0.011477088967035781
-0.05254788777436009   -0.3922630948066686   -0.010502689878331969
-0.03461901104882225   -0.39309774022936744   -0.010030450390093159
-0.04581528615261921   -0.42426884189285025   -0.01239507507102418
-0.034132325256136194   -0.4242488686235589   -0.011477088967035781
-0.034369145944904256   -0.3926713750555097   -0.009992708573281484
-0.045229384179481844   -0.4239861753733711   -0.011875361175208677
-0.03360741357094458   -0.42417568040631265   -0.011413924679705277
-0.034369145944904256   -0.3926713750555097   -0.009992708573281484
-0.05254788777436009   -0.3922630948066686   -0.010502689878331969
-0.045229384179481844   -0.4239861753733711   -0.011875361175208677
-0.05228158595473813   -0.39214571449325375   -0.009999475084753033
-0.03360741357094458   -0.42417568040631265   -0.011413924679705277
-0.04464061901582619   -0.4239615207152313   -0.011303335103858107
-0.05228158595473813   -0.39214571449325375   -0.009999475084753033
-0.045229384179481844   -0.4239861753733711   -0.011875361175208677
-0.03360741357094458   -0.42417568040631265   -0.011413924679705277
-0.05228158595473813   -0.39214571449325375   -0.009999475084753033
-0.03415055081203796   -0.3924757673186026   -0.009908265817998967
-0.034369145944904256   -0.3926713750555097   -0.009992708573281484
-0.03360741357094458   -0.42417568040631265   -0.011413924679705277
-0.05228158595473813   -0.39214571449325375   -0.009999475084753033
-0.034369145944904256   -0.3926713750555097   -0.009992708573281484
-0.045229384179481844   -0.4239861753733711   -0.011875361175208677
-0.04633734916437712   -0.42483753041701605   -0.012868164537371975
-0.05304782375299729   -0.39317226732552985   -0.011365407650632875
-0.05857925522943412   -0.42352266736934113   -0.014159444573074728
-0.04581528615261921   -0.42426884189285025   -0.01239507507102418
-0.05304782375299729   -0.39317226732552985   -0.011365407650632875
-0.07211124453470054   -0.39184086624370834   -0.012561746026772338
-0.05857925522943412   -0.42352266736934113   -0.014159444573074728
-0.07181670768122347   -0.39135697371274447   -0.011735394548203236
-0.04581528615261921   -0.42426884189285025   -0.01239507507102418
-0.05794140036068605   -0.4230266471714156   -0.013193043976411262
-0.07181670768122347   -0.39135697371274447   -0.011735394548203236
-0.05857925522943412   -0.42352266736934113   -0.014159444573074728
-0.04581528615261921   -0.42426884189285025   -0.01239507507102418
-0.07181670768122347   -0.39135697371274447   -0.011735394548203236
-0.05282140544695994   -0.3926016064671275   -0.010958505827538323
-0.05304782375299729   -0.39317226732552985   -0.011365407650632875
-0.04581528615261921   -0.42426884189285025   -0.01239507507102418
-0.07181670768122347   -0.39135697371274447   -0.011735394548203236
-0.05304782375299729   -0.39317226732552985   -0.011365407650632875
-0.05857925522943412   -0.42352266736934113   -0.014159444573074728
-0.04581528615261921   -0.42426884189285025   -0.01239507507102418
-0.05282140544695994   -0.3926016064671275   -0.010958505827538323
-0.05794140036068605   -0.4230266471714156   -0.013193043976411262
-0.045229384179481844   -0.4239861753733711   -0.011875361175208677
-0.05282140544695994   -0.3926016064671275   -0.010958505827538323
-0.07181670768122347   -0.39135697371274447   -0.011735394548203236
-0.05794140036068605   -0.4230266471714156   -0.013193043976411262
-0.07131808020249433   -0.3910981184523694   -0.010867587206778552
-0.045229384179481844   -0.4239861753733711   -0.011875361175208677
-0.05706191118072418   -0.422810887792747   -0.012183318065882187
-0.07131808020249433   -0.3910981184523694   -0.010867587206778552
-0.05794140036068605   -0.4230266471714156   -0.013193043976411262
-0.045229384179481844   -0.4239861753733711   -0.011875361175208677
-0.07131808020249433   -0.3910981184523694   -0.010867587206778552
-0.05254788777436009   -0.3922630948066686   -0.010502689878331969
-0.05282140544695994   -0.3926016064671275   -0.010958505827538323
-0.045229384179481844   -0.4239861753733711   -0.011875361175208677
-0.07131808020249433   -0.3910981184523694   -0.010867587206778552
-0.05282140544695994   -0.3926016064671275   -0.010958505827538323
-0.05794140036068605   -0.4230266471714156   -0.013193043976411262
-0.045229384179481844   -0.4239861753733711   -0.011875361175208677
-0.05254788777436009   -0.3922630948066686   -0.010502689878331969
-0.05706191118072418   -0.422810887792747   -0.012183318065882187
-0.04464061901582619   -0.4239615207152313   -0.011303335103858107
-0.05254788777436009   -0.3922630948066686   -0.010502689878331969
-0.07131808020249433   -0.3910981184523694   -0.010867587206778552
-0.05706191118072418   -0.422810887792747   -0.012183318065882187
-0.0709116144190616   -0.3910777138075624   -0.009945520155041599
-0.04464061901582619   -0.4239615207152313   -0.011303335103858107
-0.0562922544189005   -0.42287583458393946   -0.011101806819458366
-0.0709116144190616   -0.3910777138075624   -0.009945520155041599
-0.05706191118072418   -0.422810887792747   -0.012183318065882187
-0.04464061901582619   -0.4239615207152313   -0.011303335103858107
-0.0709116144190616   -0.3910777138075624   -0.009945520155041599
-0.05228158595473813   -0.39214571449325375   -0.009999475084753033
-0.05254788777436009   -0.3922630948066686   -0.010502689878331969
-0.04464061901582619   -0.4239615207152313   -0.011303335103858107
-0.0709116144190616   -0.3910777138075624   -0.009945520155041599
-0.05254788777436009   -0.3922630948066686   -0.010502689878331969
-0.05706191118072418   -0.422810887792747   -0.012183318065882187
-0.05857925522943412   -0.42352266736934113   -0.014159444573074728
-0.07211124453470054   -0.39184086624370834   -0.012561746026772338
-0.07434569998988358   -0.42138428783636567   -0.015393557523518214
-0.05794140036068605   -0.4230266471714156   -0.013193043976411262
-0.07211124453470054   -0.39184086624370834   -0.012561746026772338
-0.09434640812531113   -0.3899278023301074   -0.013673464681287295
-0.07434569998988358   -0.42138428783636567   -0.015393557523518214
-0.09285021570198185   -0.3894248566298052   -0.012380885521928835
-0.05794140036068605   -0.4230266471714156   -0.013193043976411262
-0.07230901433559075   -0.420848762939007   -0.013868338994953077
-0.09285021570198185   -0.3894248566298052   -0.012380885521928835
-0.07434569998988358   -0.42138428783636567   -0.015393557523518214
-0.05794140036068605   -0.4230266471714156   -0.013193043976411262
-0.09285021570198185   -0.3894248566298052   -0.012380885521928835
-0.07181670768122347   -0.39135697371274447   -0.011735394548203236
-0.07211124453470054   -0.39184086624370834   -0.012561746026772338
-0.05794140036068605   -0.4230266471714156   -0.013193043976411262
-0.09285021570198185   -0.3894248566298052   -0.012380885521928835
-0.07211124453470054   -0.39184086624370834   -0.012561746026772338
-0.07434569998988358   -0.42138428783636567   -0.015393557523518214
-0.05794140036068605   -0.4230266471714156   -0.013193043976411262
-0.07181670768122347   -0.39135697371274447   -0.011735394548203236
-0.07230901433559075   -0.420848762939007   -0.013868338994953077
-0.05706191118072418   -0.422810887792747   -0.012183318065882187
-0.07181670768122347   -0.39135697371274447   -0.011735394548203236
-0.09285021570198185   -0.3894248566298052   -0.012380885521928835
-0.07230901433559075   -0.420848762939007   -0.013868338994953077
-0.09154928901988951   -0.389187613707665   -0.011020126009848369
-0.05706191118072418   -0.422810887792747   -0.012183318065882187
-0.07047979288626506   -0.42064919129313716   -0.012252536071949307
-0.09154928901988951   -0.389187613707665   -0.011020126009848369
-0.07230901433559075   -0.420848762939007   -0.013868338994953077
-0.05706191118072418   -0.422810887792747   -0.012183318065882187
-0.09154928901988951   -0.389187613707665   -0.011020126009848369
-0.07131808020249433   -0.3910981184523694   -0.010867587206778552
-0.07181670768122347   -0.39135697371274447   -0.011735394548203236
-0.05706191118072418   -0.422810887792747   -0.012183318065882187
-0.09154928901988951   -0.389187613707665   -0.011020126009848369
-0.07181670768122347   -0.39135697371274447   -0.011735394548203236
-0.07230901433559075   -0.420848762939007   -0.013868338994953077
-0.05706191118072418   -0.422810887792747   -0.012183318065882187
-0.07131808020249433   -0.3910981184523694   -0.010867587206778552
-0.07047979288626506   -0.42064919129313716   -0.012252536071949307
-0.0562922544189005   -0.42287583458393946   -0.011101806819458366
-0.07131808020249433   -0.3910981184523694   -0.010867587206778552
-0.09154928901988951   -0.389187613707665   -0.011020126009848369
-0.07047979288626506   -0.42064919129313716   -0.012252536071949307
-0.08979558018755968   -0.38931540619996796   -0.009599889858834941
-0.0562922544189005   -0.42287583458393946   -0.011101806819458366
-0.06810856505506213   -0.42088736057792037   -0.010561645107610313
-0.08979558018755968   -0.38931540619996796   -0.009599889858834941
-0.07047979288626506   -0.42064919129313716   -0.012252536071949307
-0.0562922544189005   -0.42287583458393946   -0.011101806819458366
-0.08979558018755968   -0.38931540619996796   -0.009599889858834941
-0.0709116144190616   -0.3910777138075624   -0.009945520155041599
-0.07131808020249433   -0.3910981184523694   -0.010867587206778552
-0.0562922544189005   -0.42287583458393946   -0.011101806819458366
-0.08979558018755968   -0.38931540619996796   -0.009599889858834941
-0.07131808020249433   -0.3910981184523694   -0.010867587206778552
-0.07047979288626506   -0.42064919129313716   -0.012252536071949307
0.0027413618589906623   -0.3926379365502381   -0.0067189486722571586
0.014341243896606019   -0.35087974237050823   -0.005122684263510598
-0.016381813478821835   -0.393579278758431   -0.008526133761504613
0.003978900098144088   -0.39171648751282334   -0.007723828315272176
0.014341243896606019   -0.35087974237050823   -0.005122684263510598
-0.01091642733706478   -0.35149818443916253   -0.006847031089127958
-0.016381813478821835   -0.393579278758431   -0.008526133761504613
-0.010849891333970213   -0.35073306591186115   -0.007151581332206244
0.003978900098144088   -0.39171648751282334   -0.007723828315272176
-0.016052088242085094   -0.3928099764346326   -0.008967886081832282
-0.010849891333970213   -0.35073306591186115   -0.007151581332206244
-0.016381813478821835   -0.393579278758431   -0.008526133761504613
0.003978900098144088   -0.39171648751282334   -0.007723828315272176
-0.010849891333970213   -0.35073306591186115   -0.007151581332206244
0.01506991453868409   -0.34998109477776523   -0.005862199666061954
0.014341243896606019   -0.35087974237050823   -0.005122684263510598
0.003978900098144088   -0.39171648751282334   -0.007723828315272176
-0.010849891333970213   -0.35073306591186115   -0.007151581332206244
0.014341243896606019   -0.35087974237050823   -0.005122684263510598
-0.016381813478821835   -0.393579278758431   -0.008526133761504613
0.003978900098144088   -0.39171648751282334   -0.007723828315272176
0.01506991453868409   -0.34998109477776523   -0.005862199666061954
-0.016052088242085094   -0.3928099764346326   -0.008967886081832282
0.004888602163038309   -0.391178581881249   -0.008655663647748888
0.01506991453868409   -0.34998109477776523   -0.005862199666061954
-0.010849891333970213   -0.35073306591186115   -0.007151581332206244
-0.016052088242085094   -0.3928099764346326   -0.008967886081832282
-0.010765586854273165   -0.35017394163667276   -0.00740861888802418
0.004888602163038309   -0.391178581881249   -0.008655663647748888
-0.01567762939569401   -0.39230287003053543   -0.009357447557250764
-0.010765586854273165   -0.35017394163667276   -0.00740861888802418
-0.016052088242085094   -0.3928099764346326   -0.008967886081832282
0.004888602163038309   -0.391178581881249   -0.008655663647748888
-0.010765586854273165   -0.35017394163667276   -0.00740861888802418
0.01553408263108305   -0.34938609674635995   -0.006534614558611232
0.01506991453868409   -0.34998109477776523   -0.005862199666061954
0.004888602163038309   -0.391178581881249   -0.008655663647748888
-0.010765586854273165   -0.35017394163667276   -0.00740861888802418
0.01506991453868409   -0.34998109477776523   -0.005862199666061954
-0.016052088242085094   -0.3928099764346326   -0.008967886081832282
0.004888602163038309   -0.391178581881249   -0.008655663647748888
0.01553408263108305   -0.34938609674635995   -0.006534614558611232
-0.01567762939569401   -0.39230287003053543   -0.009357447557250764
0.005859710572631408   -0.39090518812044206   -0.009514052032206568
0.01553408263108305   -0.34938609674635995   -0.006534614558611232
-0.010765586854273165   -0.35017394163667276   -0.00740861888802418
-0.01567762939569401   -0.39230287003053543   -0.009357447557250764
-0.010809560964501351   -0.34980316963082325   -0.007621616582882823
0.005859710572631408   -0.39090518812044206   -0.009514052032206568
-0.015453878099198825   -0.3920431163053012   -0.009699964233378927
-0.010809560964501351   -0.34980316963082325   -0.007621616582882823
-0.01567762939569401   -0.39230287003053543   -0.009357447557250764
0.005859710572631408   -0.39090518812044206   -0.009514052032206568
-0.010809560964501351   -0.34980316963082325   -0.007621616582882823
0.01600803331722328   -0.3489808633557867   -0.007141296911478372
0.01553408263108305   -0.34938609674635995   -0.006534614558611232
0.005859710572631408   -0.39090518812044206   -0.009514052032206568
-0.010809560964501351   -0.34980316963082325   -0.007621616582882823
0.01553408263108305   -0.34938609674635995   -0.006534614558611232
-0.01567762939569401   -0.39230287003053543   -0.009357447557250764
-0.016381813478821835   -0.393579278758431   -0.008526133761504613
-0.01091642733706478   -0.35149818443916253   -0.006847031089127958
-0.03486212992272815   -0.3937588582863236   -0.010018230937023996
-0.016052088242085094   -0.3928099764346326   -0.008967886081832282
-0.01091642733706478   -0.35149818443916253   -0.006847031089127958
-0.03520568583550447   -0.35149941925659345   -0.008273041131857877
-0.03486212992272815   -0.3937588582863236   -0.010018230937023996
-0.03520981003361969   -0.350850802349957   -0.008244404720989685
-0.016052088242085094   -0.3928099764346326   -0.008967886081832282
-0.03461901104882225   -0.39309774022936744   -0.010030450390093159
-0.03520981003361969   -0.350850802349957   -0.008244404720989685
-0.03486212992272815   -0.3937588582863236   -0.010018230937023996
-0.016052088242085094   -0.3928099764346326   -0.008967886081832282
-0.03520981003361969   -0.350850802349957   -0.008244404720989685
-0.010849891333970213   -0.35073306591186115   -0.007151581332206244
-0.01091642733706478   -0.35149818443916253   -0.006847031089127958
-0.016052088242085094   -0.3928099764346326   -0.008967886081832282
-0.03520981003361969   -0.350850802349957   -0.008244404720989685
-0.01091642733706478   -0.35149818443916253   -0.006847031089127958
-0.03486212992272815   -0.3937588582863236   -0.010018230937023996
-0.016052088242085094   -0.3928099764346326   -0.008967886081832282
-0.010849891333970213   -0.35073306591186115   -0.007151581332206244
-0.03461901104882225   -0.39309774022936744   -0.010030450390093159
-0.01567762939569401   -0.39230287003053543   -0.009357447557250764
-0.010849891333970213   -0.35073306591186115   -0.007151581332206244
-0.03520981003361969   -0.350850802349957   -0.008244404720989685
-0.03461901104882225   -0.39309774022936744   -0.010030450390093159
-0.03521237004268452   -0.35038385211838846   -0.008168487556414989
-0.01567762939569401   -0.39230287003053543   -0.009357447557250764
-0.034369145944904256   -0.3926713750555097   -0.009992708573281484
-0.03521237004268452   -0.35038385211838846   -0.008168487556414989
-0.03461901104882225   -0.39309774022936744   -0.010030450390093159
-0.01567762939569401   -0.39230287003053543   -0.009357447557250764
-0.03521237004268452   -0.35038385211838846   -0.008168487556414989
-0.010765586854273165   -0.35017394163667276   -0.00740861888802418
-0.010849891333970213   -0.35073306591186115   -0.007151581332206244
-0.01567762939569401   -0.39230287003053543   -0.009357447557250764
-0.03521237004268452   -0.35038385211838846   -0.008168487556414989
-0.010849891333970213   -0.35073306591186115   -0.007151581332206244
-0.03461901104882225   -0.39309774022936744   -0.010030450390093159
-0.01567762939569401   -0.39230287003053543   -0.009357447557250764
-0.010765586854273165   -0.35017394163667276   -0.00740861888802418
-0.034369145944904256   -0.3926713750555097   -0.009992708573281484
-0.015453878099198825   -0.3920431163053012   -0.009699964233378927
-0.010765586854273165   -0.35017394163667276   -0.00740861888802418
-0.03521237004268452   -0.35038385211838846   -0.008168487556414989
-0.034369145944904256   -0.3926713750555097   -0.009992708573281484
-0.035247521501520815   -0.350098869860836   -0.008047681175812452
-0.015453878099198825   -0.3920431163053012   -0.009699964233378927
-0.03415055081203796   -0.3924757673186026   -0.009908265817998967
-0.035247521501520815   -0.350098869860836   -0.008047681175812452
-0.034369145944904256   -0.3926713750555097   -0.009992708573281484
-0.015453878099198825   -0.3920431163053012   -0.009699964233378927
-0.035247521501520815   -0.350098869860836   -0.008047681175812452
-0.010809560964501351   -0.34980316963082325   -0.007621616582882823
-0.010765586854273165   -0.35017394163667276   -0.00740861888802418
-0.015453878099198825   -0.3920431163053012   -0.009699964233378927
-0.035247521501520815   -0.350098869860836   -0.008047681175812452
-0.010765586854273165   -0.35017394163667276   -0.00740861888802418
-0.034369145944904256   -0.3926713750555097   -0.009992708573281484
-0.03486212992272815   -0.3937588582863236   -0.010018230937023996
-0.03520568583550447   -0.35149941925659345   -0.008273041131857877
-0.05304782375299729   -0.39317226732552985   -0.011365407650632875
-0.03461901104882225   -0.39309774022936744   -0.010030450390093159
-0.03520568583550447   -0.35149941925659345   -0.008273041131857877
-0.05907852550405941   -0.35089640713808645   -0.009523409412145979
-0.05304782375299729   -0.39317226732552985   -0.011365407650632875
-0.05910048871643969   -0.350350541337653   -0.009165554739558079
-0.03461901104882225   -0.39309774022936744   -0.010030450390093159
-0.05282140544695994   -0.3926016064671275   -0.010958505827538323
-0.05910048871643969   -0.350350541337653   -0.009165554739558079
-0.05304782375299729   -0.39317226732552985   -0.011365407650632875
-0.03461901104882225   -0.39309774022936744   -0.010030450390093159
-0.05910048871643969   -0.350350541337653   -0.009165554739558079
-0.03520981003361969   -0.350850802349957   -0.008244404720989685
-0.03520568583550447   -0.35149941925659345   -0.008273041131857877
-0.03461901104882225   -0.39309774022936744   -0.010030450390093159
-0.05910048871643969   -0.350350541337653   -0.009165554739558079
-0.03520568583550447   -0.35149941925659345   -0.008273041131857877
-0.05304782375299729   -0.39317226732552985   -0.011365407650632875
-0.03461901104882225   -0.39309774022936744   -0.010030450390093159
-0.03520981003361969   -0.350850802349957   -0.008244404720989685
-0.05282140544695994   -0.3926016064671275   -0.010958505827538323
-0.034369145944904256   -0.3926713750555097   -0.009992708573281484
-0.03520981003361969   -0.350850802349957   -0.008244404720989685
-0.05910048871643969   -0.350350541337653   -0.009165554739558079
-0.05282140544695994   -0.3926016064671275   -0.010958505827538323
-0.05908165981642943   -0.34998472932057534   -0.008761304628161683
-0.034369145944904256   -0.3926713750555097   -0.009992708573281484
-0.05254788777436009   -0.3922630948066686   -0.010502689878331969
-0.05908165981642943   -0.34998472932057534   -0.008761304628161683
-0.05282140544695994   -0.3926016064671275   -0.010958505827538323
-0.034369145944904256   -0.3926713750555097   -0.009992708573281484
-0.05908165981642943   -0.34998472932057534   -0.008761304628161683
-0.03521237004268452   -0.35038385211838846   -0.008168487556414989
-0.03520981003361969   -0.350850802349957   -0.008244404720989685
-0.034369145944904256   -0.3926713750555097   -0.009992708573281484
-0.05908165981642943   -0.34998472932057534   -0.008761304628161683
-0.03520981003361969   -0.350850802349957   -0.008244404720989685
-0.05282140544695994   -0.3926016064671275   -0.010958505827538323
-0.034369145944904256   -0.3926713750555097   -0.009992708573281484
-0.03521237004268452   -0.35038385211838846   -0.008168487556414989
-0.05254788777436009   -0.3922630948066686   -0.010502689878331969
-0.03415055081203796   -0.3924757673186026   -0.009908265817998967
-0.03521237004268452   -0.35038385211838846   -0.008168487556414989
-0.05908165981642943   -0.34998472932057534   -0.008761304628161683
-0.05254788777436009   -0.3922630948066686   -0.010502689878331969
-0.05907004112432575   -0.3497957483759215   -0.008312027763090039
-0.03415055081203796   -0.3924757673186026   -0.009908265817998967
-0.05228158595473813   -0.39214571449325375   -0.009999475084753033
-0.05907004112432575   -0.3497957483759215   -0.008312027763090039
-0.05254788777436009   -0.3922630948066686   -0.010502689878331969
-0.03415055081203796   -0.3924757673186026   -0.009908265817998967
-0.05907004112432575   -0.3497957483759215   -0.008312027763090039
-0.035247521501520815   -0.350098869860836   -0.008047681175812452
-0.03521237004268452   -0.35038385211838846   -0.008168487556414989
-0.03415055081203796   -0.3924757673186026   -0.009908265817998967
-0.05907004112432575   -0.3497957483759215   -0.008312027763090039
-0.03521237004268452   -0.35038385211838846   -0.008168487556414989
-0.05254788777436009   -0.3922630948066686   -0.010502689878331969
-0.05304782375299729   -0.39317226732552985   -0.011365407650632875
-0.05907852550405941   -0.35089640713808645   -0.009523409412145979
-0.07211124453470054   -0.39184086624370834   -0.012561746026772338
-0.05282140544695994   -0.3926016064671275   -0.010958505827538323
-0.05907852550405941   -0.35089640713808645   -0.009523409412145979
-0.08369802334879063   -0.3497124550490253   -0.010599905773020264
-0.07211124453470054   -0.39184086624370834   -0.012561746026772338
-0.08367058699319772   -0.3492653269036175   -0.009909026792953086
-0.05282140544695994   -0.3926016064671275   -0.010958505827538323
-0.07181670768122347   -0.39135697371274447   -0.011735394548203236
-0.08367058699319772   -0.3492653269036175   -0.009909026792953086
-0.07211124453470054   -0.39184086624370834   -0.012561746026772338
-0.05282140544695994   -0.3926016064671275   -0.010958505827538323
-0.08367058699319772   -0.3492653269036175   -0.009909026792953086
-0.05910048871643969   -0.350350541337653   -0.009165554739558079
-0.05907852550405941   -0.35089640713808645   -0.009523409412145979
-0.05282140544695994   -0.3926016064671275   -0.010958505827538323
-0.08367058699319772   -0.3492653269036175   -0.009909026792953086
-0.05907852550405941   -0.35089640713808645   -0.009523409412145979
-0.07211124453470054   -0.39184086624370834   -0.012561746026772338
-0.05282140544695994   -0.3926016064671275   -0.010958505827538323
-0.05910048871643969   -0.350350541337653   -0.009165554739558079
-0.07181670768122347   -0.39135697371274447   -0.011735394548203236
-0.05254788777436009   -0.3922630948066686   -0.010502689878331969
-0.05910048871643969   -0.350350541337653   -0.009165554739558079
-0.08367058699319772   -0.3492653269036175   -0.009909026792953086
-0.07181670768122347   -0.39135697371274447   -0.011735394548203236
-0.08346625921362025   -0.34899120158977087   -0.009178724514285514
-0.05254788777436009   -0.3922630948066686   -0.010502689878331969
-0.07131808020249433   -0.3910981184523694   -0.010867587206778552
-0.08346625921362025   -0.34899120158977087   -0.009178724514285514
-0.07181670768122347   -0.39135697371274447   -0.011735394548203236
-0.05254788777436009   -0.3922630948066686   -0.010502689878331969
-0.08346625921362025   -0.34899120158977087   -0.009178724514285514
-0.05908165981642943   -0.34998472932057534   -0.008761304628161683
-0.05910048871643969   -0.350350541337653   -0.009165554739558079
-0.05254788777436009   -0.3922630948066686   -0.010502689878331969
-0.08346625921362025   -0.34899120158977087   -0.009178724514285514
-0.05910048871643969   -0.350350541337653   -0.009165554739558079
-0.07181670768122347   -0.39135697371274447   -0.011735394548203236
-0.05254788777436009   -0.3922630948066686   -0.010502689878331969
-0.05908165981642943   -0.34998472932057534   -0.008761304628161683
-0.07131808020249433   -0.3910981184523694   -0.010867587206778552
-0.05228158595473813   -0.39214571449325375   -0.009999475084753033
-0.05908165981642943   -0.34998472932057534   -0.008761304628161683
-0.08346625921362025   -0.34899120158977087   -0.009178724514285514
-0.07131808020249433   -0.3910981184523694   -0.010867587206778552
-0.08332920048311257   -0.34890870352582004   -0.0083998119623469
-0.05228158595473813   -0.39214571449325375   -0.009999475084753033
-0.0709116144190616   -0.3910777138075624   -0.009945520155041599
-0.08332920048311257   -0.34890870352582004   -0.0083998119623469
-0.07131808020249433   -0.3910981184523694   -0.010867587206778552
-0.05228158595473813   -0.39214571449325375   -0.009999475084753033
-0.08332920048311257   -0.34890870352582004   -0.0083998119623469
-0.05907004112432575   -0.3497957483759215   -0.008312027763090039
-0.05908165981642943   -0.34998472932057534   -0.008761304628161683
-0.05228158595473813   -0.39214571449325375   -0.009999475084753033
-0.08332920048311257   -0.34890870352582004   -0.0083998119623469
-0.05908165981642943   -0.34998472932057534   -0.008761304628161683
-0.07131808020249433   -0.3910981184523694   -0.010867587206778552
-0.07211124453470054   -0.39184086624370834   -0.012561746026772338
-0.08369802334879063   -0.3497124550490253   -0.010599905773020264
-0.09434640812531113   -0.3899278023301074   -0.013673464681287295
-0.07181670768122347   -0.39135697371274447   -0.011735394548203236
-0.08369802334879063   -0.3497124550490253   -0.010599905773020264
-0.11119665286688   -0.34808489360504125   -0.011568514501170048
-0.09434640812531113   -0.3899278023301074   -0.013673464681287295
-0.11017986421370918   -0.3476471160923495   -0.010512870197588606
-0.07181670768122347   -0.39135697371274447   -0.011735394548203236
-0.09285021570198185   -0.3894248566298052   -0.012380885521928835
-0.11017986421370918   -0.3476471160923495   -0.010512870197588606
-0.09434640812531113   -0.3899278023301074   -0.013673464681287295
-0.07181670768122347   -0.39135697371274447   -0.011735394548203236
-0.11017986421370918   -0.3476471160923495   -0.010512870197588606
-0.08367058699319772   -0.3492653269036175   -0.009909026792953086
-0.08369802334879063   -0.3497124550490253   -0.010599905773020264
-0.07181670768122347   -0.39135697371274447   -0.011735394548203236
-0.11017986421370918   -0.3476471160923495   -0.010512870197588606
-0.08369802334879063   -0.3497124550490253   -0.010599905773020264
-0.09434640812531113   -0.3899278023301074   -0.013673464681287295
-0.07181670768122347   -0.39135697371274447   -0.011735394548203236
-0.08367058699319772   -0.3492653269036175   -0.009909026792953086
-0.09285021570198185   -0.3894248566298052   -0.012380885521928835
-0.07131808020249433   -0.3910981184523694   -0.010867587206778552
-0.08367058699319772   -0.3492653269036175   -0.009909026792953086
-0.11017986421370918   -0.3476471160923495   -0.010512870197588606
-0.09285021570198185   -0.3894248566298052   -0.012380885521928835
-0.10930875396336012   -0.347406370005791   -0.009391106381342018
-0.07131808020249433   -0.3910981184523694   -0.010867587206778552
-0.09154928901988951   -0.389187613707665   -0.011020126009848369
-0.10930875396336012   -0.347406370005791   -0.009391106381342018
-0.09285021570198185   -0.3894248566298052   -0.012380885521928835
-0.07131808020249433   -0.3910981184523694   -0.010867587206778552
-0.10930875396336012   -0.347406370005791   -0.009391106381342018
-0.08346625921362025   -0.34899120158977087   -0.009178724514285514
-0.08367058699319772   -0.3492653269036175   -0.009909026792953086
-0.07131808020249433   -0.3910981184523694   -0.010867587206778552
-0.10930875396336012   -0.347406370005791   -0.009391106381342018
-0.08367058699319772   -0.3492653269036175   -0.009909026792953086
-0.09285021570198185   -0.3894248566298052   -0.012380885521928835
-0.07131808020249433   -0.3910981184523694   -0.010867587206778552
-0.08346625921362025   -0.34899120158977087   -0.009178724514285514
-0.09154928901988951   -0.389187613707665   -0.011020126009848369
-0.0709116144190616   -0.3910777138075624   -0.009945520155041599
-0.08346625921362025   -0.34899120158977087   -0.009178724514285514
-0.10930875396336012   -0.347406370005791   -0.009391106381342018
-0.09154928901988951   -0.389187613707665   -0.011020126009848369
-0.1080494825875804   -0.34747014521345304   -0.008212218428837736
-0.0709116144190616   -0.3910777138075624   -0.009945520155041599
-0.08979558018755968   -0.38931540619996796   -0.009599889858834941
-0.1080494825875804   -0.34747014521345304   -0.008212218428837736
-0.09154928901988951   -0.389187613707665   -0.011020126009848369
-0.0709116144190616   -0.3910777138075624   -0.009945520155041599
-0.1080494825875804   -0.34747014521345304   -0.008212218428837736
-0.08332920048311257   -0.34890870352582004   -0.0083998119623469
-0.08346625921362025   -0.34899120158977087   -0.009178724514285514
-0.0709116144190616   -0.3910777138075624   -0.009945520155041599
-0.1080494825875804   -0.34747014521345304   -0.008212218428837736
-0.08346625921362025   -0.34899120158977087   -0.009178724514285514
-0.09154928901988951   -0.389187613707665   -0.011020126009848369
0.014341243896606019   -0.35087974237050823   -0.005122684263510598
0.022286082447600105   -0.30076768991203456   -0.003410068675932714
-0.01091642733706478   -0.35149818443916253   -0.006847031089127958
0.01506991453868409   -0.34998109477776523   -0.005862199666061954
0.022286082447600105   -0.30076768991203456   -0.003410068675932714
-0.007622763204048763   -0.30106763836854905   -0.005032751176658347
-0.01091642733706478   -0.35149818443916253   -0.006847031089127958
-0.00776730399000243   -0.30032088384066624   -0.005194988486498641
0.01506991453868409   -0.34998109477776523   -0.005862199666061954
-0.010849891333970213   -0.35073306591186115   -0.007151581332206244
-0.00776730399000243   -0.30032088384066624   -0.005194988486498641
-0.01091642733706478   -0.35149818443916253   -0.006847031089127958
0.01506991453868409   -0.34998109477776523   -0.005862199666061954
-0.00776730399000243   -0.30032088384066624   -0.005194988486498641
0.022566231306931108   -0.2999019559566768   -0.0038908860658722483
0.022286082447600105   -0.30076768991203456   -0.003410068675932714
0.01506991453868409   -0.34998109477776523   -0.005862199666061954
-0.00776730399000243   -0.30032088384066624   -0.005194988486498641
0.022286082447600105   -0.30076768991203456   -0.003410068675932714
-0.01091642733706478   -0.35149818443916253   -0.006847031089127958
0.01506991453868409   -0.34998109477776523   -0.005862199666061954
0.022566231306931108   -0.2999019559566768   -0.0038908860658722483
-0.010849891333970213   -0.35073306591186115   -0.007151581332206244
0.01553408263108305   -0.34938609674635995   -0.006534614558611232
0.022566231306931108   -0.2999019559566768   -0.0038908860658722483
-0.00776730399000243   -0.30032088384066624   -0.005194988486498641
-0.010849891333970213   -0.35073306591186115   -0.007151581332206244
-0.007919679778320898   -0.299726027674491   -0.00531500118440193
0.01553408263108305   -0.34938609674635995   -0.006534614558611232
-0.010765586854273165   -0.35017394163667276   -0.00740861888802418
-0.007919679778320898   -0.299726027674491   -0.00531500118440193
-0.010849891333970213   -0.35073306591186115   -0.007151581332206244
0.01553408263108305   -0.34938609674635995   -0.006534614558611232
-0.007919679778320898   -0.299726027674491   -0.00531500118440193
0.02264577384969181   -0.29926589346258686   -0.004309456228054936
0.022566231306931108   -0.2999019559566768   -0.0038908860658722483
0.01553408263108305   -0.34938609674635995   -0.006534614558611232
-0.007919679778320898   -0.299726027674491   -0.00531500118440193
0.022566231306931108   -0.2999019559566768   -0.0038908860658722483
-0.010849891333970213   -0.35073306591186115   -0.007151581332206244
0.01553408263108305   -0.34938609674635995   -0.006534614558611232
0.02264577384969181   -0.29926589346258686   -0.004309456228054936
-0.010765586854273165   -0.35017394163667276   -0.00740861888802418
0.01600803331722328   -0.3489808633557867   -0.007141296911478372
0.02264577384969181   -0.29926589346258686   -0.004309456228054936
-0.007919679778320898   -0.299726027674491   -0.00531500118440193
-0.010765586854273165   -0.35017394163667276   -0.00740861888802418
-0.008175648413013558   -0.2992646916069148   -0.005394227622022405
0.01600803331722328   -0.3489808633557867   -0.007141296911478372
-0.010809560964501351   -0.34980316963082325   -0.007621616582882823
-0.008175648413013558   -0.2992646916069148   -0.005394227622022405
-0.010765586854273165   -0.35017394163667276   -0.00740861888802418
0.01600803331722328   -0.3489808633557867   -0.007141296911478372
-0.008175648413013558   -0.2992646916069148   -0.005394227622022405
0.022684157464369775   -0.29874928960167535   -0.004668700966219793
0.02264577384969181   -0.29926589346258686   -0.004309456228054936
0.01600803331722328   -0.3489808633557867   -0.007141296911478372
-0.008175648413013558   -0.2992646916069148   -0.005394227622022405
0.02264577384969181   -0.29926589346258686   -0.004309456228054936
-0.010765586854273165   -0.35017394163667276   -0.00740861888802418
-0.01091642733706478   -0.35149818443916253   -0.006847031089127958
-0.007622763204048763   -0.30106763836854905   -0.005032751176658347
-0.03520568583550447   -0.35149941925659345   -0.008273041131857877
-0.010849891333970213   -0.35073306591186115   -0.007151581332206244
-0.007622763204048763   -0.30106763836854905   -0.005032751176658347
-0.036280244522656525   -0.30090786146809284   -0.00637362359074626
-0.03520568583550447   -0.35149941925659345   -0.008273041131857877
-0.03647814858782994   -0.30028199582431914   -0.006296201117621875
-0.010849891333970213   -0.35073306591186115   -0.007151581332206244
-0.03520981003361969   -0.350850802349957   -0.008244404720989685
-0.03647814858782994   -0.30028199582431914   -0.006296201117621875
-0.03520568583550447   -0.35149941925659345   -0.008273041131857877
-0.010849891333970213   -0.35073306591186115   -0.007151581332206244
-0.03647814858782994   -0.30028199582431914   -0.006296201117621875
-0.00776730399000243   -0.30032088384066624   -0.005194988486498641
-0.007622763204048763   -0.30106763836854905   -0.005032751176658347
-0.010849891333970213   -0.35073306591186115   -0.007151581332206244
-0.03647814858782994   -0.30028199582431914   -0.006296201117621875
-0.007622763204048763   -0.30106763836854905   -0.005032751176658347
-0.03520568583550447   -0.35149941925659345   -0.008273041131857877
-0.010849891333970213   -0.35073306591186115   -0.007151581332206244
-0.00776730399000243   -0.30032088384066624   -0.005194988486498641
-0.03520981003361969   -0.350850802349957   -0.008244404720989685
-0.010765586854273165   -0.35017394163667276   -0.00740861888802418
-0.00776730399000243   -0.30032088384066624   -0.005194988486498641
-0.03647814858782994   -0.30028199582431914   -0.006296201117621875
-0.03520981003361969   -0.350850802349957   -0.008244404720989685
-0.03667874639813847   -0.2997863861163839   -0.006175354706635805
-0.010765586854273165   -0.35017394163667276   -0.00740861888802418
-0.03521237004268452   -0.35038385211838846   -0.008168487556414989
-0.03667874639813847   -0.2997863861163839   -0.006175354706635805
-0.03520981003361969   -0.350850802349957   -0.008244404720989685
-0.010765586854273165   -0.35017394163667276   -0.00740861888802418
-0.03667874639813847   -0.2997863861163839   -0.006175354706635805
-0.007919679778320898   -0.299726027674491   -0.00531500118440193
-0.00776730399000243   -0.30032088384066624   -0.005194988486498641
-0.010765586854273165   -0.35017394163667276   -0.00740861888802418
-0.03667874639813847   -0.2997863861163839   -0.006175354706635805
-0.00776730399000243   -0.30032088384066624   -0.005194988486498641
-0.03520981003361969   -0.350850802349957   -0.008244404720989685
-0.010765586854273165   -0.35017394163667276   -0.00740861888802418
-0.007919679778320898   -0.299726027674491   -0.00531500118440193
-0.03521237004268452   -0.35038385211838846   -0.008168487556414989
-0.010809560964501351   -0.34980316963082325   -0.007621616582882823
-0.007919679778320898   -0.299726027674491   -0.00531500118440193
-0.03667874639813847   -0.2997863861163839   -0.006175354706635805
-0.03521237004268452   -0.35038385211838846   -0.008168487556414989
-0.03691020487492953   -0.29942326783726825   -0.0060131206729316855
-0.010809560964501351   -0.34980316963082325   -0.007621616582882823
-0.035247521501520815   -0.350098869860836   -0.008047681175812452
-0.03691020487492953   -0.29942326783726825   -0.0060131206729316855
-0.03521237004268452   -0.35038385211838846   -0.008168487556414989
-0.010809560964501351   -0.34980316963082325   -0.007621616582882823
-0.03691020487492953   -0.29942326783726825   -0.0060131206729316855
-0.008175648413013558   -0.2992646916069148   -0.005394227622022405
-0.007919679778320898   -0.299726027674491   -0.00531500118440193
-0.010809560964501351   -0.34980316963082325   -0.007621616582882823
-0.03691020487492953   -0.29942326783726825   -0.0060131206729316855
-0.007919679778320898   -0.299726027674491   -0.00531500118440193
-0.03521237004268452   -0.35038385211838846   -0.008168487556414989
-0.03520568583550447   -0.35149941925659345   -0.008273041131857877
-0.036280244522656525   -0.30090786146809284   -0.00637362359074626
-0.05907852550405941   -0.35089640713808645   -0.009523409412145979
-0.03520981003361969   -0.350850802349957   -0.008244404720989685
-0.036280244522656525   -0.30090786146809284   -0.00637362359074626
-0.06445072029719487   -0.3003155600479434   -0.007523093748249089
-0.05907852550405941   -0.35089640713808645   -0.009523409412145979
-0.06466367093603324   -0.29979990997830713   -0.007207055780033857
-0.03520981003361969   -0.350850802349957   -0.008244404720989685
-0.05910048871643969   -0.350350541337653   -0.009165554739558079
-0.06466367093603324   -0.29979990997830713   -0.007207055780033857
-0.05907852550405941   -0.35089640713808645   -0.009523409412145979
-0.03520981003361969   -0.350850802349957   -0.008244404720989685
-0.06466367093603324   -0.29979990997830713   -0.007207055780033857
-0.03647814858782994   -0.30028199582431914   -0.006296201117621875
-0.036280244522656525   -0.30090786146809284   -0.00637362359074626
-0.03520981003361969   -0.350850802349957   -0.008244404720989685
-0.06466367093603324   -0.29979990997830713   -0.007207055780033857
-0.036280244522656525   -0.30090786146809284   -0.00637362359074626
-0.05907852550405941   -0.35089640713808645   -0.009523409412145979
-0.03520981003361969   -0.350850802349957   -0.008244404720989685
-0.03647814858782994   -0.30028199582431914   -0.006296201117621875
-0.05910048871643969   -0.350350541337653   -0.009165554739558079
-0.03521237004268452   -0.35038385211838846   -0.008168487556414989
-0.03647814858782994   -0.30028199582431914   -0.006296201117621875
-0.06466367093603324   -0.29979990997830713   -0.007207055780033857
-0.05910048871643969   -0.350350541337653   -0.009165554739558079
-0.06484050128074058   -0.29941326309434774   -0.006848334509257748
-0.03521237004268452   -0.35038385211838846   -0.008168487556414989
-0.05908165981642943   -0.34998472932057534   -0.008761304628161683
-0.06484050128074058   -0.29941326309434774   -0.006848334509257748
-0.05910048871643969   -0.350350541337653   -0.009165554739558079
-0.03521237004268452   -0.35038385211838846   -0.008168487556414989
-0.06484050128074058   -0.29941326309434774   -0.006848334509257748
-0.03667874639813847   -0.2997863861163839   -0.006175354706635805
-0.03647814858782994   -0.30028199582431914   -0.006296201117621875
-0.03521237004268452   -0.35038385211838846   -0.008168487556414989
-0.06484050128074058   -0.29941326309434774   -0.006848334509257748
-0.03647814858782994   -0.30028199582431914   -0.006296201117621875
-0.05910048871643969   -0.350350541337653   -0.009165554739558079
-0.03521237004268452   -0.35038385211838846   -0.008168487556414989
-0.03667874639813847   -0.2997863861163839   -0.006175354706635805
-0.05908165981642943   -0.34998472932057534   -0.008761304628161683
-0.035247521501520815   -0.350098869860836   -0.008047681175812452
-0.03667874639813847   -0.2997863861163839   -0.006175354706635805
-0.06484050128074058   -0.29941326309434774   -0.006848334509257748
-0.05908165981642943   -0.34998472932057534   -0.008761304628161683
-0.06502234237891467   -0.2991550993377229   -0.006448204804065264
-0.035247521501520815   -0.350098869860836   -0.008047681175812452
-0.05907004112432575   -0.3497957483759215   -0.008312027763090039
-0.06502234237891467   -0.2991550993377229   -0.006448204804065264
-0.05908165981642943   -0.34998472932057534   -0.008761304628161683
-0.035247521501520815   -0.350098869860836   -0.008047681175812452
-0.06502234237891467   -0.2991550993377229   -0.006448204804065264
-0.03691020487492953   -0.29942326783726825   -0.0060131206729316855
-0.03667874639813847   -0.2997863861163839   -0.006175354706635805
-0.035247521501520815   -0.350098869860836   -0.008047681175812452
-0.06502234237891467   -0.2991550993377229   -0.006448204804065264
-0.03667874639813847   -0.2997863861163839   -0.006175354706635805
-0.05908165981642943   -0.34998472932057534   -0.008761304628161683
-0.05907852550405941   -0.35089640713808645   -0.009523409412145979
-0.06445072029719487   -0.3003155600479434   -0.007523093748249089
-0.08369802334879063   -0.3497124550490253   -0.010599905773020264
-0.05910048871643969   -0.350350541337653   -0.009165554739558079
-0.06445072029719487   -0.3003155600479434   -0.007523093748249089
-0.09329154537626333   -0.2993027633923035   -0.008485057862742866
-0.08369802334879063   -0.3497124550490253   -0.010599905773020264
-0.09346874618957988   -0.2988950394860359   -0.007927211213333346
-0.05910048871643969   -0.350350541337653   -0.009165554739558079
-0.08367058699319772   -0.3492653269036175   -0.009909026792953086
-0.09346874618957988   -0.2988950394860359   -0.007927211213333346
-0.08369802334879063   -0.3497124550490253   -0.010599905773020264
-0.05910048871643969   -0.350350541337653   -0.009165554739558079
-0.09346874618957988   -0.2988950394860359   -0.007927211213333346
-0.06466367093603324   -0.29979990997830713   -0.007207055780033857
-0.06445072029719487   -0.3003155600479434   -0.007523093748249089
-0.05910048871643969   -0.350350541337653   -0.009165554739558079
-0.09346874618957988   -0.2988950394860359   -0.007927211213333346
-0.06445072029719487   -0.3003155600479434   -0.007523093748249089
-0.08369802334879063   -0.3497124550490253   -0.010599905773020264
-0.05910048871643969   -0.350350541337653   -0.009165554739558079
-0.06466367093603324   -0.29979990997830713   -0.007207055780033857
-0.08367058699319772   -0.3492653269036175   -0.009909026792953086
-0.05908165981642943   -0.34998472932057534   -0.008761304628161683
-0.06466367093603324   -0.29979990997830713   -0.007207055780033857
-0.09346874618957988   -0.2988950394860359   -0.007927211213333346
-0.08367058699319772   -0.3492653269036175   -0.009909026792953086
-0.09349493631476642   -0.2986079814258769   -0.0073325969745415024
-0.05908165981642943   -0.34998472932057534   -0.008761304628161683
-0.08346625921362025   -0.34899120158977087   -0.009178724514285514
-0.09349493631476642   -0.2986079814258769   -0.0073325969745415024
-0.08367058699319772   -0.3492653269036175   -0.009909026792953086
-0.05908165981642943   -0.34998472932057534   -0.008761304628161683
-0.09349493631476642   -0.2986079814258769   -0.0073325969745415024
-0.06484050128074058   -0.29941326309434774   -0.006848334509257748
-0.06466367093603324   -0.29979990997830713   -0.007207055780033857
-0.05908165981642943   -0.34998472932057534   -0.008761304628161683
-0.09349493631476642   -0.2986079814258769   -0.0073325969745415024
-0.06466367093603324   -0.29979990997830713   -0.007207055780033857
-0.08367058699319772   -0.3492653269036175   -0.009909026792953086
-0.05908165981642943   -0.34998472932057534   -0.008761304628161683
-0.06484050128074058   -0.29941326309434774   -0.006848334509257748
-0.08346625921362025   -0.34899120158977087   -0.009178724514285514
-0.05907004112432575   -0.3497957483759215   -0.008312027763090039
-0.06484050128074058   -0.29941326309434774   -0.006848334509257748
-0.09349493631476642   -0.2986079814258769   -0.0073325969745415024
-0.08346625921362025   -0.34899120158977087   -0.009178724514285514
-0.09356316972530293   -0.2984608738938913   -0.006693457646998919
-0.05907004112432575   -0.3497957483759215   -0.008312027763090039
-0.08332920048311257   -0.34890870352582004   -0.0083998119623469
-0.09356316972530293   -0.2984608738938913   -0.006693457646998919
-0.08346625921362025   -0.34899120158977087   -0.009178724514285514
-0.05907004112432575   -0.3497957483759215   -0.008312027763090039
-0.09356316972530293   -0.2984608738938913   -0.006693457646998919
-0.06502234237891467   -0.2991550993377229   -0.006448204804065264
-0.06484050128074058   -0.29941326309434774   -0.006848334509257748
-0.05907004112432575   -0.3497957483759215   -0.008312027763090039
-0.09356316972530293   -0.2984608738938913   -0.006693457646998919
-0.06484050128074058   -0.29941326309434774   -0.006848334509257748
-0.08346625921362025   -0.34899120158977087   -0.009178724514285514
-0.08369802334879063   -0.3497124550490253   -0.010599905773020264
-0.09329154537626333   -0.2993027633923035   -0.008485057862742866
-0.11119665286688   -0.34808489360504125   -0.011568514501170048
-0.08367058699319772   -0.3492653269036175   -0.009909026792953086
-0.09329154537626333   -0.2993027633923035   -0.008485057862742866
-0.12473606175231684   -0.29797830664399055   -0.009306580062583114
-0.11119665286688   -0.34808489360504125   -0.011568514501170048
-0.12414625326914008   -0.29760591331968966   -0.008494318209863818
-0.08367058699319772   -0.3492653269036175   -0.009909026792953086
-0.11017986421370918   -0.3476471160923495   -0.010512870197588606
-0.12414625326914008   -0.29760591331968966   -0.008494318209863818
-0.11119665286688   -0.34808489360504125   -0.011568514501170048
-0.08367058699319772   -0.3492653269036175   -0.009909026792953086
-0.12414625326914008   -0.29760591331968966   -0.008494318209863818
-0.09346874618957988   -0.2988950394860359   -0.007927211213333346
-0.09329154537626333   -0.2993027633923035   -0.008485057862742866
-0.08367058699319772   -0.3492653269036175   -0.009909026792953086
-0.12414625326914008   -0.29760591331968966   -0.008494318209863818
-0.09329154537626333   -0.2993027633923035   -0.008485057862742866
-0.11119665286688   -0.34808489360504125   -0.011568514501170048
-0.08367058699319772   -0.3492653269036175   -0.009909026792953086
-0.09346874618957988   -0.2988950394860359   -0.007927211213333346
-0.11017986421370918   -0.3476471160923495   -0.010512870197588606
-0.08346625921362025   -0.34899120158977087   -0.009178724514285514
-0.09346874618957988   -0.2988950394860359   -0.007927211213333346
-0.12414625326914008   -0.29760591331968966   -0.008494318209863818
-0.11017986421370918   -0.3476471160923495   -0.010512870197588606
-0.12364826677214913   -0.2973610128377347   -0.007617946762228181
-0.08346625921362025   -0.34899120158977087   -0.009178724514285514
-0.10930875396336012   -0.347406370005791   -0.009391106381342018
-0.12364826677214913   -0.2973610128377347   -0.007617946762228181
-0.11017986421370918   -0.3476471160923495   -0.010512870197588606
-0.08346625921362025   -0.34899120158977087   -0.009178724514285514
-0.12364826677214913   -0.2973610128377347   -0.007617946762228181
-0.09349493631476642   -0.2986079814258769   -0.0073325969745415024
-0.09346874618957988   -0.2988950394860359   -0.007927211213333346
-0.08346625921362025   -0.34899120158977087   -0.009178724514285514
-0.12364826677214913   -0.2973610128377347   -0.007617946762228181
-0.09346874618957988   -0.2988950394860359   -0.007927211213333346
-0.11017986421370918   -0.3476471160923495   -0.010512870197588606
-0.08346625921362025   -0.34899120158977087   -0.009178724514285514
-0.09349493631476642   -0.2986079814258769   -0.0073325969745415024
-0.10930875396336012   -0.347406370005791   -0.009391106381342018
-0.08332920048311257   -0.34890870352582004   -0.0083998119623469
-0.09349493631476642   -0.2986079814258769   -0.0073325969745415024
-0.12364826677214913   -0.2973610128377347   -0.007617946762228181
-0.10930875396336012   -0.347406370005791   -0.009391106381342018
-0.12282233373680168   -0.2973545743332281   -0.006685431906315336
-0.08332920048311257   -0.34890870352582004   -0.0083998119623469
-0.1080494825875804   -0.34747014521345304   -0.008212218428837736
-0.12282233373680168   -0.2973545743332281   -0.006685431906315336
-0.10930875396336012   -0.347406370005791   -0.009391106381342018
-0.08332920048311257   -0.34890870352582004   -0.0083998119623469
-0.12282233373680168   -0.2973545743332281   -0.006685431906315336
-0.09356316972530293   -0.2984608738938913   -0.006693457646998919
-0.09349493631476642   -0.2986079814258769   -0.0073325969745415024
-0.08332920048311257   -0.34890870352582004   -0.0083998119623469
-0.12282233373680168   -0.2973545743332281   -0.006685431906315336
-0.09349493631476642   -0.2986079814258769   -0.0073325969745415024
-0.10930875396336012   -0.347406370005791   -0.009391106381342018
0.022286082447600105   -0.30076768991203456   -0.003410068675932714
0.026646774900802417   -0.2446417057451372   -0.0017297239194976784
-0.007622763204048763   -0.30106763836854905   -0.005032751176658347
0.022566231306931108   -0.2999019559566768   -0.0038908860658722483
0.026646774900802417   -0.2446417057451372   -0.0017297239194976784
-0.006502500289299972   -0.24462781005259837   -0.0032360096798540114
-0.007622763204048763   -0.30106763836854905   -0.005032751176658347
-0.006804097731252555   -0.24390483797675183   -0.0032547953550021904
0.022566231306931108   -0.2999019559566768   -0.0038908860658722483
-0.00776730399000243   -0.30032088384066624   -0.005194988486498641
-0.006804097731252555   -0.24390483797675183   -0.0032547953550021904
-0.007622763204048763   -0.30106763836854905   -0.005032751176658347
0.022566231306931108   -0.2999019559566768   -0.0038908860658722483
-0.006804097731252555   -0.24390483797675183   -0.0032547953550021904
0.026539301352562814   -0.24381241777195442   -0.001955914652520135
0.026646774900802417   -0.2446417057451372   -0.0017297239194976784
0.022566231306931108   -0.2999019559566768   -0.0038908860658722483
-0.006804097731252555   -0.24390483797675183   -0.0032547953550021904
0.026646774900802417   -0.2446417057451372   -0.0017297239194976784
-0.007622763204048763   -0.30106763836854905   -0.005032751176658347
0.022566231306931108   -0.2999019559566768   -0.0038908860658722483
0.026539301352562814   -0.24381241777195442   -0.001955914652520135
-0.00776730399000243   -0.30032088384066624   -0.005194988486498641
0.02264577384969181   -0.29926589346258686   -0.004309456228054936
0.026539301352562814   -0.24381241777195442   -0.001955914652520135
-0.006804097731252555   -0.24390483797675183   -0.0032547953550021904
-0.00776730399000243   -0.30032088384066624   -0.005194988486498641
-0.007139131959971807   -0.24327898697222738   -0.0032363291516741013
0.02264577384969181   -0.29926589346258686   -0.004309456228054936
-0.007919679778320898   -0.299726027674491   -0.00531500118440193
-0.007139131959971807   -0.24327898697222738   -0.0032363291516741013
-0.00776730399000243   -0.30032088384066624   -0.005194988486498641
0.02264577384969181   -0.29926589346258686   -0.004309456228054936
-0.007139131959971807   -0.24327898697222738   -0.0032363291516741013
0.026291085119055393   -0.24314037353688064   -0.0021223985682314235
0.026539301352562814   -0.24381241777195442   -0.001955914652520135
0.02264577384969181   -0.29926589346258686   -0.004309456228054936
-0.007139131959971807   -0.24327898697222738   -0.0032363291516741013
0.026539301352562814   -0.24381241777195442   -0.001955914652520135
-0.00776730399000243   -0.30032088384066624   -0.005194988486498641
0.02264577384969181   -0.29926589346258686   -0.004309456228054936
0.026291085119055393   -0.24314037353688064   -0.0021223985682314235
-0.007919679778320898   -0.299726027674491   -0.00531500118440193
0.022684157464369775   -0.29874928960167535   -0.004668700966219793
0.026291085119055393   -0.24314037353688064   -0.0021223985682314235
-0.007139131959971807   -0.24327898697222738   -0.0032363291516741013
-0.007919679778320898   -0.299726027674491   -0.00531500118440193
-0.007553161252494971   -0.24273433461127797   -0.0031791425060974385
0.022684157464369775   -0.29874928960167535   -0.004668700966219793
-0.008175648413013558   -0.2992646916069148   -0.005394227622022405
-0.007553161252494971   -0.24273433461127797   -0.0031791425060974385
-0.007919679778320898   -0.299726027674491   -0.00531500118440193
0.022684157464369775   -0.29874928960167535   -0.004668700966219793
-0.007553161252494971   -0.24273433461127797   -0.0031791425060974385
0.02594629021359338   -0.24251810631455917   -0.0022333433853349337
0.026291085119055393   -0.24314037353688064   -0.0021223985682314235
0.022684157464369775   -0.29874928960167535   -0.004668700966219793
-0.007553161252494971   -0.24273433461127797   -0.0031791425060974385
0.026291085119055393   -0.24314037353688064   -0.0021223985682314235
-0.007919679778320898   -0.299726027674491   -0.00531500118440193
-0.007622763204048763   -0.30106763836854905   -0.005032751176658347
-0.006502500289299972   -0.24462781005259837   -0.0032360096798540114
-0.036280244522656525   -0.30090786146809284   -0.00637362359074626
-0.00776730399000243   -0.30032088384066624   -0.005194988486498641
-0.006502500289299972   -0.24462781005259837   -0.0032360096798540114
-0.038115523229175406   -0.24432665005925028   -0.004484465900994612
-0.036280244522656525   -0.30090786146809284   -0.00637362359074626
-0.038451189570412464   -0.2437242868227866   -0.004354448323200434
-0.00776730399000243   -0.30032088384066624   -0.005194988486498641
-0.03647814858782994   -0.30028199582431914   -0.006296201117621875
-0.038451189570412464   -0.2437242868227866   -0.004354448323200434
-0.036280244522656525   -0.30090786146809284   -0.00637362359074626
-0.00776730399000243   -0.30032088384066624   -0.005194988486498641
-0.038451189570412464   -0.2437242868227866   -0.004354448323200434
-0.006804097731252555   -0.24390483797675183   -0.0032547953550021904
-0.006502500289299972   -0.24462781005259837   -0.0032360096798540114
-0.00776730399000243   -0.30032088384066624   -0.005194988486498641
-0.038451189570412464   -0.2437242868227866   -0.004354448323200434
-0.006502500289299972   -0.24462781005259837   -0.0032360096798540114
-0.036280244522656525   -0.30090786146809284   -0.00637362359074626
-0.00776730399000243   -0.30032088384066624   -0.005194988486498641
-0.006804097731252555   -0.24390483797675183   -0.0032547953550021904
-0.03647814858782994   -0.30028199582431914   -0.006296201117621875
-0.007919679778320898   -0.299726027674491   -0.00531500118440193
-0.006804097731252555   -0.24390483797675183   -0.0032547953550021904
-0.038451189570412464   -0.2437242868227866   -0.004354448323200434
-0.03647814858782994   -0.30028199582431914   -0.006296201117621875
-0.03879348503811295   -0.24320100007484366   -0.004185675747148227
-0.007919679778320898   -0.299726027674491   -0.00531500118440193
-0.03667874639813847   -0.2997863861163839   -0.006175354706635805
-0.03879348503811295   -0.24320100007484366   -0.004185675747148227
-0.03647814858782994   -0.30028199582431914   -0.006296201117621875
-0.007919679778320898   -0.299726027674491   -0.00531500118440193
-0.03879348503811295   -0.24320100007484366   -0.004185675747148227
-0.007139131959971807   -0.24327898697222738   -0.0032363291516741013
-0.006804097731252555   -0.24390483797675183   -0.0032547953550021904
-0.007919679778320898   -0.299726027674491   -0.00531500118440193
-0.03879348503811295   -0.24320100007484366   -0.004185675747148227
-0.006804097731252555   -0.24390483797675183   -0.0032547953550021904
-0.03647814858782994   -0.30028199582431914   -0.006296201117621875
-0.007919679778320898   -0.299726027674491   -0.00531500118440193
-0.007139131959971807   -0.24327898697222738   -0.0032363291516741013
-0.03667874639813847   -0.2997863861163839   -0.006175354706635805
-0.008175648413013558   -0.2992646916069148   -0.005394227622022405
-0.007139131959971807   -0.24327898697222738   -0.0032363291516741013
-0.03879348503811295   -0.24320100007484366   -0.004185675747148227
-0.03667874639813847   -0.2997863861163839   -0.006175354706635805
-0.03916442728841795   -0.24276158674987153   -0.003979909558154285
-0.008175648413013558   -0.2992646916069148   -0.005394227622022405
-0.03691020487492953   -0.29942326783726825   -0.0060131206729316855
-0.03916442728841795   -0.24276158674987153   -0.003979909558154285
-0.03667874639813847   -0.2997863861163839   -0.006175354706635805
-0.008175648413013558   -0.2992646916069148   -0.005394227622022405
-0.03916442728841795   -0.24276158674987153   -0.003979909558154285
-0.007553161252494971   -0.24273433461127797   -0.0031791425060974385
-0.007139131959971807   -0.24327898697222738   -0.0032363291516741013
-0.008175648413013558   -0.2992646916069148   -0.005394227622022405
-0.03916442728841795   -0.24276158674987153   -0.003979909558154285
-0.007139131959971807   -0.24327898697222738   -0.0032363291516741013
-0.03667874639813847   -0.2997863861163839   -0.006175354706635805
-0.036280244522656525   -0.30090786146809284   -0.00637362359074626
-0.038115523229175406   -0.24432665005925028   -0.004484465900994612
-0.06445072029719487   -0.3003155600479434   -0.007523093748249089
-0.03647814858782994   -0.30028199582431914   -0.006296201117621875
-0.038115523229175406   -0.24432665005925028   -0.004484465900994612
-0.0691937405741464   -0.24376941313177208   -0.005540670079450321
-0.06445072029719487   -0.3003155600479434   -0.007523093748249089
-0.06953868633870869   -0.24327859873821564   -0.005261951254724798
-0.03647814858782994   -0.30028199582431914   -0.006296201117621875
-0.06466367093603324   -0.29979990997830713   -0.007207055780033857
-0.06953868633870869   -0.24327859873821564   -0.005261951254724798
-0.06445072029719487   -0.3003155600479434   -0.007523093748249089
-0.03647814858782994   -0.30028199582431914   -0.006296201117621875
-0.06953868633870869   -0.24327859873821564   -0.005261951254724798
-0.038451189570412464   -0.2437242868227866   -0.004354448323200434
-0.038115523229175406   -0.24432665005925028   -0.004484465900994612
-0.03647814858782994   -0.30028199582431914   -0.006296201117621875
-0.06953868633870869   -0.24327859873821564   -0.005261951254724798
-0.038115523229175406   -0.24432665005925028   -0.004484465900994612
-0.06445072029719487   -0.3003155600479434   -0.007523093748249089
-0.03647814858782994   -0.30028199582431914   -0.006296201117621875
-0.038451189570412464   -0.2437242868227866   -0.004354448323200434
-0.06466367093603324   -0.29979990997830713   -0.007207055780033857
-0.03667874639813847   -0.2997863861163839   -0.006175354706635805
-0.038451189570412464   -0.2437242868227866   -0.004354448323200434
-0.06953868633870869   -0.24327859873821564   -0.005261951254724798
-0.06466367093603324   -0.29979990997830713   -0.007207055780033857
-0.06985191163922236   -0.24286630015883878   -0.004945362803439781
-0.03667874639813847   -0.2997863861163839   -0.006175354706635805
-0.06484050128074058   -0.29941326309434774   -0.006848334509257748
-0.06985191163922236   -0.24286630015883878   -0.004945362803439781
-0.06466367093603324   -0.29979990997830713   -0.007207055780033857
-0.03667874639813847   -0.2997863861163839   -0.006175354706635805
-0.06985191163922236   -0.24286630015883878   -0.004945362803439781
-0.03879348503811295   -0.24320100007484366   -0.004185675747148227
-0.038451189570412464   -0.2437242868227866   -0.004354448323200434
-0.03667874639813847   -0.2997863861163839   -0.006175354706635805
-0.06985191163922236   -0.24286630015883878   -0.004945362803439781
-0.038451189570412464   -0.2437242868227866   -0.004354448323200434
-0.06466367093603324   -0.29979990997830713   -0.007207055780033857
-0.03667874639813847   -0.2997863861163839   -0.006175354706635805
-0.03879348503811295   -0.24320100007484366   -0.004185675747148227
-0.06484050128074058   -0.29941326309434774   -0.006848334509257748
-0.03691020487492953   -0.29942326783726825   -0.0060131206729316855
-0.03879348503811295   -0.24320100007484366   -0.004185675747148227
-0.06985191163922236   -0.24286630015883878   -0.004945362803439781
-0.06484050128074058   -0.29941326309434774   -0.006848334509257748
-0.07016806656949638   -0.24253325453247346   -0.00459236998167561
-0.03691020487492953   -0.29942326783726825   -0.0060131206729316855
-0.06502234237891467   -0.2991550993377229   -0.006448204804065264
-0.07016806656949638   -0.24253325453247346   -0.00459236998167561
-0.06484050128074058   -0.29941326309434774   -0.006848334509257748
-0.03691020487492953   -0.29942326783726825   -0.0060131206729316855
-0.07016806656949638   -0.24253325453247346   -0.00459236998167561
-0.03916442728841795   -0.24276158674987153   -0.003979909558154285
-0.03879348503811295   -0.24320100007484366   -0.004185675747148227
-0.03691020487492953   -0.29942326783726825   -0.0060131206729316855
-0.07016806656949638   -0.24253325453247346   -0.00459236998167561
-0.03879348503811295   -0.24320100007484366   -0.004185675747148227
-0.06484050128074058   -0.29941326309434774   -0.006848334509257748
-0.06445072029719487   -0.3003155600479434   -0.007523093748249089
-0.0691937405741464   -0.24376941313177208   -0.005540670079450321
-0.09329154537626333   -0.2993027633923035   -0.008485057862742866
-0.06466367093603324   -0.29979990997830713   -0.007207055780033857
-0.0691937405741464   -0.24376941313177208   -0.005540670079450321
-0.10088617521607887   -0.24294415008344408   -0.006406647785053514
-0.09329154537626333   -0.2993027633923035   -0.008485057862742866
-0.10120704095362217   -0.24256599595238723   -0.005978121043437604
-0.06466367093603324   -0.29979990997830713   -0.007207055780033857
-0.09346874618957988   -0.2988950394860359   -0.007927211213333346
-0.10120704095362217   -0.24256599595238723   -0.005978121043437604
-0.09329154537626333   -0.2993027633923035   -0.008485057862742866
-0.06466367093603324   -0.29979990997830713   -0.007207055780033857
-0.10120704095362217   -0.24256599595238723   -0.005978121043437604
-0.06953868633870869   -0.24327859873821564   -0.005261951254724798
-0.0691937405741464   -0.24376941313177208   -0.005540670079450321
-0.06466367093603324   -0.29979990997830713   -0.007207055780033857
-0.10120704095362217   -0.24256599595238723   -0.005978121043437604
-0.0691937405741464   -0.24376941313177208   -0.005540670079450321
-0.09329154537626333   -0.2993027633923035   -0.008485057862742866
-0.06466367093603324   -0.29979990997830713   -0.007207055780033857
-0.06953868633870869   -0.24327859873821564   -0.005261951254724798
-0.09346874618957988   -0.2988950394860359   -0.007927211213333346
-0.06484050128074058   -0.29941326309434774   -0.006848334509257748
-0.06953868633870869   -0.24327859873821564   -0.005261951254724798
-0.10120704095362217   -0.24256599595238723   -0.005978121043437604
-0.09346874618957988   -0.2988950394860359   -0.007927211213333346
-0.10140361934666067   -0.24225588539161985   -0.005516882403966363
-0.06484050128074058   -0.29941326309434774   -0.006848334509257748
-0.09349493631476642   -0.2986079814258769   -0.0073325969745415024
-0.10140361934666067   -0.24225588539161985   -0.005516882403966363
-0.09346874618957988   -0.2988950394860359   -0.007927211213333346
-0.06484050128074058   -0.29941326309434774   -0.006848334509257748
-0.10140361934666067   -0.24225588539161985   -0.005516882403966363
-0.06985191163922236   -0.24286630015883878   -0.004945362803439781
-0.06953868633870869   -0.24327859873821564   -0.005261951254724798
-0.06484050128074058   -0.29941326309434774   -0.006848334509257748
-0.10140361934666067   -0.24225588539161985   -0.005516882403966363
-0.06953868633870869   -0.24327859873821564   -0.005261951254724798
-0.09346874618957988   -0.2988950394860359   -0.007927211213333346
-0.06484050128074058   -0.29941326309434774   -0.006848334509257748
-0.06985191163922236   -0.24286630015883878   -0.004945362803439781
-0.09349493631476642   -0.2986079814258769   -0.0073325969745415024
-0.06502234237891467   -0.2991550993377229   -0.006448204804065264
-0.06985191163922236   -0.24286630015883878   -0.004945362803439781
-0.10140361934666067   -0.24225588539161985   -0.005516882403966363
-0.09349493631476642   -0.2986079814258769   -0.0073325969745415024
-0.10161838061459129   -0.242031791462185   -0.0050161453747664
-0.06502234237891467   -0.2991550993377229   -0.006448204804065264
-0.09356316972530293   -0.2984608738938913   -0.006693457646998919
-0.10161838061459129   -0.242031791462185   -0.0050161453747664
-0.09349493631476642   -0.2986079814258769   -0.0073325969745415024
-0.06502234237891467   -0.2991550993377229   -0.006448204804065264
-0.10161838061459129   -0.242031791462185   -0.0050161453747664
-0.07016806656949638   -0.24253325453247346   -0.00459236998167561
-0.06985191163922236   -0.24286630015883878   -0.004945362803439781
-0.06502234237891467   -0.2991550993377229   -0.006448204804065264
-0.10161838061459129   -0.242031791462185   -0.0050161453747664
-0.06985191163922236   -0.24286630015883878   -0.004945362803439781
-0.09349493631476642   -0.2986079814258769   -0.0073325969745415024
-0.09329154537626333   -0.2993027633923035   -0.008485057862742866
-0.10088617521607887   -0.24294415008344408   -0.006406647785053514
-0.12473606175231684   -0.29797830664399055   -0.009306580062583114
-0.09346874618957988   -0.2988950394860359   -0.007927211213333346
-0.10088617521607887   -0.24294415008344408   -0.006406647785053514
-0.13488963505863455   -0.24193275119511404   -0.007097160727729839
-0.12473606175231684   -0.29797830664399055   -0.009306580062583114
-0.13466756871944777   -0.2416127471334989   -0.006528631693932232
-0.09346874618957988   -0.2988950394860359   -0.007927211213333346
-0.12414625326914008   -0.29760591331968966   -0.008494318209863818
-0.13466756871944777   -0.2416127471334989   -0.006528631693932232
-0.12473606175231684   -0.29797830664399055   -0.009306580062583114
-0.09346874618957988   -0.2988950394860359   -0.007927211213333346
-0.13466756871944777   -0.2416127471334989   -0.006528631693932232
-0.10120704095362217   -0.24256599595238723   -0.005978121043437604
-0.10088617521607887   -0.24294415008344408   -0.006406647785053514
-0.09346874618957988   -0.2988950394860359   -0.007927211213333346
-0.13466756871944777   -0.2416127471334989   -0.006528631693932232
-0.10088617521607887   -0.24294415008344408   -0.006406647785053514
-0.12473606175231684   -0.29797830664399055   -0.009306580062583114
-0.09346874618957988   -0.2988950394860359   -0.007927211213333346
-0.10120704095362217   -0.24256599595238723   -0.005978121043437604
-0.12414625326914008   -0.29760591331968966   -0.008494318209863818
-0.09349493631476642   -0.2986079814258769   -0.0073325969745415024
-0.10120704095362217   -0.24256599595238723   -0.005978121043437604
-0.13466756871944777   -0.2416127471334989   -0.006528631693932232
-0.12414625326914008   -0.29760591331968966   -0.008494318209863818
-0.1344867669502305   -0.24135073099156235   -0.0059000863369424875
-0.09349493631476642   -0.2986079814258769   -0.0073325969745415024
-0.12364826677214913   -0.2973610128377347   -0.007617946762228181
-0.1344867669502305   -0.24135073099156235   -0.0059000863369424875
-0.12414625326914008   -0.29760591331968966   -0.008494318209863818
-0.09349493631476642   -0.2986079814258769   -0.0073325969745415024
-0.1344867669502305   -0.24135073099156235   -0.0059000863369424875
-0.10140361934666067   -0.24225588539161985   -0.005516882403966363
-0.10120704095362217   -0.24256599595238723   -0.005978121043437604
-0.09349493631476642   -0.2986079814258769   -0.0073325969745415024
-0.1344867669502305   -0.24135073099156235   -0.0059000863369424875
-0.10120704095362217   -0.24256599595238723   -0.005978121043437604
-0.12414625326914008   -0.29760591331968966   -0.008494318209863818
-0.09349493631476642   -0.2986079814258769   -0.0073325969745415024
-0.10140361934666067   -0.24225588539161985   -0.005516882403966363
-0.12364826677214913   -0.2973610128377347   -0.007617946762228181
-0.09356316972530293   -0.2984608738938913   -0.006693457646998919
-0.10140361934666067   -0.24225588539161985   -0.005516882403966363
-0.1344867669502305   -0.24135073099156235   -0.0059000863369424875
-0.12364826677214913   -0.2973610128377347   -0.007617946762228181
-0.1340410794684125   -0.24125664911791087   -0.005218384984740482
-0.09356316972530293   -0.2984608738938913   -0.006693457646998919
-0.12282233373680168   -0.2973545743332281   -0.006685431906315336
-0.1340410794684125   -0.24125664911791087   -0.005218384984740482
-0.12364826677214913   -0.2973610128377347   -0.007617946762228181
-0.09356316972530293   -0.2984608738938913   -0.006693457646998919
-0.1340410794684125   -0.24125664911791087   -0.005218384984740482
-0.10161838061459129   -0.242031791462185   -0.0050161453747664
-0.10140361934666067   -0.24225588539161985   -0.005516882403966363
-0.09356316972530293   -0.2984608738938913   -0.006693457646998919
-0.1340410794684125   -0.24125664911791087   -0.005218384984740482
-0.10140361934666067   -0.24225588539161985   -0.005516882403966363
-0.12364826677214913   -0.2973610128377347   -0.007617946762228181
0.026646774900802417   -0.2446417057451372   -0.0017297239194976784
0.027440885342290507   -0.1847359676032716   -0.00025661258555595944
-0.006502500289299972   -0.24462781005259837   -0.0032360096798540114
0.026539301352562814   -0.24381241777195442   -0.001955914652520135
0.027440885342290507   -0.1847359676032716   -0.00025661258555595944
-0.007538757629152542   -0.18442194636974654   -0.0016139849669877387
-0.006502500289299972   -0.24462781005259837   -0.0032360096798540114
-0.007950366654988075   -0.18372896528144175   -0.0014900676568103492
0.026539301352562814   -0.24381241777195442   -0.001955914652520135
-0.006804097731252555   -0.24390483797675183   -0.0032547953550021904
-0.007950366654988075   -0.18372896528144175   -0.0014900676568103492
-0.006502500289299972   -0.24462781005259837   -0.0032360096798540114
0.026539301352562814   -0.24381241777195442   -0.001955914652520135
-0.007950366654988075   -0.18372896528144175   -0.0014900676568103492
0.026997601489018995   -0.1839438572527062   -0.0002247951116349422
0.027440885342290507   -0.1847359676032716   -0.00025661258555595944
0.026539301352562814   -0.24381241777195442   -0.001955914652520135
-0.007950366654988075   -0.18372896528144175   -0.0014900676568103492
0.027440885342290507   -0.1847359676032716   -0.00025661258555595944
-0.006502500289299972   -0.24462781005259837   -0.0032360096798540114
0.026539301352562814   -0.24381241777195442   -0.001955914652520135
0.026997601489018995   -0.1839438572527062   -0.0002247951116349422
-0.006804097731252555   -0.24390483797675183   -0.0032547953550021904
0.026291085119055393   -0.24314037353688064   -0.0021223985682314235
0.026997601489018995   -0.1839438572527062   -0.0002247951116349422
-0.007950366654988075   -0.18372896528144175   -0.0014900676568103492
-0.006804097731252555   -0.24390483797675183   -0.0032547953550021904
-0.008421095541162209   -0.18307233819852217   -0.0013325415993573585
0.026291085119055393   -0.24314037353688064   -0.0021223985682314235
-0.007139131959971807   -0.24327898697222738   -0.0032363291516741013
-0.008421095541162209   -0.18307233819852217   -0.0013325415993573585
-0.006804097731252555   -0.24390483797675183   -0.0032547953550021904
0.026291085119055393   -0.24314037353688064   -0.0021223985682314235
-0.008421095541162209   -0.18307233819852217   -0.0013325415993573585
0.026458523035604732   -0.18323215857273908   -0.00012419057417295778
0.026997601489018995   -0.1839438572527062   -0.0002247951116349422
0.026291085119055393   -0.24314037353688064   -0.0021223985682314235
-0.008421095541162209   -0.18307233819852217   -0.0013325415993573585
0.026997601489018995   -0.1839438572527062   -0.0002247951116349422
-0.006804097731252555   -0.24390483797675183   -0.0032547953550021904
0.026291085119055393   -0.24314037353688064   -0.0021223985682314235
0.026458523035604732   -0.18323215857273908   -0.00012419057417295778
-0.007139131959971807   -0.24327898697222738   -0.0032363291516741013
0.02594629021359338   -0.24251810631455917   -0.0022333433853349337
0.026458523035604732   -0.18323215857273908   -0.00012419057417295778
-0.008421095541162209   -0.18307233819852217   -0.0013325415993573585
-0.007139131959971807   -0.24327898697222738   -0.0032363291516741013
-0.008948186525909764   -0.18244321055850254   -0.00113295941185142
0.02594629021359338   -0.24251810631455917   -0.0022333433853349337
-0.007553161252494971   -0.24273433461127797   -0.0031791425060974385
-0.008948186525909764   -0.18244321055850254   -0.00113295941185142
-0.007139131959971807   -0.24327898697222738   -0.0032363291516741013
0.02594629021359338   -0.24251810631455917   -0.0022333433853349337
-0.008948186525909764   -0.18244321055850254   -0.00113295941185142
0.025749244672928235   -0.182485737897603   4.2052618633771905e-05
0.026458523035604732   -0.18323215857273908   -0.00012419057417295778
0.02594629021359338   -0.24251810631455917   -0.0022333433853349337
-0.008948186525909764   -0.18244321055850254   -0.00113295941185142
0.026458523035604732   -0.18323215857273908   -0.00012419057417295778
-0.007139131959971807   -0.24327898697222738   -0.0032363291516741013
-0.006502500289299972   -0.24462781005259837   -0.0032360096798540114
-0.007538757629152542   -0.18442194636974654   -0.0016139849669877387
-0.038115523229175406   -0.24432665005925028   -0.004484465900994612
-0.006804097731252555   -0.24390483797675183   -0.0032547953550021904
-0.007538757629152542   -0.18442194636974654   -0.0016139849669877387
-0.04068548604935795   -0.18406253429572086   -0.0027681657361893993
-0.038115523229175406   -0.24432665005925028   -0.004484465900994612
-0.041103687986606886   -0.18348052744720736   -0.00258256405075376
-0.006804097731252555   -0.24390483797675183   -0.0032547953550021904
-0.038451189570412464   -0.2437242868227866   -0.004354448323200434
-0.041103687986606886   -0.18348052744720736   -0.00258256405075376
-0.038115523229175406   -0.24432665005925028   -0.004484465900994612
-0.006804097731252555   -0.24390483797675183   -0.0032547953550021904
-0.041103687986606886   -0.18348052744720736   -0.00258256405075376
-0.007950366654988075   -0.18372896528144175   -0.0014900676568103492
-0.007538757629152542   -0.18442194636974654   -0.0016139849669877387
-0.006804097731252555   -0.24390483797675183   -0.0032547953550021904
-0.041103687986606886   -0.18348052744720736   -0.00258256405075376
-0.007538757629152542   -0.18442194636974654   -0.0016139849669877387
-0.038115523229175406   -0.24432665005925028   -0.004484465900994612
-0.006804097731252555   -0.24390483797675183   -0.0032547953550021904
-0.007950366654988075   -0.18372896528144175   -0.0014900676568103492
-0.038451189570412464   -0.2437242868227866   -0.004354448323200434
-0.007139131959971807   -0.24327898697222738   -0.0032363291516741013
-0.007950366654988075   -0.18372896528144175   -0.0014900676568103492
-0.041103687986606886   -0.18348052744720736   -0.00258256405075376
-0.038451189570412464   -0.2437242868227866   -0.004354448323200434
-0.04153105254667791   -0.1829267966916523   -0.0023650270671111352
-0.007139131959971807   -0.24327898697222738   -0.0032363291516741013
-0.03879348503811295   -0.24320100007484366   -0.004185675747148227
-0.04153105254667791   -0.1829267966916523   -0.0023650270671111352
-0.038451189570412464   -0.2437242868227866   -0.004354448323200434
-0.007139131959971807   -0.24327898697222738   -0.0032363291516741013
-0.04153105254667791   -0.1829267966916523   -0.0023650270671111352
-0.008421095541162209   -0.18307233819852217   -0.0013325415993573585
-0.007950366654988075   -0.18372896528144175   -0.0014900676568103492
-0.007139131959971807   -0.24327898697222738   -0.0032363291516741013
-0.04153105254667791   -0.1829267966916523   -0.0023650270671111352
-0.007950366654988075   -0.18372896528144175   -0.0014900676568103492
-0.038451189570412464   -0.2437242868227866   -0.004354448323200434
-0.007139131959971807   -0.24327898697222738   -0.0032363291516741013
-0.008421095541162209   -0.18307233819852217   -0.0013325415993573585
-0.03879348503811295   -0.24320100007484366   -0.004185675747148227
-0.007553161252494971   -0.24273433461127797   -0.0031791425060974385
-0.008421095541162209   -0.18307233819852217   -0.0013325415993573585
-0.04153105254667791   -0.1829267966916523   -0.0023650270671111352
-0.03879348503811295   -0.24320100007484366   -0.004185675747148227
-0.04198528010487783   -0.1824096303163117   -0.002115137462195574
-0.007553161252494971   -0.24273433461127797   -0.0031791425060974385
-0.03916442728841795   -0.24276158674987153   -0.003979909558154285
-0.04198528010487783   -0.1824096303163117   -0.002115137462195574
-0.03879348503811295   -0.24320100007484366   -0.004185675747148227
-0.007553161252494971   -0.24273433461127797   -0.0031791425060974385
-0.04198528010487783   -0.1824096303163117   -0.002115137462195574
-0.008948186525909764   -0.18244321055850254   -0.00113295941185142
-0.008421095541162209   -0.18307233819852217   -0.0013325415993573585
-0.007553161252494971   -0.24273433461127797   -0.0031791425060974385
-0.04198528010487783   -0.1824096303163117   -0.002115137462195574
-0.008421095541162209   -0.18307233819852217   -0.0013325415993573585
-0.03879348503811295   -0.24320100007484366   -0.004185675747148227
-0.038115523229175406   -0.24432665005925028   -0.004484465900994612
-0.04068548604935795   -0.18406253429572086   -0.0027681657361893993
-0.0691937405741464   -0.24376941313177208   -0.005540670079450321
-0.038451189570412464   -0.2437242868227866   -0.004354448323200434
-0.04068548604935795   -0.18406253429572086   -0.0027681657361893993
-0.0732964057202093   -0.18363454761521278   -0.00375158368071512
-0.0691937405741464   -0.24376941313177208   -0.005540670079450321
-0.07371092114086862   -0.183155742407776   -0.003504080891386911
-0.038451189570412464   -0.2437242868227866   -0.004354448323200434
-0.06953868633870869   -0.24327859873821564   -0.005261951254724798
-0.07371092114086862   -0.183155742407776   -0.003504080891386911
-0.0691937405741464   -0.24376941313177208   -0.005540670079450321
-0.038451189570412464   -0.2437242868227866   -0.004354448323200434
-0.07371092114086862   -0.183155742407776   -0.003504080891386911
-0.041103687986606886   -0.18348052744720736   -0.00258256405075376
-0.04068548604935795   -0.18406253429572086   -0.0027681657361893993
-0.038451189570412464   -0.2437242868227866   -0.004354448323200434
-0.07371092114086862   -0.183155742407776   -0.003504080891386911
-0.04068548604935795   -0.18406253429572086   -0.0027681657361893993
-0.0691937405741464   -0.24376941313177208   -0.005540670079450321
-0.038451189570412464   -0.2437242868227866   -0.004354448323200434
-0.041103687986606886   -0.18348052744720736   -0.00258256405075376
-0.06953868633870869   -0.24327859873821564   -0.005261951254724798
-0.03879348503811295   -0.24320100007484366   -0.004185675747148227
-0.041103687986606886   -0.18348052744720736   -0.00258256405075376
-0.07371092114086862   -0.183155742407776   -0.003504080891386911
-0.06953868633870869   -0.24327859873821564   -0.005261951254724798
-0.07409880506468534   -0.182706938152579   -0.0032257391221425335
-0.03879348503811295   -0.24320100007484366   -0.004185675747148227
-0.06985191163922236   -0.24286630015883878   -0.004945362803439781
-0.07409880506468534   -0.182706938152579   -0.0032257391221425335
-0.06953868633870869   -0.24327859873821564   -0.005261951254724798
-0.03879348503811295   -0.24320100007484366   -0.004185675747148227
-0.07409880506468534   -0.182706938152579   -0.0032257391221425335
-0.04153105254667791   -0.1829267966916523   -0.0023650270671111352
-0.041103687986606886   -0.18348052744720736   -0.00258256405075376
-0.03879348503811295   -0.24320100007484366   -0.004185675747148227
-0.07409880506468534   -0.182706938152579   -0.0032257391221425335
-0.041103687986606886   -0.18348052744720736   -0.00258256405075376
-0.06953868633870869   -0.24327859873821564   -0.005261951254724798
-0.03879348503811295   -0.24320100007484366   -0.004185675747148227
-0.04153105254667791   -0.1829267966916523   -0.0023650270671111352
-0.06985191163922236   -0.24286630015883878   -0.004945362803439781
-0.03916442728841795   -0.24276158674987153   -0.003979909558154285
-0.04153105254667791   -0.1829267966916523   -0.0023650270671111352
-0.07409880506468534   -0.182706938152579   -0.0032257391221425335
-0.06985191163922236   -0.24286630015883878   -0.004945362803439781
-0.07448807025871072   -0.182289422678778   -0.0029181073633930722
-0.03916442728841795   -0.24276158674987153   -0.003979909558154285
-0.07016806656949638   -0.24253325453247346   -0.00459236998167561
-0.07448807025871072   -0.182289422678778   -0.0029181073633930722
-0.06985191163922236   -0.24286630015883878   -0.004945362803439781
-0.03916442728841795   -0.24276158674987153   -0.003979909558154285
-0.07448807025871072   -0.182289422678778   -0.0029181073633930722
-0.04198528010487783   -0.1824096303163117   -0.002115137462195574
-0.04153105254667791   -0.1829267966916523   -0.0023650270671111352
-0.03916442728841795   -0.24276158674987153   -0.003979909558154285
-0.07448807025871072   -0.182289422678778   -0.0029181073633930722
-0.04153105254667791   -0.1829267966916523   -0.0023650270671111352
-0.06985191163922236   -0.24286630015883878   -0.004945362803439781
-0.0691937405741464   -0.24376941313177208   -0.005540670079450321
-0.0732964057202093   -0.18363454761521278   -0.00375158368071512
-0.10088617521607887   -0.24294415008344408   -0.006406647785053514
-0.06953868633870869   -0.24327859873821564   -0.005261951254724798
-0.0732964057202093   -0.18363454761521278   -0.00375158368071512
-0.10649430021614638   -0.1830579090697995   -0.004555884557969562
-0.10088617521607887   -0.24294415008344408   -0.006406647785053514
-0.10689151048205721   -0.182687724757653   -0.004247202342368727
-0.06953868633870869   -0.24327859873821564   -0.005261951254724798
-0.10120704095362217   -0.24256599595238723   -0.005978121043437604
-0.10689151048205721   -0.182687724757653   -0.004247202342368727
-0.10088617521607887   -0.24294415008344408   -0.006406647785053514
-0.06953868633870869   -0.24327859873821564   -0.005261951254724798
-0.10689151048205721   -0.182687724757653   -0.004247202342368727
-0.07371092114086862   -0.183155742407776   -0.003504080891386911
-0.0732964057202093   -0.18363454761521278   -0.00375158368071512
-0.06953868633870869   -0.24327859873821564   -0.005261951254724798
-0.10689151048205721   -0.182687724757653   -0.004247202342368727
-0.0732964057202093   -0.18363454761521278   -0.00375158368071512
-0.10088617521607887   -0.24294415008344408   -0.006406647785053514
-0.06953868633870869   -0.24327859873821564   -0.005261951254724798
-0.07371092114086862   -0.183155742407776   -0.003504080891386911
-0.10120704095362217   -0.24256599595238723   -0.005978121043437604
-0.06985191163922236   -0.24286630015883878   -0.004945362803439781
-0.07371092114086862   -0.183155742407776   -0.003504080891386911
-0.10689151048205721   -0.182687724757653   -0.004247202342368727
-0.10120704095362217   -0.24256599595238723   -0.005978121043437604
-0.10719417291479798   -0.1823353684891971   -0.0039128717280166835
-0.06985191163922236   -0.24286630015883878   -0.004945362803439781
-0.10140361934666067   -0.24225588539161985   -0.005516882403966363
-0.10719417291479798   -0.1823353684891971   -0.0039128717280166835
-0.10120704095362217   -0.24256599595238723   -0.005978121043437604
-0.06985191163922236   -0.24286630015883878   -0.004945362803439781
-0.10719417291479798   -0.1823353684891971   -0.0039128717280166835
-0.07409880506468534   -0.182706938152579   -0.0032257391221425335
-0.07371092114086862   -0.183155742407776   -0.003504080891386911
-0.06985191163922236   -0.24286630015883878   -0.004945362803439781
-0.10719417291479798   -0.1823353684891971   -0.0039128717280166835
-0.07371092114086862   -0.183155742407776   -0.003504080891386911
-0.10120704095362217   -0.24256599595238723   -0.005978121043437604
-0.06985191163922236   -0.24286630015883878   -0.004945362803439781
-0.07409880506468534   -0.182706938152579   -0.0032257391221425335
-0.10140361934666067   -0.24225588539161985   -0.005516882403966363
-0.07016806656949638   -0.24253325453247346   -0.00459236998167561
-0.07409880506468534   -0.182706938152579   -0.0032257391221425335
-0.10719417291479798   -0.1823353684891971   -0.0039128717280166835
-0.10140361934666067   -0.24225588539161985   -0.005516882403966363
-0.10749411353743751   -0.182015907572475   -0.003546112262524308
-0.07016806656949638   -0.24253325453247346   -0.00459236998167561
-0.10161838061459129   -0.242031791462185   -0.0050161453747664
-0.10749411353743751   -0.182015907572475   -0.003546112262524308
-0.10140361934666067   -0.24225588539161985   -0.005516882403966363
-0.07016806656949638   -0.24253325453247346   -0.00459236998167561
-0.10749411353743751   -0.182015907572475   -0.003546112262524308
-0.07448807025871072   -0.182289422678778   -0.0029181073633930722
-0.07409880506468534   -0.182706938152579   -0.0032257391221425335
-0.07016806656949638   -0.24253325453247346   -0.00459236998167561
-0.10749411353743751   -0.182015907572475   -0.003546112262524308
-0.07409880506468534   -0.182706938152579   -0.0032257391221425335
-0.10140361934666067   -0.24225588539161985   -0.005516882403966363
-0.10088617521607887   -0.24294415008344408   -0.006406647785053514
-0.10649430021614638   -0.1830579090697995   -0.004555884557969562
-0.13488963505863455   -0.24193275119511404   -0.007097160727729839
-0.10120704095362217   -0.24256599595238723   -0.005978121043437604
-0.10649430021614638   -0.1830579090697995   -0.004555884557969562
-0.14166447899797388   -0.18238002579347792   -0.005157064218950848
-0.13488963505863455   -0.24193275119511404   -0.007097160727729839
-0.14173405088984203   -0.18208217211929947   -0.004818838724776008
-0.10120704095362217   -0.24256599595238723   -0.005978121043437604
-0.13466756871944777   -0.2416127471334989   -0.006528631693932232
-0.14173405088984203   -0.18208217211929947   -0.004818838724776008
-0.13488963505863455   -0.24193275119511404   -0.007097160727729839
-0.10120704095362217   -0.24256599595238723   -0.005978121043437604
-0.14173405088984203   -0.18208217211929947   -0.004818838724776008
-0.10689151048205721   -0.182687724757653   -0.004247202342368727
-0.10649430021614638   -0.1830579090697995   -0.004555884557969562
-0.10120704095362217   -0.24256599595238723   -0.005978121043437604
-0.14173405088984203   -0.18208217211929947   -0.004818838724776008
-0.10649430021614638   -0.1830579090697995   -0.004555884557969562
-0.13488963505863455   -0.24193275119511404   -0.007097160727729839
-0.10120704095362217   -0.24256599595238723   -0.005978121043437604
-0.10689151048205721   -0.182687724757653   -0.004247202342368727
-0.13466756871944777   -0.2416127471334989   -0.006528631693932232
-0.10140361934666067   -0.24225588539161985   -0.005516882403966363
-0.10689151048205721   -0.182687724757653   -0.004247202342368727
-0.14173405088984203   -0.18208217211929947   -0.004818838724776008
-0.13466756871944777   -0.2416127471334989   -0.006528631693932232
-0.14180407095978506   -0.1817793145921136   -0.004428857274852689
-0.10140361934666067   -0.24225588539161985   -0.005516882403966363
-0.1344867669502305   -0.24135073099156235   -0.0059000863369424875
-0.14180407095978506   -0.1817793145921136   -0.004428857274852689
-0.13466756871944777   -0.2416127471334989   -0.006528631693932232
-0.10140361934666067   -0.24225588539161985   -0.005516882403966363
-0.14180407095978506   -0.1817793145921136   -0.004428857274852689
-0.10719417291479798   -0.1823353684891971   -0.0039128717280166835
-0.10689151048205721   -0.182687724757653   -0.004247202342368727
-0.10140361934666067   -0.24225588539161985   -0.005516882403966363
-0.14180407095978506   -0.1817793145921136   -0.004428857274852689
-0.10689151048205721   -0.182687724757653   -0.004247202342368727
-0.13466756871944777   -0.2416127471334989   -0.006528631693932232
-0.10140361934666067   -0.24225588539161985   -0.005516882403966363
-0.10719417291479798   -0.1823353684891971   -0.0039128717280166835
-0.1344867669502305   -0.24135073099156235   -0.0059000863369424875
-0.10161838061459129   -0.242031791462185   -0.0050161453747664
-0.10719417291479798   -0.1823353684891971   -0.0039128717280166835
-0.14180407095978506   -0.1817793145921136   -0.004428857274852689
-0.1344867669502305   -0.24135073099156235   -0.0059000863369424875
-0.14167873151591232   -0.18157264980086107   -0.003993325497299098
-0.10161838061459129   -0.242031791462185   -0.0050161453747664
-0.1340410794684125   -0.24125664911791087   -0.005218384984740482
-0.14167873151591232   -0.18157264980086107   -0.003993325497299098
-0.1344867669502305   -0.24135073099156235   -0.0059000863369424875
-0.10161838061459129   -0.242031791462185   -0.0050161453747664
-0.14167873151591232   -0.18157264980086107   -0.003993325497299098
-0.10749411353743751   -0.182015907572475   -0.003546112262524308
-0.10719417291479798   -0.1823353684891971   -0.0039128717280166835
-0.10161838061459129   -0.242031791462185   -0.0050161453747664
-0.14167873151591232   -0.18157264980086107   -0.003993325497299098
-0.10719417291479798   -0.1823353684891971   -0.0039128717280166835
-0.1344867669502305   -0.24135073099156235   -0.0059000863369424875
0.027440885342290507   -0.1847359676032716   -0.00025661258555595944
0.02452794559451915   -0.12314089148104654   0.0007591812458622631
-0.007538757629152542   -0.18442194636974654   -0.0016139849669877387
0.026997601489018995   -0.1839438572527062   -0.0002247951116349422
0.02452794559451915   -0.12314089148104654   0.0007591812458622631
-0.010663447524753865   -0.12255442313819832   -0.0003259124539770135
-0.007538757629152542   -0.18442194636974654   -0.0016139849669877387
-0.011152356771536077   -0.12192540859815842   -7.148749370120983e-05
0.026997601489018995   -0.1839438572527062   -0.0002247951116349422
-0.007950366654988075   -0.18372896528144175   -0.0014900676568103492
-0.011152356771536077   -0.12192540859815842   -7.148749370120983e-05
-0.007538757629152542   -0.18442194636974654   -0.0016139849669877387
0.026997601489018995   -0.1839438572527062   -0.0002247951116349422
-0.011152356771536077   -0.12192540859815842   -7.148749370120983e-05
0.02375332842280224   -0.12238492276987713   0.0010797416231493728
0.02452794559451915   -0.12314089148104654   0.0007591812458622631
0.026997601489018995   -0.1839438572527062   -0.0002247951116349422
-0.011152356771536077   -0.12192540859815842   -7.148749370120983e-05
0.02452794559451915   -0.12314089148104654   0.0007591812458622631
-0.007538757629152542   -0.18442194636974654   -0.0016139849669877387
0.026997601489018995   -0.1839438572527062   -0.0002247951116349422
0.02375332842280224   -0.12238492276987713   0.0010797416231493728
-0.007950366654988075   -0.18372896528144175   -0.0014900676568103492
0.026458523035604732   -0.18323215857273908   -0.00012419057417295778
0.02375332842280224   -0.12238492276987713   0.0010797416231493728
-0.011152356771536077   -0.12192540859815842   -7.148749370120983e-05
-0.007950366654988075   -0.18372896528144175   -0.0014900676568103492
-0.011723531306218497   -0.12126055123440785   0.00022759722653944037
0.026458523035604732   -0.18323215857273908   -0.00012419057417295778
-0.008421095541162209   -0.18307233819852217   -0.0013325415993573585
-0.011723531306218497   -0.12126055123440785   0.00022759722653944037
-0.007950366654988075   -0.18372896528144175   -0.0014900676568103492
0.026458523035604732   -0.18323215857273908   -0.00012419057417295778
-0.011723531306218497   -0.12126055123440785   0.00022759722653944037
0.02289270445290665   -0.12163177914248238   0.0015366487906301957
0.02375332842280224   -0.12238492276987713   0.0010797416231493728
0.026458523035604732   -0.18323215857273908   -0.00012419057417295778
-0.011723531306218497   -0.12126055123440785   0.00022759722653944037
0.02375332842280224   -0.12238492276987713   0.0010797416231493728
-0.007950366654988075   -0.18372896528144175   -0.0014900676568103492
0.026458523035604732   -0.18323215857273908   -0.00012419057417295778
0.02289270445290665   -0.12163177914248238   0.0015366487906301957
-0.008421095541162209   -0.18307233819852217   -0.0013325415993573585
0.025749244672928235   -0.182485737897603   4.2052618633771905e-05
0.02289270445290665   -0.12163177914248238   0.0015366487906301957
-0.011723531306218497   -0.12126055123440785   0.00022759722653944037
-0.008421095541162209   -0.18307233819852217   -0.0013325415993573585
-0.012313441856962096   -0.12055372246849226   0.0005706235466905129
0.025749244672928235   -0.182485737897603   4.2052618633771905e-05
-0.008948186525909764   -0.18244321055850254   -0.00113295941185142
-0.012313441856962096   -0.12055372246849226   0.0005706235466905129
-0.008421095541162209   -0.18307233819852217   -0.0013325415993573585
0.025749244672928235   -0.182485737897603   4.2052618633771905e-05
-0.012313441856962096   -0.12055372246849226   0.0005706235466905129
0.021841515420691616   -0.1207075128686814   0.0020388025740456566
0.02289270445290665   -0.12163177914248238   0.0015366487906301957
0.025749244672928235   -0.182485737897603   4.2052618633771905e-05
-0.012313441856962096   -0.12055372246849226   0.0005706235466905129
0.02289270445290665   -0.12163177914248238   0.0015366487906301957
-0.008421095541162209   -0.18307233819852217   -0.0013325415993573585
-0.007538757629152542   -0.18442194636974654   -0.0016139849669877387
-0.010663447524753865   -0.12255442313819832   -0.0003259124539770135
-0.04068548604935795   -0.18406253429572086   -0.0027681657361893993
-0.007950366654988075   -0.18372896528144175   -0.0014900676568103492
-0.010663447524753865   -0.12255442313819832   -0.0003259124539770135
-0.043815546856582864   -0.1224029600734957   -0.0013746298141384828
-0.04068548604935795   -0.18406253429572086   -0.0027681657361893993
-0.044255998548423714   -0.12185181234865262   -0.0011397986321922372
-0.007950366654988075   -0.18372896528144175   -0.0014900676568103492
-0.041103687986606886   -0.18348052744720736   -0.00258256405075376
-0.044255998548423714   -0.12185181234865262   -0.0011397986321922372
-0.04068548604935795   -0.18406253429572086   -0.0027681657361893993
-0.007950366654988075   -0.18372896528144175   -0.0014900676568103492
-0.044255998548423714   -0.12185181234865262   -0.0011397986321922372
-0.011152356771536077   -0.12192540859815842   -7.148749370120983e-05
-0.010663447524753865   -0.12255442313819832   -0.0003259124539770135
-0.007950366654988075   -0.18372896528144175   -0.0014900676568103492
-0.044255998548423714   -0.12185181234865262   -0.0011397986321922372
-0.010663447524753865   -0.12255442313819832   -0.0003259124539770135
-0.04068548604935795   -0.18406253429572086   -0.0027681657361893993
-0.007950366654988075   -0.18372896528144175   -0.0014900676568103492
-0.011152356771536077   -0.12192540859815842   -7.148749370120983e-05
-0.041103687986606886   -0.18348052744720736   -0.00258256405075376
-0.008421095541162209   -0.18307233819852217   -0.0013325415993573585
-0.011152356771536077   -0.12192540859815842   -7.148749370120983e-05
-0.044255998548423714   -0.12185181234865262   -0.0011397986321922372
-0.041103687986606886   -0.18348052744720736   -0.00258256405075376
-0.044711252223145585   -0.12127813103707671   -0.0008820325626002178
-0.008421095541162209   -0.18307233819852217   -0.0013325415993573585
-0.04153105254667791   -0.1829267966916523   -0.0023650270671111352
-0.044711252223145585   -0.12127813103707671   -0.0008820325626002178
-0.041103687986606886   -0.18348052744720736   -0.00258256405075376
-0.008421095541162209   -0.18307233819852217   -0.0013325415993573585
-0.044711252223145585   -0.12127813103707671   -0.0008820325626002178
-0.011723531306218497   -0.12126055123440785   0.00022759722653944037
-0.011152356771536077   -0.12192540859815842   -7.148749370120983e-05
-0.008421095541162209   -0.18307233819852217   -0.0013325415993573585
-0.044711252223145585   -0.12127813103707671   -0.0008820325626002178
-0.011152356771536077   -0.12192540859815842   -7.148749370120983e-05
-0.041103687986606886   -0.18348052744720736   -0.00258256405075376
-0.008421095541162209   -0.18307233819852217   -0.0013325415993573585
-0.011723531306218497   -0.12126055123440785   0.00022759722653944037
-0.04153105254667791   -0.1829267966916523   -0.0023650270671111352
-0.008948186525909764   -0.18244321055850254   -0.00113295941185142
-0.011723531306218497   -0.12126055123440785   0.00022759722653944037
-0.044711252223145585   -0.12127813103707671   -0.0008820325626002178
-0.04153105254667791   -0.1829267966916523   -0.0023650270671111352
-0.045184834624285734   -0.1206916591301105   -0.0005966648855687612
-0.008948186525909764   -0.18244321055850254   -0.00113295941185142
-0.04198528010487783   -0.1824096303163117   -0.002115137462195574
-0.045184834624285734   -0.1206916591301105   -0.0005966648855687612
-0.04153105254667791   -0.1829267966916523   -0.0023650270671111352
-0.008948186525909764   -0.18244321055850254   -0.00113295941185142
-0.045184834624285734   -0.1206916591301105   -0.0005966648855687612
-0.012313441856962096   -0.12055372246849226   0.0005706235466905129
-0.011723531306218497   -0.12126055123440785   0.00022759722653944037
-0.008948186525909764   -0.18244321055850254   -0.00113295941185142
-0.045184834624285734   -0.1206916591301105   -0.0005966648855687612
-0.011723531306218497   -0.12126055123440785   0.00022759722653944037
-0.04153105254667791   -0.1829267966916523   -0.0023650270671111352
-0.04068548604935795   -0.18406253429572086   -0.0027681657361893993
-0.043815546856582864   -0.1224029600734957   -0.0013746298141384828
-0.0732964057202093   -0.18363454761521278   -0.00375158368071512
-0.041103687986606886   -0.18348052744720736   -0.00258256405075376
-0.043815546856582864   -0.1224029600734957   -0.0013746298141384828
-0.07663717517069173   -0.12236130156494521   -0.0023243137684939665
-0.0732964057202093   -0.18363454761521278   -0.00375158368071512
-0.07705751706325871   -0.12187647570487038   -0.0021019085880058393
-0.041103687986606886   -0.18348052744720736   -0.00258256405075376
-0.07371092114086862   -0.183155742407776   -0.003504080891386911
-0.07705751706325871   -0.12187647570487038   -0.0021019085880058393
-0.0732964057202093   -0.18363454761521278   -0.00375158368071512
-0.041103687986606886   -0.18348052744720736   -0.00258256405075376
-0.07705751706325871   -0.12187647570487038   -0.0021019085880058393
-0.044255998548423714   -0.12185181234865262   -0.0011397986321922372
-0.043815546856582864   -0.1224029600734957   -0.0013746298141384828
-0.041103687986606886   -0.18348052744720736   -0.00258256405075376
-0.07705751706325871   -0.12187647570487038   -0.0021019085880058393
-0.043815546856582864   -0.1224029600734957   -0.0013746298141384828
-0.0732964057202093   -0.18363454761521278   -0.00375158368071512
-0.041103687986606886   -0.18348052744720736   -0.00258256405075376
-0.044255998548423714   -0.12185181234865262   -0.0011397986321922372
-0.07371092114086862   -0.183155742407776   -0.003504080891386911
-0.04153105254667791   -0.1829267966916523   -0.0023650270671111352
-0.044255998548423714   -0.12185181234865262   -0.0011397986321922372
-0.07705751706325871   -0.12187647570487038   -0.0021019085880058393
-0.07371092114086862   -0.183155742407776   -0.003504080891386911
-0.07745789433412952   -0.12138225409383596   -0.0018595099582060803
-0.04153105254667791   -0.1829267966916523   -0.0023650270671111352
-0.07409880506468534   -0.182706938152579   -0.0032257391221425335
-0.07745789433412952   -0.12138225409383596   -0.0018595099582060803
-0.07371092114086862   -0.183155742407776   -0.003504080891386911
-0.04153105254667791   -0.1829267966916523   -0.0023650270671111352
-0.07745789433412952   -0.12138225409383596   -0.0018595099582060803
-0.044711252223145585   -0.12127813103707671   -0.0008820325626002178
-0.044255998548423714   -0.12185181234865262   -0.0011397986321922372
-0.04153105254667791   -0.1829267966916523   -0.0023650270671111352
-0.07745789433412952   -0.12138225409383596   -0.0018595099582060803
-0.044255998548423714   -0.12185181234865262   -0.0011397986321922372
-0.07371092114086862   -0.183155742407776   -0.003504080891386911
-0.04153105254667791   -0.1829267966916523   -0.0023650270671111352
-0.044711252223145585   -0.12127813103707671   -0.0008820325626002178
-0.07409880506468534   -0.182706938152579   -0.0032257391221425335
-0.04198528010487783   -0.1824096303163117   -0.002115137462195574
-0.044711252223145585   -0.12127813103707671   -0.0008820325626002178
-0.07745789433412952   -0.12138225409383596   -0.0018595099582060803
-0.07409880506468534   -0.182706938152579   -0.0032257391221425335
-0.0778542032697337   -0.12087591538024013   -0.001598308806382285
-0.04198528010487783   -0.1824096303163117   -0.002115137462195574
-0.07448807025871072   -0.182289422678778   -0.0029181073633930722
-0.0778542032697337   -0.12087591538024013   -0.001598308806382285
-0.07409880506468534   -0.182706938152579   -0.0032257391221425335
-0.04198528010487783   -0.1824096303163117   -0.002115137462195574
-0.0778542032697337   -0.12087591538024013   -0.001598308806382285
-0.045184834624285734   -0.1206916591301105   -0.0005966648855687612
-0.044711252223145585   -0.12127813103707671   -0.0008820325626002178
-0.04198528010487783   -0.1824096303163117   -0.002115137462195574
-0.0778542032697337   -0.12087591538024013   -0.001598308806382285
-0.044711252223145585   -0.12127813103707671   -0.0008820325626002178
-0.07409880506468534   -0.182706938152579   -0.0032257391221425335
-0.0732964057202093   -0.18363454761521278   -0.00375158368071512
-0.07663717517069173   -0.12236130156494521   -0.0023243137684939665
-0.10649430021614638   -0.1830579090697995   -0.004555884557969562
-0.07371092114086862   -0.183155742407776   -0.003504080891386911
-0.07663717517069173   -0.12236130156494521   -0.0023243137684939665
-0.110152687228142   -0.122172884395245   -0.003125504814971357
-0.10649430021614638   -0.1830579090697995   -0.004555884557969562
-0.1105534344733103   -0.12177524904709161   -0.0029164429167772587
-0.07371092114086862   -0.183155742407776   -0.003504080891386911
-0.10689151048205721   -0.182687724757653   -0.004247202342368727
-0.1105534344733103   -0.12177524904709161   -0.0029164429167772587
-0.10649430021614638   -0.1830579090697995   -0.004555884557969562
-0.07371092114086862   -0.183155742407776   -0.003504080891386911
-0.1105534344733103   -0.12177524904709161   -0.0029164429167772587
-0.07705751706325871   -0.12187647570487038   -0.0021019085880058393
-0.07663717517069173   -0.12236130156494521   -0.0023243137684939665
-0.07371092114086862   -0.183155742407776   -0.003504080891386911
-0.1105534344733103   -0.12177524904709161   -0.0029164429167772587
-0.07663717517069173   -0.12236130156494521   -0.0023243137684939665
-0.10649430021614638   -0.1830579090697995   -0.004555884557969562
-0.07371092114086862   -0.183155742407776   -0.003504080891386911
-0.07705751706325871   -0.12187647570487038   -0.0021019085880058393
-0.10689151048205721   -0.182687724757653   -0.004247202342368727
-0.07409880506468534   -0.182706938152579   -0.0032257391221425335
-0.07705751706325871   -0.12187647570487038   -0.0021019085880058393
-0.1105534344733103   -0.12177524904709161   -0.0029164429167772587
-0.10689151048205721   -0.182687724757653   -0.004247202342368727
-0.11089379978427222   -0.12135558115311104   -0.0026933632342363858
-0.07409880506468534   -0.182706938152579   -0.0032257391221425335
-0.10719417291479798   -0.1823353684891971   -0.0039128717280166835
-0.11089379978427222   -0.12135558115311104   -0.0026933632342363858
-0.10689151048205721   -0.182687724757653   -0.004247202342368727
-0.07409880506468534   -0.182706938152579   -0.0032257391221425335
-0.11089379978427222   -0.12135558115311104   -0.0026933632342363858
-0.07745789433412952   -0.12138225409383596   -0.0018595099582060803
-0.07705751706325871   -0.12187647570487038   -0.0021019085880058393
-0.07409880506468534   -0.182706938152579   -0.0032257391221425335
-0.11089379978427222   -0.12135558115311104   -0.0026933632342363858
-0.07705751706325871   -0.12187647570487038   -0.0021019085880058393
-0.10689151048205721   -0.182687724757653   -0.004247202342368727
-0.07409880506468534   -0.182706938152579   -0.0032257391221425335
-0.07745789433412952   -0.12138225409383596   -0.0018595099582060803
-0.10719417291479798   -0.1823353684891971   -0.0039128717280166835
-0.07448807025871072   -0.182289422678778   -0.0029181073633930722
-0.07745789433412952   -0.12138225409383596   -0.0018595099582060803
-0.11089379978427222   -0.12135558115311104   -0.0026933632342363858
-0.10719417291479798   -0.1823353684891971   -0.0039128717280166835
-0.11121554146180881   -0.12092432799824357   -0.002449988739635325
-0.07448807025871072   -0.182289422678778   -0.0029181073633930722
-0.10749411353743751   -0.182015907572475   -0.003546112262524308
-0.11121554146180881   -0.12092432799824357   -0.002449988739635325
-0.10719417291479798   -0.1823353684891971   -0.0039128717280166835
-0.07448807025871072   -0.182289422678778   -0.0029181073633930722
-0.11121554146180881   -0.12092432799824357   -0.002449988739635325
-0.0778542032697337   -0.12087591538024013   -0.001598308806382285
-0.07745789433412952   -0.12138225409383596   -0.0018595099582060803
-0.07448807025871072   -0.182289422678778   -0.0029181073633930722
-0.11121554146180881   -0.12092432799824357   -0.002449988739635325
-0.07745789433412952   -0.12138225409383596   -0.0018595099582060803
-0.10719417291479798   -0.1823353684891971   -0.0039128717280166835
-0.10649430021614638   -0.1830579090697995   -0.004555884557969562
-0.110152687228142   -0.122172884395245   -0.003125504814971357
-0.14166447899797388   -0.18238002579347792   -0.005157064218950848
-0.10689151048205721   -0.182687724757653   -0.004247202342368727
-0.110152687228142   -0.122172884395245   -0.003125504814971357
-0.14524276855016216   -0.1218648095469687   -0.003723902848205269
-0.14166447899797388   -0.18238002579347792   -0.005157064218950848
-0.14549617134035173   -0.12152856586388268   -0.0035696958871567377
-0.10689151048205721   -0.182687724757653   -0.004247202342368727
-0.14173405088984203   -0.18208217211929947   -0.004818838724776008
-0.14549617134035173   -0.12152856586388268   -0.0035696958871567377
-0.14166447899797388   -0.18238002579347792   -0.005157064218950848
-0.10689151048205721   -0.182687724757653   -0.004247202342368727
-0.14549617134035173   -0.12152856586388268   -0.0035696958871567377
-0.1105534344733103   -0.12177524904709161   -0.0029164429167772587
-0.110152687228142   -0.122172884395245   -0.003125504814971357
-0.10689151048205721   -0.182687724757653   -0.004247202342368727
-0.14549617134035173   -0.12152856586388268   -0.0035696958871567377
-0.110152687228142   -0.122172884395245   -0.003125504814971357
-0.14166447899797388   -0.18238002579347792   -0.005157064218950848
-0.10689151048205721   -0.182687724757653   -0.004247202342368727
-0.1105534344733103   -0.12177524904709161   -0.0029164429167772587
-0.14173405088984203   -0.18208217211929947   -0.004818838724776008
-0.10719417291479798   -0.1823353684891971   -0.0039128717280166835
-0.1105534344733103   -0.12177524904709161   -0.0029164429167772587
-0.14549617134035173   -0.12152856586388268   -0.0035696958871567377
-0.14173405088984203   -0.18208217211929947   -0.004818838724776008
-0.14572787610392354   -0.12114911924625091   -0.0033807335482408775
-0.10719417291479798   -0.1823353684891971   -0.0039128717280166835
-0.14180407095978506   -0.1817793145921136   -0.004428857274852689
-0.14572787610392354   -0.12114911924625091   -0.0033807335482408775
-0.14173405088984203   -0.18208217211929947   -0.004818838724776008
-0.10719417291479798   -0.1823353684891971   -0.0039128717280166835
-0.14572787610392354   -0.12114911924625091   -0.0033807335482408775
-0.11089379978427222   -0.12135558115311104   -0.0026933632342363858
-0.1105534344733103   -0.12177524904709161   -0.0029164429167772587
-0.10719417291479798   -0.1823353684891971   -0.0039128717280166835
-0.14572787610392354   -0.12114911924625091   -0.0033807335482408775
-0.1105534344733103   -0.12177524904709161   -0.0029164429167772587
-0.14173405088984203   -0.18208217211929947   -0.004818838724776008
-0.10719417291479798   -0.1823353684891971   -0.0039128717280166835
-0.11089379978427222   -0.12135558115311104   -0.0026933632342363858
-0.14180407095978506   -0.1817793145921136   -0.004428857274852689
-0.10749411353743751   -0.182015907572475   -0.003546112262524308
-0.11089379978427222   -0.12135558115311104   -0.0026933632342363858
-0.14572787610392354   -0.12114911924625091   -0.0033807335482408775
-0.14180407095978506   -0.1817793145921136   -0.004428857274852689
-0.14584503608658758   -0.12079784950833397   -0.0031659089600067237
-0.10749411353743751   -0.182015907572475   -0.003546112262524308
-0.14167873151591232   -0.18157264980086107   -0.003993325497299098
-0.14584503608658758   -0.12079784950833397   -0.0031659089600067237
-0.14180407095978506   -0.1817793145921136   -0.004428857274852689
-0.10749411353743751   -0.182015907572475   -0.003546112262524308
-0.14584503608658758   -0.12079784950833397   -0.0031659089600067237
-0.11121554146180881   -0.12092432799824357   -0.002449988739635325
-0.11089379978427222   -0.12135558115311104   -0.0026933632342363858
-0.10749411353743751   -0.182015907572475   -0.003546112262524308
-0.14584503608658758   -0.12079784950833397   -0.0031659089600067237
-0.11089379978427222   -0.12135558115311104   -0.0026933632342363858
-0.14180407095978506   -0.1817793145921136   -0.004428857274852689
0.02452794559451915   -0.12314089148104654   0.0007591812458622631
0.017140703210647836   -0.061754284962992935   0.0008104225363100992
-0.010663447524753865   -0.12255442313819832   -0.0003259124539770135
0.02375332842280224   -0.12238492276987713   0.0010797416231493728
0.017140703210647836   -0.061754284962992935   0.0008104225363100992
-0.015621449776133618   -0.06094005842235625   0.00038996025187530714
-0.010663447524753865   -0.12255442313819832   -0.0003259124539770135
-0.016105946349330425   -0.060615689711399766   0.000740632737635642
0.02375332842280224   -0.12238492276987713   0.0010797416231493728
-0.011152356771536077   -0.12192540859815842   -7.148749370120983e-05
-0.016105946349330425   -0.060615689711399766   0.000740632737635642
-0.010663447524753865   -0.12255442313819832   -0.0003259124539770135
0.02375332842280224   -0.12238492276987713   0.0010797416231493728
-0.016105946349330425   -0.060615689711399766   0.000740632737635642
0.01563266002709915   -0.06095436569370168   0.001681225121515975
0.017140703210647836   -0.061754284962992935   0.0008104225363100992
0.02375332842280224   -0.12238492276987713   0.0010797416231493728
-0.016105946349330425   -0.060615689711399766   0.000740632737635642
0.017140703210647836   -0.061754284962992935   0.0008104225363100992
-0.010663447524753865   -0.12255442313819832   -0.0003259124539770135
0.02375332842280224   -0.12238492276987713   0.0010797416231493728
0.01563266002709915   -0.06095436569370168   0.001681225121515975
-0.011152356771536077   -0.12192540859815842   -7.148749370120983e-05
0.02289270445290665   -0.12163177914248238   0.0015366487906301957
0.01563266002709915   -0.06095436569370168   0.001681225121515975
-0.016105946349330425   -0.060615689711399766   0.000740632737635642
-0.011152356771536077   -0.12192540859815842   -7.148749370120983e-05
-0.016739508411606915   -0.06004880396645644   0.00116553094801816
0.02289270445290665   -0.12163177914248238   0.0015366487906301957
-0.011723531306218497   -0.12126055123440785   0.00022759722653944037
-0.016739508411606915   -0.06004880396645644   0.00116553094801816
-0.011152356771536077   -0.12192540859815842   -7.148749370120983e-05
0.02289270445290665   -0.12163177914248238   0.0015366487906301957
-0.016739508411606915   -0.06004880396645644   0.00116553094801816
0.014748157919483066   -0.06029496454768972   0.0023328499825632024
0.01563266002709915   -0.06095436569370168   0.001681225121515975
0.02289270445290665   -0.12163177914248238   0.0015366487906301957
-0.016739508411606915   -0.06004880396645644   0.00116553094801816
0.01563266002709915   -0.06095436569370168   0.001681225121515975
-0.011152356771536077   -0.12192540859815842   -7.148749370120983e-05
0.02289270445290665   -0.12163177914248238   0.0015366487906301957
0.014748157919483066   -0.06029496454768972   0.0023328499825632024
-0.011723531306218497   -0.12126055123440785   0.00022759722653944037
0.021841515420691616   -0.1207075128686814   0.0020388025740456566
0.014748157919483066   -0.06029496454768972   0.0023328499825632024
-0.016739508411606915   -0.06004880396645644   0.00116553094801816
-0.011723531306218497   -0.12126055123440785   0.00022759722653944037
-0.017270765495329823   -0.0594373367715983   0.0015397565416294422
0.021841515420691616   -0.1207075128686814   0.0020388025740456566
-0.012313441856962096   -0.12055372246849226   0.0005706235466905129
-0.017270765495329823   -0.0594373367715983   0.0015397565416294422
-0.011723531306218497   -0.12126055123440785   0.00022759722653944037
0.021841515420691616   -0.1207075128686814   0.0020388025740456566
-0.017270765495329823   -0.0594373367715983   0.0015397565416294422
0.01361693382650722   -0.05929191591913967   0.003078151897238692
0.014748157919483066   -0.06029496454768972   0.0023328499825632024
0.021841515420691616   -0.1207075128686814   0.0020388025740456566
-0.017270765495329823   -0.0594373367715983   0.0015397565416294422
0.014748157919483066   -0.06029496454768972   0.0023328499825632024
-0.011723531306218497   -0.12126055123440785   0.00022759722653944037
-0.010663447524753865   -0.12255442313819832   -0.0003259124539770135
-0.015621449776133618   -0.06094005842235625   0.00038996025187530714
-0.043815546856582864   -0.1224029600734957   -0.0013746298141384828
-0.011152356771536077   -0.12192540859815842   -7.148749370120983e-05
-0.015621449776133618   -0.06094005842235625   0.00038996025187530714
-0.0468436763956207   -0.06183110942006481   -0.00045166222369108624
-0.043815546856582864   -0.1224029600734957   -0.0013746298141384828
-0.047286963780289015   -0.06134268159318436   -0.0002044188507324062
-0.011152356771536077   -0.12192540859815842   -7.148749370120983e-05
-0.044255998548423714   -0.12185181234865262   -0.0011397986321922372
-0.047286963780289015   -0.06134268159318436   -0.0002044188507324062
-0.043815546856582864   -0.1224029600734957   -0.0013746298141384828
-0.011152356771536077   -0.12192540859815842   -7.148749370120983e-05
-0.047286963780289015   -0.06134268159318436   -0.0002044188507324062
-0.016105946349330425   -0.060615689711399766   0.000740632737635642
-0.015621449776133618   -0.06094005842235625   0.00038996025187530714
-0.011152356771536077   -0.12192540859815842   -7.148749370120983e-05
-0.047286963780289015   -0.06134268159318436   -0.0002044188507324062
-0.015621449776133618   -0.06094005842235625   0.00038996025187530714
-0.043815546856582864   -0.1224029600734957   -0.0013746298141384828
-0.011152356771536077   -0.12192540859815842   -7.148749370120983e-05
-0.016105946349330425   -0.060615689711399766   0.000740632737635642
-0.044255998548423714   -0.12185181234865262   -0.0011397986321922372
-0.011723531306218497   -0.12126055123440785   0.00022759722653944037
-0.016105946349330425   -0.060615689711399766   0.000740632737635642
-0.047286963780289015   -0.06134268159318436   -0.0002044188507324062
-0.044255998548423714   -0.12185181234865262   -0.0011397986321922372
-0.04774942986527667   -0.060793161883314524   5.647076082932155e-05
-0.011723531306218497   -0.12126055123440785   0.00022759722653944037
-0.044711252223145585   -0.12127813103707671   -0.0008820325626002178
-0.04774942986527667   -0.060793161883314524   5.647076082932155e-05
-0.044255998548423714   -0.12185181234865262   -0.0011397986321922372
-0.011723531306218497   -0.12126055123440785   0.00022759722653944037
-0.04774942986527667   -0.060793161883314524   5.647076082932155e-05
-0.016739508411606915   -0.06004880396645644   0.00116553094801816
-0.016105946349330425   -0.060615689711399766   0.000740632737635642
-0.011723531306218497   -0.12126055123440785   0.00022759722653944037
-0.04774942986527667   -0.060793161883314524   5.647076082932155e-05
-0.016105946349330425   -0.060615689711399766   0.000740632737635642
-0.044255998548423714   -0.12185181234865262   -0.0011397986321922372
-0.011723531306218497   -0.12126055123440785   0.00022759722653944037
-0.016739508411606915   -0.06004880396645644   0.00116553094801816
-0.044711252223145585   -0.12127813103707671   -0.0008820325626002178
-0.012313441856962096   -0.12055372246849226   0.0005706235466905129
-0.016739508411606915   -0.06004880396645644   0.00116553094801816
-0.04774942986527667   -0.060793161883314524   5.647076082932155e-05
-0.044711252223145585   -0.12127813103707671   -0.0008820325626002178
-0.048187725560660206   -0.06019091175036565   0.0003437320082879865
-0.012313441856962096   -0.12055372246849226   0.0005706235466905129
-0.045184834624285734   -0.1206916591301105   -0.0005966648855687612
-0.048187725560660206   -0.06019091175036565   0.0003437320082879865
-0.044711252223145585   -0.12127813103707671   -0.0008820325626002178
-0.012313441856962096   -0.12055372246849226   0.0005706235466905129
-0.048187725560660206   -0.06019091175036565   0.0003437320082879865
-0.017270765495329823   -0.0594373367715983   0.0015397565416294422
-0.016739508411606915   -0.06004880396645644   0.00116553094801816
-0.012313441856962096   -0.12055372246849226   0.0005706235466905129
-0.048187725560660206   -0.06019091175036565   0.0003437320082879865
-0.016739508411606915   -0.06004880396645644   0.00116553094801816
-0.044711252223145585   -0.12127813103707671   -0.0008820325626002178
-0.043815546856582864   -0.1224029600734957   -0.0013746298141384828
-0.0468436763956207   -0.06183110942006481   -0.00045166222369108624
-0.07663717517069173   -0.12236130156494521   -0.0023243137684939665
-0.044255998548423714   -0.12185181234865262   -0.0011397986321922372
-0.0468436763956207   -0.06183110942006481   -0.00045166222369108624
-0.0788490931543719   -0.06252690628837583   -0.0013795206265689067
-0.07663717517069173   -0.12236130156494521   -0.0023243137684939665
-0.07924598662288243   -0.06202602315342194   -0.0011888949046413256
-0.044255998548423714   -0.12185181234865262   -0.0011397986321922372
-0.07705751706325871   -0.12187647570487038   -0.0021019085880058393
-0.07924598662288243   -0.06202602315342194   -0.0011888949046413256
-0.07663717517069173   -0.12236130156494521   -0.0023243137684939665
-0.044255998548423714   -0.12185181234865262   -0.0011397986321922372
-0.07924598662288243   -0.06202602315342194   -0.0011888949046413256
-0.047286963780289015   -0.06134268159318436   -0.0002044188507324062
-0.0468436763956207   -0.06183110942006481   -0.00045166222369108624
-0.044255998548423714   -0.12185181234865262   -0.0011397986321922372
-0.07924598662288243   -0.06202602315342194   -0.0011888949046413256
-0.0468436763956207   -0.06183110942006481   -0.00045166222369108624
-0.07663717517069173   -0.12236130156494521   -0.0023243137684939665
-0.044255998548423714   -0.12185181234865262   -0.0011397986321922372
-0.047286963780289015   -0.06134268159318436   -0.0002044188507324062
-0.07705751706325871   -0.12187647570487038   -0.0021019085880058393
-0.044711252223145585   -0.12127813103707671   -0.0008820325626002178
-0.047286963780289015   -0.06134268159318436   -0.0002044188507324062
-0.07924598662288243   -0.06202602315342194   -0.0011888949046413256
-0.07705751706325871   -0.12187647570487038   -0.0021019085880058393
-0.07962500831178884   -0.061497875922953076   -0.000999445873345007
-0.044711252223145585   -0.12127813103707671   -0.0008820325626002178
-0.07745789433412952   -0.12138225409383596   -0.0018595099582060803
-0.07962500831178884   -0.061497875922953076   -0.000999445873345007
-0.07705751706325871   -0.12187647570487038   -0.0021019085880058393
-0.044711252223145585   -0.12127813103707671   -0.0008820325626002178
-0.07962500831178884   -0.061497875922953076   -0.000999445873345007
-0.04774942986527667   -0.060793161883314524   5.647076082932155e-05
-0.047286963780289015   -0.06134268159318436   -0.0002044188507324062
-0.044711252223145585   -0.12127813103707671   -0.0008820325626002178
-0.07962500831178884   -0.061497875922953076   -0.000999445873345007
-0.047286963780289015   -0.06134268159318436   -0.0002044188507324062
-0.07705751706325871   -0.12187647570487038   -0.0021019085880058393
-0.044711252223145585   -0.12127813103707671   -0.0008820325626002178
-0.04774942986527667   -0.060793161883314524   5.647076082932155e-05
-0.07745789433412952   -0.12138225409383596   -0.0018595099582060803
-0.045184834624285734   -0.1206916591301105   -0.0005966648855687612
-0.04774942986527667   -0.060793161883314524   5.647076082932155e-05
-0.07962500831178884   -0.061497875922953076   -0.000999445873345007
-0.07745789433412952   -0.12138225409383596   -0.0018595099582060803
-0.0799736512938637   -0.06092673204702476   -0.0007937833126088551
-0.045184834624285734   -0.1206916591301105   -0.0005966648855687612
-0.0778542032697337   -0.12087591538024013   -0.001598308806382285
-0.0799736512938637   -0.06092673204702476   -0.0007937833126088551
-0.07745789433412952   -0.12138225409383596   -0.0018595099582060803
-0.045184834624285734   -0.1206916591301105   -0.0005966648855687612
-0.0799736512938637   -0.06092673204702476   -0.0007937833126088551
-0.048187725560660206   -0.06019091175036565   0.0003437320082879865
-0.04774942986527667   -0.060793161883314524   5.647076082932155e-05
-0.045184834624285734   -0.1206916591301105   -0.0005966648855687612
-0.0799736512938637   -0.06092673204702476   -0.0007937833126088551
-0.04774942986527667   -0.060793161883314524   5.647076082932155e-05
-0.07745789433412952   -0.12138225409383596   -0.0018595099582060803
-0.07663717517069173   -0.12236130156494521   -0.0023243137684939665
-0.0788490931543719   -0.06252690628837583   -0.0013795206265689067
-0.110152687228142   -0.122172884395245   -0.003125504814971357
-0.07705751706325871   -0.12187647570487038   -0.0021019085880058393
-0.0788490931543719   -0.06252690628837583   -0.0013795206265689067
-0.11197820806520041   -0.06281145484474078   -0.002237279578119529
-0.110152687228142   -0.122172884395245   -0.003125504814971357
-0.11233550257442483   -0.06236001338248423   -0.0020991287109398743
-0.07705751706325871   -0.12187647570487038   -0.0021019085880058393
-0.1105534344733103   -0.12177524904709161   -0.0029164429167772587
-0.11233550257442483   -0.06236001338248423   -0.0020991287109398743
-0.110152687228142   -0.122172884395245   -0.003125504814971357
-0.07705751706325871   -0.12187647570487038   -0.0021019085880058393
-0.11233550257442483   -0.06236001338248423   -0.0020991287109398743
-0.07924598662288243   -0.06202602315342194   -0.0011888949046413256
-0.0788490931543719   -0.06252690628837583   -0.0013795206265689067
-0.07705751706325871   -0.12187647570487038   -0.0021019085880058393
-0.11233550257442483   -0.06236001338248423   -0.0020991287109398743
-0.0788490931543719   -0.06252690628837583   -0.0013795206265689067
-0.110152687228142   -0.122172884395245   -0.003125504814971357
-0.07705751706325871   -0.12187647570487038   -0.0021019085880058393
-0.07924598662288243   -0.06202602315342194   -0.0011888949046413256
-0.1105534344733103   -0.12177524904709161   -0.0029164429167772587
-0.07745789433412952   -0.12138225409383596   -0.0018595099582060803
-0.07924598662288243   -0.06202602315342194   -0.0011888949046413256
-0.11233550257442483   -0.06236001338248423   -0.0020991287109398743
-0.1105534344733103   -0.12177524904709161   -0.0029164429167772587
-0.112653835261016   -0.06186951897883922   -0.001965431793768416
-0.07745789433412952   -0.12138225409383596   -0.0018595099582060803
-0.11089379978427222   -0.12135558115311104   -0.0026933632342363858
-0.112653835261016   -0.06186951897883922   -0.001965431793768416
-0.1105534344733103   -0.12177524904709161   -0.0029164429167772587
-0.07745789433412952   -0.12138225409383596   -0.0018595099582060803
-0.112653835261016   -0.06186951897883922   -0.001965431793768416
-0.07962500831178884   -0.061497875922953076   -0.000999445873345007
-0.07924598662288243   -0.06202602315342194   -0.0011888949046413256
-0.07745789433412952   -0.12138225409383596   -0.0018595099582060803
-0.112653835261016   -0.06186951897883922   -0.001965431793768416
-0.07924598662288243   -0.06202602315342194   -0.0011888949046413256
-0.1105534344733103   -0.12177524904709161   -0.0029164429167772587
-0.07745789433412952   -0.12138225409383596   -0.0018595099582060803
-0.07962500831178884   -0.061497875922953076   -0.000999445873345007
-0.11089379978427222   -0.12135558115311104   -0.0026933632342363858
-0.0778542032697337   -0.12087591538024013   -0.001598308806382285
-0.07962500831178884   -0.061497875922953076   -0.000999445873345007
-0.112653835261016   -0.06186951897883922   -0.001965431793768416
-0.11089379978427222   -0.12135558115311104   -0.0026933632342363858
-0.11294187599261234   -0.0613479829141962   -0.001828367538939779
-0.0778542032697337   -0.12087591538024013   -0.001598308806382285
-0.11121554146180881   -0.12092432799824357   -0.002449988739635325
-0.11294187599261234   -0.0613479829141962   -0.001828367538939779
-0.11089379978427222   -0.12135558115311104   -0.0026933632342363858
-0.0778542032697337   -0.12087591538024013   -0.001598308806382285
-0.11294187599261234   -0.0613479829141962   -0.001828367538939779
-0.0799736512938637   -0.06092673204702476   -0.0007937833126088551
-0.07962500831178884   -0.061497875922953076   -0.000999445873345007
-0.0778542032697337   -0.12087591538024013   -0.001598308806382285
-0.11294187599261234   -0.0613479829141962   -0.001828367538939779
-0.07962500831178884   -0.061497875922953076   -0.000999445873345007
-0.11089379978427222   -0.12135558115311104   -0.0026933632342363858
-0.110152687228142   -0.122172884395245   -0.003125504814971357
-0.11197820806520041   -0.06281145484474078   -0.002237279578119529
-0.14524276855016216   -0.1218648095469687   -0.003723902848205269
-0.1105534344733103   -0.12177524904709161   -0.0029164429167772587
-0.11197820806520041   -0.06281145484474078   -0.002237279578119529
-0.14626966646219208   -0.06284485869187549   -0.002953376154505164
-0.14524276855016216   -0.1218648095469687   -0.003723902848205269
-0.146578065155056   -0.06240593247046538   -0.002895638815930768
-0.1105534344733103   -0.12177524904709161   -0.0029164429167772587
-0.14549617134035173   -0.12152856586388268   -0.0035696958871567377
-0.146578065155056   -0.06240593247046538   -0.002895638815930768
-0.14524276855016216   -0.1218648095469687   -0.003723902848205269
-0.1105534344733103   -0.12177524904709161   -0.0029164429167772587
-0.146578065155056   -0.06240593247046538   -0.002895638815930768
-0.11233550257442483   -0.06236001338248423   -0.0020991287109398743
-0.11197820806520041   -0.06281145484474078   -0.002237279578119529
-0.1105534344733103   -0.12177524904709161   -0.0029164429167772587
-0.146578065155056   -0.06240593247046538   -0.002895638815930768
-0.11197820806520041   -0.06281145484474078   -0.002237279578119529
-0.14524276855016216   -0.1218648095469687   -0.003723902848205269
-0.1105534344733103   -0.12177524904709161   -0.0029164429167772587
-0.11233550257442483   -0.06236001338248423   -0.0020991287109398743
-0.14549617134035173   -0.12152856586388268   -0.0035696958871567377
-0.11089379978427222   -0.12135558115311104   -0.0026933632342363858
-0.11233550257442483   -0.06236001338248423   -0.0020991287109398743
-0.146578065155056   -0.06240593247046538   -0.002895638815930768
-0.14549617134035173   -0.12152856586388268   -0.0035696958871567377
-0.14685436160233137   -0.061932597711231226   -0.002828403617808693
-0.11089379978427222   -0.12135558115311104   -0.0026933632342363858
-0.14572787610392354   -0.12114911924625091   -0.0033807335482408775
-0.14685436160233137   -0.061932597711231226   -0.002828403617808693
-0.14549617134035173   -0.12152856586388268   -0.0035696958871567377
-0.11089379978427222   -0.12135558115311104   -0.0026933632342363858
-0.14685436160233137   -0.061932597711231226   -0.002828403617808693
-0.112653835261016   -0.06186951897883922   -0.001965431793768416
-0.11233550257442483   -0.06236001338248423   -0.0020991287109398743
-0.11089379978427222   -0.12135558115311104   -0.0026933632342363858
-0.14685436160233137   -0.061932597711231226   -0.002828403617808693
-0.11233550257442483   -0.06236001338248423   -0.0020991287109398743
-0.14549617134035173   -0.12152856586388268   -0.0035696958871567377
-0.11089379978427222   -0.12135558115311104   -0.0026933632342363858
-0.112653835261016   -0.06186951897883922   -0.001965431793768416
-0.14572787610392354   -0.12114911924625091   -0.0033807335482408775
-0.11121554146180881   -0.12092432799824357   -0.002449988739635325
-0.112653835261016   -0.06186951897883922   -0.001965431793768416
-0.14685436160233137   -0.061932597711231226   -0.002828403617808693
-0.14572787610392354   -0.12114911924625091   -0.0033807335482408775
-0.14708852316448595   -0.0614311474268451   -0.0027668739174851486
-0.11121554146180881   -0.12092432799824357   -0.002449988739635325
-0.14584503608658758   -0.12079784950833397   -0.0031659089600067237
-0.14708852316448595   -0.0614311474268451   -0.0027668739174851486
-0.14572787610392354   -0.12114911924625091   -0.0033807335482408775
-0.11121554146180881   -0.12092432799824357   -0.002449988739635325
-0.14708852316448595   -0.0614311474268451   -0.0027668739174851486
-0.11294187599261234   -0.0613479829141962   -0.001828367538939779
-0.112653835261016   -0.06186951897883922   -0.001965431793768416
-0.11121554146180881   -0.12092432799824357   -0.002449988739635325
-0.14708852316448595   -0.0614311474268451   -0.0027668739174851486
-0.112653835261016   -0.06186951897883922   -0.001965431793768416
-0.14572787610392354   -0.12114911924625091   -0.0033807335482408775
0.017140703210647836   -0.061754284962992935   0.0008104225363100992
0.0   0.0   0.0
-0.015621449776133618   -0.06094005842235625   0.00038996025187530714
0.01563266002709915   -0.06095436569370168   0.001681225121515975
0.0   0.0   0.0
-0.019673458986713976   -0.004882370997771346   -0.00019081521318461056
-0.015621449776133618   -0.06094005842235625   0.00038996025187530714
-0.02084663631586225   -0.00377319912982967   0.0004761258288024581
0.01563266002709915   -0.06095436569370168   0.001681225121515975
-0.016105946349330425   -0.060615689711399766   0.000740632737635642
-0.02084663631586225   -0.00377319912982967   0.0004761258288024581
-0.015621449776133618   -0.06094005842235625   0.00038996025187530714
0.01563266002709915   -0.06095436569370168   0.001681225121515975
-0.02084663631586225   -0.00377319912982967   0.0004761258288024581
0.0   0.0   0.0
0.0   0.0   0.0
0.01563266002709915   -0.06095436569370168   0.001681225121515975
-0.02084663631586225   -0.00377319912982967   0.0004761258288024581
0.0   0.0   0.0
-0.015621449776133618   -0.06094005842235625   0.00038996025187530714
0.01563266002709915   -0.06095436569370168   0.001681225121515975
0.0   0.0   0.0
-0.016105946349330425   -0.060615689711399766   0.000740632737635642
0.014748157919483066   -0.06029496454768972   0.0023328499825632024
0.0   0.0   0.0
-0.02084663631586225   -0.00377319912982967   0.0004761258288024581
-0.016105946349330425   -0.060615689711399766   0.000740632737635642
-0.021579730002723726   -0.0032358546366983484   0.0008575837072483491
0.014748157919483066   -0.06029496454768972   0.0023328499825632024
-0.016739508411606915   -0.06004880396645644   0.00116553094801816
-0.021579730002723726   -0.0032358546366983484   0.0008575837072483491
-0.016105946349330425   -0.060615689711399766   0.000740632737635642
0.014748157919483066   -0.06029496454768972   0.0023328499825632024
-0.021579730002723726   -0.0032358546366983484   0.0008575837072483491
0.0   0.0   0.0
0.0   0.0   0.0
0.014748157919483066   -0.06029496454768972   0.0023328499825632024
-0.021579730002723726   -0.0032358546366983484   0.0008575837072483491
0.0   0.0   0.0
-0.016105946349330425   -0.060615689711399766   0.000740632737635642
0.014748157919483066   -0.06029496454768972   0.0023328499825632024
0.0   0.0   0.0
-0.016739508411606915   -0.06004880396645644   0.00116553094801816
0.01361693382650722   -0.05929191591913967   0.003078151897238692
0.0   0.0   0.0
-0.021579730002723726   -0.0032358546366983484   0.0008575837072483491
-0.016739508411606915   -0.06004880396645644   0.00116553094801816
-0.022557049166139646   -0.0025241143401941155   0.0012947560525443944
0.01361693382650722   -0.05929191591913967   0.003078151897238692
-0.017270765495329823   -0.0594373367715983   0.0015397565416294422
-0.022557049166139646   -0.0025241143401941155   0.0012947560525443944
-0.016739508411606915   -0.06004880396645644   0.00116553094801816
0.01361693382650722   -0.05929191591913967   0.003078151897238692
-0.022557049166139646   -0.0025241143401941155   0.0012947560525443944
0.0   0.0   0.0
0.0   0.0   0.0
0.01361693382650722   -0.05929191591913967   0.003078151897238692
-0.022557049166139646   -0.0025241143401941155   0.0012947560525443944
0.0   0.0   0.0
-0.016739508411606915   -0.06004880396645644   0.00116553094801816
-0.015621449776133618   -0.06094005842235625   0.00038996025187530714
-0.019673458986713976   -0.004882370997771346   -0.00019081521318461056
-0.0468436763956207   -0.06183110942006481   -0.00045166222369108624
-0.016105946349330425   -0.060615689711399766   0.000740632737635642
-0.019673458986713976   -0.004882370997771346   -0.00019081521318461056
-0.04826171532434043   -0.006356354405630551   -0.00021664032827147035
-0.0468436763956207   -0.06183110942006481   -0.00045166222369108624
-0.04886204378188723   -0.005743972115235608   -5.0617786439549584e-05
-0.016105946349330425   -0.060615689711399766   0.000740632737635642
-0.047286963780289015   -0.06134268159318436   -0.0002044188507324062
-0.04886204378188723   -0.005743972115235608   -5.0617786439549584e-05
-0.0468436763956207   -0.06183110942006481   -0.00045166222369108624
-0.016105946349330425   -0.060615689711399766   0.000740632737635642
-0.04886204378188723   -0.005743972115235608   -5.0617786439549584e-05
-0.02084663631586225   -0.00377319912982967   0.0004761258288024581
-0.019673458986713976   -0.004882370997771346   -0.00019081521318461056
-0.016105946349330425   -0.060615689711399766   0.000740632737635642
-0.04886204378188723   -0.005743972115235608   -5.0617786439549584e-05
-0.019673458986713976   -0.004882370997771346   -0.00019081521318461056
-0.0468436763956207   -0.06183110942006481   -0.00045166222369108624
-0.016105946349330425   -0.060615689711399766   0.000740632737635642
-0.02084663631586225   -0.00377319912982967   0.0004761258288024581
-0.047286963780289015   -0.06134268159318436   -0.0002044188507324062
-0.016739508411606915   -0.06004880396645644   0.00116553094801816
-0.02084663631586225   -0.00377319912982967   0.0004761258288024581
-0.04886204378188723   -0.005743972115235608   -5.0617786439549584e-05
-0.047286963780289015   -0.06134268159318436   -0.0002044188507324062
-0.049458362695060154   -0.005029109368180083   0.00025052117799627323
-0.016739508411606915   -0.06004880396645644   0.00116553094801816
-0.04774942986527667   -0.060793161883314524   5.647076082932155e-05
-0.049458362695060154   -0.005029109368180083   0.00025052117799627323
-0.047286963780289015   -0.06134268159318436   -0.0002044188507324062
-0.016739508411606915   -0.06004880396645644   0.00116553094801816
-0.049458362695060154   -0.005029109368180083   0.00025052117799627323
-0.021579730002723726   -0.0032358546366983484   0.0008575837072483491
-0.02084663631586225   -0.00377319912982967   0.0004761258288024581
-0.016739508411606915   -0.06004880396645644   0.00116553094801816
-0.049458362695060154   -0.005029109368180083   0.00025052117799627323
-0.02084663631586225   -0.00377319912982967   0.0004761258288024581
-0.047286963780289015   -0.06134268159318436   -0.0002044188507324062
-0.016739508411606915   -0.06004880396645644   0.00116553094801816
-0.021579730002723726   -0.0032358546366983484   0.0008575837072483491
-0.04774942986527667   -0.060793161883314524   5.647076082932155e-05
-0.017270765495329823   -0.0594373367715983   0.0015397565416294422
-0.021579730002723726   -0.0032358546366983484   0.0008575837072483491
-0.049458362695060154   -0.005029109368180083   0.00025052117799627323
-0.04774942986527667   -0.060793161883314524   5.647076082932155e-05
-0.05011288487070056   -0.004206374703246315   0.0005365189009517299
-0.017270765495329823   -0.0594373367715983   0.0015397565416294422
-0.048187725560660206   -0.06019091175036565   0.0003437320082879865
-0.05011288487070056   -0.004206374703246315   0.0005365189009517299
-0.04774942986527667   -0.060793161883314524   5.647076082932155e-05
-0.017270765495329823   -0.0594373367715983   0.0015397565416294422
-0.05011288487070056   -0.004206374703246315   0.0005365189009517299
-0.022557049166139646   -0.0025241143401941155   0.0012947560525443944
-0.021579730002723726   -0.0032358546366983484   0.0008575837072483491
-0.017270765495329823   -0.0594373367715983   0.0015397565416294422
-0.05011288487070056   -0.004206374703246315   0.0005365189009517299
-0.021579730002723726   -0.0032358546366983484   0.0008575837072483491
-0.04774942986527667   -0.060793161883314524   5.647076082932155e-05
-0.0468436763956207   -0.06183110942006481   -0.00045166222369108624
-0.04826171532434043   -0.006356354405630551   -0.00021664032827147035
-0.0788490931543719   -0.06252690628837583   -0.0013795206265689067
-0.047286963780289015   -0.06134268159318436   -0.0002044188507324062
-0.04826171532434043   -0.006356354405630551   -0.00021664032827147035
-0.07963619604940073   -0.006745797641300909   -0.0008176690886907026
-0.0788490931543719   -0.06252690628837583   -0.0013795206265689067
-0.07999788049819945   -0.006261080785811107   -0.0007741521132115417
-0.047286963780289015   -0.06134268159318436   -0.0002044188507324062
-0.07924598662288243   -0.06202602315342194   -0.0011888949046413256
-0.07999788049819945   -0.006261080785811107   -0.0007741521132115417
-0.0788490931543719   -0.06252690628837583   -0.0013795206265689067
-0.047286963780289015   -0.06134268159318436   -0.0002044188507324062
-0.07999788049819945   -0.006261080785811107   -0.0007741521132115417
-0.04886204378188723   -0.005743972115235608   -5.0617786439549584e-05
-0.04826171532434043   -0.006356354405630551   -0.00021664032827147035
-0.047286963780289015   -0.06134268159318436   -0.0002044188507324062
-0.07999788049819945   -0.006261080785811107   -0.0007741521132115417
-0.04826171532434043   -0.006356354405630551   -0.00021664032827147035
-0.0788490931543719   -0.06252690628837583   -0.0013795206265689067
-0.047286963780289015   -0.06134268159318436   -0.0002044188507324062
-0.04886204378188723   -0.005743972115235608   -5.0617786439549584e-05
-0.07924598662288243   -0.06202602315342194   -0.0011888949046413256
-0.04774942986527667   -0.060793161883314524   5.647076082932155e-05
-0.04886204378188723   -0.005743972115235608   -5.0617786439549584e-05
-0.07999788049819945   -0.006261080785811107   -0.0007741521132115417
-0.07924598662288243   -0.06202602315342194   -0.0011888949046413256
-0.08037350395720429   -0.005702074599906145   -0.0006963643980898502
-0.04774942986527667   -0.060793161883314524   5.647076082932155e-05
-0.07962500831178884   -0.061497875922953076   -0.000999445873345007
-0.08037350395720429   -0.005702074599906145   -0.0006963643980898502
-0.07924598662288243   -0.06202602315342194   -0.0011888949046413256
-0.04774942986527667   -0.060793161883314524   5.647076082932155e-05
-0.08037350395720429   -0.005702074599906145   -0.0006963643980898502
-0.049458362695060154   -0.005029109368180083   0.00025052117799627323
-0.04886204378188723   -0.005743972115235608   -5.0617786439549584e-05
-0.04774942986527667   -0.060793161883314524   5.647076082932155e-05
-0.08037350395720429   -0.005702074599906145   -0.0006963643980898502
-0.04886204378188723   -0.005743972115235608   -5.0617786439549584e-05
-0.07924598662288243   -0.06202602315342194   -0.0011888949046413256
-0.04774942986527667   -0.060793161883314524   5.647076082932155e-05
-0.049458362695060154   -0.005029109368180083   0.00025052117799627323
-0.07962500831178884   -0.061497875922953076   -0.000999445873345007
-0.048187725560660206   -0.06019091175036565   0.0003437320082879865
-0.049458362695060154   -0.005029109368180083   0.00025052117799627323
-0.08037350395720429   -0.005702074599906145   -0.0006963643980898502
-0.07962500831178884   -0.061497875922953076   -0.000999445873345007
-0.08072510316169083   -0.0050278831737910045   -0.0005934579707540253
-0.048187725560660206   -0.06019091175036565   0.0003437320082879865
-0.0799736512938637   -0.06092673204702476   -0.0007937833126088551
-0.08072510316169083   -0.0050278831737910045   -0.0005934579707540253
-0.07962500831178884   -0.061497875922953076   -0.000999445873345007
-0.048187725560660206   -0.06019091175036565   0.0003437320082879865
-0.08072510316169083   -0.0050278831737910045   -0.0005934579707540253
-0.05011288487070056   -0.004206374703246315   0.0005365189009517299
-0.049458362695060154   -0.005029109368180083   0.00025052117799627323
-0.048187725560660206   -0.06019091175036565   0.0003437320082879865
-0.08072510316169083   -0.0050278831737910045   -0.0005934579707540253
-0.049458362695060154   -0.005029109368180083   0.00025052117799627323
-0.07962500831178884   -0.061497875922953076   -0.000999445873345007
-0.0788490931543719   -0.06252690628837583   -0.0013795206265689067
-0.07963619604940073   -0.006745797641300909   -0.0008176690886907026
-0.11197820806520041   -0.06281145484474078   -0.002237279578119529
-0.07924598662288243   -0.06202602315342194   -0.0011888949046413256
-0.07963619604940073   -0.006745797641300909   -0.0008176690886907026
-0.11255381596988648   -0.006653251188839031   -0.001663657402995872
-0.11197820806520041   -0.06281145484474078   -0.002237279578119529
-0.11279744003928305   -0.0062123117121058715   -0.001645399576928121
-0.07924598662288243   -0.06202602315342194   -0.0011888949046413256
-0.11233550257442483   -0.06236001338248423   -0.0020991287109398743
-0.11279744003928305   -0.0062123117121058715   -0.001645399576928121
-0.11197820806520041   -0.06281145484474078   -0.002237279578119529
-0.07924598662288243   -0.06202602315342194   -0.0011888949046413256
-0.11279744003928305   -0.0062123117121058715   -0.001645399576928121
-0.07999788049819945   -0.006261080785811107   -0.0007741521132115417
-0.07963619604940073   -0.006745797641300909   -0.0008176690886907026
-0.07924598662288243   -0.06202602315342194   -0.0011888949046413256
-0.11279744003928305   -0.0062123117121058715   -0.001645399576928121
-0.07963619604940073   -0.006745797641300909   -0.0008176690886907026
-0.11197820806520041   -0.06281145484474078   -0.002237279578119529
-0.07924598662288243   -0.06202602315342194   -0.0011888949046413256
-0.07999788049819945   -0.006261080785811107   -0.0007741521132115417
-0.11233550257442483   -0.06236001338248423   -0.0020991287109398743
-0.07962500831178884   -0.061497875922953076   -0.000999445873345007
-0.07999788049819945   -0.006261080785811107   -0.0007741521132115417
-0.11279744003928305   -0.0062123117121058715   -0.001645399576928121
-0.11233550257442483   -0.06236001338248423   -0.0020991287109398743
-0.1130517672085225   -0.0057249736699480054   -0.0016347838548914093
-0.07962500831178884   -0.061497875922953076   -0.000999445873345007
-0.112653835261016   -0.06186951897883922   -0.001965431793768416
-0.1130517672085225   -0.0057249736699480054   -0.0016347838548914093
-0.11233550257442483   -0.06236001338248423   -0.0020991287109398743
-0.07962500831178884   -0.061497875922953076   -0.000999445873345007
-0.1130517672085225   -0.0057249736699480054   -0.0016347838548914093
-0.08037350395720429   -0.005702074599906145   -0.0006963643980898502
-0.07999788049819945   -0.006261080785811107   -0.0007741521132115417
-0.07962500831178884   -0.061497875922953076   -0.000999445873345007
-0.1130517672085225   -0.0057249736699480054   -0.0016347838548914093
-0.07999788049819945   -0.006261080785811107   -0.0007741521132115417
-0.11233550257442483   -0.06236001338248423   -0.0020991287109398743
-0.07962500831178884   -0.061497875922953076   -0.000999445873345007
-0.08037350395720429   -0.005702074599906145   -0.0006963643980898502
-0.112653835261016   -0.06186951897883922   -0.001965431793768416
-0.0799736512938637   -0.06092673204702476   -0.0007937833126088551
-0.08037350395720429   -0.005702074599906145   -0.0006963643980898502
-0.1130517672085225   -0.0057249736699480054   -0.0016347838548914093
-0.112653835261016   -0.06186951897883922   -0.001965431793768416
-0.11324139575667357   -0.005200821519881049   -0.0016330900199725447
-0.0799736512938637   -0.06092673204702476   -0.0007937833126088551
-0.11294187599261234   -0.0613479829141962   -0.001828367538939779
-0.11324139575667357   -0.005200821519881049   -0.0016330900199725447
-0.112653835261016   -0.06186951897883922   -0.001965431793768416
-0.0799736512938637   -0.06092673204702476   -0.0007937833126088551
-0.11324139575667357   -0.005200821519881049   -0.0016330900199725447
-0.08072510316169083   -0.0050278831737910045   -0.0005934579707540253
-0.08037350395720429   -0.005702074599906145   -0.0006963643980898502
-0.0799736512938637   -0.06092673204702476   -0.0007937833126088551
-0.11324139575667357   -0.005200821519881049   -0.0016330900199725447
-0.08037350395720429   -0.005702074599906145   -0.0006963643980898502
-0.112653835261016   -0.06186951897883922   -0.001965431793768416
-0.11197820806520041   -0.06281145484474078   -0.002237279578119529
-0.11255381596988648   -0.006653251188839031   -0.001663657402995872
-0.14626966646219208   -0.06284485869187549   -0.002953376154505164
-0.11233550257442483   -0.06236001338248423   -0.0020991287109398743
-0.11255381596988648   -0.006653251188839031   -0.001663657402995872
-0.1463673347758886   -0.006601530995563816   -0.0024947776355607586
-0.14626966646219208   -0.06284485869187549   -0.002953376154505164
-0.14656376559780604   -0.006121937743620067   -0.0024955467612535654
-0.11233550257442483   -0.06236001338248423   -0.0020991287109398743
-0.146578065155056   -0.06240593247046538   -0.002895638815930768
-0.14656376559780604   -0.006121937743620067   -0.0024955467612535654
-0.14626966646219208   -0.06284485869187549   -0.002953376154505164
-0.11233550257442483   -0.06236001338248423   -0.0020991287109398743
-0.14656376559780604   -0.006121937743620067   -0.0024955467612535654
-0.11279744003928305   -0.0062123117121058715   -0.001645399576928121
-0.11255381596988648   -0.006653251188839031   -0.001663657402995872
-0.11233550257442483   -0.06236001338248423   -0.0020991287109398743
-0.14656376559780604   -0.006121937743620067   -0.0024955467612535654
-0.11255381596988648   -0.006653251188839031   -0.001663657402995872
-0.14626966646219208   -0.06284485869187549   -0.002953376154505164
-0.11233550257442483   -0.06236001338248423   -0.0020991287109398743
-0.11279744003928305   -0.0062123117121058715   -0.001645399576928121
-0.146578065155056   -0.06240593247046538   -0.002895638815930768
-0.112653835261016   -0.06186951897883922   -0.001965431793768416
-0.11279744003928305   -0.0062123117121058715   -0.001645399576928121
-0.14656376559780604   -0.006121937743620067   -0.0024955467612535654
-0.146578065155056   -0.06240593247046538   -0.002895638815930768
-0.14677970421828884   -0.00564515182666513   -0.0025336150157408716
-0.112653835261016   -0.06186951897883922   -0.001965431793768416
-0.14685436160233137   -0.061932597711231226   -0.002828403617808693
-0.14677970421828884   -0.00564515182666513   -0.0025336150157408716
-0.146578065155056   -0.06240593247046538   -0.002895638815930768
-0.112653835261016   -0.06186951897883922   -0.001965431793768416
-0.14677970421828884   -0.00564515182666513   -0.0025336150157408716
-0.1130517672085225   -0.0057249736699480054   -0.0016347838548914093
-0.11279744003928305   -0.0062123117121058715   -0.001645399576928121
-0.112653835261016   -0.06186951897883922   -0.001965431793768416
-0.14677970421828884   -0.00564515182666513   -0.0025336150157408716
-0.11279744003928305   -0.0062123117121058715   -0.001645399576928121
-0.146578065155056   -0.06240593247046538   -0.002895638815930768
-0.112653835261016   -0.06186951897883922   -0.001965431793768416
-0.1130517672085225   -0.0057249736699480054   -0.0016347838548914093
-0.14685436160233137   -0.061932597711231226   -0.002828403617808693
-0.11294187599261234   -0.0613479829141962   -0.001828367538939779
-0.1130517672085225   -0.0057249736699480054   -0.0016347838548914093
-0.14677970421828884   -0.00564515182666513   -0.0025336150157408716
-0.14685436160233137   -0.061932597711231226   -0.002828403617808693
-0.1469376328850266   -0.005127698690976377   -0.002574640277727209
-0.11294187599261234   -0.0613479829141962   -0.001828367538939779
-0.14708852316448595   -0.0614311474268451   -0.0027668739174851486
-0.1469376328850266   -0.005127698690976377   -0.002574640277727209
-0.14685436160233137   -0.061932597711231226   -0.002828403617808693
-0.11294187599261234   -0.0613479829141962   -0.001828367538939779
-0.1469376328850266   -0.005127698690976377   -0.002574640277727209
-0.11324139575667357   -0.005200821519881049   -0.0016330900199725447
-0.1130517672085225   -0.0057249736699480054   -0.0016347838548914093
-0.11294187599261234   -0.0613479829141962   -0.001828367538939779
-0.1469376328850266   -0.005127698690976377   -0.002574640277727209
-0.1130517672085225   -0.0057249736699480054   -0.0016347838548914093
-0.14685436160233137   -0.061932597711231226   -0.002828403617808693
              </DataArray>   
          </PointData>  
       </Piece>  
   </UnstructuredGrid> 
</VTKFile> 
